    1C
    1U meshsolid_t.inp                                                  
    1UUSER                                                              
    1UDATE              05.july.2016                                    
    1UTIME              09:22:46                                        
    1UHOST                                                              
    1UPGM               CalculiX                                        
    1UVERSION           Version 2.10                             
    1UCOMPILETIME       Sa 5. MÃ¤r 12:23:33 CET 2016                    
    1UDIR                                                               
    1UDBN                                                               
    1UMAT    1PDMS                                                      
    2C                          3737                                     1
 -1         1 2.32070E+00-4.61617E-01 5.00000E-01
 -1         2 2.32070E+00-4.61617E-01 2.25000E+00
 -1         3-5.06195E+00 1.58259E+00 2.25000E+00
 -1         4-3.55164E+00-7.33319E+00 2.25000E+00
 -1         5-2.89912E+00 4.51663E+00 2.25000E+00
 -1         6-3.99049E+00 7.15142E+00 2.25000E+00
 -1         7-5.41583E+00 6.08758E+00 2.25000E+00
 -1         8-3.06338E+00 4.40688E+00 2.25000E+00
 -1         9-4.07100E+00 3.39925E+00 2.25000E+00
 -1        10-4.40688E+00 3.06338E+00 2.25000E+00
 -1        11-5.28227E+00 4.74999E-01 2.25000E+00
 -1        12-5.28227E+00-4.74999E-01 2.25000E+00
 -1        13-2.32070E+00-4.61617E-01 2.25000E+00
 -1        14-2.38798E+00 4.74999E-01 2.25000E+00
 -1        15-2.38798E+00-4.74999E-01 2.25000E+00
 -1        16-1.14375E+00-5.24373E+00 2.25000E+00
 -1        17-2.02443E+00 1.35268E+00 2.25000E+00
 -1        18-4.69840E+00 2.46028E+00 2.25000E+00
 -1        19-1.14375E+00 5.24373E+00 2.25000E+00
 -1        20 4.68498E+00 1.00693E+01 2.25000E+00
 -1        21 2.67396E+00 7.69674E+00 2.25000E+00
 -1        22 1.58259E+00 5.06195E+00 2.25000E+00
 -1        23 1.31457E+00 1.96740E+00 2.25000E+00
 -1        24 4.74999E-01 2.38798E+00 2.25000E+00
 -1        25 4.07100E+00 3.39925E+00 2.25000E+00
 -1        26 1.35268E+00 2.02443E+00 2.25000E+00
 -1        27 2.38798E+00 4.74999E-01 2.25000E+00
 -1        28 2.32070E+00 4.61617E-01 2.25000E+00
 -1        29 2.38798E+00-4.74999E-01 2.25000E+00
 -1        30 8.13414E+00 9.50000E-01 2.25000E+00
 -1        31 5.28227E+00 4.74999E-01 2.25000E+00
 -1        32 8.13414E+00-9.50000E-01 2.25000E+00
 -1        33 1.10957E+01-4.74999E-01 2.25000E+00
 -1        34 8.13414E+00 4.74999E-01 2.25000E+00
 -1        35 3.55164E+00-7.33319E+00 2.25000E+00
 -1        36 6.08758E+00 5.41583E+00 2.25000E+00
 -1        37 5.41583E+00 6.08758E+00 2.25000E+00
 -1        38 5.06195E+00 1.58259E+00 2.25000E+00
 -1        39 4.40688E+00 3.06338E+00 2.25000E+00
 -1        40 3.39925E+00 4.07100E+00 2.25000E+00
 -1        41 2.46028E+00-4.69840E+00 2.25000E+00
 -1        42 1.58259E+00-5.06195E+00 2.25000E+00
 -1        43 4.74999E-01-2.38798E+00 2.25000E+00
 -1        44-4.74999E-01-2.38798E+00 2.25000E+00
 -1        45-4.74999E-01-5.28227E+00 2.25000E+00
 -1        46 4.69840E+00-2.46028E+00 2.25000E+00
 -1        47 1.96740E+00-1.31457E+00 2.25000E+00
 -1        48 7.69674E+00-2.67396E+00 2.25000E+00
 -1        49 5.06195E+00-1.58259E+00 2.25000E+00
 -1        50 3.39925E+00-4.07100E+00 2.25000E+00
 -1        51 1.35268E+00-2.02443E+00 2.25000E+00
 -1        52 4.07100E+00-3.39925E+00 2.25000E+00
 -1        53 5.41583E+00-6.08758E+00 2.25000E+00
 -1        54 3.06338E+00-4.40688E+00 2.25000E+00
 -1        55 6.08758E+00-5.41583E+00 2.25000E+00
 -1        56 7.50997E+00-8.18172E+00 2.25000E+00
 -1        57 1.14375E+00-5.24373E+00 2.25000E+00
 -1        58-9.50000E-01-5.28227E+00 2.25000E+00
 -1        59-1.35268E+00-2.02443E+00 2.25000E+00
 -1        60 4.74999E-01 1.10957E+01 2.25000E+00
 -1        61-4.74999E-01 8.13414E+00 2.25000E+00
 -1        62 4.61617E-01 2.32070E+00 2.25000E+00
 -1        63-1.58259E+00 5.06195E+00 2.25000E+00
 -1        64-3.55164E+00 7.33319E+00 2.25000E+00
 -1        65-4.68498E+00 1.00693E+01 2.25000E+00
 -1        66 4.74999E-01 8.13414E+00 2.25000E+00
 -1        67 4.74999E-01 5.28227E+00 2.25000E+00
 -1        68 9.50000E-01-8.13414E+00 2.25000E+00
 -1        69-1.96740E+00-1.31457E+00 2.25000E+00
 -1        70-3.39925E+00-4.07100E+00 2.25000E+00
 -1        71-1.35268E+00 2.02443E+00 2.25000E+00
 -1        72-1.96740E+00 1.31457E+00 2.25000E+00
 -1        73-1.31457E+00 1.96740E+00 2.25000E+00
 -1        74-3.39925E+00 4.07100E+00 2.25000E+00
 -1        75-5.07995E+00-6.42346E+00 2.25000E+00
 -1        76-6.08758E+00-5.41583E+00 2.25000E+00
 -1        77-4.40688E+00-3.06338E+00 2.25000E+00
 -1        78-4.69840E+00-2.46028E+00 2.25000E+00
 -1        79-5.06195E+00-1.58259E+00 2.25000E+00
 -1        80-5.24373E+00-1.14375E+00 2.25000E+00
 -1        81-7.33319E+00-3.55164E+00 2.25000E+00
 -1        82-7.15142E+00-3.99049E+00 2.25000E+00
 -1        83-7.69674E+00-2.67396E+00 2.25000E+00
 -1        84-1.00693E+01 4.68498E+00 2.25000E+00
 -1        85-7.69674E+00 2.67396E+00 2.25000E+00
 -1        86-1.04329E+01 3.80730E+00 2.25000E+00
 -1        87-7.50997E+00 8.18172E+00 2.25000E+00
 -1        88-5.28227E+00 9.50000E-01 2.25000E+00
 -1        89-8.13414E+00 4.74999E-01 2.25000E+00
 -1        90-1.00693E+01-4.68498E+00 2.25000E+00
 -1        91 1.10957E+01 4.74999E-01 2.25000E+00
 -1        92 5.28227E+00-4.74999E-01 2.25000E+00
 -1        93 5.28227E+00 4.74999E-01 5.00000E-01
 -1        94 2.38798E+00 4.74999E-01 5.00000E-01
 -1        95 8.13414E+00-4.74999E-01 2.25000E+00
 -1        96 5.28227E+00 9.50000E-01 2.25000E+00
 -1        97 5.28227E+00-9.50000E-01 2.25000E+00
 -1        98 1.96740E+00 1.31457E+00 2.25000E+00
 -1        99 1.96740E+00 1.31457E+00 5.00000E-01
 -1       100 1.04329E+01 3.80730E+00 2.25000E+00
 -1       101 1.00693E+01 4.68498E+00 2.25000E+00
 -1       102 7.69674E+00 2.67396E+00 5.00000E-01
 -1       103 7.69674E+00 2.67396E+00 2.25000E+00
 -1       104 1.00693E+01 4.68498E+00 5.00000E-01
 -1       105 4.69840E+00 2.46028E+00 2.25000E+00
 -1       106 5.24373E+00 1.14375E+00 2.25000E+00
 -1       107 4.51663E+00 2.89912E+00 2.25000E+00
 -1       108 4.51663E+00 2.89912E+00 5.00000E-01
 -1       109 7.87852E+00 2.23512E+00 5.00000E-01
 -1       110 7.15142E+00 3.99049E+00 2.25000E+00
 -1       111 7.33319E+00 3.55164E+00 2.25000E+00
 -1       112 7.33319E+00 3.55164E+00 5.00000E-01
 -1       113 7.87852E+00 2.23512E+00 2.25000E+00
 -1       114 2.02443E+00 1.35268E+00 2.25000E+00
 -1       115 4.07100E+00 3.39925E+00 5.00000E-01
 -1       116 8.18172E+00 7.50997E+00 2.25000E+00
 -1       117 7.50997E+00 8.18172E+00 2.25000E+00
 -1       118 3.39925E+00 4.07100E+00 5.00000E-01
 -1       119 1.35268E+00 2.02443E+00 5.00000E-01
 -1       120 3.06338E+00 4.40688E+00 5.00000E-01
 -1       121 6.08758E+00 5.41583E+00 5.00000E-01
 -1       122 5.07995E+00 6.42346E+00 2.25000E+00
 -1       123 3.06338E+00 4.40688E+00 2.25000E+00
 -1       124 6.42346E+00 5.07995E+00 2.25000E+00
 -1       125 4.61617E-01 2.32070E+00 5.00000E-01
 -1       126 4.68498E+00 1.00693E+01 5.00000E-01
 -1       127 3.80730E+00 1.04329E+01 2.25000E+00
 -1       128 3.55164E+00 7.33319E+00 5.00000E-01
 -1       129 2.67396E+00 7.69674E+00 5.00000E-01
 -1       130 3.80730E+00 1.04329E+01 5.00000E-01
 -1       131 2.89912E+00 4.51663E+00 2.25000E+00
 -1       132 2.46028E+00 4.69840E+00 2.25000E+00
 -1       133 3.55164E+00 7.33319E+00 2.25000E+00
 -1       134 3.99049E+00 7.15142E+00 2.25000E+00
 -1       135 2.23512E+00 7.87852E+00 2.25000E+00
 -1       136 1.14375E+00 5.24373E+00 2.25000E+00
 -1       137 4.74999E-01 1.10957E+01 5.00000E-01
 -1       138-4.74999E-01 1.10957E+01 2.25000E+00
 -1       139-4.74999E-01 1.10957E+01 5.00000E-01
 -1       140-4.74999E-01 5.28227E+00 2.25000E+00
 -1       141 9.50000E-01 5.28227E+00 2.25000E+00
 -1       142 9.50000E-01 8.13414E+00 2.25000E+00
 -1       143-9.50000E-01 8.13414E+00 2.25000E+00
 -1       144-4.74999E-01 8.13414E+00 5.00000E-01
 -1       145-9.50000E-01 5.28227E+00 2.25000E+00
 -1       146 9.50000E-01 5.28227E+00 5.00000E-01
 -1       147-4.61617E-01 2.32070E+00 2.25000E+00
 -1       148-3.80730E+00 1.04329E+01 2.25000E+00
 -1       149-4.68498E+00 1.00693E+01 5.00000E-01
 -1       150-4.74999E-01 2.38798E+00 2.25000E+00
 -1       151-4.74999E-01 2.38798E+00 5.00000E-01
 -1       152-2.67396E+00 7.69674E+00 2.25000E+00
 -1       153-2.67396E+00 7.69674E+00 5.00000E-01
 -1       154-1.14375E+00 5.24373E+00 5.00000E-01
 -1       155-2.46028E+00 4.69840E+00 2.25000E+00
 -1       156-2.89912E+00 4.51663E+00 5.00000E-01
 -1       157-2.46028E+00 4.69840E+00 5.00000E-01
 -1       158-2.23512E+00 7.87852E+00 2.25000E+00
 -1       159-2.23512E+00 7.87852E+00 5.00000E-01
 -1       160-8.18172E+00 7.50997E+00 2.25000E+00
 -1       161-6.08758E+00 5.41583E+00 2.25000E+00
 -1       162-4.07100E+00 3.39925E+00 5.00000E-01
 -1       163-3.06338E+00 4.40688E+00 5.00000E-01
 -1       164-6.42346E+00 5.07995E+00 2.25000E+00
 -1       165-4.40688E+00 3.06338E+00 5.00000E-01
 -1       166-6.42346E+00 5.07995E+00 5.00000E-01
 -1       167-5.07995E+00 6.42346E+00 2.25000E+00
 -1       168-5.07995E+00 6.42346E+00 5.00000E-01
 -1       169-1.96740E+00 1.31457E+00 5.00000E-01
 -1       170-2.32070E+00 4.61617E-01 2.25000E+00
 -1       171-2.32070E+00 4.61617E-01 5.00000E-01
 -1       172-1.00693E+01 4.68498E+00 5.00000E-01
 -1       173-2.02443E+00 1.35268E+00 5.00000E-01
 -1       174-7.33319E+00 3.55164E+00 5.00000E-01
 -1       175-7.69674E+00 2.67396E+00 5.00000E-01
 -1       176-4.51663E+00 2.89912E+00 2.25000E+00
 -1       177-5.24373E+00 1.14375E+00 2.25000E+00
 -1       178-5.24373E+00 1.14375E+00 5.00000E-01
 -1       179-7.15142E+00 3.99049E+00 5.00000E-01
 -1       180-7.15142E+00 3.99049E+00 2.25000E+00
 -1       181-7.33319E+00 3.55164E+00 2.25000E+00
 -1       182-7.87852E+00 2.23512E+00 2.25000E+00
 -1       183-4.51663E+00 2.89912E+00 5.00000E-01
 -1       184-1.10957E+01-4.74999E-01 2.25000E+00
 -1       185-2.38798E+00 4.74999E-01 5.00000E-01
 -1       186-1.10957E+01 4.74999E-01 2.25000E+00
 -1       187-1.10957E+01 4.74999E-01 5.00000E-01
 -1       188-5.28227E+00 9.50000E-01 5.00000E-01
 -1       189-5.28227E+00 4.74999E-01 5.00000E-01
 -1       190-5.28227E+00-9.50000E-01 2.25000E+00
 -1       191-8.13414E+00-4.74999E-01 2.25000E+00
 -1       192-8.13414E+00-9.50000E-01 2.25000E+00
 -1       193-8.13414E+00-9.50000E-01 5.00000E-01
 -1       194-5.28227E+00-9.50000E-01 5.00000E-01
 -1       195-8.13414E+00 9.50000E-01 2.25000E+00
 -1       196-2.32070E+00-4.61617E-01 5.00000E-01
 -1       197-1.04329E+01-3.80730E+00 2.25000E+00
 -1       198-7.69674E+00-2.67396E+00 5.00000E-01
 -1       199-1.04329E+01-3.80730E+00 5.00000E-01
 -1       200-5.24373E+00-1.14375E+00 5.00000E-01
 -1       201-4.69840E+00-2.46028E+00 5.00000E-01
 -1       202-7.33319E+00-3.55164E+00 5.00000E-01
 -1       203-4.51663E+00-2.89912E+00 2.25000E+00
 -1       204-7.87852E+00-2.23512E+00 2.25000E+00
 -1       205-8.18172E+00-7.50997E+00 2.25000E+00
 -1       206-2.02443E+00-1.35268E+00 2.25000E+00
 -1       207-7.50997E+00-8.18172E+00 2.25000E+00
 -1       208-3.39925E+00-4.07100E+00 5.00000E-01
 -1       209-4.07100E+00-3.39925E+00 2.25000E+00
 -1       210-4.07100E+00-3.39925E+00 5.00000E-01
 -1       211-6.42346E+00-5.07995E+00 2.25000E+00
 -1       212-6.08758E+00-5.41583E+00 5.00000E-01
 -1       213-5.07995E+00-6.42346E+00 5.00000E-01
 -1       214-5.41583E+00-6.08758E+00 2.25000E+00
 -1       215-3.06338E+00-4.40688E+00 2.25000E+00
 -1       216-6.42346E+00-5.07995E+00 5.00000E-01
 -1       217-4.61617E-01-2.32070E+00 2.25000E+00
 -1       218-1.31457E+00-1.96740E+00 2.25000E+00
 -1       219-3.55164E+00-7.33319E+00 5.00000E-01
 -1       220-4.68498E+00-1.00693E+01 5.00000E-01
 -1       221-4.68498E+00-1.00693E+01 2.25000E+00
 -1       222-3.80730E+00-1.04329E+01 2.25000E+00
 -1       223-2.67396E+00-7.69674E+00 5.00000E-01
 -1       224-2.67396E+00-7.69674E+00 2.25000E+00
 -1       225-3.80730E+00-1.04329E+01 5.00000E-01
 -1       226-4.74999E-01-2.38798E+00 5.00000E-01
 -1       227-2.46028E+00-4.69840E+00 5.00000E-01
 -1       228-2.46028E+00-4.69840E+00 2.25000E+00
 -1       229-1.58259E+00-5.06195E+00 2.25000E+00
 -1       230-3.99049E+00-7.15142E+00 2.25000E+00
 -1       231-2.23512E+00-7.87852E+00 2.25000E+00
 -1       232-2.23512E+00-7.87852E+00 5.00000E-01
 -1       233-2.89912E+00-4.51663E+00 2.25000E+00
 -1       234-3.99049E+00-7.15142E+00 5.00000E-01
 -1       235 4.74999E-01-1.10957E+01 2.25000E+00
 -1       236 4.74999E-01-1.10957E+01 5.00000E-01
 -1       237-4.74999E-01-5.28227E+00 5.00000E-01
 -1       238-4.74999E-01-1.10957E+01 5.00000E-01
 -1       239-4.74999E-01-8.13414E+00 2.25000E+00
 -1       240-4.74999E-01-1.10957E+01 2.25000E+00
 -1       241 4.74999E-01-5.28227E+00 2.25000E+00
 -1       242 4.74999E-01-5.28227E+00 5.00000E-01
 -1       243-4.74999E-01-8.13414E+00 5.00000E-01
 -1       244 4.74999E-01-8.13414E+00 2.25000E+00
 -1       245 4.74999E-01-8.13414E+00 5.00000E-01
 -1       246 9.50000E-01-5.28227E+00 2.25000E+00
 -1       247 9.50000E-01-5.28227E+00 5.00000E-01
 -1       248-9.50000E-01-5.28227E+00 5.00000E-01
 -1       249-9.50000E-01-8.13414E+00 2.25000E+00
 -1       250 4.61617E-01-2.32070E+00 2.25000E+00
 -1       251 4.68498E+00-1.00693E+01 2.25000E+00
 -1       252 3.80730E+00-1.04329E+01 2.25000E+00
 -1       253 3.80730E+00-1.04329E+01 5.00000E-01
 -1       254 2.67396E+00-7.69674E+00 5.00000E-01
 -1       255 2.67396E+00-7.69674E+00 2.25000E+00
 -1       256 2.89912E+00-4.51663E+00 2.25000E+00
 -1       257 2.46028E+00-4.69840E+00 5.00000E-01
 -1       258 2.23512E+00-7.87852E+00 2.25000E+00
 -1       259 2.23512E+00-7.87852E+00 5.00000E-01
 -1       260 3.55164E+00-7.33319E+00 5.00000E-01
 -1       261 3.99049E+00-7.15142E+00 2.25000E+00
 -1       262 3.99049E+00-7.15142E+00 5.00000E-01
 -1       263 2.89912E+00-4.51663E+00 5.00000E-01
 -1       264 1.31457E+00-1.96740E+00 5.00000E-01
 -1       265 1.31457E+00-1.96740E+00 2.25000E+00
 -1       266 8.18172E+00-7.50997E+00 2.25000E+00
 -1       267 6.08758E+00-5.41583E+00 5.00000E-01
 -1       268 2.02443E+00-1.35268E+00 2.25000E+00
 -1       269 3.06338E+00-4.40688E+00 5.00000E-01
 -1       270 4.07100E+00-3.39925E+00 5.00000E-01
 -1       271 4.40688E+00-3.06338E+00 2.25000E+00
 -1       272 5.41583E+00-6.08758E+00 5.00000E-01
 -1       273 6.42346E+00-5.07995E+00 2.25000E+00
 -1       274 5.07995E+00-6.42346E+00 2.25000E+00
 -1       275 5.07995E+00-6.42346E+00 5.00000E-01
 -1       276 1.96740E+00-1.31457E+00 5.00000E-01
 -1       277 1.04329E+01-3.80730E+00 5.00000E-01
 -1       278 1.00693E+01-4.68498E+00 2.25000E+00
 -1       279 2.02443E+00-1.35268E+00 5.00000E-01
 -1       280 4.69840E+00-2.46028E+00 5.00000E-01
 -1       281 7.33319E+00-3.55164E+00 2.25000E+00
 -1       282 1.04329E+01-3.80730E+00 2.25000E+00
 -1       283 4.51663E+00-2.89912E+00 2.25000E+00
 -1       284 5.24373E+00-1.14375E+00 2.25000E+00
 -1       285 5.06195E+00-1.58259E+00 5.00000E-01
 -1       286 7.15142E+00-3.99049E+00 2.25000E+00
 -1       287 7.87852E+00-2.23512E+00 2.25000E+00
 -1       288 7.87852E+00-2.23512E+00 5.00000E-01
 -1       289 1.50000E+01 0.00000E+00-5.00000E-01
 -1       290-2.92635E+00-1.47118E+01 5.00000E-01
 -1       291-5.74025E+00-1.38582E+01-5.00000E-01
 -1       292-2.92635E+00-1.47118E+01-5.00000E-01
 -1       293 1.24720E+01 8.33355E+00 5.00000E-01
 -1       294 1.06066E+01 1.06066E+01-5.00000E-01
 -1       295-1.24720E+01 8.33355E+00 5.00000E-01
 -1       296 1.24720E+01 8.33355E+00-5.00000E-01
 -1       297 2.92635E+00 1.47118E+01 5.00000E-01
 -1       298-1.50000E+01 0.00000E+00-5.00000E-01
 -1       299-8.33355E+00 1.24720E+01 5.00000E-01
 -1       300-5.74025E+00 1.38582E+01-5.00000E-01
 -1       301-2.92635E+00 1.47118E+01 5.00000E-01
 -1       302 1.47118E+01 2.92635E+00-5.00000E-01
 -1       303 2.92635E+00-1.47118E+01 5.00000E-01
 -1       304 5.74025E+00-1.38582E+01 5.00000E-01
 -1       305 5.74025E+00-1.38582E+01-5.00000E-01
 -1       306-1.38582E+01-5.74025E+00 5.00000E-01
 -1       307-1.24720E+01-8.33355E+00 5.00000E-01
 -1       308-1.50000E+01 0.00000E+00 5.00000E-01
 -1       309 1.47118E+01-2.92635E+00-5.00000E-01
 -1       310 8.33355E+00-1.24720E+01-5.00000E-01
 -1       311 8.33355E+00 1.24720E+01-5.00000E-01
 -1       312 2.92635E+00-1.47118E+01-5.00000E-01
 -1       313 2.92635E+00 1.47118E+01-5.00000E-01
 -1       314 0.00000E+00-1.50000E+01-5.00000E-01
 -1       315 0.00000E+00 1.50000E+01-5.00000E-01
 -1       316-2.92635E+00 1.47118E+01-5.00000E-01
 -1       317-1.06066E+01 1.06066E+01-5.00000E-01
 -1       318-8.33355E+00 1.24720E+01-5.00000E-01
 -1       319-1.24720E+01-8.33355E+00-5.00000E-01
 -1       320-1.24720E+01 8.33355E+00-5.00000E-01
 -1       321-1.38582E+01 5.74025E+00-5.00000E-01
 -1       322-1.38582E+01-5.74025E+00-5.00000E-01
 -1       323-1.47118E+01-2.92635E+00-5.00000E-01
 -1       324-1.06066E+01-1.06066E+01-5.00000E-01
 -1       325 1.38582E+01 5.74025E+00-5.00000E-01
 -1       326 1.38582E+01 5.74025E+00 5.00000E-01
 -1       327 5.74025E+00 1.38582E+01-5.00000E-01
 -1       328-5.06195E+00-1.58259E+00 5.00000E-01
 -1       329-2.38798E+00-4.74999E-01 5.00000E-01
 -1       330-5.28227E+00-4.74999E-01 5.00000E-01
 -1       331-7.87852E+00-2.23512E+00 5.00000E-01
 -1       332-2.02443E+00-1.35268E+00 5.00000E-01
 -1       333-4.40688E+00-3.06338E+00 5.00000E-01
 -1       334-4.51663E+00-2.89912E+00 5.00000E-01
 -1       335-1.35268E+00-2.02443E+00 5.00000E-01
 -1       336-2.89912E+00-4.51663E+00 5.00000E-01
 -1       337-3.06338E+00-4.40688E+00 5.00000E-01
 -1       338-3.55164E+00 7.33319E+00 5.00000E-01
 -1       339-3.99049E+00 7.15142E+00 5.00000E-01
 -1       340-1.35268E+00 2.02443E+00 5.00000E-01
 -1       341-3.39925E+00 4.07100E+00 5.00000E-01
 -1       342-1.14375E+00-5.24373E+00 5.00000E-01
 -1       343-1.58259E+00-5.06195E+00 5.00000E-01
 -1       344 1.14375E+00-5.24373E+00 5.00000E-01
 -1       345 1.58259E+00-5.06195E+00 5.00000E-01
 -1       346 4.74999E-01-2.38798E+00 5.00000E-01
 -1       347 1.35268E+00-2.02443E+00 5.00000E-01
 -1       348 3.39925E+00-4.07100E+00 5.00000E-01
 -1       349 4.51663E+00-2.89912E+00 5.00000E-01
 -1       350 4.40688E+00-3.06338E+00 5.00000E-01
 -1       351 4.68498E+00-1.00693E+01 5.00000E-01
 -1       352 5.28227E+00-4.74999E-01 5.00000E-01
 -1       353 2.38798E+00-4.74999E-01 5.00000E-01
 -1       354 5.28227E+00-9.50000E-01 5.00000E-01
 -1       355 8.13414E+00-9.50000E-01 5.00000E-01
 -1       356 5.24373E+00-1.14375E+00 5.00000E-01
 -1       357 8.13414E+00 9.50000E-01 5.00000E-01
 -1       358 8.33355E+00 1.24720E+01 5.00000E-01
 -1       359 5.74025E+00 1.38582E+01 5.00000E-01
 -1       360 5.41583E+00 6.08758E+00 5.00000E-01
 -1       361 2.23512E+00 7.87852E+00 5.00000E-01
 -1       362 0.00000E+00 1.50000E+01 5.00000E-01
 -1       363-9.50000E-01 8.13414E+00 5.00000E-01
 -1       364-3.80730E+00 1.04329E+01 5.00000E-01
 -1       365-5.74025E+00 1.38582E+01 5.00000E-01
 -1       366-7.50997E+00 8.18172E+00 5.00000E-01
 -1       367-5.41583E+00 6.08758E+00 5.00000E-01
 -1       368 1.04329E+01 3.80730E+00 5.00000E-01
 -1       369 7.50997E+00 8.18172E+00 5.00000E-01
 -1       370 8.18172E+00 7.50997E+00 5.00000E-01
 -1       371 6.42346E+00 5.07995E+00 5.00000E-01
 -1       372 7.15142E+00 3.99049E+00 5.00000E-01
 -1       373 1.50000E+01 0.00000E+00 5.00000E-01
 -1       374 1.47118E+01 2.92635E+00 5.00000E-01
 -1       375 1.10957E+01 4.74999E-01 5.00000E-01
 -1       376 1.10957E+01-4.74999E-01 5.00000E-01
 -1       377 1.06066E+01 1.06066E+01 5.00000E-01
 -1       378 8.13414E+00 4.74999E-01 5.00000E-01
 -1       379 1.47118E+01-2.92635E+00 5.00000E-01
 -1       380 8.13414E+00-4.74999E-01 5.00000E-01
 -1       381 7.69674E+00-2.67396E+00 5.00000E-01
 -1       382 1.24720E+01-8.33355E+00 5.00000E-01
 -1       383 7.50997E+00-8.18172E+00 5.00000E-01
 -1       384 7.15142E+00-3.99049E+00 5.00000E-01
 -1       385 7.33319E+00-3.55164E+00 5.00000E-01
 -1       386 1.00693E+01-4.68498E+00 5.00000E-01
 -1       387 8.18172E+00-7.50997E+00 5.00000E-01
 -1       388 6.42346E+00-5.07995E+00 5.00000E-01
 -1       389 8.33355E+00-1.24720E+01 5.00000E-01
 -1       390 9.50000E-01-8.13414E+00 5.00000E-01
 -1       391-9.50000E-01-8.13414E+00 5.00000E-01
 -1       392 0.00000E+00-1.50000E+01 5.00000E-01
 -1       393-5.74025E+00-1.38582E+01 5.00000E-01
 -1       394-5.41583E+00-6.08758E+00 5.00000E-01
 -1       395-7.50997E+00-8.18172E+00 5.00000E-01
 -1       396-8.18172E+00-7.50997E+00 5.00000E-01
 -1       397-8.33355E+00-1.24720E+01 5.00000E-01
 -1       398 5.28227E+00 9.50000E-01 5.00000E-01
 -1       399 5.24373E+00 1.14375E+00 5.00000E-01
 -1       400 5.06195E+00 1.58259E+00 5.00000E-01
 -1       401 3.99049E+00 7.15142E+00 5.00000E-01
 -1       402 5.07995E+00 6.42346E+00 5.00000E-01
 -1       403 2.02443E+00 1.35268E+00 5.00000E-01
 -1       404 4.40688E+00 3.06338E+00 5.00000E-01
 -1       405 4.69840E+00 2.46028E+00 5.00000E-01
 -1       406 2.89912E+00 4.51663E+00 5.00000E-01
 -1       407 2.46028E+00 4.69840E+00 5.00000E-01
 -1       408 4.74999E-01 2.38798E+00 5.00000E-01
 -1       409 4.74999E-01 5.28227E+00 5.00000E-01
 -1       410 1.14375E+00 5.24373E+00 5.00000E-01
 -1       411 1.58259E+00 5.06195E+00 5.00000E-01
 -1       412 9.50000E-01 8.13414E+00 5.00000E-01
 -1       413 4.74999E-01 8.13414E+00 5.00000E-01
 -1       414-4.74999E-01 5.28227E+00 5.00000E-01
 -1       415-9.50000E-01 5.28227E+00 5.00000E-01
 -1       416-1.58259E+00 5.06195E+00 5.00000E-01
 -1       417-7.15142E+00-3.99049E+00 5.00000E-01
 -1       418-1.00693E+01-4.68498E+00 5.00000E-01
 -1       419-6.08758E+00 5.41583E+00 5.00000E-01
 -1       420-8.18172E+00 7.50997E+00 5.00000E-01
 -1       421-1.06066E+01 1.06066E+01 5.00000E-01
 -1       422-4.69840E+00 2.46028E+00 5.00000E-01
 -1       423-1.04329E+01 3.80730E+00 5.00000E-01
 -1       424-8.13414E+00 9.50000E-01 5.00000E-01
 -1       425-8.13414E+00 4.74999E-01 5.00000E-01
 -1       426-7.87852E+00 2.23512E+00 5.00000E-01
 -1       427-5.06195E+00 1.58259E+00 5.00000E-01
 -1       428-8.13414E+00-4.74999E-01 5.00000E-01
 -1       429-1.10957E+01-4.74999E-01 5.00000E-01
 -1       430-1.06066E+01-1.06066E+01 5.00000E-01
 -1       431-1.47118E+01 2.92635E+00 5.00000E-01
 -1       432 2.32070E+00 4.61617E-01 5.00000E-01
 -1       433 1.31457E+00 1.96740E+00 5.00000E-01
 -1       434 4.61617E-01-2.32070E+00 5.00000E-01
 -1       435-4.61617E-01-2.32070E+00 5.00000E-01
 -1       436-4.61617E-01 2.32070E+00 5.00000E-01
 -1       437-1.31457E+00 1.96740E+00 5.00000E-01
 -1       438-1.31457E+00-1.96740E+00 5.00000E-01
 -1       439-1.96740E+00-1.31457E+00 5.00000E-01
 -1       440-1.38582E+01 5.74025E+00 5.00000E-01
 -1       441-1.47118E+01 2.92635E+00-5.00000E-01
 -1       442 1.06066E+01-1.06066E+01 5.00000E-01
 -1       443 1.06066E+01-1.06066E+01-5.00000E-01
 -1       444 1.38582E+01-5.74025E+00-5.00000E-01
 -1       445 1.38582E+01-5.74025E+00 5.00000E-01
 -1       446 1.24720E+01-8.33355E+00-5.00000E-01
 -1       447-8.33355E+00-1.24720E+01-5.00000E-01
 -1       448-1.47118E+01-2.92635E+00 5.00000E-01
 -1       449 2.32070E+00 4.61617E-01 1.37500E+00
 -1       450 2.32070E+00-4.61617E-01 1.37500E+00
 -1       451-5.83402E+00 3.44480E+00 2.25000E+00
 -1       452-6.56112E+00 1.68944E+00 2.25000E+00
 -1       453-3.44480E+00-5.83402E+00 2.25000E+00
 -1       454-3.44480E+00 5.83402E+00 2.25000E+00
 -1       455-4.07166E+00 5.41517E+00 2.25000E+00
 -1       456-5.41517E+00 4.07166E+00 2.25000E+00
 -1       457-3.83512E+00 4.74999E-01 2.25000E+00
 -1       458-3.83512E+00-4.74999E-01 2.25000E+00
 -1       459-3.36141E+00-1.90648E+00 2.25000E+00
 -1       460-3.72497E+00-1.02879E+00 2.25000E+00
 -1       461-1.68944E+00-6.56112E+00 2.25000E+00
 -1       462-3.36141E+00 1.90648E+00 2.25000E+00
 -1       463-3.72497E+00 1.02879E+00 2.25000E+00
 -1       464-1.68944E+00 6.56112E+00 2.25000E+00
 -1       465 1.68944E+00 6.56112E+00 2.25000E+00
 -1       466 4.11831E+00 8.70125E+00 2.25000E+00
 -1       467 3.24063E+00 9.06482E+00 2.25000E+00
 -1       468 1.90648E+00 3.36141E+00 2.25000E+00
 -1       469 1.02879E+00 3.72497E+00 2.25000E+00
 -1       470 3.44480E+00 5.83402E+00 2.25000E+00
 -1       471 3.04771E+00 2.37597E+00 2.25000E+00
 -1       472 2.37597E+00 3.04771E+00 2.25000E+00
 -1       473 3.72497E+00 1.02879E+00 2.25000E+00
 -1       474 3.36141E+00 1.90648E+00 2.25000E+00
 -1       475 3.83512E+00 4.74999E-01 2.25000E+00
 -1       476 3.83512E+00-4.74999E-01 2.25000E+00
 -1       477 6.70821E+00 9.50000E-01 2.25000E+00
 -1       478 6.70821E+00-9.50000E-01 2.25000E+00
 -1       479 9.61492E+00 4.74999E-01 2.25000E+00
 -1       480 9.61492E+00-4.74999E-01 2.25000E+00
 -1       481 3.44480E+00-5.83402E+00 2.25000E+00
 -1       482 7.13465E+00 6.46290E+00 2.25000E+00
 -1       483 6.46290E+00 7.13465E+00 2.25000E+00
 -1       484 9.06482E+00 3.24063E+00 2.25000E+00
 -1       485 8.70125E+00 4.11831E+00 2.25000E+00
 -1       486 6.56112E+00 1.68944E+00 2.25000E+00
 -1       487 5.83402E+00 3.44480E+00 2.25000E+00
 -1       488 5.41517E+00 4.07166E+00 2.25000E+00
 -1       489 4.07166E+00 5.41517E+00 2.25000E+00
 -1       490 4.11831E+00-8.70125E+00 2.25000E+00
 -1       491 3.24063E+00-9.06482E+00 2.25000E+00
 -1       492 1.90648E+00-3.36141E+00 2.25000E+00
 -1       493 1.02879E+00-3.72497E+00 2.25000E+00
 -1       494 4.74999E-01-3.83512E+00 2.25000E+00
 -1       495-4.74999E-01-3.83512E+00 2.25000E+00
 -1       496 4.74999E-01-9.61492E+00 2.25000E+00
 -1       497-4.74999E-01-9.61492E+00 2.25000E+00
 -1       498 3.72497E+00-1.02879E+00 2.25000E+00
 -1       499 3.36141E+00-1.90648E+00 2.25000E+00
 -1       500 6.56112E+00-1.68944E+00 2.25000E+00
 -1       501 5.83402E+00-3.44480E+00 2.25000E+00
 -1       502 9.06482E+00-3.24063E+00 2.25000E+00
 -1       503 8.70125E+00-4.11831E+00 2.25000E+00
 -1       504 3.04771E+00-2.37597E+00 2.25000E+00
 -1       505 2.37597E+00-3.04771E+00 2.25000E+00
 -1       506 5.41517E+00-4.07166E+00 2.25000E+00
 -1       507 4.07166E+00-5.41517E+00 2.25000E+00
 -1       508 7.13465E+00-6.46290E+00 2.25000E+00
 -1       509 6.46290E+00-7.13465E+00 2.25000E+00
 -1       510 1.68944E+00-6.56112E+00 2.25000E+00
 -1       511-9.50000E-01-6.70821E+00 2.25000E+00
 -1       512-1.02879E+00-3.72497E+00 2.25000E+00
 -1       513-1.90648E+00-3.36141E+00 2.25000E+00
 -1       514-3.24063E+00-9.06482E+00 2.25000E+00
 -1       515-4.11831E+00-8.70125E+00 2.25000E+00
 -1       516-9.50000E-01 6.70821E+00 2.25000E+00
 -1       517 4.74999E-01 9.61492E+00 2.25000E+00
 -1       518 4.74999E-01 3.83512E+00 2.25000E+00
 -1       519-4.74999E-01 3.83512E+00 2.25000E+00
 -1       520-4.74999E-01 9.61492E+00 2.25000E+00
 -1       521-1.02879E+00 3.72497E+00 2.25000E+00
 -1       522-1.90648E+00 3.36141E+00 2.25000E+00
 -1       523-3.24063E+00 9.06482E+00 2.25000E+00
 -1       524-4.11831E+00 8.70125E+00 2.25000E+00
 -1       525 9.50000E-01 6.70821E+00 2.25000E+00
 -1       526 9.50000E-01-6.70821E+00 2.25000E+00
 -1       527-2.37597E+00-3.04771E+00 2.25000E+00
 -1       528-3.04771E+00-2.37597E+00 2.25000E+00
 -1       529-2.37597E+00 3.04771E+00 2.25000E+00
 -1       530-3.04771E+00 2.37597E+00 2.25000E+00
 -1       531-4.07166E+00-5.41517E+00 2.25000E+00
 -1       532-5.41517E+00-4.07166E+00 2.25000E+00
 -1       533-5.83402E+00-3.44480E+00 2.25000E+00
 -1       534-6.56112E+00-1.68944E+00 2.25000E+00
 -1       535-9.61492E+00 4.74999E-01 2.25000E+00
 -1       536-9.61492E+00-4.74999E-01 2.25000E+00
 -1       537-8.70125E+00 4.11831E+00 2.25000E+00
 -1       538-9.06482E+00 3.24063E+00 2.25000E+00
 -1       539-6.46290E+00 7.13465E+00 2.25000E+00
 -1       540-7.13465E+00 6.46290E+00 2.25000E+00
 -1       541-6.70821E+00 9.50000E-01 2.25000E+00
 -1       542-6.70821E+00-9.50000E-01 2.25000E+00
 -1       543-6.46290E+00-7.13465E+00 2.25000E+00
 -1       544-7.13465E+00-6.46290E+00 2.25000E+00
 -1       545-8.70125E+00-4.11831E+00 2.25000E+00
 -1       546-9.06482E+00-3.24063E+00 2.25000E+00
 -1       547 1.10957E+01 4.74999E-01 1.37500E+00
 -1       548 1.10957E+01-4.74999E-01 1.37500E+00
 -1       549 2.38798E+00-4.74999E-01 1.37500E+00
 -1       550 3.83512E+00-4.74999E-01 5.00000E-01
 -1       551 5.28227E+00-4.74999E-01 1.37500E+00
 -1       552 8.13414E+00-4.74999E-01 1.37500E+00
 -1       553 9.61492E+00-4.74999E-01 5.00000E-01
 -1       554 9.61492E+00 4.74999E-01 5.00000E-01
 -1       555 8.13414E+00 4.74999E-01 1.37500E+00
 -1       556 5.28227E+00 4.74999E-01 1.37500E+00
 -1       557 3.83512E+00 4.74999E-01 5.00000E-01
 -1       558 2.38798E+00 4.74999E-01 1.37500E+00
 -1       559 5.28227E+00-9.50000E-01 1.37500E+00
 -1       560 5.28227E+00 9.50000E-01 1.37500E+00
 -1       561 8.13414E+00-9.50000E-01 1.37500E+00
 -1       562 8.13414E+00 9.50000E-01 1.37500E+00
 -1       563 6.70821E+00 9.50000E-01 5.00000E-01
 -1       564 6.70821E+00-9.50000E-01 5.00000E-01
 -1       565 1.96740E+00 1.31457E+00 1.37500E+00
 -1       566 1.00693E+01 4.68498E+00 1.37500E+00
 -1       567 1.04329E+01 3.80730E+00 1.37500E+00
 -1       568 3.72497E+00 1.02879E+00 5.00000E-01
 -1       569 5.06195E+00 1.58259E+00 1.37500E+00
 -1       570 7.69674E+00 2.67396E+00 1.37500E+00
 -1       571 9.06482E+00 3.24063E+00 5.00000E-01
 -1       572 8.70125E+00 4.11831E+00 5.00000E-01
 -1       573 7.33319E+00 3.55164E+00 1.37500E+00
 -1       574 4.69840E+00 2.46028E+00 1.37500E+00
 -1       575 3.36141E+00 1.90648E+00 5.00000E-01
 -1       576 2.02443E+00 1.35268E+00 1.37500E+00
 -1       577 5.24373E+00 1.14375E+00 1.37500E+00
 -1       578 4.51663E+00 2.89912E+00 1.37500E+00
 -1       579 7.87852E+00 2.23512E+00 1.37500E+00
 -1       580 7.15142E+00 3.99049E+00 1.37500E+00
 -1       581 5.83402E+00 3.44480E+00 5.00000E-01
 -1       582 6.56112E+00 1.68944E+00 5.00000E-01
 -1       583 1.31457E+00 1.96740E+00 1.37500E+00
 -1       584 7.50997E+00 8.18172E+00 1.37500E+00
 -1       585 8.18172E+00 7.50997E+00 1.37500E+00
 -1       586 4.07100E+00 3.39925E+00 1.37500E+00
 -1       587 3.04771E+00 2.37597E+00 5.00000E-01
 -1       588 6.08758E+00 5.41583E+00 1.37500E+00
 -1       589 7.13465E+00 6.46290E+00 5.00000E-01
 -1       590 6.46290E+00 7.13465E+00 5.00000E-01
 -1       591 5.41583E+00 6.08758E+00 1.37500E+00
 -1       592 3.39925E+00 4.07100E+00 1.37500E+00
 -1       593 2.37597E+00 3.04771E+00 5.00000E-01
 -1       594 1.35268E+00 2.02443E+00 1.37500E+00
 -1       595 4.40688E+00 3.06338E+00 1.37500E+00
 -1       596 3.06338E+00 4.40688E+00 1.37500E+00
 -1       597 6.42346E+00 5.07995E+00 1.37500E+00
 -1       598 5.07995E+00 6.42346E+00 1.37500E+00
 -1       599 4.07166E+00 5.41517E+00 5.00000E-01
 -1       600 5.41517E+00 4.07166E+00 5.00000E-01
 -1       601 4.61617E-01 2.32070E+00 1.37500E+00
 -1       602 4.68498E+00 1.00693E+01 1.37500E+00
 -1       603 3.80730E+00 1.04329E+01 1.37500E+00
 -1       604 2.46028E+00 4.69840E+00 1.37500E+00
 -1       605 1.90648E+00 3.36141E+00 5.00000E-01
 -1       606 3.55164E+00 7.33319E+00 1.37500E+00
 -1       607 4.11831E+00 8.70125E+00 5.00000E-01
 -1       608 3.24063E+00 9.06482E+00 5.00000E-01
 -1       609 2.67396E+00 7.69674E+00 1.37500E+00
 -1       610 1.58259E+00 5.06195E+00 1.37500E+00
 -1       611 1.02879E+00 3.72497E+00 5.00000E-01
 -1       612 4.74999E-01 2.38798E+00 1.37500E+00
 -1       613 2.89912E+00 4.51663E+00 1.37500E+00
 -1       614 1.14375E+00 5.24373E+00 1.37500E+00
 -1       615 3.99049E+00 7.15142E+00 1.37500E+00
 -1       616 2.23512E+00 7.87852E+00 1.37500E+00
 -1       617 1.68944E+00 6.56112E+00 5.00000E-01
 -1       618 3.44480E+00 5.83402E+00 5.00000E-01
 -1       619-4.61617E-01 2.32070E+00 1.37500E+00
 -1       620 4.74999E-01 1.10957E+01 1.37500E+00
 -1       621-4.74999E-01 1.10957E+01 1.37500E+00
 -1       622 4.74999E-01 5.28227E+00 1.37500E+00
 -1       623 4.74999E-01 3.83512E+00 5.00000E-01
 -1       624 4.74999E-01 8.13414E+00 1.37500E+00
 -1       625 4.74999E-01 9.61492E+00 5.00000E-01
 -1       626-4.74999E-01 9.61492E+00 5.00000E-01
 -1       627-4.74999E-01 8.13414E+00 1.37500E+00
 -1       628-4.74999E-01 5.28227E+00 1.37500E+00
 -1       629-4.74999E-01 3.83512E+00 5.00000E-01
 -1       630-4.74999E-01 2.38798E+00 1.37500E+00
 -1       631 9.50000E-01 5.28227E+00 1.37500E+00
 -1       632-9.50000E-01 5.28227E+00 1.37500E+00
 -1       633 9.50000E-01 8.13414E+00 1.37500E+00
 -1       634-9.50000E-01 8.13414E+00 1.37500E+00
 -1       635-9.50000E-01 6.70821E+00 5.00000E-01
 -1       636 9.50000E-01 6.70821E+00 5.00000E-01
 -1       637-1.31457E+00 1.96740E+00 1.37500E+00
 -1       638-3.80730E+00 1.04329E+01 1.37500E+00
 -1       639-4.68498E+00 1.00693E+01 1.37500E+00
 -1       640-1.58259E+00 5.06195E+00 1.37500E+00
 -1       641-1.02879E+00 3.72497E+00 5.00000E-01
 -1       642-2.67396E+00 7.69674E+00 1.37500E+00
 -1       643-3.24063E+00 9.06482E+00 5.00000E-01
 -1       644-4.11831E+00 8.70125E+00 5.00000E-01
 -1       645-3.55164E+00 7.33319E+00 1.37500E+00
 -1       646-2.46028E+00 4.69840E+00 1.37500E+00
 -1       647-1.90648E+00 3.36141E+00 5.00000E-01
 -1       648-1.35268E+00 2.02443E+00 1.37500E+00
 -1       649-1.14375E+00 5.24373E+00 1.37500E+00
 -1       650-2.89912E+00 4.51663E+00 1.37500E+00
 -1       651-2.23512E+00 7.87852E+00 1.37500E+00
 -1       652-3.99049E+00 7.15142E+00 1.37500E+00
 -1       653-3.44480E+00 5.83402E+00 5.00000E-01
 -1       654-1.68944E+00 6.56112E+00 5.00000E-01
 -1       655-1.96740E+00 1.31457E+00 1.37500E+00
 -1       656-7.50997E+00 8.18172E+00 1.37500E+00
 -1       657-8.18172E+00 7.50997E+00 1.37500E+00
 -1       658-3.39925E+00 4.07100E+00 1.37500E+00
 -1       659-2.37597E+00 3.04771E+00 5.00000E-01
 -1       660-5.41583E+00 6.08758E+00 1.37500E+00
 -1       661-6.46290E+00 7.13465E+00 5.00000E-01
 -1       662-7.13465E+00 6.46290E+00 5.00000E-01
 -1       663-6.08758E+00 5.41583E+00 1.37500E+00
 -1       664-4.07100E+00 3.39925E+00 1.37500E+00
 -1       665-3.04771E+00 2.37597E+00 5.00000E-01
 -1       666-2.02443E+00 1.35268E+00 1.37500E+00
 -1       667-3.06338E+00 4.40688E+00 1.37500E+00
 -1       668-4.40688E+00 3.06338E+00 1.37500E+00
 -1       669-5.07995E+00 6.42346E+00 1.37500E+00
 -1       670-6.42346E+00 5.07995E+00 1.37500E+00
 -1       671-5.41517E+00 4.07166E+00 5.00000E-01
 -1       672-4.07166E+00 5.41517E+00 5.00000E-01
 -1       673-2.32070E+00 4.61617E-01 1.37500E+00
 -1       674-1.00693E+01 4.68498E+00 1.37500E+00
 -1       675-1.04329E+01 3.80730E+00 1.37500E+00
 -1       676-3.36141E+00 1.90648E+00 5.00000E-01
 -1       677-4.69840E+00 2.46028E+00 1.37500E+00
 -1       678-7.33319E+00 3.55164E+00 1.37500E+00
 -1       679-8.70125E+00 4.11831E+00 5.00000E-01
 -1       680-9.06482E+00 3.24063E+00 5.00000E-01
 -1       681-7.69674E+00 2.67396E+00 1.37500E+00
 -1       682-5.06195E+00 1.58259E+00 1.37500E+00
 -1       683-3.72497E+00 1.02879E+00 5.00000E-01
 -1       684-2.38798E+00 4.74999E-01 1.37500E+00
 -1       685-4.51663E+00 2.89912E+00 1.37500E+00
 -1       686-5.24373E+00 1.14375E+00 1.37500E+00
 -1       687-7.15142E+00 3.99049E+00 1.37500E+00
 -1       688-7.87852E+00 2.23512E+00 1.37500E+00
 -1       689-6.56112E+00 1.68944E+00 5.00000E-01
 -1       690-5.83402E+00 3.44480E+00 5.00000E-01
 -1       691-2.32070E+00-4.61617E-01 1.37500E+00
 -1       692-1.10957E+01 4.74999E-01 1.37500E+00
 -1       693-1.10957E+01-4.74999E-01 1.37500E+00
 -1       694-3.83512E+00 4.74999E-01 5.00000E-01
 -1       695-5.28227E+00 4.74999E-01 1.37500E+00
 -1       696-8.13414E+00 4.74999E-01 1.37500E+00
 -1       697-9.61492E+00 4.74999E-01 5.00000E-01
 -1       698-9.61492E+00-4.74999E-01 5.00000E-01
 -1       699-8.13414E+00-4.74999E-01 1.37500E+00
 -1       700-5.28227E+00-4.74999E-01 1.37500E+00
 -1       701-3.83512E+00-4.74999E-01 5.00000E-01
 -1       702-2.38798E+00-4.74999E-01 1.37500E+00
 -1       703-5.28227E+00 9.50000E-01 1.37500E+00
 -1       704-5.28227E+00-9.50000E-01 1.37500E+00
 -1       705-8.13414E+00 9.50000E-01 1.37500E+00
 -1       706-8.13414E+00-9.50000E-01 1.37500E+00
 -1       707-6.70821E+00-9.50000E-01 5.00000E-01
 -1       708-6.70821E+00 9.50000E-01 5.00000E-01
 -1       709-1.96740E+00-1.31457E+00 1.37500E+00
 -1       710-1.04329E+01-3.80730E+00 1.37500E+00
 -1       711-1.00693E+01-4.68498E+00 1.37500E+00
 -1       712-3.72497E+00-1.02879E+00 5.00000E-01
 -1       713-5.06195E+00-1.58259E+00 1.37500E+00
 -1       714-7.69674E+00-2.67396E+00 1.37500E+00
 -1       715-9.06482E+00-3.24063E+00 5.00000E-01
 -1       716-8.70125E+00-4.11831E+00 5.00000E-01
 -1       717-7.33319E+00-3.55164E+00 1.37500E+00
 -1       718-4.69840E+00-2.46028E+00 1.37500E+00
 -1       719-3.36141E+00-1.90648E+00 5.00000E-01
 -1       720-2.02443E+00-1.35268E+00 1.37500E+00
 -1       721-5.24373E+00-1.14375E+00 1.37500E+00
 -1       722-4.51663E+00-2.89912E+00 1.37500E+00
 -1       723-7.87852E+00-2.23512E+00 1.37500E+00
 -1       724-7.15142E+00-3.99049E+00 1.37500E+00
 -1       725-5.83402E+00-3.44480E+00 5.00000E-01
 -1       726-6.56112E+00-1.68944E+00 5.00000E-01
 -1       727-1.31457E+00-1.96740E+00 1.37500E+00
 -1       728-8.18172E+00-7.50997E+00 1.37500E+00
 -1       729-7.50997E+00-8.18172E+00 1.37500E+00
 -1       730-3.04771E+00-2.37597E+00 5.00000E-01
 -1       731-4.07100E+00-3.39925E+00 1.37500E+00
 -1       732-6.08758E+00-5.41583E+00 1.37500E+00
 -1       733-7.13465E+00-6.46290E+00 5.00000E-01
 -1       734-5.41583E+00-6.08758E+00 1.37500E+00
 -1       735-6.46290E+00-7.13465E+00 5.00000E-01
 -1       736-1.35268E+00-2.02443E+00 1.37500E+00
 -1       737-3.39925E+00-4.07100E+00 1.37500E+00
 -1       738-2.37597E+00-3.04771E+00 5.00000E-01
 -1       739-4.40688E+00-3.06338E+00 1.37500E+00
 -1       740-3.06338E+00-4.40688E+00 1.37500E+00
 -1       741-6.42346E+00-5.07995E+00 1.37500E+00
 -1       742-5.07995E+00-6.42346E+00 1.37500E+00
 -1       743-4.07166E+00-5.41517E+00 5.00000E-01
 -1       744-5.41517E+00-4.07166E+00 5.00000E-01
 -1       745-4.61617E-01-2.32070E+00 1.37500E+00
 -1       746-4.68498E+00-1.00693E+01 1.37500E+00
 -1       747-3.80730E+00-1.04329E+01 1.37500E+00
 -1       748-1.90648E+00-3.36141E+00 5.00000E-01
 -1       749-2.46028E+00-4.69840E+00 1.37500E+00
 -1       750-3.55164E+00-7.33319E+00 1.37500E+00
 -1       751-4.11831E+00-8.70125E+00 5.00000E-01
 -1       752-2.67396E+00-7.69674E+00 1.37500E+00
 -1       753-3.24063E+00-9.06482E+00 5.00000E-01
 -1       754-4.74999E-01-2.38798E+00 1.37500E+00
 -1       755-1.58259E+00-5.06195E+00 1.37500E+00
 -1       756-1.02879E+00-3.72497E+00 5.00000E-01
 -1       757-2.89912E+00-4.51663E+00 1.37500E+00
 -1       758-1.14375E+00-5.24373E+00 1.37500E+00
 -1       759-3.99049E+00-7.15142E+00 1.37500E+00
 -1       760-2.23512E+00-7.87852E+00 1.37500E+00
 -1       761-1.68944E+00-6.56112E+00 5.00000E-01
 -1       762-3.44480E+00-5.83402E+00 5.00000E-01
 -1       763 4.61617E-01-2.32070E+00 1.37500E+00
 -1       764-4.74999E-01-1.10957E+01 1.37500E+00
 -1       765 4.74999E-01-1.10957E+01 1.37500E+00
 -1       766-4.74999E-01-3.83512E+00 5.00000E-01
 -1       767-4.74999E-01-5.28227E+00 1.37500E+00
 -1       768-4.74999E-01-8.13414E+00 1.37500E+00
 -1       769-4.74999E-01-9.61492E+00 5.00000E-01
 -1       770 4.74999E-01-8.13414E+00 1.37500E+00
 -1       771 4.74999E-01-9.61492E+00 5.00000E-01
 -1       772 4.74999E-01-2.38798E+00 1.37500E+00
 -1       773 4.74999E-01-5.28227E+00 1.37500E+00
 -1       774 4.74999E-01-3.83512E+00 5.00000E-01
 -1       775-9.50000E-01-5.28227E+00 1.37500E+00
 -1       776 9.50000E-01-5.28227E+00 1.37500E+00
 -1       777-9.50000E-01-8.13414E+00 1.37500E+00
 -1       778 9.50000E-01-8.13414E+00 1.37500E+00
 -1       779 9.50000E-01-6.70821E+00 5.00000E-01
 -1       780-9.50000E-01-6.70821E+00 5.00000E-01
 -1       781 1.31457E+00-1.96740E+00 1.37500E+00
 -1       782 3.80730E+00-1.04329E+01 1.37500E+00
 -1       783 4.68498E+00-1.00693E+01 1.37500E+00
 -1       784 1.02879E+00-3.72497E+00 5.00000E-01
 -1       785 1.58259E+00-5.06195E+00 1.37500E+00
 -1       786 2.67396E+00-7.69674E+00 1.37500E+00
 -1       787 3.24063E+00-9.06482E+00 5.00000E-01
 -1       788 3.55164E+00-7.33319E+00 1.37500E+00
 -1       789 4.11831E+00-8.70125E+00 5.00000E-01
 -1       790 1.35268E+00-2.02443E+00 1.37500E+00
 -1       791 2.46028E+00-4.69840E+00 1.37500E+00
 -1       792 1.90648E+00-3.36141E+00 5.00000E-01
 -1       793 1.14375E+00-5.24373E+00 1.37500E+00
 -1       794 2.89912E+00-4.51663E+00 1.37500E+00
 -1       795 2.23512E+00-7.87852E+00 1.37500E+00
 -1       796 3.99049E+00-7.15142E+00 1.37500E+00
 -1       797 3.44480E+00-5.83402E+00 5.00000E-01
 -1       798 1.68944E+00-6.56112E+00 5.00000E-01
 -1       799 1.96740E+00-1.31457E+00 1.37500E+00
 -1       800 8.18172E+00-7.50997E+00 1.37500E+00
 -1       801 7.50997E+00-8.18172E+00 1.37500E+00
 -1       802 2.37597E+00-3.04771E+00 5.00000E-01
 -1       803 3.39925E+00-4.07100E+00 1.37500E+00
 -1       804 5.41583E+00-6.08758E+00 1.37500E+00
 -1       805 6.46290E+00-7.13465E+00 5.00000E-01
 -1       806 6.08758E+00-5.41583E+00 1.37500E+00
 -1       807 7.13465E+00-6.46290E+00 5.00000E-01
 -1       808 2.02443E+00-1.35268E+00 1.37500E+00
 -1       809 4.07100E+00-3.39925E+00 1.37500E+00
 -1       810 3.04771E+00-2.37597E+00 5.00000E-01
 -1       811 3.06338E+00-4.40688E+00 1.37500E+00
 -1       812 4.40688E+00-3.06338E+00 1.37500E+00
 -1       813 5.07995E+00-6.42346E+00 1.37500E+00
 -1       814 6.42346E+00-5.07995E+00 1.37500E+00
 -1       815 5.41517E+00-4.07166E+00 5.00000E-01
 -1       816 4.07166E+00-5.41517E+00 5.00000E-01
 -1       817 1.04329E+01-3.80730E+00 1.37500E+00
 -1       818 1.00693E+01-4.68498E+00 1.37500E+00
 -1       819 3.36141E+00-1.90648E+00 5.00000E-01
 -1       820 4.69840E+00-2.46028E+00 1.37500E+00
 -1       821 7.33319E+00-3.55164E+00 1.37500E+00
 -1       822 8.70125E+00-4.11831E+00 5.00000E-01
 -1       823 9.06482E+00-3.24063E+00 5.00000E-01
 -1       824 7.69674E+00-2.67396E+00 1.37500E+00
 -1       825 5.06195E+00-1.58259E+00 1.37500E+00
 -1       826 3.72497E+00-1.02879E+00 5.00000E-01
 -1       827 4.51663E+00-2.89912E+00 1.37500E+00
 -1       828 5.24373E+00-1.14375E+00 1.37500E+00
 -1       829 7.15142E+00-3.99049E+00 1.37500E+00
 -1       830 7.87852E+00-2.23512E+00 1.37500E+00
 -1       831 6.56112E+00-1.68944E+00 5.00000E-01
 -1       832 5.83402E+00-3.44480E+00 5.00000E-01
 -1       833 9.47007E+00 1.15393E+01 5.00000E-01
 -1       834 9.47007E+00 1.15393E+01-5.00000E-01
 -1       835 1.48559E+01-1.46318E+00 5.00000E-01
 -1       836 1.48559E+01-1.46318E+00-5.00000E-01
 -1       837-4.33330E+00-1.42850E+01 5.00000E-01
 -1       838-4.33330E+00-1.42850E+01-5.00000E-01
 -1       839 1.15393E+01 9.47007E+00 5.00000E-01
 -1       840 1.15393E+01 9.47007E+00-5.00000E-01
 -1       841-4.33330E+00 1.42850E+01 5.00000E-01
 -1       842-4.33330E+00 1.42850E+01-5.00000E-01
 -1       843-1.31651E+01 7.03690E+00-5.00000E-01
 -1       844-1.31651E+01 7.03690E+00 5.00000E-01
 -1       845 1.31651E+01 7.03690E+00 5.00000E-01
 -1       846 1.31651E+01 7.03690E+00-5.00000E-01
 -1       847 7.03690E+00 1.31651E+01 5.00000E-01
 -1       848 7.03690E+00 1.31651E+01-5.00000E-01
 -1       849 1.46318E+00 1.48559E+01 5.00000E-01
 -1       850 1.46318E+00 1.48559E+01-5.00000E-01
 -1       851-1.48559E+01 1.46318E+00-5.00000E-01
 -1       852-1.48559E+01 1.46318E+00 5.00000E-01
 -1       853-1.15393E+01 9.47007E+00-5.00000E-01
 -1       854-1.15393E+01 9.47007E+00 5.00000E-01
 -1       855-7.03690E+00 1.31651E+01 5.00000E-01
 -1       856-7.03690E+00 1.31651E+01-5.00000E-01
 -1       857-1.46318E+00 1.48559E+01 5.00000E-01
 -1       858-1.46318E+00 1.48559E+01-5.00000E-01
 -1       859-9.47007E+00 1.15393E+01 5.00000E-01
 -1       860-9.47007E+00 1.15393E+01-5.00000E-01
 -1       861 1.48559E+01 1.46318E+00 5.00000E-01
 -1       862 1.48559E+01 1.46318E+00-5.00000E-01
 -1       863 1.46318E+00-1.48559E+01 5.00000E-01
 -1       864 1.46318E+00-1.48559E+01-5.00000E-01
 -1       865 1.42850E+01-4.33330E+00 5.00000E-01
 -1       866 1.42850E+01-4.33330E+00-5.00000E-01
 -1       867 4.33330E+00-1.42850E+01 5.00000E-01
 -1       868 4.33330E+00-1.42850E+01-5.00000E-01
 -1       869 7.03690E+00-1.31651E+01 5.00000E-01
 -1       870 7.03690E+00-1.31651E+01-5.00000E-01
 -1       871-1.46318E+00-1.48559E+01 5.00000E-01
 -1       872-1.46318E+00-1.48559E+01-5.00000E-01
 -1       873-9.47007E+00-1.15393E+01 5.00000E-01
 -1       874-9.47007E+00-1.15393E+01-5.00000E-01
 -1       875-1.31651E+01-7.03690E+00-5.00000E-01
 -1       876-1.31651E+01-7.03690E+00 5.00000E-01
 -1       877-1.48559E+01-1.46318E+00-5.00000E-01
 -1       878-1.48559E+01-1.46318E+00 5.00000E-01
 -1       879 1.42850E+01 4.33330E+00-5.00000E-01
 -1       880 1.31651E+01-7.03690E+00-5.00000E-01
 -1       881 1.15393E+01-9.47007E+00-5.00000E-01
 -1       882 9.47007E+00-1.15393E+01-5.00000E-01
 -1       883 4.33330E+00 1.42850E+01-5.00000E-01
 -1       884-7.03690E+00-1.31651E+01-5.00000E-01
 -1       885-1.15393E+01-9.47007E+00-5.00000E-01
 -1       886-1.42850E+01-4.33330E+00-5.00000E-01
 -1       887-1.42850E+01 4.33330E+00-5.00000E-01
 -1       888-1.15393E+01-9.47007E+00 5.00000E-01
 -1       889 1.42850E+01 4.33330E+00 5.00000E-01
 -1       890 4.33330E+00 1.42850E+01 5.00000E-01
 -1       891 1.31651E+01-7.03690E+00 5.00000E-01
 -1       892 1.15393E+01-9.47007E+00 5.00000E-01
 -1       893 9.47007E+00-1.15393E+01 5.00000E-01
 -1       894-7.03690E+00-1.31651E+01 5.00000E-01
 -1       895-1.42850E+01 4.33330E+00 5.00000E-01
 -1       896-1.42850E+01-4.33330E+00 5.00000E-01
 -1       897-3.71765E+00-6.49272E+00 2.25000E+00
 -1       898-4.57581E+00 5.91931E+00 2.25000E+00
 -1       899-4.55870E+00 4.74999E-01 2.25000E+00
 -1       900-3.11155E+00-4.74999E-01 2.25000E+00
 -1       901-4.39346E+00-1.30569E+00 2.25000E+00
 -1       902-1.41659E+00-5.90243E+00 2.25000E+00
 -1       903-1.96228E+00 7.21982E+00 2.25000E+00
 -1       904 2.95729E+00 8.38078E+00 2.25000E+00
 -1       905 3.71765E+00 6.49272E+00 2.25000E+00
 -1       906 3.55936E+00 2.88761E+00 2.25000E+00
 -1       907 1.86432E+00 2.53607E+00 2.25000E+00
 -1       908 2.69292E+00 1.62958E+00 2.25000E+00
 -1       909 4.55870E+00-4.74999E-01 2.25000E+00
 -1       910 5.99524E+00 9.50000E-01 2.25000E+00
 -1       911 8.87453E+00 4.74999E-01 2.25000E+00
 -1       912 1.03553E+01-4.74999E-01 2.25000E+00
 -1       913 3.17196E+00-5.17533E+00 2.25000E+00
 -1       914 9.74886E+00 3.52396E+00 2.25000E+00
 -1       915 6.49272E+00 3.71765E+00 2.25000E+00
 -1       916 5.17533E+00 3.17196E+00 2.25000E+00
 -1       917 3.56752E+00 4.91103E+00 2.25000E+00
 -1       918 1.30569E+00-4.39346E+00 2.25000E+00
 -1       919 4.74999E-01-3.11155E+00 2.25000E+00
 -1       920-4.74999E-01-1.03553E+01 2.25000E+00
 -1       921 4.02991E+00-2.18338E+00 2.25000E+00
 -1       922 8.38078E+00-2.95729E+00 2.25000E+00
 -1       923 9.38527E+00-4.40165E+00 2.25000E+00
 -1       924 2.53607E+00-1.86432E+00 2.25000E+00
 -1       925 2.88761E+00-3.55936E+00 2.25000E+00
 -1       926 6.61111E+00-5.93936E+00 2.25000E+00
 -1       927 6.98643E+00-7.65819E+00 2.25000E+00
 -1       928 1.41659E+00-5.90243E+00 2.25000E+00
 -1       929 1.96228E+00-7.21982E+00 2.25000E+00
 -1       930-9.50000E-01-7.42117E+00 2.25000E+00
 -1       931 4.74999E-01 4.55870E+00 2.25000E+00
 -1       932-4.74999E-01 3.11155E+00 2.25000E+00
 -1       933-5.91931E+00-4.57581E+00 2.25000E+00
 -1       934-8.38078E+00 2.95729E+00 2.25000E+00
 -1       935-6.98643E+00 7.65819E+00 2.25000E+00
 -1       936-7.42117E+00 9.50000E-01 2.25000E+00
 -1       937-5.93936E+00-6.61111E+00 2.25000E+00
 -1       938-7.65819E+00-6.98643E+00 2.25000E+00
 -1       939-9.74886E+00-3.52396E+00 2.25000E+00
 -1       940 4.55870E+00-4.74999E-01 5.00000E-01
 -1       941 8.87453E+00-4.74999E-01 5.00000E-01
 -1       942 1.03553E+01-4.74999E-01 5.00000E-01
 -1       943 8.87453E+00 4.74999E-01 5.00000E-01
 -1       944 3.11155E+00 4.74999E-01 5.00000E-01
 -1       945 7.42117E+00 9.50000E-01 5.00000E-01
 -1       946 5.99524E+00 9.50000E-01 5.00000E-01
 -1       947 5.99524E+00-9.50000E-01 5.00000E-01
 -1       948 7.42117E+00-9.50000E-01 5.00000E-01
 -1       949 8.38078E+00 2.95729E+00 5.00000E-01
 -1       950 9.74886E+00 3.52396E+00 5.00000E-01
 -1       951 8.01722E+00 3.83498E+00 5.00000E-01
 -1       952 2.69292E+00 1.62958E+00 5.00000E-01
 -1       953 6.49272E+00 3.71765E+00 5.00000E-01
 -1       954 5.17533E+00 3.17196E+00 5.00000E-01
 -1       955 5.90243E+00 1.41659E+00 5.00000E-01
 -1       956 7.21982E+00 1.96228E+00 5.00000E-01
 -1       957 3.55936E+00 2.88761E+00 5.00000E-01
 -1       958 6.61111E+00 5.93936E+00 5.00000E-01
 -1       959 7.65819E+00 6.98643E+00 5.00000E-01
 -1       960 5.93936E+00 6.61111E+00 5.00000E-01
 -1       961 1.86432E+00 2.53607E+00 5.00000E-01
 -1       962 4.57581E+00 5.91931E+00 5.00000E-01
 -1       963 3.56752E+00 4.91103E+00 5.00000E-01
 -1       964 4.91103E+00 3.56752E+00 5.00000E-01
 -1       965 5.91931E+00 4.57581E+00 5.00000E-01
 -1       966 2.18338E+00 4.02991E+00 5.00000E-01
 -1       967 4.40165E+00 9.38527E+00 5.00000E-01
 -1       968 2.95729E+00 8.38078E+00 5.00000E-01
 -1       969 7.51897E-01 3.05647E+00 5.00000E-01
 -1       970 1.96228E+00 7.21982E+00 5.00000E-01
 -1       971 1.41659E+00 5.90243E+00 5.00000E-01
 -1       972 3.17196E+00 5.17533E+00 5.00000E-01
 -1       973 3.71765E+00 6.49272E+00 5.00000E-01
 -1       974 4.74999E-01 4.55870E+00 5.00000E-01
 -1       975 4.74999E-01 1.03553E+01 5.00000E-01
 -1       976-4.74999E-01 8.87453E+00 5.00000E-01
 -1       977-4.74999E-01 3.11155E+00 5.00000E-01
 -1       978-9.50000E-01 7.42117E+00 5.00000E-01
 -1       979-9.50000E-01 5.99524E+00 5.00000E-01
 -1       980 9.50000E-01 5.99524E+00 5.00000E-01
 -1       981 9.50000E-01 7.42117E+00 5.00000E-01
 -1       982-1.30569E+00 4.39346E+00 5.00000E-01
 -1       983-2.95729E+00 8.38078E+00 5.00000E-01
 -1       984-3.52396E+00 9.74886E+00 5.00000E-01
 -1       985-3.83498E+00 8.01722E+00 5.00000E-01
 -1       986-1.62958E+00 2.69292E+00 5.00000E-01
 -1       987-3.71765E+00 6.49272E+00 5.00000E-01
 -1       988-3.17196E+00 5.17533E+00 5.00000E-01
 -1       989-1.41659E+00 5.90243E+00 5.00000E-01
 -1       990-1.96228E+00 7.21982E+00 5.00000E-01
 -1       991-2.88761E+00 3.55936E+00 5.00000E-01
 -1       992-6.98643E+00 7.65819E+00 5.00000E-01
 -1       993-6.61111E+00 5.93936E+00 5.00000E-01
 -1       994-2.53607E+00 1.86432E+00 5.00000E-01
 -1       995-5.91931E+00 4.57581E+00 5.00000E-01
 -1       996-4.91103E+00 3.56752E+00 5.00000E-01
 -1       997-3.56752E+00 4.91103E+00 5.00000E-01
 -1       998-4.57581E+00 5.91931E+00 5.00000E-01
 -1       999-4.02991E+00 2.18338E+00 5.00000E-01
 -1      1000-9.38527E+00 4.40165E+00 5.00000E-01
 -1      1001-8.38078E+00 2.95729E+00 5.00000E-01
 -1      1002-3.05647E+00 7.51897E-01 5.00000E-01
 -1      1003-7.21982E+00 1.96228E+00 5.00000E-01
 -1      1004-5.90243E+00 1.41659E+00 5.00000E-01
 -1      1005-5.17533E+00 3.17196E+00 5.00000E-01
 -1      1006-6.49272E+00 3.71765E+00 5.00000E-01
 -1      1007-4.55870E+00 4.74999E-01 5.00000E-01
 -1      1008-1.03553E+01 4.74999E-01 5.00000E-01
 -1      1009-8.87453E+00-4.74999E-01 5.00000E-01
 -1      1010-3.11155E+00-4.74999E-01 5.00000E-01
 -1      1011-7.42117E+00-9.50000E-01 5.00000E-01
 -1      1012-5.99524E+00-9.50000E-01 5.00000E-01
 -1      1013-5.99524E+00 9.50000E-01 5.00000E-01
 -1      1014-7.42117E+00 9.50000E-01 5.00000E-01
 -1      1015-4.39346E+00-1.30569E+00 5.00000E-01
 -1      1016-9.74886E+00-3.52396E+00 5.00000E-01
 -1      1017-8.01722E+00-3.83498E+00 5.00000E-01
 -1      1018-2.69292E+00-1.62958E+00 5.00000E-01
 -1      1019-6.49272E+00-3.71765E+00 5.00000E-01
 -1      1020-5.17533E+00-3.17196E+00 5.00000E-01
 -1      1021-5.90243E+00-1.41659E+00 5.00000E-01
 -1      1022-7.21982E+00-1.96228E+00 5.00000E-01
 -1      1023-3.55936E+00-2.88761E+00 5.00000E-01
 -1      1024-6.61111E+00-5.93936E+00 5.00000E-01
 -1      1025-7.65819E+00-6.98643E+00 5.00000E-01
 -1      1026-5.93936E+00-6.61111E+00 5.00000E-01
 -1      1027-1.86432E+00-2.53607E+00 5.00000E-01
 -1      1028-4.57581E+00-5.91931E+00 5.00000E-01
 -1      1029-3.56752E+00-4.91103E+00 5.00000E-01
 -1      1030-4.91103E+00-3.56752E+00 5.00000E-01
 -1      1031-5.91931E+00-4.57581E+00 5.00000E-01
 -1      1032-2.18338E+00-4.02991E+00 5.00000E-01
 -1      1033-4.40165E+00-9.38527E+00 5.00000E-01
 -1      1034-2.95729E+00-8.38078E+00 5.00000E-01
 -1      1035-7.51897E-01-3.05647E+00 5.00000E-01
 -1      1036-1.96228E+00-7.21982E+00 5.00000E-01
 -1      1037-1.41659E+00-5.90243E+00 5.00000E-01
 -1      1038-3.17196E+00-5.17533E+00 5.00000E-01
 -1      1039-3.71765E+00-6.49272E+00 5.00000E-01
 -1      1040-4.74999E-01-4.55870E+00 5.00000E-01
 -1      1041-4.74999E-01-8.87453E+00 5.00000E-01
 -1      1042-4.74999E-01-1.03553E+01 5.00000E-01
 -1      1043 4.74999E-01-8.87453E+00 5.00000E-01
 -1      1044 4.74999E-01-3.11155E+00 5.00000E-01
 -1      1045 9.50000E-01-7.42117E+00 5.00000E-01
 -1      1046 9.50000E-01-5.99524E+00 5.00000E-01
 -1      1047-9.50000E-01-5.99524E+00 5.00000E-01
 -1      1048-9.50000E-01-7.42117E+00 5.00000E-01
 -1      1049 1.30569E+00-4.39346E+00 5.00000E-01
 -1      1050 3.52396E+00-9.74886E+00 5.00000E-01
 -1      1051 3.83498E+00-8.01722E+00 5.00000E-01
 -1      1052 1.62958E+00-2.69292E+00 5.00000E-01
 -1      1053 3.71765E+00-6.49272E+00 5.00000E-01
 -1      1054 3.17196E+00-5.17533E+00 5.00000E-01
 -1      1055 1.41659E+00-5.90243E+00 5.00000E-01
 -1      1056 1.96228E+00-7.21982E+00 5.00000E-01
 -1      1057 5.93936E+00-6.61111E+00 5.00000E-01
 -1      1058 6.98643E+00-7.65819E+00 5.00000E-01
 -1      1059 6.61111E+00-5.93936E+00 5.00000E-01
 -1      1060 2.53607E+00-1.86432E+00 5.00000E-01
 -1      1061 5.91931E+00-4.57581E+00 5.00000E-01
 -1      1062 4.91103E+00-3.56752E+00 5.00000E-01
 -1      1063 3.56752E+00-4.91103E+00 5.00000E-01
 -1      1064 4.57581E+00-5.91931E+00 5.00000E-01
 -1      1065 8.01722E+00-3.83498E+00 5.00000E-01
 -1      1066 9.38527E+00-4.40165E+00 5.00000E-01
 -1      1067 8.38078E+00-2.95729E+00 5.00000E-01
 -1      1068 3.05647E+00-7.51897E-01 5.00000E-01
 -1      1069 7.21982E+00-1.96228E+00 5.00000E-01
 -1      1070 5.90243E+00-1.41659E+00 5.00000E-01
 -1      1071 5.17533E+00-3.17196E+00 5.00000E-01
 -1      1072 6.49272E+00-3.71765E+00 5.00000E-01
 -1      1073 1.00383E+01 1.10730E+01 5.00000E-01
 -1      1074 1.00383E+01 1.10730E+01-5.00000E-01
 -1      1075 8.90181E+00 1.20056E+01-5.00000E-01
 -1      1076-5.03678E+00-1.40716E+01 5.00000E-01
 -1      1077 1.20056E+01 8.90181E+00 5.00000E-01
 -1      1078-3.62983E+00 1.44984E+01 5.00000E-01
 -1      1079 1.35117E+01 6.38858E+00 5.00000E-01
 -1      1080 6.38858E+00 1.35117E+01 5.00000E-01
 -1      1081 7.68523E+00 1.28186E+01 5.00000E-01
 -1      1082 6.38858E+00 1.35117E+01-5.00000E-01
 -1      1083-1.20056E+01 8.90181E+00-5.00000E-01
 -1      1084-1.10730E+01 1.00383E+01 5.00000E-01
 -1      1085-7.68523E+00 1.28186E+01 5.00000E-01
 -1      1086-6.38858E+00 1.35117E+01 5.00000E-01
 -1      1087-7.68523E+00 1.28186E+01-5.00000E-01
 -1      1088-7.31588E-01 1.49279E+01 5.00000E-01
 -1      1089-2.19476E+00 1.47838E+01-5.00000E-01
 -1      1090-1.00383E+01 1.10730E+01 5.00000E-01
 -1      1091-8.90181E+00 1.20056E+01 5.00000E-01
 -1      1092-1.00383E+01 1.10730E+01-5.00000E-01
 -1      1093 1.49279E+01 7.31588E-01 5.00000E-01
 -1      1094 1.47838E+01 2.19476E+00-5.00000E-01
 -1      1095 7.31588E-01-1.49279E+01 5.00000E-01
 -1      1096 1.40716E+01-5.03678E+00 5.00000E-01
 -1      1097 5.03678E+00-1.40716E+01 5.00000E-01
 -1      1098 3.62983E+00-1.44984E+01 5.00000E-01
 -1      1099 5.03678E+00-1.40716E+01-5.00000E-01
 -1      1100 6.38858E+00-1.35117E+01 5.00000E-01
 -1      1101 7.68523E+00-1.28186E+01-5.00000E-01
 -1      1102-7.31588E-01-1.49279E+01 5.00000E-01
 -1      1103-2.19476E+00-1.47838E+01 5.00000E-01
 -1      1104-7.31588E-01-1.49279E+01-5.00000E-01
 -1      1105-1.00383E+01-1.10730E+01 5.00000E-01
 -1      1106-1.47838E+01-2.19476E+00-5.00000E-01
 -1      1107 1.40716E+01 5.03678E+00-5.00000E-01
 -1      1108 1.44984E+01 3.62983E+00-5.00000E-01
 -1      1109 1.35117E+01-6.38858E+00-5.00000E-01
 -1      1110 1.28186E+01-7.68523E+00-5.00000E-01
 -1      1111 1.10730E+01-1.00383E+01-5.00000E-01
 -1      1112 1.00383E+01-1.10730E+01-5.00000E-01
 -1      1113 8.90181E+00-1.20056E+01-5.00000E-01
 -1      1114 3.62983E+00 1.44984E+01-5.00000E-01
 -1      1115 5.03678E+00 1.40716E+01-5.00000E-01
 -1      1116-6.38858E+00-1.35117E+01-5.00000E-01
 -1      1117-7.68523E+00-1.28186E+01-5.00000E-01
 -1      1118-1.10730E+01-1.00383E+01-5.00000E-01
 -1      1119-1.20056E+01-8.90181E+00-5.00000E-01
 -1      1120-1.44984E+01-3.62983E+00-5.00000E-01
 -1      1121-1.40716E+01 5.03678E+00-5.00000E-01
 -1      1122-1.20056E+01-8.90181E+00 5.00000E-01
 -1      1123 1.44984E+01 3.62983E+00 5.00000E-01
 -1      1124 5.03678E+00 1.40716E+01 5.00000E-01
 -1      1125 1.35117E+01-6.38858E+00 5.00000E-01
 -1      1126 1.20056E+01-8.90181E+00 5.00000E-01
 -1      1127 1.00383E+01-1.10730E+01 5.00000E-01
 -1      1128-6.38858E+00-1.35117E+01 5.00000E-01
 -1      1129-1.44984E+01 3.62983E+00 5.00000E-01
 -1      1130-1.40716E+01-5.03678E+00 5.00000E-01
 -1      1131-6.49272E+00 3.71765E+00 2.25000E+00
 -1      1132-5.17533E+00 3.17196E+00 2.25000E+00
 -1      1133-5.90243E+00 1.41659E+00 2.25000E+00
 -1      1134-7.21982E+00 1.96228E+00 2.25000E+00
 -1      1135-3.17196E+00-5.17533E+00 2.25000E+00
 -1      1136-3.17196E+00 5.17533E+00 2.25000E+00
 -1      1137-3.71765E+00 6.49272E+00 2.25000E+00
 -1      1138-3.56752E+00 4.91103E+00 2.25000E+00
 -1      1139-4.91103E+00 3.56752E+00 2.25000E+00
 -1      1140-5.91931E+00 4.57581E+00 2.25000E+00
 -1      1141-3.11155E+00 4.74999E-01 2.25000E+00
 -1      1142-4.55870E+00-4.74999E-01 2.25000E+00
 -1      1143-2.69292E+00-1.62958E+00 2.25000E+00
 -1      1144-4.02991E+00-2.18338E+00 2.25000E+00
 -1      1145-3.05647E+00-7.51897E-01 2.25000E+00
 -1      1146-1.96228E+00-7.21982E+00 2.25000E+00
 -1      1147-3.05647E+00 7.51897E-01 2.25000E+00
 -1      1148-4.02991E+00 2.18338E+00 2.25000E+00
 -1      1149-2.69292E+00 1.62958E+00 2.25000E+00
 -1      1150-4.39346E+00 1.30569E+00 2.25000E+00
 -1      1151-1.41659E+00 5.90243E+00 2.25000E+00
 -1      1152 1.41659E+00 5.90243E+00 2.25000E+00
 -1      1153 1.96228E+00 7.21982E+00 2.25000E+00
 -1      1154 4.40165E+00 9.38527E+00 2.25000E+00
 -1      1155 3.83498E+00 8.01722E+00 2.25000E+00
 -1      1156 3.52396E+00 9.74886E+00 2.25000E+00
 -1      1157 7.51897E-01 3.05647E+00 2.25000E+00
 -1      1158 2.18338E+00 4.02991E+00 2.25000E+00
 -1      1159 1.62958E+00 2.69292E+00 2.25000E+00
 -1      1160 1.30569E+00 4.39346E+00 2.25000E+00
 -1      1161 3.17196E+00 5.17533E+00 2.25000E+00
 -1      1162 2.53607E+00 1.86432E+00 2.25000E+00
 -1      1163 2.88761E+00 3.55936E+00 2.25000E+00
 -1      1164 4.39346E+00 1.30569E+00 2.25000E+00
 -1      1165 3.05647E+00 7.51897E-01 2.25000E+00
 -1      1166 4.02991E+00 2.18338E+00 2.25000E+00
 -1      1167 3.11155E+00 4.74999E-01 2.25000E+00
 -1      1168 4.55870E+00 4.74999E-01 2.25000E+00
 -1      1169 3.11155E+00-4.74999E-01 2.25000E+00
 -1      1170 7.42117E+00 9.50000E-01 2.25000E+00
 -1      1171 7.42117E+00-9.50000E-01 2.25000E+00
 -1      1172 5.99524E+00-9.50000E-01 2.25000E+00
 -1      1173 1.03553E+01 4.74999E-01 2.25000E+00
 -1      1174 8.87453E+00-4.74999E-01 2.25000E+00
 -1      1175 3.71765E+00-6.49272E+00 2.25000E+00
 -1      1176 7.65819E+00 6.98643E+00 2.25000E+00
 -1      1177 6.61111E+00 5.93936E+00 2.25000E+00
 -1      1178 5.93936E+00 6.61111E+00 2.25000E+00
 -1      1179 6.98643E+00 7.65819E+00 2.25000E+00
 -1      1180 8.38078E+00 2.95729E+00 2.25000E+00
 -1      1181 8.01722E+00 3.83498E+00 2.25000E+00
 -1      1182 9.38527E+00 4.40165E+00 2.25000E+00
 -1      1183 7.21982E+00 1.96228E+00 2.25000E+00
 -1      1184 5.90243E+00 1.41659E+00 2.25000E+00
 -1      1185 4.57581E+00 5.91931E+00 2.25000E+00
 -1      1186 5.91931E+00 4.57581E+00 2.25000E+00
 -1      1187 4.91103E+00 3.56752E+00 2.25000E+00
 -1      1188 3.83498E+00-8.01722E+00 2.25000E+00
 -1      1189 4.40165E+00-9.38527E+00 2.25000E+00
 -1      1190 3.52396E+00-9.74886E+00 2.25000E+00
 -1      1191 2.95729E+00-8.38078E+00 2.25000E+00
 -1      1192 1.62958E+00-2.69292E+00 2.25000E+00
 -1      1193 2.18338E+00-4.02991E+00 2.25000E+00
 -1      1194 7.51897E-01-3.05647E+00 2.25000E+00
 -1      1195 4.74999E-01-4.55870E+00 2.25000E+00
 -1      1196 4.74999E-01-8.87453E+00 2.25000E+00
 -1      1197-4.74999E-01-4.55870E+00 2.25000E+00
 -1      1198-4.74999E-01-3.11155E+00 2.25000E+00
 -1      1199 4.74999E-01-1.03553E+01 2.25000E+00
 -1      1200-4.74999E-01-8.87453E+00 2.25000E+00
 -1      1201 3.05647E+00-7.51897E-01 2.25000E+00
 -1      1202 4.39346E+00-1.30569E+00 2.25000E+00
 -1      1203 2.69292E+00-1.62958E+00 2.25000E+00
 -1      1204 5.90243E+00-1.41659E+00 2.25000E+00
 -1      1205 7.21982E+00-1.96228E+00 2.25000E+00
 -1      1206 6.49272E+00-3.71765E+00 2.25000E+00
 -1      1207 5.17533E+00-3.17196E+00 2.25000E+00
 -1      1208 9.74886E+00-3.52396E+00 2.25000E+00
 -1      1209 8.01722E+00-3.83498E+00 2.25000E+00
 -1      1210 3.55936E+00-2.88761E+00 2.25000E+00
 -1      1211 1.86432E+00-2.53607E+00 2.25000E+00
 -1      1212 4.91103E+00-3.56752E+00 2.25000E+00
 -1      1213 5.91931E+00-4.57581E+00 2.25000E+00
 -1      1214 4.57581E+00-5.91931E+00 2.25000E+00
 -1      1215 3.56752E+00-4.91103E+00 2.25000E+00
 -1      1216 7.65819E+00-6.98643E+00 2.25000E+00
 -1      1217 5.93936E+00-6.61111E+00 2.25000E+00
 -1      1218-9.50000E-01-5.99524E+00 2.25000E+00
 -1      1219-2.18338E+00-4.02991E+00 2.25000E+00
 -1      1220-7.51897E-01-3.05647E+00 2.25000E+00
 -1      1221-1.30569E+00-4.39346E+00 2.25000E+00
 -1      1222-1.62958E+00-2.69292E+00 2.25000E+00
 -1      1223-4.40165E+00-9.38527E+00 2.25000E+00
 -1      1224-2.95729E+00-8.38078E+00 2.25000E+00
 -1      1225-3.52396E+00-9.74886E+00 2.25000E+00
 -1      1226-3.83498E+00-8.01722E+00 2.25000E+00
 -1      1227-9.50000E-01 5.99524E+00 2.25000E+00
 -1      1228-9.50000E-01 7.42117E+00 2.25000E+00
 -1      1229 4.74999E-01 1.03553E+01 2.25000E+00
 -1      1230 4.74999E-01 8.87453E+00 2.25000E+00
 -1      1231 4.74999E-01 3.11155E+00 2.25000E+00
 -1      1232-4.74999E-01 4.55870E+00 2.25000E+00
 -1      1233-4.74999E-01 8.87453E+00 2.25000E+00
 -1      1234-4.74999E-01 1.03553E+01 2.25000E+00
 -1      1235 9.50000E-01 7.42117E+00 2.25000E+00
 -1      1236-1.30569E+00 4.39346E+00 2.25000E+00
 -1      1237-7.51897E-01 3.05647E+00 2.25000E+00
 -1      1238-1.62958E+00 2.69292E+00 2.25000E+00
 -1      1239-2.18338E+00 4.02991E+00 2.25000E+00
 -1      1240-3.52396E+00 9.74886E+00 2.25000E+00
 -1      1241-2.95729E+00 8.38078E+00 2.25000E+00
 -1      1242-3.83498E+00 8.01722E+00 2.25000E+00
 -1      1243-4.40165E+00 9.38527E+00 2.25000E+00
 -1      1244 9.50000E-01 5.99524E+00 2.25000E+00
 -1      1245-4.91103E+00-3.56752E+00 2.25000E+00
 -1      1246 9.50000E-01-5.99524E+00 2.25000E+00
 -1      1247 9.50000E-01-7.42117E+00 2.25000E+00
 -1      1248-2.53607E+00 1.86432E+00 2.25000E+00
 -1      1249-3.55936E+00-2.88761E+00 2.25000E+00
 -1      1250-1.86432E+00-2.53607E+00 2.25000E+00
 -1      1251-2.88761E+00-3.55936E+00 2.25000E+00
 -1      1252-2.53607E+00-1.86432E+00 2.25000E+00
 -1      1253-2.88761E+00 3.55936E+00 2.25000E+00
 -1      1254-1.86432E+00 2.53607E+00 2.25000E+00
 -1      1255-3.55936E+00 2.88761E+00 2.25000E+00
 -1      1256-3.56752E+00-4.91103E+00 2.25000E+00
 -1      1257-4.57581E+00-5.91931E+00 2.25000E+00
 -1      1258-5.17533E+00-3.17196E+00 2.25000E+00
 -1      1259-6.49272E+00-3.71765E+00 2.25000E+00
 -1      1260-9.38527E+00 4.40165E+00 2.25000E+00
 -1      1261-7.21982E+00-1.96228E+00 2.25000E+00
 -1      1262-5.90243E+00-1.41659E+00 2.25000E+00
 -1      1263-1.03553E+01 4.74999E-01 2.25000E+00
 -1      1264-8.87453E+00 4.74999E-01 2.25000E+00
 -1      1265-8.87453E+00-4.74999E-01 2.25000E+00
 -1      1266-1.03553E+01-4.74999E-01 2.25000E+00
 -1      1267-8.01722E+00 3.83498E+00 2.25000E+00
 -1      1268-9.74886E+00 3.52396E+00 2.25000E+00
 -1      1269-5.93936E+00 6.61111E+00 2.25000E+00
 -1      1270-6.61111E+00 5.93936E+00 2.25000E+00
 -1      1271-7.65819E+00 6.98643E+00 2.25000E+00
 -1      1272-5.99524E+00 9.50000E-01 2.25000E+00
 -1      1273-5.99524E+00-9.50000E-01 2.25000E+00
 -1      1274-7.42117E+00-9.50000E-01 2.25000E+00
 -1      1275-6.98643E+00-7.65819E+00 2.25000E+00
 -1      1276-6.61111E+00-5.93936E+00 2.25000E+00
 -1      1277-8.01722E+00-3.83498E+00 2.25000E+00
 -1      1278-9.38527E+00-4.40165E+00 2.25000E+00
 -1      1279-8.38078E+00-2.95729E+00 2.25000E+00
 -1      1280 3.11155E+00-4.74999E-01 5.00000E-01
 -1      1281 1.03553E+01 4.74999E-01 5.00000E-01
 -1      1282 4.55870E+00 4.74999E-01 5.00000E-01
 -1      1283 4.39346E+00 1.30569E+00 5.00000E-01
 -1      1284 3.05647E+00 7.51897E-01 5.00000E-01
 -1      1285 9.38527E+00 4.40165E+00 5.00000E-01
 -1      1286 4.02991E+00 2.18338E+00 5.00000E-01
 -1      1287 2.53607E+00 1.86432E+00 5.00000E-01
 -1      1288 6.98643E+00 7.65819E+00 5.00000E-01
 -1      1289 2.88761E+00 3.55936E+00 5.00000E-01
 -1      1290 1.62958E+00 2.69292E+00 5.00000E-01
 -1      1291 3.83498E+00 8.01722E+00 5.00000E-01
 -1      1292 3.52396E+00 9.74886E+00 5.00000E-01
 -1      1293 1.30569E+00 4.39346E+00 5.00000E-01
 -1      1294 4.74999E-01 3.11155E+00 5.00000E-01
 -1      1295 4.74999E-01 8.87453E+00 5.00000E-01
 -1      1296-4.74999E-01 1.03553E+01 5.00000E-01
 -1      1297-4.74999E-01 4.55870E+00 5.00000E-01
 -1      1298-7.51897E-01 3.05647E+00 5.00000E-01
 -1      1299-4.40165E+00 9.38527E+00 5.00000E-01
 -1      1300-2.18338E+00 4.02991E+00 5.00000E-01
 -1      1301-1.86432E+00 2.53607E+00 5.00000E-01
 -1      1302-5.93936E+00 6.61111E+00 5.00000E-01
 -1      1303-7.65819E+00 6.98643E+00 5.00000E-01
 -1      1304-3.55936E+00 2.88761E+00 5.00000E-01
 -1      1305-2.69292E+00 1.62958E+00 5.00000E-01
 -1      1306-8.01722E+00 3.83498E+00 5.00000E-01
 -1      1307-9.74886E+00 3.52396E+00 5.00000E-01
 -1      1308-4.39346E+00 1.30569E+00 5.00000E-01
 -1      1309-3.11155E+00 4.74999E-01 5.00000E-01
 -1      1310-8.87453E+00 4.74999E-01 5.00000E-01
 -1      1311-1.03553E+01-4.74999E-01 5.00000E-01
 -1      1312-4.55870E+00-4.74999E-01 5.00000E-01
 -1      1313-3.05647E+00-7.51897E-01 5.00000E-01
 -1      1314-8.38078E+00-2.95729E+00 5.00000E-01
 -1      1315-9.38527E+00-4.40165E+00 5.00000E-01
 -1      1316-4.02991E+00-2.18338E+00 5.00000E-01
 -1      1317-2.53607E+00-1.86432E+00 5.00000E-01
 -1      1318-6.98643E+00-7.65819E+00 5.00000E-01
 -1      1319-2.88761E+00-3.55936E+00 5.00000E-01
 -1      1320-1.62958E+00-2.69292E+00 5.00000E-01
 -1      1321-3.83498E+00-8.01722E+00 5.00000E-01
 -1      1322-3.52396E+00-9.74886E+00 5.00000E-01
 -1      1323-1.30569E+00-4.39346E+00 5.00000E-01
 -1      1324-4.74999E-01-3.11155E+00 5.00000E-01
 -1      1325 4.74999E-01-1.03553E+01 5.00000E-01
 -1      1326 4.74999E-01-4.55870E+00 5.00000E-01
 -1      1327 7.51897E-01-3.05647E+00 5.00000E-01
 -1      1328 2.95729E+00-8.38078E+00 5.00000E-01
 -1      1329 4.40165E+00-9.38527E+00 5.00000E-01
 -1      1330 2.18338E+00-4.02991E+00 5.00000E-01
 -1      1331 2.88761E+00-3.55936E+00 5.00000E-01
 -1      1332 1.86432E+00-2.53607E+00 5.00000E-01
 -1      1333 7.65819E+00-6.98643E+00 5.00000E-01
 -1      1334 3.55936E+00-2.88761E+00 5.00000E-01
 -1      1335 4.02991E+00-2.18338E+00 5.00000E-01
 -1      1336 2.69292E+00-1.62958E+00 5.00000E-01
 -1      1337 9.74886E+00-3.52396E+00 5.00000E-01
 -1      1338 4.39346E+00-1.30569E+00 5.00000E-01
 -1      1339 8.90181E+00 1.20056E+01 5.00000E-01
 -1      1340 1.47838E+01-2.19476E+00 5.00000E-01
 -1      1341 1.49279E+01-7.31588E-01 5.00000E-01
 -1      1342 1.49279E+01-7.31588E-01-5.00000E-01
 -1      1343 1.47838E+01-2.19476E+00-5.00000E-01
 -1      1344-3.62983E+00-1.44984E+01 5.00000E-01
 -1      1345-3.62983E+00-1.44984E+01-5.00000E-01
 -1      1346-5.03678E+00-1.40716E+01-5.00000E-01
 -1      1347 1.10730E+01 1.00383E+01 5.00000E-01
 -1      1348 1.10730E+01 1.00383E+01-5.00000E-01
 -1      1349 1.20056E+01 8.90181E+00-5.00000E-01
 -1      1350-5.03678E+00 1.40716E+01 5.00000E-01
 -1      1351-5.03678E+00 1.40716E+01-5.00000E-01
 -1      1352-3.62983E+00 1.44984E+01-5.00000E-01
 -1      1353-1.35117E+01 6.38858E+00-5.00000E-01
 -1      1354-1.28186E+01 7.68523E+00-5.00000E-01
 -1      1355-1.28186E+01 7.68523E+00 5.00000E-01
 -1      1356-1.35117E+01 6.38858E+00 5.00000E-01
 -1      1357 1.28186E+01 7.68523E+00 5.00000E-01
 -1      1358 1.28186E+01 7.68523E+00-5.00000E-01
 -1      1359 1.35117E+01 6.38858E+00-5.00000E-01
 -1      1360 7.68523E+00 1.28186E+01-5.00000E-01
 -1      1361 2.19476E+00 1.47838E+01 5.00000E-01
 -1      1362 7.31588E-01 1.49279E+01 5.00000E-01
 -1      1363 7.31588E-01 1.49279E+01-5.00000E-01
 -1      1364 2.19476E+00 1.47838E+01-5.00000E-01
 -1      1365-1.49279E+01 7.31588E-01-5.00000E-01
 -1      1366-1.47838E+01 2.19476E+00-5.00000E-01
 -1      1367-1.47838E+01 2.19476E+00 5.00000E-01
 -1      1368-1.49279E+01 7.31588E-01 5.00000E-01
 -1      1369-1.10730E+01 1.00383E+01-5.00000E-01
 -1      1370-1.20056E+01 8.90181E+00 5.00000E-01
 -1      1371-6.38858E+00 1.35117E+01-5.00000E-01
 -1      1372-2.19476E+00 1.47838E+01 5.00000E-01
 -1      1373-7.31588E-01 1.49279E+01-5.00000E-01
 -1      1374-8.90181E+00 1.20056E+01-5.00000E-01
 -1      1375 1.47838E+01 2.19476E+00 5.00000E-01
 -1      1376 1.49279E+01 7.31588E-01-5.00000E-01
 -1      1377 2.19476E+00-1.47838E+01 5.00000E-01
 -1      1378 2.19476E+00-1.47838E+01-5.00000E-01
 -1      1379 7.31588E-01-1.49279E+01-5.00000E-01
 -1      1380 1.44984E+01-3.62983E+00 5.00000E-01
 -1      1381 1.44984E+01-3.62983E+00-5.00000E-01
 -1      1382 1.40716E+01-5.03678E+00-5.00000E-01
 -1      1383 3.62983E+00-1.44984E+01-5.00000E-01
 -1      1384 7.68523E+00-1.28186E+01 5.00000E-01
 -1      1385 6.38858E+00-1.35117E+01-5.00000E-01
 -1      1386-2.19476E+00-1.47838E+01-5.00000E-01
 -1      1387-8.90181E+00-1.20056E+01 5.00000E-01
 -1      1388-8.90181E+00-1.20056E+01-5.00000E-01
 -1      1389-1.00383E+01-1.10730E+01-5.00000E-01
 -1      1390-1.28186E+01-7.68523E+00-5.00000E-01
 -1      1391-1.35117E+01-6.38858E+00-5.00000E-01
 -1      1392-1.35117E+01-6.38858E+00 5.00000E-01
 -1      1393-1.28186E+01-7.68523E+00 5.00000E-01
 -1      1394-1.49279E+01-7.31588E-01-5.00000E-01
 -1      1395-1.49279E+01-7.31588E-01 5.00000E-01
 -1      1396-1.47838E+01-2.19476E+00 5.00000E-01
 -1      1397 1.20056E+01-8.90181E+00-5.00000E-01
 -1      1398-1.40716E+01-5.03678E+00-5.00000E-01
 -1      1399-1.44984E+01 3.62983E+00-5.00000E-01
 -1      1400-1.10730E+01-1.00383E+01 5.00000E-01
 -1      1401 1.40716E+01 5.03678E+00 5.00000E-01
 -1      1402 3.62983E+00 1.44984E+01 5.00000E-01
 -1      1403 1.28186E+01-7.68523E+00 5.00000E-01
 -1      1404 1.10730E+01-1.00383E+01 5.00000E-01
 -1      1405 8.90181E+00-1.20056E+01 5.00000E-01
 -1      1406-7.68523E+00-1.28186E+01 5.00000E-01
 -1      1407-1.40716E+01 5.03678E+00 5.00000E-01
 -1      1408-1.44984E+01-3.62983E+00 5.00000E-01
 -1      1409 1.64099E+00-1.64099E+00 2.25000E+00
 -1      1410-2.14405E+00 8.88093E-01 2.25000E+00
 -1      1411 0.00000E+00-2.32070E+00 2.25000E+00
 -1      1412 2.32070E+00 0.00000E+00 5.00000E-01
 -1      1413 2.14405E+00 8.88093E-01 5.00000E-01
 -1      1414 8.88093E-01 2.14405E+00 2.25000E+00
 -1      1415 0.00000E+00-2.32070E+00 5.00000E-01
 -1      1416 2.38798E+00-4.74999E-01 9.37500E-01
 -1      1417 2.32070E+00-4.61617E-01 9.37500E-01
 -1      1418-1.64099E+00-1.64099E+00 2.25000E+00
 -1      1419 1.64099E+00-1.64099E+00 5.00000E-01
 -1      1420-1.64099E+00 1.64099E+00 2.25000E+00
 -1      1421 2.02443E+00-1.35268E+00 9.37500E-01
 -1      1422 1.96740E+00-1.31457E+00 9.37500E-01
 -1      1423 0.00000E+00 2.32070E+00 5.00000E-01
 -1      1424 1.64099E+00 1.64099E+00 5.00000E-01
 -1      1425-8.88093E-01 2.14405E+00 5.00000E-01
 -1      1426 1.35268E+00 2.02443E+00 9.37500E-01
 -1      1427 1.31457E+00 1.96740E+00 9.37500E-01
 -1      1428 4.74999E-01-2.38798E+00 1.81250E+00
 -1      1429 4.61617E-01-2.32070E+00 1.81250E+00
 -1      1430 1.64099E+00 1.64099E+00 2.25000E+00
 -1      1431-2.32070E+00 0.00000E+00 2.25000E+00
 -1      1432 1.35268E+00-2.02443E+00 9.37500E-01
 -1      1433 1.31457E+00-1.96740E+00 9.37500E-01
 -1      1434 2.14405E+00-8.88093E-01 2.25000E+00
 -1      1435-8.88093E-01-2.14405E+00 5.00000E-01
 -1      1436 1.47778E+00 1.80419E+00 5.00000E-01
 -1      1437 2.32070E+00 0.00000E+00 2.25000E+00
 -1      1438-2.38798E+00 4.74999E-01 1.81250E+00
 -1      1439-2.32070E+00 4.61617E-01 1.81250E+00
 -1      1440 4.74999E-01-2.38798E+00 9.37500E-01
 -1      1441 4.61617E-01-2.32070E+00 9.37500E-01
 -1      1442 1.35268E+00 2.02443E+00 1.81250E+00
 -1      1443 1.31457E+00 1.96740E+00 1.81250E+00
 -1      1444 0.00000E+00 2.32070E+00 2.25000E+00
 -1      1445-1.64099E+00 1.64099E+00 5.00000E-01
 -1      1446-2.74977E+00 4.74999E-01 2.25000E+00
 -1      1447-1.64099E+00-1.64099E+00 5.00000E-01
 -1      1448 2.14405E+00-8.88093E-01 5.00000E-01
 -1      1449 2.02443E+00 1.35268E+00 9.37500E-01
 -1      1450 1.96740E+00 1.31457E+00 9.37500E-01
 -1      1451-2.14405E+00-8.88093E-01 2.25000E+00
 -1      1452-2.14405E+00-8.88093E-01 5.00000E-01
 -1      1453 8.88093E-01-2.14405E+00 2.25000E+00
 -1      1454-2.02443E+00-1.35268E+00 9.37500E-01
 -1      1455-1.96740E+00-1.31457E+00 9.37500E-01
 -1      1456-2.32070E+00 0.00000E+00 5.00000E-01
 -1      1457-2.02443E+00 1.35268E+00 1.81250E+00
 -1      1458-1.96740E+00 1.31457E+00 1.81250E+00
 -1      1459-2.14405E+00 8.88093E-01 5.00000E-01
 -1      1460 2.14405E+00 8.88093E-01 2.25000E+00
 -1      1461-2.35868E+00 1.49113E+00 2.25000E+00
 -1      1462-4.74999E-01-2.38798E+00 1.81250E+00
 -1      1463-4.61617E-01-2.32070E+00 1.81250E+00
 -1      1464-2.38798E+00-4.74999E-01 1.81250E+00
 -1      1465-2.32070E+00-4.61617E-01 1.81250E+00
 -1      1466-4.74999E-01-2.38798E+00 9.37500E-01
 -1      1467-4.61617E-01-2.32070E+00 9.37500E-01
 -1      1468-2.72223E+00-6.13448E-01 2.25000E+00
 -1      1469 1.35268E+00-2.02443E+00 1.81250E+00
 -1      1470 1.31457E+00-1.96740E+00 1.81250E+00
 -1      1471-1.35268E+00-2.02443E+00 9.37500E-01
 -1      1472-1.31457E+00-1.96740E+00 9.37500E-01
 -1      1473 6.13448E-01-2.72223E+00 2.25000E+00
 -1      1474-1.35268E+00 2.02443E+00 1.81250E+00
 -1      1475-1.31457E+00 1.96740E+00 1.81250E+00
 -1      1476 2.38798E+00 4.74999E-01 9.37500E-01
 -1      1477 2.32070E+00 4.61617E-01 9.37500E-01
 -1      1478 4.74999E-01-2.74977E+00 2.25000E+00
 -1      1479 2.02443E+00 1.35268E+00 1.81250E+00
 -1      1480 1.96740E+00 1.31457E+00 1.81250E+00
 -1      1481-1.96740E+00-1.31457E+00 1.81250E+00
 -1      1482-2.02443E+00-1.35268E+00 1.81250E+00
 -1      1483-4.74999E-01-2.38798E+00 1.59375E+00
 -1      1484-4.61617E-01-2.32070E+00 1.59375E+00
 -1      1485-1.35268E+00 2.02443E+00 1.59375E+00
 -1      1486-1.31457E+00 1.96740E+00 1.59375E+00
 -1      1487-2.02443E+00 1.35268E+00 1.59375E+00
 -1      1488-1.96740E+00 1.31457E+00 1.59375E+00
 -1      1489 2.38798E+00 4.74999E-01 1.15625E+00
 -1      1490 2.32070E+00 4.61617E-01 1.15625E+00
 -1      1491 2.02443E+00 1.35268E+00 1.59375E+00
 -1      1492 1.96740E+00 1.31457E+00 1.59375E+00
 -1      1493-1.96740E+00 1.31457E+00 9.37500E-01
 -1      1494-2.02443E+00 1.35268E+00 9.37500E-01
 -1      1495-1.31457E+00-1.96740E+00 1.81250E+00
 -1      1496-1.35268E+00-2.02443E+00 1.81250E+00
 -1      1497 2.38798E+00-4.74999E-01 1.81250E+00
 -1      1498 2.32070E+00-4.61617E-01 1.81250E+00
 -1      1499-8.88093E-01-2.14405E+00 2.25000E+00
 -1      1500-4.74999E-01 2.38798E+00 1.81250E+00
 -1      1501-4.61617E-01 2.32070E+00 1.81250E+00
 -1      1502 1.35268E+00 2.02443E+00 1.15625E+00
 -1      1503 1.31457E+00 1.96740E+00 1.15625E+00
 -1      1504 4.74999E-01 2.38798E+00 1.81250E+00
 -1      1505 4.61617E-01 2.32070E+00 1.81250E+00
 -1      1506-2.02443E+00-1.35268E+00 1.59375E+00
 -1      1507-1.96740E+00-1.31457E+00 1.59375E+00
 -1      1508 1.80419E+00-1.47778E+00 5.00000E-01
 -1      1509 1.35268E+00 2.02443E+00 7.18750E-01
 -1      1510 1.31457E+00 1.96740E+00 7.18750E-01
 -1      1511 2.05573E+00-1.10133E+00 5.00000E-01
 -1      1512-1.35268E+00 2.02443E+00 9.37500E-01
 -1      1513-1.31457E+00 1.96740E+00 9.37500E-01
 -1      1514 1.96740E+00-1.31457E+00 1.81250E+00
 -1      1515 2.02443E+00-1.35268E+00 1.81250E+00
 -1      1516 4.61617E-01 2.32070E+00 9.37500E-01
 -1      1517 4.74999E-01 2.38798E+00 9.37500E-01
 -1      1518-2.32070E+00 4.61617E-01 9.37500E-01
 -1      1519-2.38798E+00 4.74999E-01 9.37500E-01
 -1      1520 8.88093E-01 2.14405E+00 5.00000E-01
 -1      1521-1.35268E+00 2.02443E+00 1.15625E+00
 -1      1522-1.31457E+00 1.96740E+00 1.15625E+00
 -1      1523-2.05573E+00-1.10133E+00 5.00000E-01
 -1      1524 2.02443E+00 1.35268E+00 1.15625E+00
 -1      1525 1.96740E+00 1.31457E+00 1.15625E+00
 -1      1526-1.35268E+00-2.02443E+00 1.15625E+00
 -1      1527-1.31457E+00-1.96740E+00 1.15625E+00
 -1      1528 1.35268E+00-2.02443E+00 1.15625E+00
 -1      1529 1.31457E+00-1.96740E+00 1.15625E+00
 -1      1530-2.23237E+00 6.74855E-01 5.00000E-01
 -1      1531-8.88093E-01 2.14405E+00 2.25000E+00
 -1      1532 2.02443E+00 1.35268E+00 7.18750E-01
 -1      1533 1.96740E+00 1.31457E+00 7.18750E-01
 -1      1534-1.35268E+00 2.02443E+00 2.03125E+00
 -1      1535-1.31457E+00 1.96740E+00 2.03125E+00
 -1      1536 1.47778E+00-1.80419E+00 5.00000E-01
 -1      1537-1.35268E+00 2.02443E+00 1.26562E+00
 -1      1538-1.31457E+00 1.96740E+00 1.26562E+00
 -1      1539 1.31457E+00 1.96740E+00 1.59375E+00
 -1      1540 1.35268E+00 2.02443E+00 1.59375E+00
 -1      1541 4.74999E-01-2.38798E+00 1.59375E+00
 -1      1542 4.61617E-01-2.32070E+00 1.59375E+00
 -1      1543 8.88093E-01-2.14405E+00 5.00000E-01
 -1      1544-2.38798E+00 4.74999E-01 7.18750E-01
 -1      1545-2.32070E+00 4.61617E-01 7.18750E-01
 -1      1546 1.60850E+00-2.28025E+00 2.25000E+00
 -1      1547 2.02443E+00-1.35268E+00 1.15625E+00
 -1      1548 1.96740E+00-1.31457E+00 1.15625E+00
 -1      1549 2.38798E+00-4.74999E-01 7.18750E-01
 -1      1550 2.32070E+00-4.61617E-01 7.18750E-01
 -1      1551-1.35268E+00 2.02443E+00 1.48438E+00
 -1      1552-1.31457E+00 1.96740E+00 1.48438E+00
 -1      1553 4.74999E-01 2.38798E+00 2.03125E+00
 -1      1554 4.61617E-01 2.32070E+00 2.03125E+00
 -1      1555 1.35268E+00-2.02443E+00 1.59375E+00
 -1      1556 1.31457E+00-1.96740E+00 1.59375E+00
 -1      1557-4.74999E-01 2.38798E+00 9.37500E-01
 -1      1558-4.61617E-01 2.32070E+00 9.37500E-01
 -1      1559-4.74999E-01 2.38798E+00 1.59375E+00
 -1      1560-4.61617E-01 2.32070E+00 1.59375E+00
 -1      1561-1.49113E+00-2.35868E+00 2.25000E+00
 -1      1562-4.74999E-01 2.38798E+00 2.03125E+00
 -1      1563-4.61617E-01 2.32070E+00 2.03125E+00
 -1      1564-2.38798E+00-4.74999E-01 9.37500E-01
 -1      1565-2.32070E+00-4.61617E-01 9.37500E-01
 -1      1566-6.74855E-01 2.23237E+00 2.25000E+00
 -1      1567 2.05573E+00-1.10133E+00 2.25000E+00
 -1      1568 2.05573E+00 1.10133E+00 5.00000E-01
 -1      1569 1.80419E+00 1.47778E+00 5.00000E-01
 -1      1570 2.30808E-01 2.32070E+00 2.25000E+00
 -1      1571 6.74855E-01 2.23237E+00 2.25000E+00
 -1      1572-6.13448E-01 2.72223E+00 2.25000E+00
 -1      1573-4.74999E-01 2.38798E+00 1.15625E+00
 -1      1574-4.61617E-01 2.32070E+00 1.15625E+00
 -1      1575-1.47778E+00 1.80419E+00 2.25000E+00
 -1      1576 4.74999E-01-2.38798E+00 7.18750E-01
 -1      1577 4.61617E-01-2.32070E+00 7.18750E-01
 -1      1578-2.38798E+00 4.74999E-01 2.03125E+00
 -1      1579-2.32070E+00 4.61617E-01 2.03125E+00
 -1      1580 2.30808E-01-2.32070E+00 5.00000E-01
 -1      1581 4.74999E-01 2.38798E+00 1.15625E+00
 -1      1582 4.61617E-01 2.32070E+00 1.15625E+00
 -1      1583 2.38798E+00 4.74999E-01 1.04688E+00
 -1      1584 2.32070E+00 4.61617E-01 1.04688E+00
 -1      1585-2.30808E-01 2.32070E+00 2.25000E+00
 -1      1586-4.74999E-01 2.74977E+00 2.25000E+00
 -1      1587-3.46213E-01 2.32070E+00 2.25000E+00
 -1      1588 4.74999E-01 2.38798E+00 1.59375E+00
 -1      1589 4.61617E-01 2.32070E+00 1.59375E+00
 -1      1590-1.31457E+00-1.96740E+00 1.04688E+00
 -1      1591-1.35268E+00-2.02443E+00 1.04688E+00
 -1      1592-2.38798E+00-4.74999E-01 1.59375E+00
 -1      1593-2.32070E+00-4.61617E-01 1.59375E+00
 -1      1594 2.38798E+00 4.74999E-01 7.18750E-01
 -1      1595 2.32070E+00 4.61617E-01 7.18750E-01
 -1      1596-1.35268E+00-2.02443E+00 2.03125E+00
 -1      1597-1.31457E+00-1.96740E+00 2.03125E+00
 -1      1598-2.38798E+00-4.74999E-01 2.03125E+00
 -1      1599-2.32070E+00-4.61617E-01 2.03125E+00
 -1      1600 6.74855E-01 2.23237E+00 5.00000E-01
 -1      1601 2.02443E+00 1.35268E+00 2.03125E+00
 -1      1602 1.96740E+00 1.31457E+00 2.03125E+00
 -1      1603-1.35268E+00 2.02443E+00 7.18750E-01
 -1      1604-1.31457E+00 1.96740E+00 7.18750E-01
 -1      1605-2.32070E+00-2.30808E-01 2.25000E+00
 -1      1606 2.05573E+00 1.10133E+00 2.25000E+00
 -1      1607 1.39617E+00 1.88580E+00 5.00000E-01
 -1      1608-2.23237E+00 6.74855E-01 2.25000E+00
 -1      1609-2.23237E+00-6.74855E-01 2.25000E+00
 -1      1610-4.74999E-01 2.38798E+00 1.04688E+00
 -1      1611-4.61617E-01 2.32070E+00 1.04688E+00
 -1      1612 1.35268E+00 2.02443E+00 2.03125E+00
 -1      1613 1.31457E+00 1.96740E+00 2.03125E+00
 -1      1614-4.74999E-01 2.38798E+00 7.18750E-01
 -1      1615-4.61617E-01 2.32070E+00 7.18750E-01
 -1      1616-2.02443E+00-1.35268E+00 7.18750E-01
 -1      1617-1.96740E+00-1.31457E+00 7.18750E-01
 -1      1618-1.47778E+00-1.80419E+00 5.00000E-01
 -1      1619 1.35268E+00-2.02443E+00 2.03125E+00
 -1      1620 1.31457E+00-1.96740E+00 2.03125E+00
 -1      1621-1.35268E+00-2.02443E+00 1.59375E+00
 -1      1622-1.31457E+00-1.96740E+00 1.59375E+00
 -1      1623-4.74999E-01-2.38798E+00 1.15625E+00
 -1      1624-4.61617E-01-2.32070E+00 1.15625E+00
 -1      1625 2.38798E+00 4.74999E-01 1.81250E+00
 -1      1626 2.32070E+00 4.61617E-01 1.81250E+00
 -1      1627 4.74999E-01 2.38798E+00 7.18750E-01
 -1      1628 4.61617E-01 2.32070E+00 7.18750E-01
 -1      1629 1.47778E+00-1.80419E+00 2.25000E+00
 -1      1630-4.74999E-01-2.38798E+00 1.70312E+00
 -1      1631-4.61617E-01-2.32070E+00 1.70312E+00
 -1      1632 2.02443E+00-1.35268E+00 7.18750E-01
 -1      1633 1.96740E+00-1.31457E+00 7.18750E-01
 -1      1634-6.74855E-01-2.23237E+00 5.00000E-01
 -1      1635 2.02443E+00 1.35268E+00 1.48438E+00
 -1      1636 1.96740E+00 1.31457E+00 1.48438E+00
 -1      1637 2.72223E+00 6.13448E-01 2.25000E+00
 -1      1638 2.38798E+00 4.74999E-01 1.59375E+00
 -1      1639 2.32070E+00 4.61617E-01 1.59375E+00
 -1      1640-2.02443E+00-1.35268E+00 1.15625E+00
 -1      1641-1.96740E+00-1.31457E+00 1.15625E+00
 -1      1642-1.80419E+00-1.47778E+00 5.00000E-01
 -1      1643 4.74999E-01-2.38798E+00 1.48438E+00
 -1      1644 4.61617E-01-2.32070E+00 1.48438E+00
 -1      1645 1.60850E+00 2.28025E+00 2.25000E+00
 -1      1646 4.74999E-01-2.38798E+00 1.15625E+00
 -1      1647 4.61617E-01-2.32070E+00 1.15625E+00
 -1      1648-5.68236E-01 2.27654E+00 2.25000E+00
 -1      1649 2.35868E+00 1.49113E+00 2.25000E+00
 -1      1650-1.10133E+00 2.05573E+00 5.00000E-01
 -1      1651 2.30808E-01 2.32070E+00 5.00000E-01
 -1      1652-2.02443E+00-1.35268E+00 2.03125E+00
 -1      1653-1.96740E+00-1.31457E+00 2.03125E+00
 -1      1654-1.60850E+00 2.28025E+00 2.25000E+00
 -1      1655-1.35268E+00-2.02443E+00 7.18750E-01
 -1      1656-1.31457E+00-1.96740E+00 7.18750E-01
 -1      1657 1.49113E+00 2.35868E+00 2.25000E+00
 -1      1658 2.02443E+00 1.35268E+00 6.09375E-01
 -1      1659 1.96740E+00 1.31457E+00 6.09375E-01
 -1      1660 1.88580E+00 1.39617E+00 5.00000E-01
 -1      1661 1.10133E+00 2.05573E+00 2.25000E+00
 -1      1662 2.02443E+00 1.35268E+00 1.04688E+00
 -1      1663 1.96740E+00 1.31457E+00 1.04688E+00
 -1      1664 1.10133E+00-2.05573E+00 2.25000E+00
 -1      1665-2.30808E-01-2.32070E+00 5.00000E-01
 -1      1666-2.72223E+00 6.13448E-01 2.25000E+00
 -1      1667-2.05573E+00-1.10133E+00 2.25000E+00
 -1      1668 1.10133E+00 2.05573E+00 5.00000E-01
 -1      1669-4.74999E-01-2.38798E+00 2.03125E+00
 -1      1670-4.61617E-01-2.32070E+00 2.03125E+00
 -1      1671-6.74855E-01-2.23237E+00 2.25000E+00
 -1      1672 1.35268E+00 2.02443E+00 1.48438E+00
 -1      1673 1.31457E+00 1.96740E+00 1.48438E+00
 -1      1674-2.32070E+00 2.30808E-01 2.25000E+00
 -1      1675 6.74855E-01-2.23237E+00 5.00000E-01
 -1      1676 5.63875E+00-9.50000E-01 5.00000E-01
 -1      1677 5.51240E+00-1.25504E+00 5.00000E-01
 -1      1678-4.74999E-01-2.38798E+00 7.18750E-01
 -1      1679-4.61617E-01-2.32070E+00 7.18750E-01
 -1      1680-1.20795E+00 2.01156E+00 5.00000E-01
 -1      1681 6.74855E-01-2.23237E+00 2.25000E+00
 -1      1682 2.02443E+00-1.35268E+00 1.59375E+00
 -1      1683 1.96740E+00-1.31457E+00 1.59375E+00
 -1      1684-2.35868E+00-1.49113E+00 2.25000E+00
 -1      1685 2.02443E+00 1.35268E+00 1.70312E+00
 -1      1686 1.96740E+00 1.31457E+00 1.70312E+00
 -1      1687-4.74999E-01-2.38798E+00 1.04688E+00
 -1      1688-4.61617E-01-2.32070E+00 1.04688E+00
 -1      1689 2.32070E+00-2.30808E-01 5.00000E-01
 -1      1690-1.80419E+00-1.47778E+00 2.25000E+00
 -1      1691-2.30808E-01-2.32070E+00 2.25000E+00
 -1      1692-2.38798E+00-4.74999E-01 1.48438E+00
 -1      1693-2.32070E+00-4.61617E-01 1.48438E+00
 -1      1694 2.32070E+00 2.30808E-01 5.00000E-01
 -1      1695-1.10133E+00 2.05573E+00 2.25000E+00
 -1      1696 2.23237E+00 6.74855E-01 5.00000E-01
 -1      1697-2.32070E+00-2.30808E-01 5.00000E-01
 -1      1698-6.13448E-01-2.72223E+00 2.25000E+00
 -1      1699-1.10133E+00-2.05573E+00 2.25000E+00
 -1      1700-1.47778E+00-1.80419E+00 2.25000E+00
 -1      1701 2.38798E+00 4.74999E-01 2.03125E+00
 -1      1702 2.32070E+00 4.61617E-01 2.03125E+00
 -1      1703-2.05573E+00 1.10133E+00 5.00000E-01
 -1      1704 1.35268E+00-2.02443E+00 1.70312E+00
 -1      1705 1.31457E+00-1.96740E+00 1.70312E+00
 -1      1706-2.38798E+00-4.74999E-01 7.18750E-01
 -1      1707-2.32070E+00-4.61617E-01 7.18750E-01
 -1      1708-2.23237E+00-6.74855E-01 5.00000E-01
 -1      1709 2.28025E+00 1.60850E+00 2.25000E+00
 -1      1710 1.80419E+00 1.47778E+00 2.25000E+00
 -1      1711 1.47778E+00 1.80419E+00 2.25000E+00
 -1      1712-1.47778E+00 1.80419E+00 5.00000E-01
 -1      1713-4.61617E-01-2.32070E+00 1.48438E+00
 -1      1714-4.74999E-01-2.38798E+00 1.48438E+00
 -1      1715-2.74977E+00-4.74999E-01 2.25000E+00
 -1      1716-2.02443E+00-1.35268E+00 1.04688E+00
 -1      1717-1.96740E+00-1.31457E+00 1.04688E+00
 -1      1718 2.01156E+00 1.20795E+00 2.25000E+00
 -1      1719 1.35268E+00 2.02443E+00 1.26562E+00
 -1      1720 1.31457E+00 1.96740E+00 1.26562E+00
 -1      1721 2.02443E+00 1.35268E+00 1.26562E+00
 -1      1722 1.96740E+00 1.31457E+00 1.26562E+00
 -1      1723-4.65895E+00 3.31545E+00 5.00000E-01
 -1      1724-4.78531E+00 3.01041E+00 5.00000E-01
 -1      1725-1.35268E+00 2.02443E+00 1.04688E+00
 -1      1726-1.31457E+00 1.96740E+00 1.04688E+00
 -1      1727 1.35268E+00 2.02443E+00 1.70312E+00
 -1      1728 1.31457E+00 1.96740E+00 1.70312E+00
 -1      1729-2.28025E+00-1.60850E+00 2.25000E+00
 -1      1730-2.02443E+00 1.35268E+00 7.18750E-01
 -1      1731-1.96740E+00 1.31457E+00 7.18750E-01
 -1      1732-3.31545E+00 4.65895E+00 5.00000E-01
 -1      1733-3.01041E+00 4.78531E+00 5.00000E-01
 -1      1734-2.38798E+00-4.74999E-01 1.15625E+00
 -1      1735-2.32070E+00-4.61617E-01 1.15625E+00
 -1      1736-1.80419E+00 1.47778E+00 5.00000E-01
 -1      1737-1.49113E+00 2.35868E+00 2.25000E+00
 -1      1738-2.02443E+00-1.35268E+00 1.48438E+00
 -1      1739-1.96740E+00-1.31457E+00 1.48438E+00
 -1      1740-1.35268E+00 2.02443E+00 1.92188E+00
 -1      1741-1.31457E+00 1.96740E+00 1.92188E+00
 -1      1742 4.61617E-01-2.32070E+00 1.04688E+00
 -1      1743 4.74999E-01-2.38798E+00 1.04688E+00
 -1      1744-2.38798E+00-4.74999E-01 1.92188E+00
 -1      1745-2.32070E+00-4.61617E-01 1.92188E+00
 -1      1746-2.02443E+00 1.35268E+00 1.15625E+00
 -1      1747-1.96740E+00 1.31457E+00 1.15625E+00
 -1      1748-4.74999E-01 2.38798E+00 1.26562E+00
 -1      1749-4.61617E-01 2.32070E+00 1.26562E+00
 -1      1750-4.65895E+00-3.31545E+00 5.00000E-01
 -1      1751-4.78531E+00-3.01041E+00 5.00000E-01
 -1      1752 2.02443E+00-1.35268E+00 1.48438E+00
 -1      1753 1.96740E+00-1.31457E+00 1.48438E+00
 -1      1754 1.35268E+00-2.02443E+00 7.18750E-01
 -1      1755 1.31457E+00-1.96740E+00 7.18750E-01
 -1      1756-4.74999E-01-2.38798E+00 1.26562E+00
 -1      1757-4.61617E-01-2.32070E+00 1.26562E+00
 -1      1758-6.74855E-01 2.23237E+00 5.00000E-01
 -1      1759-1.35268E+00-2.02443E+00 1.92188E+00
 -1      1760-1.31457E+00-1.96740E+00 1.92188E+00
 -1      1761-2.02443E+00 1.35268E+00 1.26562E+00
 -1      1762-1.96740E+00 1.31457E+00 1.26562E+00
 -1      1763-2.02443E+00 1.35268E+00 1.04688E+00
 -1      1764-1.96740E+00 1.31457E+00 1.04688E+00
 -1      1765-2.32070E+00 2.30808E-01 5.00000E-01
 -1      1766 1.96740E+00 1.31457E+00 2.14062E+00
 -1      1767 2.02443E+00 1.35268E+00 2.14062E+00
 -1      1768 1.35268E+00-2.02443E+00 2.14062E+00
 -1      1769 1.31457E+00-1.96740E+00 2.14062E+00
 -1      1770-4.74999E-01 2.38798E+00 1.70312E+00
 -1      1771-4.61617E-01 2.32070E+00 1.70312E+00
 -1      1772-2.01156E+00-1.20795E+00 2.25000E+00
 -1      1773 2.01156E+00 1.20795E+00 5.00000E-01
 -1      1774 2.23237E+00 6.74855E-01 2.25000E+00
 -1      1775-4.74999E-01-2.74977E+00 2.25000E+00
 -1      1776-2.02443E+00-1.35268E+00 1.70312E+00
 -1      1777-1.96740E+00-1.31457E+00 1.70312E+00
 -1      1778 2.19155E+00 1.42191E+00 2.25000E+00
 -1      1779-2.32070E+00-3.46213E-01 5.00000E-01
 -1      1780 2.32070E+00 4.61617E-01 1.70312E+00
 -1      1781 2.38798E+00 4.74999E-01 1.70312E+00
 -1      1782-1.39617E+00-1.88580E+00 5.00000E-01
 -1      1783 4.74999E-01-2.38798E+00 1.26562E+00
 -1      1784 4.61617E-01-2.32070E+00 1.26562E+00
 -1      1785 5.68236E-01 2.27654E+00 5.00000E-01
 -1      1786 2.38798E+00 4.74999E-01 6.09375E-01
 -1      1787 2.32070E+00 4.61617E-01 6.09375E-01
 -1      1788 1.20795E+00-2.01156E+00 2.25000E+00
 -1      1789 2.38798E+00-4.74999E-01 1.59375E+00
 -1      1790 2.32070E+00-4.61617E-01 1.59375E+00
 -1      1791 2.74977E+00 4.74999E-01 2.25000E+00
 -1      1792 4.74999E-01-2.38798E+00 2.03125E+00
 -1      1793 4.61617E-01-2.32070E+00 2.03125E+00
 -1      1794 1.35268E+00 2.02443E+00 1.04688E+00
 -1      1795 1.31457E+00 1.96740E+00 1.04688E+00
 -1      1796 5.63875E+00 9.50000E-01 5.00000E-01
 -1      1797 5.51240E+00 1.25504E+00 5.00000E-01
 -1      1798-2.38798E+00-4.74999E-01 1.26562E+00
 -1      1799-2.32070E+00-4.61617E-01 1.26562E+00
 -1      1800 4.74999E-01 2.74977E+00 2.25000E+00
 -1      1801 2.32070E+00 2.30808E-01 2.25000E+00
 -1      1802 1.49113E+00-2.35868E+00 2.25000E+00
 -1      1803 4.74999E-01-2.38798E+00 1.92188E+00
 -1      1804 4.61617E-01-2.32070E+00 1.92188E+00
 -1      1805 1.39617E+00-1.88580E+00 2.25000E+00
 -1      1806 9.50000E-01-5.63875E+00 5.00000E-01
 -1      1807 1.25504E+00-5.51240E+00 5.00000E-01
 -1      1808-2.38798E+00-4.74999E-01 2.14062E+00
 -1      1809-2.32070E+00-4.61617E-01 2.14062E+00
 -1      1810-2.38798E+00 4.74999E-01 1.15625E+00
 -1      1811-2.32070E+00 4.61617E-01 1.15625E+00
 -1      1812 4.74999E-01 2.38798E+00 6.09375E-01
 -1      1813 4.61617E-01 2.32070E+00 6.09375E-01
 -1      1814 3.46213E-01 2.32070E+00 5.00000E-01
 -1      1815-2.27654E+00 5.68236E-01 2.25000E+00
 -1      1816-2.27654E+00-5.68236E-01 2.25000E+00
 -1      1817-1.60850E+00-2.28025E+00 2.25000E+00
 -1      1818 1.96740E+00-1.31457E+00 1.04688E+00
 -1      1819 2.02443E+00-1.35268E+00 1.04688E+00
 -1      1820-1.88580E+00-1.39617E+00 2.25000E+00
 -1      1821-2.02443E+00 1.35268E+00 6.09375E-01
 -1      1822-1.96740E+00 1.31457E+00 6.09375E-01
 -1      1823 1.80419E+00-1.47778E+00 2.25000E+00
 -1      1824-1.10133E+00-2.05573E+00 5.00000E-01
 -1      1825 2.30808E-01-2.32070E+00 2.25000E+00
 -1      1826 2.38798E+00-4.74999E-01 1.70312E+00
 -1      1827 2.32070E+00-4.61617E-01 1.70312E+00
 -1      1828-1.39617E+00-1.88580E+00 2.25000E+00
 -1      1829 1.10133E+00-2.05573E+00 5.00000E-01
 -1      1830-2.32070E+00 3.46213E-01 5.00000E-01
 -1      1831-2.32070E+00 3.46213E-01 2.25000E+00
 -1      1832-1.88580E+00 1.39617E+00 5.00000E-01
 -1      1833 2.02443E+00-1.35268E+00 1.70312E+00
 -1      1834 1.96740E+00-1.31457E+00 1.70312E+00
 -1      1835-2.30808E-01 2.32070E+00 5.00000E-01
 -1      1836-1.35268E+00 2.02443E+00 2.14062E+00
 -1      1837-1.31457E+00 1.96740E+00 2.14062E+00
 -1      1838-1.39617E+00 1.88580E+00 2.25000E+00
 -1      1839-3.46213E-01-2.32070E+00 2.25000E+00
 -1      1840 2.27654E+00 5.68236E-01 5.00000E-01
 -1      1841 1.35268E+00-2.02443E+00 6.09375E-01
 -1      1842 1.31457E+00-1.96740E+00 6.09375E-01
 -1      1843-2.56887E+00 4.74999E-01 2.25000E+00
 -1      1844-1.48059E+00 2.15234E+00 2.25000E+00
 -1      1845-2.02443E+00-1.35268E+00 6.09375E-01
 -1      1846-1.96740E+00-1.31457E+00 6.09375E-01
 -1      1847 2.38798E+00-4.74999E-01 1.15625E+00
 -1      1848 2.32070E+00-4.61617E-01 1.15625E+00
 -1      1849 2.32070E+00-2.30808E-01 2.25000E+00
 -1      1850-2.32070E+00-3.46213E-01 2.25000E+00
 -1      1851 2.38798E+00-4.74999E-01 2.03125E+00
 -1      1852 2.32070E+00-4.61617E-01 2.03125E+00
 -1      1853-1.20795E+00 2.01156E+00 2.25000E+00
 -1      1854 2.02443E+00-1.35268E+00 2.03125E+00
 -1      1855 1.96740E+00-1.31457E+00 2.03125E+00
 -1      1856-2.38798E+00 4.74999E-01 1.92188E+00
 -1      1857-2.32070E+00 4.61617E-01 1.92188E+00
 -1      1858 2.38798E+00-4.74999E-01 1.26562E+00
 -1      1859 2.32070E+00-4.61617E-01 1.26562E+00
 -1      1860 1.20795E+00 2.01156E+00 5.00000E-01
 -1      1861-1.88580E+00-1.39617E+00 5.00000E-01
 -1      1862 2.02443E+00 1.35268E+00 1.92188E+00
 -1      1863 1.96740E+00 1.31457E+00 1.92188E+00
 -1      1864 2.32070E+00-4.61617E-01 1.04688E+00
 -1      1865 2.38798E+00-4.74999E-01 1.04688E+00
 -1      1866 1.20795E+00-2.01156E+00 5.00000E-01
 -1      1867 2.23237E+00-6.74855E-01 5.00000E-01
 -1      1868-2.01156E+00 1.20795E+00 5.00000E-01
 -1      1869-2.56887E+00-4.74999E-01 2.25000E+00
 -1      1870 2.35868E+00-1.49113E+00 2.25000E+00
 -1      1871-4.61617E-01-2.32070E+00 2.14062E+00
 -1      1872-4.74999E-01-2.38798E+00 2.14062E+00
 -1      1873 2.38798E+00-4.74999E-01 1.48438E+00
 -1      1874 2.32070E+00-4.61617E-01 1.48438E+00
 -1      1875-2.27654E+00-5.68236E-01 5.00000E-01
 -1      1876 5.68236E-01 2.27654E+00 2.25000E+00
 -1      1877 6.13448E-01 2.72223E+00 2.25000E+00
 -1      1878-2.01156E+00-1.20795E+00 5.00000E-01
 -1      1879 1.31457E+00 1.96740E+00 2.14062E+00
 -1      1880 1.35268E+00 2.02443E+00 2.14062E+00
 -1      1881 2.02443E+00-1.35268E+00 1.26562E+00
 -1      1882 1.96740E+00-1.31457E+00 1.26562E+00
 -1      1883-1.35268E+00-2.02443E+00 2.14062E+00
 -1      1884-1.31457E+00-1.96740E+00 2.14062E+00
 -1      1885-2.02443E+00 1.35268E+00 1.48438E+00
 -1      1886-1.96740E+00 1.31457E+00 1.48438E+00
 -1      1887-2.02443E+00-1.35268E+00 2.14062E+00
 -1      1888-1.96740E+00-1.31457E+00 2.14062E+00
 -1      1889 5.68236E-01-2.27654E+00 5.00000E-01
 -1      1890 2.02443E+00-1.35268E+00 6.09375E-01
 -1      1891 1.96740E+00-1.31457E+00 6.09375E-01
 -1      1892 1.88580E+00-1.39617E+00 5.00000E-01
 -1      1893-2.19155E+00-1.42191E+00 2.25000E+00
 -1      1894-4.74999E-01-2.38798E+00 8.28125E-01
 -1      1895-4.61617E-01-2.32070E+00 8.28125E-01
 -1      1896-2.38798E+00 4.74999E-01 1.59375E+00
 -1      1897-2.32070E+00 4.61617E-01 1.59375E+00
 -1      1898 2.74977E+00-4.74999E-01 2.25000E+00
 -1      1899-4.74999E-01 2.38798E+00 1.48438E+00
 -1      1900-4.61617E-01 2.32070E+00 1.48438E+00
 -1      1901-2.32070E+00 4.61617E-01 1.70312E+00
 -1      1902-2.38798E+00 4.74999E-01 1.70312E+00
 -1      1903-5.68236E-01-2.27654E+00 2.25000E+00
 -1      1904-1.20795E+00-2.01156E+00 2.25000E+00
 -1      1905-5.68236E-01-2.27654E+00 5.00000E-01
 -1      1906 2.72223E+00-6.13448E-01 2.25000E+00
 -1      1907-2.38798E+00 4.74999E-01 1.26562E+00
 -1      1908-2.32070E+00 4.61617E-01 1.26562E+00
 -1      1909 2.23237E+00-6.74855E-01 2.25000E+00
 -1      1910 2.28025E+00-1.60850E+00 2.25000E+00
 -1      1911-5.63875E+00-9.50000E-01 5.00000E-01
 -1      1912-5.51240E+00-1.25504E+00 5.00000E-01
 -1      1913-1.80419E+00 1.47778E+00 2.25000E+00
 -1      1914-2.02443E+00 1.35268E+00 2.03125E+00
 -1      1915-1.96740E+00 1.31457E+00 2.03125E+00
 -1      1916-2.28025E+00 1.60850E+00 2.25000E+00
 -1      1917 2.38798E+00-4.74999E-01 1.92188E+00
 -1      1918 2.32070E+00-4.61617E-01 1.92188E+00
 -1      1919 1.88580E+00-1.39617E+00 2.25000E+00
 -1      1920-3.46213E-01 2.32070E+00 5.00000E-01
 -1      1921 4.65895E+00-3.31545E+00 5.00000E-01
 -1      1922 4.78531E+00-3.01041E+00 5.00000E-01
 -1      1923 9.50000E-01 5.63875E+00 5.00000E-01
 -1      1924 1.25504E+00 5.51240E+00 5.00000E-01
 -1      1925 4.74999E-01-2.38798E+00 2.14062E+00
 -1      1926 4.61617E-01-2.32070E+00 2.14062E+00
 -1      1927-2.05573E+00 1.10133E+00 2.25000E+00
 -1      1928 3.46213E-01-2.32070E+00 2.25000E+00
 -1      1929-3.31545E+00-4.65895E+00 5.00000E-01
 -1      1930-3.01041E+00-4.78531E+00 5.00000E-01
 -1      1931 5.68236E-01-2.27654E+00 2.25000E+00
 -1      1932-1.20795E+00-2.01156E+00 5.00000E-01
 -1      1933 1.48059E+00-2.15234E+00 2.25000E+00
 -1      1934 2.01156E+00-1.20795E+00 2.25000E+00
 -1      1935 2.32070E+00-3.46213E-01 2.25000E+00
 -1      1936-2.02443E+00-1.35268E+00 1.92188E+00
 -1      1937-1.96740E+00-1.31457E+00 1.92188E+00
 -1      1938-4.74999E-01-2.56887E+00 2.25000E+00
 -1      1939-2.38798E+00-4.74999E-01 8.28125E-01
 -1      1940-2.32070E+00-4.61617E-01 8.28125E-01
 -1      1941 2.38798E+00-4.74999E-01 2.14062E+00
 -1      1942 2.32070E+00-4.61617E-01 2.14062E+00
 -1      1943-5.63875E+00 9.50000E-01 5.00000E-01
 -1      1944-5.51240E+00 1.25504E+00 5.00000E-01
 -1      1945 1.20795E+00 2.01156E+00 2.25000E+00
 -1      1946 5.44223E-01-2.55510E+00 2.25000E+00
 -1      1947 3.46213E-01-2.32070E+00 5.00000E-01
 -1      1948 1.42191E+00-2.19155E+00 2.25000E+00
 -1      1949-3.46213E-01-2.32070E+00 5.00000E-01
 -1      1950-1.88580E+00 1.39617E+00 2.25000E+00
 -1      1951 3.31545E+00 4.65895E+00 5.00000E-01
 -1      1952 3.01041E+00 4.78531E+00 5.00000E-01
 -1      1953 4.65895E+00 3.31545E+00 5.00000E-01
 -1      1954 4.78531E+00 3.01041E+00 5.00000E-01
 -1      1955 3.31545E+00-4.65895E+00 5.00000E-01
 -1      1956 3.01041E+00-4.78531E+00 5.00000E-01
 -1      1957-9.50000E-01-5.63875E+00 5.00000E-01
 -1      1958-1.25504E+00-5.51240E+00 5.00000E-01
 -1      1959 4.74999E-01-2.56887E+00 2.25000E+00
 -1      1960 2.27654E+00-5.68236E-01 2.25000E+00
 -1      1961 2.56887E+00-4.74999E-01 2.25000E+00
 -1      1962-9.50000E-01 5.63875E+00 5.00000E-01
 -1      1963-1.25504E+00 5.51240E+00 5.00000E-01
 -1      1964-2.19155E+00 1.42191E+00 2.25000E+00
 -1      1965-4.30523E+00-1.03939E+01-5.00000E-01
 -1      1966 0.00000E+00 1.12497E+01-5.00000E-01
 -1      1967-7.95528E+00 7.95528E+00-5.00000E-01
 -1      1968 0.00000E+00-1.12497E+01-5.00000E-01
 -1      1969 4.90905E+00-4.90905E+00-5.00000E-01
 -1      1970-1.03939E+01-4.30523E+00-5.00000E-01
 -1      1971 9.35357E+00 6.24987E+00-5.00000E-01
 -1      1972 9.39032E+00-4.60238E+00-5.00000E-01
 -1      1973-1.04410E+01-6.83112E+00-5.00000E-01
 -1      1974-3.08926E+00 1.14502E+01-5.00000E-01
 -1      1975 9.20579E+00 9.20579E+00 5.00000E-01
 -1      1976 7.01632E+00 1.05007E+01 5.00000E-01
 -1      1977 4.98223E+00 1.20279E+01 5.00000E-01
 -1      1978 2.46379E+00 1.23864E+01 5.00000E-01
 -1      1979 0.00000E+00 1.30190E+01 5.00000E-01
 -1      1980-2.46379E+00 1.23864E+01 5.00000E-01
 -1      1981-4.98223E+00 1.20279E+01 5.00000E-01
 -1      1982-2.12850E+00 1.07255E+01 5.00000E-01
 -1      1983-7.01632E+00 1.05007E+01 5.00000E-01
 -1      1984 1.20279E+01 4.98223E+00 5.00000E-01
 -1      1985 1.05007E+01 7.01632E+00 5.00000E-01
 -1      1986 1.30190E+01 0.00000E+00 5.00000E-01
 -1      1987 1.23864E+01-2.46379E+00 5.00000E-01
 -1      1988 1.23864E+01 2.46379E+00 5.00000E-01
 -1      1989 1.20279E+01-4.98223E+00 5.00000E-01
 -1      1990 1.05007E+01-7.01632E+00 5.00000E-01
 -1      1991 9.20579E+00-9.20579E+00 5.00000E-01
 -1      1992-1.04717E+01-7.16744E+00 5.00000E-01
 -1      1993 7.01632E+00-1.05007E+01 5.00000E-01
 -1      1994 4.98223E+00-1.20279E+01 5.00000E-01
 -1      1995 2.51551E+00 1.20913E+01-5.00000E-01
 -1      1996 2.46379E+00-1.23864E+01 5.00000E-01
 -1      1997 5.61503E+00 8.79655E+00-5.00000E-01
 -1      1998 0.00000E+00-1.30190E+01 5.00000E-01
 -1      1999-2.46379E+00-1.23864E+01 5.00000E-01
 -1      2000-4.98223E+00-1.20279E+01 5.00000E-01
 -1      2001-7.01632E+00-1.05007E+01 5.00000E-01
 -1      2002-9.20579E+00-9.20579E+00 5.00000E-01
 -1      2003 7.88674E+00-9.47394E+00 5.00000E-01
 -1      2004-1.20279E+01-4.98223E+00 5.00000E-01
 -1      2005-9.20579E+00 9.20579E+00 5.00000E-01
 -1      2006 1.08102E+01 7.44525E+00-5.00000E-01
 -1      2007-1.05007E+01 7.01632E+00 5.00000E-01
 -1      2008-1.20279E+01 4.98223E+00 5.00000E-01
 -1      2009-1.23864E+01-2.46379E+00 5.00000E-01
 -1      2010-1.23864E+01 2.46379E+00 5.00000E-01
 -1      2011 1.10341E+01 2.19481E+00-5.00000E-01
 -1      2012-1.30190E+01 0.00000E+00 5.00000E-01
 -1      2013 0.00000E+00 0.00000E+00 5.00000E-01
 -1      2014 6.24987E+00-9.35357E+00-5.00000E-01
 -1      2015-4.84667E+00 1.21787E+01-5.00000E-01
 -1      2016 3.08926E+00-1.14502E+01-5.00000E-01
 -1      2017-1.18375E+01 6.42965E+00 5.00000E-01
 -1      2018 8.46496E+00 5.65611E+00 5.00000E-01
 -1      2019 5.65611E+00 8.46496E+00 5.00000E-01
 -1      2020-3.82402E+00 1.29168E+01 5.00000E-01
 -1      2021 9.98513E+00 1.98616E+00 5.00000E-01
 -1      2022 5.65612E+00-8.46497E+00 5.00000E-01
 -1      2023 5.58199E+00 1.12230E+01-5.00000E-01
 -1      2024-9.15036E+00 9.41152E+00-5.00000E-01
 -1      2025-1.03791E+01 8.04246E+00-5.00000E-01
 -1      2026-1.97225E+00 4.76000E+00-5.00000E-01
 -1      2027 1.18101E+01-3.96664E+00-5.00000E-01
 -1      2028 1.17710E+01-3.66092E+00 5.00000E-01
 -1      2029 1.29090E+01 2.37946E+00-5.00000E-01
 -1      2030-1.10341E+01 2.19481E+00-5.00000E-01
 -1      2031 1.35146E+01 1.70042E+00 5.00000E-01
 -1      2032-3.66092E+00-1.17710E+01 5.00000E-01
 -1      2033-1.21336E+01-2.30310E+00-5.00000E-01
 -1      2034 3.82402E+00-1.29168E+01 5.00000E-01
 -1      2035-1.10279E+01 5.47770E+00-5.00000E-01
 -1      2036-2.81280E+00 1.30713E+01-5.00000E-01
 -1      2037-9.22520E+00 6.38614E+00-5.00000E-01
 -1      2038 1.33969E+01-1.41013E+00 5.00000E-01
 -1      2039-6.51258E+00 1.14045E+01-5.00000E-01
 -1      2040-9.41407E+00-7.92290E+00 5.00000E-01
 -1      2041-1.23217E+01-4.22352E+00-5.00000E-01
 -1      2042-3.60439E+00-1.31330E+01 5.00000E-01
 -1      2043 4.84667E+00-1.21787E+01-5.00000E-01
 -1      2044-1.24945E+01 1.68471E-01-5.00000E-01
 -1      2045 9.08919E+00-6.07320E+00 5.00000E-01
 -1      2046-2.85986E+00-2.85986E+00-5.00000E-01
 -1      2047-2.13262E+00-1.07215E+01 5.00000E-01
 -1      2048-7.88674E+00 9.47394E+00 5.00000E-01
 -1      2049-9.47394E+00 7.88674E+00 5.00000E-01
 -1      2050-7.30325E+00 9.70888E+00-5.00000E-01
 -1      2051-9.14275E+00-6.10900E+00 5.00000E-01
 -1      2052 9.47394E+00-7.88674E+00 5.00000E-01
 -1      2053 5.95152E+00 9.73986E+00 5.00000E-01
 -1      2054-8.46497E+00 5.65612E+00 5.00000E-01
 -1      2055-9.98513E+00 1.98616E+00 5.00000E-01
 -1      2056 1.07539E+01-8.35581E+00 5.00000E-01
 -1      2057-1.17710E+01 3.66092E+00 5.00000E-01
 -1      2058-1.04369E+01 8.76929E+00 5.00000E-01
 -1      2059 2.24193E+00 8.72859E+00-5.00000E-01
 -1      2060 7.24487E+00 1.12150E+01-5.00000E-01
 -1      2061 2.15922E+00 4.17117E-01-5.00000E-01
 -1      2062 1.04716E+01-6.84751E+00-5.00000E-01
 -1      2063-2.31557E+00-1.22603E+01-5.00000E-01
 -1      2064-1.12232E+00 1.22759E+01 5.00000E-01
 -1      2065-1.22759E+01 1.12232E+00 5.00000E-01
 -1      2066 1.04702E+01 8.47592E+00 5.00000E-01
 -1      2067 1.07215E+01-2.13262E+00 5.00000E-01
 -1      2068-6.26065E+00 2.62073E+00-5.00000E-01
 -1      2069 5.73466E+00-1.09119E+01 5.00000E-01
 -1      2070-7.88674E+00-9.47394E+00 5.00000E-01
 -1      2071-1.11879E+01 1.70641E+00 5.00000E-01
 -1      2072 3.66092E+00 1.17710E+01 5.00000E-01
 -1      2073 2.13262E+00 1.07215E+01 5.00000E-01
 -1      2074-1.40182E+00-7.04522E+00-5.00000E-01
 -1      2075 2.12850E+00-1.07255E+01 5.00000E-01
 -1      2076 4.96905E+00 1.25821E+01-5.00000E-01
 -1      2077-1.29090E+01 2.37946E+00-5.00000E-01
 -1      2078-1.24614E+01 5.41043E+00-5.00000E-01
 -1      2079-7.00070E+00-1.63389E+00-5.00000E-01
 -1      2080 4.59814E+00-1.02942E+01-5.00000E-01
 -1      2081-3.52396E+00 1.16768E+01 5.00000E-01
 -1      2082 1.83484E+00 9.22438E+00 5.00000E-01
 -1      2083 1.22759E+01 1.12232E+00 5.00000E-01
 -1      2084-7.61809E+00-8.70319E+00-5.00000E-01
 -1      2085 6.12325E+00-1.10517E+01-5.00000E-01
 -1      2086-1.84671E-01-1.31249E+01-5.00000E-01
 -1      2087 7.88674E+00 9.47394E+00 5.00000E-01
 -1      2088 1.31330E+01-3.60439E+00 5.00000E-01
 -1      2089-6.49701E+00 9.17810E+00 5.00000E-01
 -1      2090-1.02848E+01 9.19378E+00-5.00000E-01
 -1      2091 1.27712E+01 1.49835E-01-5.00000E-01
 -1      2092 5.58611E+00 1.09344E+01 5.00000E-01
 -1      2093 2.81280E+00-1.30713E+01-5.00000E-01
 -1      2094-1.05206E+01 6.71381E+00-5.00000E-01
 -1      2095 1.12232E+00-1.22759E+01 5.00000E-01
 -1      2096-1.50157E+00 1.20135E+01-5.00000E-01
 -1      2097 1.12883E+01-7.83760E+00-5.00000E-01
 -1      2098-9.16051E+00 8.18470E+00-5.00000E-01
 -1      2099 1.30203E+01-4.33376E+00-5.00000E-01
 -1      2100-1.07486E+01 5.76486E+00 5.00000E-01
 -1      2101-1.18787E+01-5.93249E+00-5.00000E-01
 -1      2102 8.35581E+00 1.07539E+01 5.00000E-01
 -1      2103 3.52396E+00-1.16768E+01 5.00000E-01
 -1      2104 1.84671E-01 1.31249E+01-5.00000E-01
 -1      2105 4.01325E+00 4.55481E+00-5.00000E-01
 -1      2106 7.66660E+00-1.10799E+01-5.00000E-01
 -1      2107-9.06856E+00 3.83255E+00-5.00000E-01
 -1      2108-1.18001E+01-6.72402E+00 5.00000E-01
 -1      2109 1.28773E+01-2.37634E+00-5.00000E-01
 -1      2110-1.07215E+01-2.13262E+00 5.00000E-01
 -1      2111-1.34616E+01-9.56514E-01-5.00000E-01
 -1      2112-1.18727E+01 6.63056E+00-5.00000E-01
 -1      2113-1.16693E+01 3.83746E+00-5.00000E-01
 -1      2114 1.69567E+00-1.35126E+01 5.00000E-01
 -1      2115-3.56836E+00-1.30296E+01-5.00000E-01
 -1      2116-8.53953E+00 1.19934E+00-5.00000E-01
 -1      2117-1.33969E+01-1.41013E+00 5.00000E-01
 -1      2118 1.15731E+01 4.66295E+00-5.00000E-01
 -1      2119 1.31846E+00-1.33438E+01-5.00000E-01
 -1      2120-1.30411E+01 3.74786E+00-5.00000E-01
 -1      2121-1.31365E+01 3.60081E+00 5.00000E-01
 -1      2122-1.35146E+01 1.70042E+00 5.00000E-01
 -1      2123 1.16020E+01-7.50178E+00 5.00000E-01
 -1      2124-1.17710E+01-3.66092E+00 5.00000E-01
 -1      2125-7.88187E+00 1.10108E+01-5.00000E-01
 -1      2126-1.13191E+01-3.35230E+00-5.00000E-01
 -1      2127-6.42965E+00-1.18375E+01 5.00000E-01
 -1      2128-6.07320E+00-9.08919E+00 5.00000E-01
 -1      2129-1.41013E+00-1.33969E+01 5.00000E-01
 -1      2130 1.65990E+00 1.04684E+01-5.00000E-01
 -1      2131-1.63976E+00 9.88398E+00-5.00000E-01
 -1      2132-1.43786E+00 1.34341E+01-5.00000E-01
 -1      2133-4.43906E+00 8.74715E+00-5.00000E-01
 -1      2134-1.71473E+00 8.68379E-01-5.00000E-01
 -1      2135 6.86041E+00-5.28652E-01-5.00000E-01
 -1      2136-4.97527E+00-1.26026E+01-5.00000E-01
 -1      2137-8.35581E+00 1.07539E+01 5.00000E-01
 -1      2138 9.78439E-01 3.43043E+00-5.00000E-01
 -1      2139-1.20594E+01 1.39437E+00-5.00000E-01
 -1      2140 8.35386E+00-1.07586E+01 5.00000E-01
 -1      2141-3.62070E+00 2.69659E+00-5.00000E-01
 -1      2142-1.35067E+01 1.12305E+00-5.00000E-01
 -1      2143-1.66689E+00 2.82588E+00-5.00000E-01
 -1      2144 7.46491E+00-1.16267E+01 5.00000E-01
 -1      2145-5.02251E+00 5.50666E+00-5.00000E-01
 -1      2146 1.09119E+01-5.73466E+00 5.00000E-01
 -1      2147 1.37913E+01 1.72767E+00-5.00000E-01
 -1      2148-1.55701E+00-1.34489E+01-5.00000E-01
 -1      2149-1.00850E+00-1.20971E+01-5.00000E-01
 -1      2150 1.29168E+01 3.82402E+00 5.00000E-01
 -1      2151-9.21623E+00-9.49179E+00-5.00000E-01
 -1      2152-1.29984E+01-4.10788E+00 5.00000E-01
 -1      2153-4.37042E+00-3.55903E-01-5.00000E-01
 -1      2154 2.25466E+00-7.45736E+00-5.00000E-01
 -1      2155 1.18375E+01 6.42965E+00 5.00000E-01
 -1      2156 1.19080E+01 6.78172E+00-5.00000E-01
 -1      2157-6.42965E+00 1.18375E+01 5.00000E-01
 -1      2158 5.14906E-01 6.34071E+00-5.00000E-01
 -1      2159-9.33865E+00-1.85757E+00 5.00000E-01
 -1      2160 5.80050E-02 8.48963E+00-5.00000E-01
 -1      2161 3.14199E-01 1.43215E+00-5.00000E-01
 -1      2162-8.88450E-01 1.82752E+00-5.00000E-01
 -1      2163-1.85819E+00 9.34175E+00 5.00000E-01
 -1      2164 5.85789E+00-9.68320E+00 5.00000E-01
 -1      2165 1.21365E+01-1.21273E+00 5.00000E-01
 -1      2166 7.50178E+00 1.16020E+01 5.00000E-01
 -1      2167-1.15670E+01-7.43300E+00-5.00000E-01
 -1      2168-1.06223E+01-8.49640E+00 5.00000E-01
 -1      2169-1.01432E+01-7.50365E-01-5.00000E-01
 -1      2170 4.13121E+00-1.93770E+00-5.00000E-01
 -1      2171 1.32158E+01 3.62485E+00-5.00000E-01
 -1      2172-1.03681E+01 4.27417E+00-5.00000E-01
 -1      2173 1.25858E+01 5.47692E+00-5.00000E-01
 -1      2174 7.07924E-01-1.22661E+01-5.00000E-01
 -1      2175 1.65291E+00-4.17396E+00-5.00000E-01
 -1      2176 1.10955E+01 2.67876E+00 5.00000E-01
 -1      2177-9.56757E+00-2.57723E+00-5.00000E-01
 -1      2178 1.18651E+01 3.30625E+00-5.00000E-01
 -1      2179 3.60439E+00 1.31330E+01 5.00000E-01
 -1      2180-2.44735E+00 1.35984E+01 5.00000E-01
 -1      2181-1.06486E+01-5.56386E+00-5.00000E-01
 -1      2182 6.08920E+00-1.22997E+01-5.00000E-01
 -1      2183 1.35730E+01-9.67491E-01-5.00000E-01
 -1      2184-4.03690E+00 1.30970E+01-5.00000E-01
 -1      2185-8.59618E-03-1.33896E+00-5.00000E-01
 -1      2186 3.72804E+00-1.23932E+01-5.00000E-01
 -1      2187 8.43348E+00 1.08556E+01-5.00000E-01
 -1      2188-1.00657E+01 3.03100E+00-5.00000E-01
 -1      2189-2.09390E-01 4.73330E+00-5.00000E-01
 -1      2190-9.58422E+00 6.18446E+00 5.00000E-01
 -1      2191 3.60126E+00 1.30416E+01-5.00000E-01
 -1      2192 1.12232E+00 1.22759E+01 5.00000E-01
 -1      2193 1.90052E+00-1.23023E+01-5.00000E-01
 -1      2194 2.05643E+00-1.67208E+00-5.00000E-01
 -1      2195-7.49075E+00-5.54789E+00-5.00000E-01
 -1      2196-9.07133E+00-5.22799E+00-5.00000E-01
 -1      2197 6.90971E+00-1.02566E+01-5.00000E-01
 -1      2198-7.82006E+00-5.22520E+00 5.00000E-01
 -1      2199-1.48599E+00-1.17155E+01 5.00000E-01
 -1      2200-1.03732E+01-8.98856E+00-5.00000E-01
 -1      2201 2.08598E+00 5.09889E+00-5.00000E-01
 -1      2202 1.11868E+00 1.20862E+01-5.00000E-01
 -1      2203-9.83608E-01 1.37367E+01 5.00000E-01
 -1      2204 9.84101E-01 4.62850E+00-5.00000E-01
 -1      2205-3.29943E-01 3.06566E+00-5.00000E-01
 -1      2206-2.26395E+00 7.33620E+00-5.00000E-01
 -1      2207-5.97639E+00 1.24302E+01-5.00000E-01
 -1      2208-4.90432E+00 1.39354E+00-5.00000E-01
 -1      2209-8.39295E+00-5.55561E-01-5.00000E-01
 -1      2210 3.74539E+00 1.01988E+01-5.00000E-01
 -1      2211-8.82726E+00 2.51128E+00-5.00000E-01
 -1      2212 1.01680E+01 8.82018E+00-5.00000E-01
 -1      2213-5.76486E+00 1.07486E+01 5.00000E-01
 -1      2214-4.98593E+00-2.43484E+00-5.00000E-01
 -1      2215 9.87204E+00-1.51288E+00-5.00000E-01
 -1      2216-6.67784E+00 4.71266E-01-5.00000E-01
 -1      2217-3.93667E+00-1.17117E+01-5.00000E-01
 -1      2218-2.49479E+00-9.32006E-01-5.00000E-01
 -1      2219 4.73627E+00-7.38568E+00-5.00000E-01
 -1      2220 3.04765E+00 2.50326E+00-5.00000E-01
 -1      2221-2.02809E+00 1.09784E+01-5.00000E-01
 -1      2222 0.00000E+00 1.20626E+00 5.00000E-01
 -1      2223 9.73986E+00 5.95152E+00 5.00000E-01
 -1      2224-2.67329E+00-1.06479E+01-5.00000E-01
 -1      2225-9.36399E+00 5.09603E+00-5.00000E-01
 -1      2226 9.32296E+00 3.86144E+00-5.00000E-01
 -1      2227 1.01939E+01-8.84143E+00-5.00000E-01
 -1      2228 4.61620E-01-1.11444E+00 5.00000E-01
 -1      2229-9.49777E-01-9.23046E+00-5.00000E-01
 -1      2230 4.64028E+00 5.92748E-01-5.00000E-01
 -1      2231-1.09137E+01-5.72227E+00 5.00000E-01
 -1      2232 5.30144E+00-8.56693E-01-5.00000E-01
 -1      2233-3.16660E+00-8.44808E+00-5.00000E-01
 -1      2234-7.92769E+00-3.64207E+00-5.00000E-01
 -1      2235-1.07994E+01-1.96125E+00-5.00000E-01
 -1      2236 7.91689E+00-5.28990E+00 5.00000E-01
 -1      2237 8.58348E+00 1.39053E+00-5.00000E-01
 -1      2238 5.03657E+00-7.53776E+00 5.00000E-01
 -1      2239 1.16750E+01 3.79122E+00 5.00000E-01
 -1      2240-1.10675E+01 3.52203E-01-5.00000E-01
 -1      2241 8.22119E-01-2.75648E+00-5.00000E-01
 -1      2242-4.94229E+00 2.71471E+00-5.00000E-01
 -1      2243-3.34539E+00 9.13109E-01-5.00000E-01
 -1      2244-6.44447E+00-1.12771E+01-5.00000E-01
 -1      2245 6.40770E+00 1.00208E+01-5.00000E-01
 -1      2246 7.17473E-01-1.91830E-02-5.00000E-01
 -1      2247-1.13950E+00-4.50040E-01-5.00000E-01
 -1      2248 8.58687E+00-3.45606E-01-5.00000E-01
 -1      2249 6.50411E+00 1.52433E+00-5.00000E-01
 -1      2250-1.38011E+00-1.91998E+00-5.00000E-01
 -1      2251 1.02246E+01 5.25668E-01-5.00000E-01
 -1      2252-9.36817E+00 2.46557E-01-5.00000E-01
 -1      2253-7.15956E+00 4.94520E+00-5.00000E-01
 -1      2254 7.61322E+00-6.84123E+00-5.00000E-01
 -1      2255 5.91868E+00 3.65317E-01-5.00000E-01
 -1      2256-1.33378E+01-3.66187E+00-5.00000E-01
 -1      2257 2.09616E+00-2.96197E+00-5.00000E-01
 -1      2258 3.03202E+00-2.28758E+00-5.00000E-01
 -1      2259-7.46609E-01 7.19552E+00-5.00000E-01
 -1      2260-1.34601E+01-2.28317E+00-5.00000E-01
 -1      2261 3.37674E+00-4.11735E+00-5.00000E-01
 -1      2262-5.93099E+00-9.48842E+00-5.00000E-01
 -1      2263-1.85757E+00-9.33865E+00 5.00000E-01
 -1      2264-9.19954E+00-7.87189E+00-5.00000E-01
 -1      2265-7.79294E+00-7.11591E+00-5.00000E-01
 -1      2266-9.82342E+00 1.60529E+00-5.00000E-01
 -1      2267 1.03055E+01-3.16277E+00-5.00000E-01
 -1      2268 7.62210E+00 5.20578E-01-5.00000E-01
 -1      2269 6.78306E+00 5.08840E+00-5.00000E-01
 -1      2270-4.26194E+00 4.13138E+00-5.00000E-01
 -1      2271-7.56763E+00 3.45135E+00-5.00000E-01
 -1      2272-3.35293E+00-9.64508E+00-5.00000E-01
 -1      2273-7.79087E-01-4.64716E+00-5.00000E-01
 -1      2274-1.14928E+01-7.79732E+00 5.00000E-01
 -1      2275 3.62108E+00 6.85114E+00-5.00000E-01
 -1      2276-7.53776E+00 5.03657E+00 5.00000E-01
 -1      2277-1.28939E+00-1.07389E+01-5.00000E-01
 -1      2278-4.02709E+00 7.00021E+00-5.00000E-01
 -1      2279-3.10775E+00 9.97924E+00-5.00000E-01
 -1      2280 3.67579E-01 9.87680E+00-5.00000E-01
 -1      2281-6.04286E+00 7.26520E+00-5.00000E-01
 -1      2282 3.35478E+00 1.14021E+00-5.00000E-01
 -1      2283 1.65386E+00-9.66659E+00-5.00000E-01
 -1      2284 7.79417E+00-2.77120E+00-5.00000E-01
 -1      2285 1.73485E+00 1.83010E+00-5.00000E-01
 -1      2286 8.09232E+00 8.80810E+00-5.00000E-01
 -1      2287 1.21512E+01-1.14153E+00-5.00000E-01
 -1      2288 1.20626E+00 0.00000E+00 5.00000E-01
 -1      2289 6.41771E+00 1.21129E+01-5.00000E-01
 -1      2290 1.99808E+00 2.93344E+00-5.00000E-01
 -1      2291 1.89773E+00 4.02202E+00-5.00000E-01
 -1      2292-2.55007E+00 1.61131E-01-5.00000E-01
 -1      2293 9.33865E+00-1.85757E+00 5.00000E-01
 -1      2294 9.43936E+00 7.72426E+00 5.00000E-01
 -1      2295 1.18890E+01-5.93799E+00-5.00000E-01
 -1      2296 9.43228E+00 7.63911E+00-5.00000E-01
 -1      2297-6.35126E+00 3.92174E+00-5.00000E-01
 -1      2298-9.00004E+00-6.55650E+00-5.00000E-01
 -1      2299-8.35581E+00-1.07539E+01 5.00000E-01
 -1      2300-4.60918E+00-9.02732E+00-5.00000E-01
 -1      2301 1.85819E+00-9.34175E+00 5.00000E-01
 -1      2302 1.36741E+00-1.10228E+01-5.00000E-01
 -1      2303 2.63730E+00 9.82812E+00-5.00000E-01
 -1      2304-8.34708E+00-1.93428E+00-5.00000E-01
 -1      2305-5.15522E+00-1.13420E+01-5.00000E-01
 -1      2306 6.86138E+00 7.15110E+00-5.00000E-01
 -1      2307 5.09362E+00 1.00029E+01-5.00000E-01
 -1      2308-8.26421E+00-1.06493E+01-5.00000E-01
 -1      2309-5.87395E+00-7.52678E+00-5.00000E-01
 -1      2310-1.21365E+01-1.21273E+00 5.00000E-01
 -1      2311 7.62677E+00 9.93783E+00-5.00000E-01
 -1      2312-2.70284E+00 3.65349E+00-5.00000E-01
 -1      2313 1.35556E+01 2.85792E+00 5.00000E-01
 -1      2314 3.20564E+00-9.31471E-01-5.00000E-01
 -1      2315 6.27142E+00-1.21234E+01 5.00000E-01
 -1      2316-7.25034E+00-5.18271E-01-5.00000E-01
 -1      2317-7.26996E+00 1.70141E+00-5.00000E-01
 -1      2318 8.33973E+00 5.06845E+00-5.00000E-01
 -1      2319-6.14834E+00 1.48372E+00-5.00000E-01
 -1      2320-6.28163E+00 5.95137E+00-5.00000E-01
 -1      2321 1.25800E+00 7.62174E+00-5.00000E-01
 -1      2322-8.52957E-01-8.52957E-01 5.00000E-01
 -1      2323-5.04020E+00 1.04157E+01-5.00000E-01
 -1      2324-6.37903E-01 9.37306E+00-5.00000E-01
 -1      2325 1.20928E+01-6.29175E+00 5.00000E-01
 -1      2326-5.23672E+00 7.83730E+00 5.00000E-01
 -1      2327-7.28687E+00 6.81266E+00-5.00000E-01
 -1      2328 1.06243E+01-4.37613E+00-5.00000E-01
 -1      2329-5.28990E+00-7.91689E+00 5.00000E-01
 -1      2330-8.92268E+00 1.05336E+01-5.00000E-01
 -1      2331-6.66203E+00-6.52073E+00-5.00000E-01
 -1      2332 9.04394E+00-6.15216E+00-5.00000E-01
 -1      2333 2.82861E+00-1.34603E+01 5.00000E-01
 -1      2334-1.14904E+01 7.72205E+00-5.00000E-01
 -1      2335 2.56598E+00-5.70346E+00-5.00000E-01
 -1      2336-1.22121E+01-1.05243E+00-5.00000E-01
 -1      2337-5.10015E+00 6.63690E+00-5.00000E-01
 -1      2338 1.34437E+01-3.31889E+00-5.00000E-01
 -1      2339-5.93656E+00 4.92352E+00-5.00000E-01
 -1      2340 5.18341E+00 5.93631E+00-5.00000E-01
 -1      2341 8.84991E+00-1.02042E+01-5.00000E-01
 -1      2342-1.49432E+00-3.37497E+00-5.00000E-01
 -1      2343-3.40712E+00 5.50207E+00-5.00000E-01
 -1      2344 1.20675E+01 1.31239E+00-5.00000E-01
 -1      2345 1.36149E+01-2.54935E+00 5.00000E-01
 -1      2346 1.30586E+01-4.67683E+00 5.00000E-01
 -1      2347 1.08998E+01-6.40860E-01-5.00000E-01
 -1      2348-7.48558E+00-2.62811E+00-5.00000E-01
 -1      2349 6.29565E+00-7.75232E+00-5.00000E-01
 -1      2350-8.08458E+00 5.82021E+00-5.00000E-01
 -1      2351-6.93614E+00 7.78465E+00-5.00000E-01
 -1      2352-1.28127E+01-5.26273E+00-5.00000E-01
 -1      2353-1.37188E+01-2.45922E+00 5.00000E-01
 -1      2354 1.01692E+01 5.04500E+00-5.00000E-01
 -1      2355 3.53757E-01-3.98319E+00-5.00000E-01
 -1      2356 5.43235E+00 1.33832E+00-5.00000E-01
 -1      2357-5.76486E+00-1.07486E+01 5.00000E-01
 -1      2358-2.54935E+00-1.36149E+01 5.00000E-01
 -1      2359 7.32719E+00-4.78948E+00-5.00000E-01
 -1      2360-6.22696E+00 1.02392E+01-5.00000E-01
 -1      2361-4.40516E+00-5.05980E+00-5.00000E-01
 -1      2362 4.24813E+00 8.92158E+00-5.00000E-01
 -1      2363 7.54005E+00 3.41306E+00-5.00000E-01
 -1      2364 5.17503E-01-1.01349E+01-5.00000E-01
 -1      2365-5.62755E+00-1.11429E+00-5.00000E-01
 -1      2366-7.56552E+00 1.16029E+01 5.00000E-01
 -1      2367-3.50578E-01-3.01151E+00-5.00000E-01
 -1      2368 6.28882E+00 1.20919E+01 5.00000E-01
 -1      2369 7.58617E-01-5.74512E+00-5.00000E-01
 -1      2370 4.74612E+00 2.95686E+00-5.00000E-01
 -1      2371 9.17507E+00 5.23615E-01-5.00000E-01
 -1      2372 5.29121E+00-8.52488E+00-5.00000E-01
 -1      2373 1.69567E+00 1.35126E+01 5.00000E-01
 -1      2374-4.21550E+00 1.12173E+01-5.00000E-01
 -1      2375 3.62358E-01-7.81965E+00-5.00000E-01
 -1      2376 2.44206E+00 1.35446E+01-5.00000E-01
 -1      2377 1.16677E+00-6.89819E+00-5.00000E-01
 -1      2378 9.70171E+00-4.33659E-01-5.00000E-01
 -1      2379 7.85433E+00-8.59816E+00-5.00000E-01
 -1      2380-9.16593E+00-3.95446E+00-5.00000E-01
 -1      2381-5.98013E+00-5.10045E+00-5.00000E-01
 -1      2382 1.05577E+01 3.41740E+00-5.00000E-01
 -1      2383 3.70551E+00 3.44664E+00-5.00000E-01
 -1      2384-5.02445E+00 7.77186E+00-5.00000E-01
 -1      2385-7.20903E-01 1.04480E+01-5.00000E-01
 -1      2386-1.10274E+00 3.95970E+00-5.00000E-01
 -1      2387 5.42320E-01 2.46586E+00-5.00000E-01
 -1      2388-3.74799E+00-1.67077E+00-5.00000E-01
 -1      2389 9.82223E+00 1.75165E+00-5.00000E-01
 -1      2390-5.44745E+00 2.71600E-01-5.00000E-01
 -1      2391 6.31539E+00 6.13899E+00-5.00000E-01
 -1      2392-8.16888E+00-9.60064E+00-5.00000E-01
 -1      2393 9.37940E+00 9.90491E+00-5.00000E-01
 -1      2394 3.88854E+00 1.16311E+01-5.00000E-01
 -1      2395-3.32095E+00 8.08878E+00-5.00000E-01
 -1      2396-2.40044E+00-1.94836E+00-5.00000E-01
 -1      2397 3.31735E+00 8.07330E+00-5.00000E-01
 -1      2398-1.86063E+00-8.27950E+00-5.00000E-01
 -1      2399-6.99961E+00-4.43229E+00-5.00000E-01
 -1      2400-6.49278E+00-8.49044E+00-5.00000E-01
 -1      2401 9.18103E+00-7.68403E+00-5.00000E-01
 -1      2402-6.11310E+00-1.23868E+01-5.00000E-01
 -1      2403 2.96543E+00 4.24898E+00-5.00000E-01
 -1      2404 8.89140E+00 1.76861E+00 5.00000E-01
 -1      2405-4.36838E+00-7.54106E+00-5.00000E-01
 -1      2406-2.50328E+00 1.86698E+00-5.00000E-01
 -1      2407-3.72119E-01 4.59750E-01-5.00000E-01
 -1      2408-1.72879E-01-6.64231E+00-5.00000E-01
 -1      2409 2.32862E+00 7.66077E+00-5.00000E-01
 -1      2410 4.81813E+00 7.61878E+00-5.00000E-01
 -1      2411 1.15518E+01-2.64009E+00-5.00000E-01
 -1      2412-1.61288E+00 6.10531E+00-5.00000E-01
 -1      2413 6.85536E+00 8.44129E+00-5.00000E-01
 -1      2414 7.86558E+00-9.70280E+00-5.00000E-01
 -1      2415 4.73504E+00-3.36712E+00-5.00000E-01
 -1      2416 6.07596E+00-3.99658E+00-5.00000E-01
 -1      2417 6.18508E+00 2.92778E+00-5.00000E-01
 -1      2418-7.35844E-01-8.11384E+00-5.00000E-01
 -1      2419-2.13210E+00-9.54939E+00-5.00000E-01
 -1      2420 8.66406E+00 2.71252E+00-5.00000E-01
 -1      2421 3.27060E+00 5.60963E+00-5.00000E-01
 -1      2422 6.13943E+00-5.28013E+00-5.00000E-01
 -1      2423 6.16805E+00-2.30839E+00-5.00000E-01
 -1      2424 8.99193E+00-3.33841E+00-5.00000E-01
 -1      2425 7.58609E+00 2.11478E+00-5.00000E-01
 -1      2426 8.55101E+00-1.67621E+00-5.00000E-01
 -1      2427 3.13350E+00-9.94521E+00-5.00000E-01
 -1      2428 8.00120E+00-3.88226E+00-5.00000E-01
 -1      2429-1.08330E+00 5.24319E+00-5.00000E-01
 -1      2430 1.21759E+01-4.93926E+00-5.00000E-01
 -1      2431-5.27864E+00 3.74794E+00-5.00000E-01
 -1      2432 7.07831E+00-5.86999E+00-5.00000E-01
 -1      2433-7.56552E+00-1.16029E+01 5.00000E-01
 -1      2434 9.00998E+00-8.85558E+00-5.00000E-01
 -1      2435 1.01978E+01-5.59645E+00-5.00000E-01
 -1      2436-7.57001E+00-1.15884E+01-5.00000E-01
 -1      2437 8.21975E+00 7.01096E+00-5.00000E-01
 -1      2438-5.75934E+00-1.05057E+01-5.00000E-01
 -1      2439-9.35261E+00-1.50539E+00-5.00000E-01
 -1      2440 4.23827E+00-4.66141E-01-5.00000E-01
 -1      2441 2.19939E+00-6.31984E-01-5.00000E-01
 -1      2442-5.22402E+00-3.86424E+00-5.00000E-01
 -1      2443-7.76364E+00 4.39080E-01-5.00000E-01
 -1      2444-1.69081E+00 8.54614E+00-5.00000E-01
 -1      2445 1.45955E+00-8.42744E+00-5.00000E-01
 -1      2446-2.52144E+00-5.47459E+00-5.00000E-01
 -1      2447 5.45651E+00 4.51866E+00-5.00000E-01
 -1      2448-7.23378E+00-1.06137E+01-5.00000E-01
 -1      2449-1.12066E+01-7.03145E-01-5.00000E-01
 -1      2450-2.65320E+00-7.28247E+00-5.00000E-01
 -1      2451-1.12984E+01 7.92296E+00 5.00000E-01
 -1      2452 3.47664E+00-6.76969E+00-5.00000E-01
 -1      2453 3.73578E+00-5.30115E+00-5.00000E-01
 -1      2454 2.53257E+00-4.68612E+00-5.00000E-01
 -1      2455 8.12833E+00-5.54292E+00-5.00000E-01
 -1      2456 1.06324E+01-2.19500E+00-5.00000E-01
 -1      2457 1.13647E+01 4.06883E-01-5.00000E-01
 -1      2458 4.35016E+00 1.69449E+00-5.00000E-01
 -1      2459-2.64653E+00-1.36414E+01-5.00000E-01
 -1      2460-6.24287E+00 8.91405E+00-5.00000E-01
 -1      2461 6.45837E+00 4.01520E+00-5.00000E-01
 -1      2462 7.01200E+00-3.49176E+00-5.00000E-01
 -1      2463 1.24996E+00 1.36757E+01-5.00000E-01
 -1      2464 2.09155E-01-8.99275E+00-5.00000E-01
 -1      2465-1.30361E+00-5.79083E+00-5.00000E-01
 -1      2466-5.32797E+00-6.28740E+00-5.00000E-01
 -1      2467-3.68854E+00-6.29008E+00-5.00000E-01
 -1      2468 4.11271E+00-9.08366E+00-5.00000E-01
 -1      2469-6.88423E+00-7.55854E+00-5.00000E-01
 -1      2470 2.23735E+00 6.37698E+00-5.00000E-01
 -1      2471-3.94176E+00-2.74171E+00-5.00000E-01
 -1      2472 9.31815E+00 1.02749E+01 5.00000E-01
 -1      2473 2.56640E+00-8.88869E+00-5.00000E-01
 -1      2474 4.86496E+00 7.75536E+00 5.00000E-01
 -1      2475 3.70561E+00-3.10804E+00-5.00000E-01
 -1      2476 7.22188E+00-1.69382E+00-5.00000E-01
 -1      2477 2.26233E+00-1.05035E+01-5.00000E-01
 -1      2478-1.93553E+00-4.46017E+00-5.00000E-01
 -1      2479-3.53487E+00-4.02842E+00-5.00000E-01
 -1      2480 5.19882E+00-6.17361E+00-5.00000E-01
 -1      2481 7.51158E+00 6.04208E+00-5.00000E-01
 -1      2482-6.20209E+00-2.96679E+00-5.00000E-01
 -1      2483 1.64041E+00-5.20694E+00-5.00000E-01
 -1      2484 3.67522E+00-7.95951E+00-5.00000E-01
 -1      2485 1.38727E+00 5.82965E+00-5.00000E-01
 -1      2486 6.23577E+00-6.62354E+00-5.00000E-01
 -1      2487-2.30691E-01 2.27585E+00-5.00000E-01
 -1      2488-3.30106E+00 4.48403E+00-5.00000E-01
 -1      2489-8.88093E-01 2.14405E+00 1.05926E+00
 -1      2490-1.64099E+00 1.64099E+00 1.69073E+00
 -1      2491 1.09180E+00-1.08472E+00-5.00000E-01
 -1      2492 1.64099E+00 1.64099E+00 1.69073E+00
 -1      2493-8.88093E-01-2.14405E+00 1.05926E+00
 -1      2494-8.88093E-01-2.14405E+00 1.55458E+00
 -1      2495 1.64099E+00 1.64099E+00 1.15625E+00
 -1      2496 1.53068E+00 1.75129E+00 1.42349E+00
 -1      2497-4.04032E+00 2.69966E+00 5.00000E-01
 -1      2498-4.65966E+00-1.29758E+00-5.00000E-01
 -1      2499 2.14405E+00 8.88093E-01 1.05926E+00
 -1      2500 6.20864E+00-1.29964E+00-5.00000E-01
 -1      2501-1.01988E+00 6.03130E-01 5.00000E-01
 -1      2502 1.22512E+00 9.03566E-01-5.00000E-01
 -1      2503-2.69966E+00 4.04032E+00 5.00000E-01
 -1      2504 7.92880E-01-4.80977E+00-5.00000E-01
 -1      2505 8.88093E-01 2.14405E+00 1.15625E+00
 -1      2506-8.88093E-01 2.14405E+00 1.55458E+00
 -1      2507-2.72727E+00 5.05835E+00-5.00000E-01
 -1      2508 1.64099E+00-1.64099E+00 1.15625E+00
 -1      2509-1.64099E+00 1.64099E+00 1.05927E+00
 -1      2510-3.21101E+00 8.15910E-01 1.37500E+00
 -1      2511-4.90036E-01-2.11176E+00-5.00000E-01
 -1      2512 2.79189E+00 2.12014E+00 1.37500E+00
 -1      2513-1.04459E+00 2.07923E+00 1.30692E+00
 -1      2514 1.02907E+00 1.61490E+00-5.00000E-01
 -1      2515 8.88093E-01-2.14405E+00 1.15625E+00
 -1      2516-7.84157E+00 2.50447E+00-5.00000E-01
 -1      2517 2.14405E+00-8.88093E-01 1.69074E+00
 -1      2518 0.00000E+00 2.32070E+00 1.69073E+00
 -1      2519 1.73089E+00-1.55108E+00 8.28125E-01
 -1      2520-1.93636E+00-3.55798E-01-5.00000E-01
 -1      2521-1.76339E+00 1.51858E+00 1.97037E+00
 -1      2522 1.93090E+00 1.11876E+00-5.00000E-01
 -1      2523-7.99083E-01 2.18092E+00 1.30692E+00
 -1      2524-8.15910E-01-3.21101E+00 1.37500E+00
 -1      2525 5.41582E+00-1.77293E+00-5.00000E-01
 -1      2526-7.31595E-01-2.20887E+00 1.30692E+00
 -1      2527 1.78074E+00 1.50123E+00 1.48438E+00
 -1      2528-2.14405E+00-8.88093E-01 1.59375E+00
 -1      2529 0.00000E+00-2.32070E+00 1.48438E+00
 -1      2530 9.57675E-01-2.11523E+00 1.59375E+00
 -1      2531 8.90346E-01-3.39072E+00 1.37500E+00
 -1      2532-1.07451E+00-2.66303E+00-5.00000E-01
 -1      2533 2.14878E+00 8.76680E-01 1.53652E+00
 -1      2534-1.72784E+00 1.55413E+00 1.37500E+00
 -1      2535-1.64099E+00-1.64099E+00 9.62285E-01
 -1      2536-2.54197E+00 1.56705E+00 1.70312E+00
 -1      2537 2.32070E+00 0.00000E+00 9.62282E-01
 -1      2538 2.32070E+00 1.44098E-01 1.26562E+00
 -1      2539 1.21088E+00 2.28358E+00-5.00000E-01
 -1      2540-1.79555E+00-2.46730E+00 1.15625E+00
 -1      2541 1.50689E+00-1.77508E+00 7.62186E-01
 -1      2542 0.00000E+00-2.32070E+00 9.62282E-01
 -1      2543-4.65101E+00-3.22516E+00-5.00000E-01
 -1      2544-1.76803E+00 3.02717E+00 1.37500E+00
 -1      2545 9.47994E-01 4.76589E+00 5.00000E-01
 -1      2546 4.51604E+00 3.81837E+00-5.00000E-01
 -1      2547 2.64534E+00 9.63275E-01-5.00000E-01
 -1      2548-4.27382E+00 3.26539E+00-5.00000E-01
 -1      2549-2.14405E+00 8.88093E-01 1.48438E+00
 -1      2550 1.73089E+00 1.55108E+00 8.28125E-01
 -1      2551-1.10455E+00 2.05439E+00 1.53307E+00
 -1      2552-4.76589E+00 9.47992E-01 5.00000E-01
 -1      2553 7.53174E-02-2.32070E+00 1.86719E+00
 -1      2554-6.76480E-01-2.87440E+00 1.75884E+00
 -1      2555 3.93559E+00 2.58512E+00-5.00000E-01
 -1      2556-3.27883E+00 4.74999E-01 1.37500E+00
 -1      2557-1.79716E+00 1.48481E+00 1.59490E+00
 -1      2558-4.87103E+00 3.30927E+00-5.00000E-01
 -1      2559-2.12014E+00 2.79189E+00 1.37500E+00
 -1      2560-1.54248E+00 1.73949E+00 1.97037E+00
 -1      2561-2.05573E+00-1.10133E+00 1.70312E+00
 -1      2562 2.84746E+00 1.69359E+00 1.37500E+00
 -1      2563 1.25647E+00-8.39541E-01 5.00000E-01
 -1      2564 2.21241E+00 7.23067E-01 1.29343E+00
 -1      2565 9.57675E-01 2.11523E+00 1.59375E+00
 -1      2566 1.76803E+00 3.02717E+00 1.37500E+00
 -1      2567 7.37836E-01-2.20629E+00 1.40948E+00
 -1      2568 7.07557E-01-2.21883E+00 1.69757E+00
 -1      2569 2.43592E+00 1.76417E+00 1.67914E+00
 -1      2570 9.46809E-01 9.46809E-01 5.00000E-01
 -1      2571-1.84762E+00 1.43435E+00 1.43129E+00
 -1      2572-1.16887E+00 2.02775E+00 1.39070E+00
 -1      2573-1.56035E+00 2.52580E+00 1.15625E+00
 -1      2574 6.95611E-01-1.87844E+00-5.00000E-01
 -1      2575 4.56124E+00-1.22931E+00-5.00000E-01
 -1      2576 2.14405E+00-8.88093E-01 9.62278E-01
 -1      2577-2.09989E+00-9.94713E-01 8.40514E-01
 -1      2578-1.43565E+00-5.03816E+00-5.00000E-01
 -1      2579 1.80419E+00 1.47778E+00 1.05699E+00
 -1      2580-2.32070E+00 0.00000E+00 1.59375E+00
 -1      2581 1.76339E+00 1.51858E+00 1.97037E+00
 -1      2582 6.95475E-01-2.92026E+00 1.67675E+00
 -1      2583 1.54248E+00 1.73949E+00 1.97037E+00
 -1      2584-9.26209E-01 2.58959E+00-5.00000E-01
 -1      2585 5.70520E-01 5.43556E+00-5.00000E-01
 -1      2586-1.50186E+00-7.47007E-01 5.00000E-01
 -1      2587-9.77104E-01-2.10718E+00 1.30692E+00
 -1      2588-2.56083E+00-1.88908E+00 1.48438E+00
 -1      2589-2.17287E+00 8.18512E-01 1.86719E+00
 -1      2590-2.07486E+00 1.05515E+00 1.71876E+00
 -1      2591 4.79450E+00 1.22243E+00-5.00000E-01
 -1      2592 2.23614E+00 6.65760E-01 1.06090E+00
 -1      2593 2.32070E+00 2.35449E-01 1.03633E+00
 -1      2594 2.79189E+00-2.12014E+00 1.37500E+00
 -1      2595 1.73106E-01 2.32070E+00 1.97037E+00
 -1      2596 2.11623E+00 9.55261E-01 1.29993E+00
 -1      2597 1.06504E+00-2.07076E+00 1.34851E+00
 -1      2598-9.47994E-01-4.76589E+00 5.00000E-01
 -1      2599-5.55689E+00 1.01701E+00-5.00000E-01
 -1      2600 1.44329E+00-2.21885E+00-5.00000E-01
 -1      2601 6.03741E+00 1.03270E+00-5.00000E-01
 -1      2602-1.64099E+00-1.64099E+00 1.48438E+00
 -1      2603 1.58186E+00-6.10249E+00-5.00000E-01
 -1      2604 2.69966E+00 4.04032E+00 5.00000E-01
 -1      2605 3.35063E+00 4.87713E+00-5.00000E-01
 -1      2606 2.22788E+00-6.85704E-01 7.31139E-01
 -1      2607-6.71634E-01-2.23371E+00 1.53307E+00
 -1      2608-5.60277E-01 6.15819E+00-5.00000E-01
 -1      2609-8.73963E-01 4.59813E+00-5.00000E-01
 -1      2610 1.41814E+00-1.25494E+00 5.00000E-01
 -1      2611-2.08052E+00 1.04147E+00 1.15625E+00
 -1      2612-3.40843E+00-5.01798E+00-5.00000E-01
 -1      2613 3.22877E+00-4.80858E+00-5.00000E-01
 -1      2614 2.52885E+00-3.76975E+00-5.00000E-01
 -1      2615-2.76895E-01-5.56960E+00-5.00000E-01
 -1      2616-4.04032E+00-2.69966E+00 5.00000E-01
 -1      2617 3.68520E+00-2.43806E+00-5.00000E-01
 -1      2618-2.61068E+00-3.78303E+00-5.00000E-01
 -1      2619 1.00556E+00-2.09539E+00 8.28125E-01
 -1      2620 2.07781E+00-1.04802E+00 1.97037E+00
 -1      2621 1.64099E+00-1.64099E+00 1.64673E+00
 -1      2622 3.34019E-01 2.32070E+00 1.92188E+00
 -1      2623 3.02717E+00-1.76803E+00 1.37500E+00
 -1      2624 2.26267E+00 6.01705E-01 1.20393E+00
 -1      2625 2.19065E-01-2.32070E+00 7.31141E-01
 -1      2626 8.89393E-01 1.54405E+00 5.00000E-01
 -1      2627 2.32070E+00 3.21695E-01 1.26562E+00
 -1      2628 2.19083E+00 7.75166E-01 7.79632E-01
 -1      2629-1.39304E-01 2.32070E+00 1.97037E+00
 -1      2630-7.14679E-01 2.96662E+00 1.59375E+00
 -1      2631 1.17870E+00-2.02368E+00 1.48438E+00
 -1      2632 3.27883E+00-4.74999E-01 1.37500E+00
 -1      2633-1.80818E-01-2.32070E+00 1.71877E+00
 -1      2634-2.65435E+00 1.98260E+00 1.37500E+00
 -1      2635 1.52330E+00-1.75867E+00 1.40149E+00
 -1      2636-1.58773E+00-1.69424E+00 1.86719E+00
 -1      2637 1.88908E+00 2.56083E+00 1.26562E+00
 -1      2638 1.06504E+00 2.07076E+00 1.34851E+00
 -1      2639 1.80419E+00-1.47778E+00 1.05699E+00
 -1      2640-6.38695E-01 2.78318E+00 1.15625E+00
 -1      2641 1.98260E+00-2.65435E+00 1.37500E+00
 -1      2642-1.51858E+00 1.76339E+00 7.79634E-01
 -1      2643-2.32070E+00 7.53174E-02 1.15625E+00
 -1      2644-4.74999E-01-3.27883E+00 1.37500E+00
 -1      2645-2.10280E+00-9.87691E-01 1.22481E+00
 -1      2646 2.07647E+00 1.05126E+00 8.15534E-01
 -1      2647 2.05685E+00 1.09862E+00 1.12174E+00
 -1      2648 2.03429E+00 1.15308E+00 6.72042E-01
 -1      2649-2.60051E+00 4.35791E+00-5.00000E-01
 -1      2650-2.32070E+00 1.27148E-01 1.92188E+00
 -1      2651-1.46460E+00 2.18094E+00-5.00000E-01
 -1      2652-1.04802E+00-2.07781E+00 7.79632E-01
 -1      2653 5.63881E-01-2.27834E+00 1.70312E+00
 -1      2654-4.74999E-01-2.83340E+00 1.15625E+00
 -1      2655 8.15910E-01 3.21101E+00 1.37500E+00
 -1      2656 2.51085E+00 1.55416E+00 9.91163E-01
 -1      2657 2.43592E+00-1.76417E+00 1.07086E+00
 -1      2658-7.28165E-01 2.21029E+00 7.79632E-01
 -1      2659-1.41798E+00 1.86399E+00 1.92188E+00
 -1      2660 1.64298E+00-2.72527E+00 1.48438E+00
 -1      2661 1.08523E+00-5.28878E+00-5.00000E-01
 -1      2662 1.81914E-01-2.32070E+00 1.22333E+00
 -1      2663-1.01679E+00 2.09074E+00 7.79632E-01
 -1      2664-1.47035E+00 1.81162E+00 1.69221E+00
 -1      2665 4.74999E-01 3.47334E+00 1.37500E+00
 -1      2666 1.83034E+00 1.45163E+00 6.92120E-01
 -1      2667-2.84746E+00-1.69359E+00 1.37500E+00
 -1      2668 1.01565E+00-2.09121E+00 1.93340E+00
 -1      2669-2.19065E-01-2.32070E+00 7.31141E-01
 -1      2670-1.76417E+00 2.43592E+00 1.67914E+00
 -1      2671-1.79589E+00-1.48608E+00 7.31143E-01
 -1      2672 2.32070E+00-1.74844E-01 1.23124E+00
 -1      2673-2.52601E+00 1.03839E+00-5.00000E-01
 -1      2674-7.87776E-01-2.18560E+00 1.90229E+00
 -1      2675 1.13612E+00 2.04131E+00 1.53512E+00
 -1      2676-2.32070E+00 3.12266E-01 1.92188E+00
 -1      2677-2.32070E+00-1.89644E-01 1.98782E+00
 -1      2678-7.59393E-01-2.19736E+00 7.79632E-01
 -1      2679-1.11864E+00 2.60788E+00 2.25000E+00
 -1      2680-2.93795E-01 2.56887E+00 2.25000E+00
 -1      2681-1.59236E+00-2.60307E+00 1.59375E+00
 -1      2682-2.96662E+00-7.14679E-01 1.15625E+00
 -1      2683-1.55467E+00 1.72730E+00 1.46148E+00
 -1      2684-6.71836E-01 2.23363E+00 1.01077E+00
 -1      2685 1.01565E+00 2.09121E+00 1.93340E+00
 -1      2686 1.82562E-01-2.40050E+00-5.00000E-01
 -1      2687 1.57538E+00 2.56207E+00 1.07086E+00
 -1      2688-1.10043E+00-2.05610E+00 1.11243E+00
 -1      2689 5.20276E+00 7.88711E-01-5.00000E-01
 -1      2690-4.76589E+00-9.47992E-01 5.00000E-01
 -1      2691-1.56395E+00 2.53448E+00 1.71653E+00
 -1      2692-1.15374E+00-2.03402E+00 1.29508E+00
 -1      2693 1.84712E+00 1.43485E+00 8.91588E-01
 -1      2694-2.14947E+00-8.74999E-01 1.92188E+00
 -1      2695-2.32070E+00-2.30808E-01 1.48438E+00
 -1      2696-9.88411E-01 2.10250E+00 1.90229E+00
 -1      2697 1.44024E+00-1.59826E+00-5.00000E-01
 -1      2698-1.57412E+00-2.24587E+00 1.10156E+00
 -1      2699-1.48608E+00-1.79589E+00 7.31143E-01
 -1      2700 0.00000E+00-2.93066E+00 2.25000E+00
 -1      2701-2.21885E+00-7.07519E-01 7.56053E-01
 -1      2702 2.97088E-01 2.32070E+00 2.09055E+00
 -1      2703 1.57538E+00 2.56207E+00 1.67914E+00
 -1      2704 1.80650E+00 1.47547E+00 1.73922E+00
 -1      2705-2.32070E+00-1.10980E-01 8.45184E-01
 -1      2706-1.52652E+00-1.75545E+00 1.22333E+00
 -1      2707 4.74999E-01 2.93066E+00 1.26562E+00
 -1      2708 4.74999E-01-3.27883E+00 1.37500E+00
 -1      2709 1.47742E+00-1.80455E+00 1.62462E+00
 -1      2710 1.73641E+00-2.40816E+00 1.76193E+00
 -1      2711 2.05468E+00 1.10386E+00 1.49134E+00
 -1      2712-1.10691E+00 2.05342E+00 1.07903E+00
 -1      2713 1.47778E+00 1.80419E+00 1.20067E+00
 -1      2714 1.52001E+00 1.76196E+00 7.94161E-01
 -1      2715 1.43394E+00 1.84803E+00 6.65731E-01
 -1      2716 1.97952E-01 2.32070E+00 1.76159E+00
 -1      2717 6.00179E-01-2.69019E+00 1.91033E+00
 -1      2718-1.73949E+00 1.54248E+00 7.79634E-01
 -1      2719-2.09007E+00 1.01842E+00 8.13438E-01
 -1      2720 2.51085E+00 1.55416E+00 1.75884E+00
 -1      2721-1.76803E+00-3.02717E+00 1.08337E+00
 -1      2722-2.87440E+00 6.76480E-01 1.75884E+00
 -1      2723-1.49475E+00 1.78722E+00 1.21614E+00
 -1      2724-1.47709E+00-1.80488E+00 9.99268E-01
 -1      2725-1.74418E+00-2.41593E+00 1.71391E+00
 -1      2726-1.75994E+00 2.43169E+00 1.10053E+00
 -1      2727-2.06465E+00-1.07977E+00 1.45415E+00
 -1      2728-3.01430E+00-4.74999E-01 1.15625E+00
 -1      2729-2.32051E+00-1.64876E+00 1.15625E+00
 -1      2730 6.95475E-01-2.92026E+00 1.07325E+00
 -1      2731 6.30502E-01-2.25075E+00 1.54217E+00
 -1      2732-2.32070E+00-2.27968E-01 1.18016E+00
 -1      2733 3.14656E+00 4.74999E-01 1.26562E+00
 -1      2734-2.01859E+00 1.43908E+00-5.00000E-01
 -1      2735 1.42836E+00 1.85361E+00 1.34810E+00
 -1      2736-9.63440E-02-2.32070E+00 1.22333E+00
 -1      2737 1.48742E+00-1.79455E+00 1.01810E+00
 -1      2738 1.50939E+00-1.77258E+00 1.20904E+00
 -1      2739 1.42403E+00-1.85794E+00 8.79018E-01
 -1      2740 5.86005E-01-2.65597E+00 1.62132E+00
 -1      2741 1.53806E+00-1.74391E+00 1.94837E+00
 -1      2742-1.17946E+00 2.02336E+00 8.28125E-01
 -1      2743 6.47880E-03 2.32070E+00 1.04688E+00
 -1      2744 1.00556E+00 2.09539E+00 8.28125E-01
 -1      2745-2.89950E+00-6.86876E-01 1.71391E+00
 -1      2746-1.78980E+00-1.49217E+00 2.00978E+00
 -1      2747-1.76651E+00-1.51546E+00 1.71812E+00
 -1      2748-2.20716E+00-7.35726E-01 1.34534E+00
 -1      2749 2.43592E+00 1.76417E+00 1.07086E+00
 -1      2750-1.80448E+00 1.47749E+00 9.99938E-01
 -1      2751-2.28620E-01-2.32070E+00 1.42045E+00
 -1      2752-1.90541E+00-1.38985E+00-5.00000E-01
 -1      2753 1.63761E+00 2.30936E+00 1.48438E+00
 -1      2754 1.47749E+00 1.80448E+00 1.75006E+00
 -1      2755-2.31218E-01 2.32070E+00 1.75006E+00
 -1      2756-1.00992E+00 2.09359E+00 1.70421E+00
 -1      2757-2.34783E-01-2.32070E+00 1.02393E+00
 -1      2758-1.60831E+00 2.28006E+00 1.39209E+00
 -1      2759-2.63505E+00 1.05305E+00 2.25000E+00
 -1      2760 1.70991E+00-1.57206E+00 1.40149E+00
 -1      2761-1.73259E+00-1.54938E+00 1.22333E+00
 -1      2762 1.53579E+00 1.74618E+00 1.00508E+00
 -1      2763-1.55399E+00 2.22574E+00 1.67923E+00
 -1      2764 2.25240E+00 6.26506E-01 8.77449E-01
 -1      2765-1.48417E+00 2.34187E+00 1.43981E+00
 -1      2766 5.65773E+00-1.27747E+00-5.00000E-01
 -1      2767 1.85648E+00 1.42549E+00 1.59909E+00
 -1      2768-5.67549E-01 2.61142E+00 9.92188E-01
 -1      2769-2.88625E-01-2.32070E+00 1.58305E+00
 -1      2770-6.45454E-01-2.79950E+00 1.31704E+00
 -1      2771-7.94107E-01 2.18298E+00 1.77716E+00
 -1      2772 2.62887E-01-3.00869E+00-5.00000E-01
 -1      2773 2.33161E-01-2.32070E+00 9.93708E-01
 -1      2774-4.74999E-01 3.27883E+00 1.37500E+00
 -1      2775-1.44162E+00 1.84035E+00 1.37940E+00
 -1      2776 2.03473E+00 1.15201E+00 9.54674E-01
 -1      2777-1.18147E+00-1.19783E+00-5.00000E-01
 -1      2778-6.39700E-01 2.24694E+00 1.20705E+00
 -1      2779-1.42780E+00-1.85417E+00 1.14395E+00
 -1      2780 1.30515E+00 1.28264E+00 5.00000E-01
 -1      2781 2.96662E+00-7.14679E-01 1.15625E+00
 -1      2782-8.70526E-01-1.49850E+00 5.00000E-01
 -1      2783 2.06275E-01-2.32070E+00 1.64261E+00
 -1      2784 4.74999E-01-2.90980E+00 1.74932E+00
 -1      2785 1.09658E+00 2.05769E+00 1.74159E+00
 -1      2786 1.72497E+00-2.39672E+00 9.91163E-01
 -1      2787-1.49512E+00-1.78684E+00 1.64260E+00
 -1      2788 7.44954E-01-2.20334E+00 1.99403E+00
 -1      2789-2.86042E-01 2.32070E+00 2.07714E+00
 -1      2790 4.74999E-01-2.91448E+00 9.91163E-01
 -1      2791 2.32070E+00 0.00000E+00 1.71490E+00
 -1      2792 2.02064E+00 1.18603E+00 8.13506E-01
 -1      2793 3.45989E-01 2.32070E+00 1.70312E+00
 -1      2794 4.74999E-01 3.11739E+00 1.74012E+00
 -1      2795-1.45497E+00 2.27138E+00 1.71419E+00
 -1      2796 2.95135E+00 7.08352E-01 1.10156E+00
 -1      2797 2.32070E+00 1.84560E-01 1.98245E+00
 -1      2798-7.11633E-01 2.48576E+00 2.25000E+00
 -1      2799-6.54584E-01-2.24077E+00 1.74536E+00
 -1      2800-2.04933E+00-1.11677E+00 1.03535E+00
 -1      2801 1.55612E+00-2.51558E+00 9.99637E-01
 -1      2802 1.53198E+00-2.45729E+00 1.85472E+00
 -1      2803 1.50157E+00-2.38388E+00 1.36188E+00
 -1      2804 2.47190E-01 2.32070E+00 1.04688E+00
 -1      2805 1.82865E+00 1.45332E+00 1.27465E+00
 -1      2806 2.26616E+00 1.59441E+00 1.42969E+00
 -1      2807 1.10133E+00 2.05573E+00 1.05699E+00
 -1      2808-1.14355E+00-2.03824E+00 9.33240E-01
 -1      2809-1.49606E+00-1.78591E+00 1.43076E+00
 -1      2810 7.37277E-01 2.20652E+00 9.04298E-01
 -1      2811 7.37836E-01 2.20629E+00 1.40948E+00
 -1      2812 7.50198E-01 2.20117E+00 1.81086E+00
 -1      2813-1.49202E+00 1.78995E+00 9.96286E-01
 -1      2814-1.40704E+00 1.87493E+00 1.79011E+00
 -1      2815 1.18200E+00 2.02231E+00 1.92188E+00
 -1      2816 2.32070E+00-2.33592E-01 1.00174E+00
 -1      2817-2.02146E+00 2.02146E+00 2.25000E+00
 -1      2818-1.71699E+00 1.99448E+00 2.25000E+00
 -1      2819-3.51432E-01-1.75312E+00 5.00000E-01
 -1      2820-2.39672E+00 1.72497E+00 9.91163E-01
 -1      2821-2.04376E+00 1.13021E+00 9.76945E-01
 -1      2822 1.40414E+00 1.87783E+00 8.28125E-01
 -1      2823 2.26090E+00 1.25450E+00 2.25000E+00
 -1      2824 2.10643E+00 9.78919E-01 1.89145E+00
 -1      2825-1.13319E+00 2.04253E+00 6.66072E-01
 -1      2826-2.22404E+00-6.94979E-01 1.74909E+00
 -1      2827-1.80643E+00-1.47554E+00 1.00884E+00
 -1      2828 1.12151E+00 2.70757E+00 2.25000E+00
 -1      2829 1.19393E-01 2.32070E+00 1.36997E+00
 -1      2830-1.23709E+00-1.16551E+00 5.00000E-01
 -1      2831-2.51085E+00-1.55416E+00 1.75884E+00
 -1      2832-1.47353E+00-2.14528E+00 9.92188E-01
 -1      2833 4.74999E-01-2.78711E+00 1.36947E+00
 -1      2834 1.44169E+00-1.84028E+00 2.07271E+00
 -1      2835 2.03688E-01-2.32070E+00 1.43241E+00
 -1      2836 5.99382E-01-2.26364E+00 1.39548E+00
 -1      2837 3.20753E-01-2.32070E+00 8.57344E-01
 -1      2838 7.37277E-01-2.20652E+00 7.51952E-01
 -1      2839-5.98805E-01 2.26388E+00 8.66309E-01
 -1      2840-2.02575E+00-1.17370E+00 1.57020E+00
 -1      2841 1.52589E-01-1.85791E+00-5.00000E-01
 -1      2842-2.33939E+00 1.66764E+00 1.43296E+00
 -1      2843 1.38897E+00 1.89300E+00 1.23141E+00
 -1      2844 1.76044E+00-1.52153E+00 1.23110E+00
 -1      2845 1.86221E+00-1.41976E+00 1.18420E+00
 -1      2846 3.12733E-01 1.72261E+00 5.00000E-01
 -1      2847 6.63201E-01 2.23720E+00 1.61309E+00
 -1      2848-2.23451E+00 6.69700E-01 2.02475E+00
 -1      2849 1.58085E+00 7.79725E-01 5.00000E-01
 -1      2850-2.43595E+00-1.52314E+00 1.31704E+00
 -1      2851 2.20973E+00 7.29527E-01 1.78089E+00
 -1      2852-2.19644E+00 5.90390E-01-5.00000E-01
 -1      2853-1.04247E+00-2.08011E+00 1.79757E+00
 -1      2854 1.19970E+00 2.01498E+00 1.79820E+00
 -1      2855-1.75935E-01-2.32070E+00 2.00556E+00
 -1      2856 1.86240E+00 1.41957E+00 1.88369E+00
 -1      2857 1.53288E+00-2.20463E+00 1.04688E+00
 -1      2858 1.18601E+00 2.02065E+00 1.40370E+00
 -1      2859 1.68397E+00 2.35572E+00 8.95275E-01
 -1      2860 3.35039E-01-2.32070E+00 6.21164E-01
 -1      2861-2.93066E+00 4.74999E-01 1.76193E+00
 -1      2862 6.66010E-01 2.84912E+00 1.70312E+00
 -1      2863 6.74855E-01 2.23237E+00 1.18686E+00
 -1      2864 6.06214E-01 2.26081E+00 1.33136E+00
 -1      2865 6.47234E-01 2.80379E+00 1.24669E+00
 -1      2866-2.32070E+00 2.19707E-01 2.07307E+00
 -1      2867 2.27612E+00 5.69234E-01 9.88452E-01
 -1      2868 2.32070E+00 3.29742E-01 1.13173E+00
 -1      2869-3.35039E-01-2.32070E+00 6.21164E-01
 -1      2870-3.41310E-01-2.32070E+00 7.43915E-01
 -1      2871 2.32070E+00 1.73106E-01 7.31141E-01
 -1      2872-1.05305E+00-2.63505E+00 2.25000E+00
 -1      2873-1.56046E+00-2.52605E+00 1.05714E+00
 -1      2874-5.83472E-01-2.27023E+00 1.63173E+00
 -1      2875-1.19971E+00-2.01498E+00 1.17892E+00
 -1      2876-2.09989E+00-9.94713E-01 2.08065E+00
 -1      2877 2.15458E+00 1.48283E+00 1.53906E+00
 -1      2878 0.00000E+00 2.96857E+00 2.25000E+00
 -1      2879 8.33906E-01-2.16649E+00 9.44826E-01
 -1      2880-1.07631E+00-2.06609E+00 1.49126E+00
 -1      2881-7.81474E-01 2.18821E+00 2.02746E+00
 -1      2882 2.36722E+00-1.69547E+00 1.59375E+00
 -1      2883-1.48902E+00-2.35358E+00 1.36092E+00
 -1      2884 2.32070E+00-1.59167E-01 7.31141E-01
 -1      2885 1.49444E+00 2.36668E+00 1.37500E+00
 -1      2886 1.41395E+00 1.86802E+00 1.04781E+00
 -1      2887 1.87156E+00 1.41041E+00 1.15343E+00
 -1      2888-6.75627E-01 2.23206E+00 1.58401E+00
 -1      2889 2.04837E+00 1.11909E+00 2.03914E+00
 -1      2890-2.23499E+00-6.68546E-01 1.97762E+00
 -1      2891-6.07312E-01-2.26035E+00 1.39070E+00
 -1      2892 1.87407E+00 1.40790E+00 1.46850E+00
 -1      2893 2.04468E+00 1.12800E+00 1.30610E+00
 -1      2894-2.07460E+00-1.05577E+00 1.89445E+00
 -1      2895-1.84634E+00-1.43563E+00 1.85306E+00
 -1      2896 2.25651E+00-1.58476E+00 1.29418E+00
 -1      2897-2.02146E+00-2.02146E+00 2.25000E+00
 -1      2898-1.14307E+00 2.03844E+00 1.82156E+00
 -1      2899 2.91448E+00-4.74999E-01 9.91163E-01
 -1      2900-2.32070E+00-2.08715E-01 1.73597E+00
 -1      2901-2.87797E-01-2.32070E+00 1.23780E+00
 -1      2902 2.32070E+00 1.98384E-01 1.53078E+00
 -1      2903-1.45629E+00 1.82568E+00 1.53575E+00
 -1      2904-1.41627E+00-1.86570E+00 8.60823E-01
 -1      2905-2.94164E+00-4.74999E-01 1.71391E+00
 -1      2906-1.86301E+00-1.41896E+00 8.65294E-01
 -1      2907-1.45229E+00-1.82968E+00 1.82840E+00
 -1      2908-7.97128E-01-2.49648E+00 2.25000E+00
 -1      2909 2.80320E-01 2.32070E+00 1.24680E+00
 -1      2910-2.56850E+00 1.57804E+00 1.09437E+00
 -1      2911-1.12485E+00 2.04598E+00 2.04572E+00
 -1      2912 2.54197E+00-1.56705E+00 1.04688E+00
 -1      2913 6.57209E-01 2.23968E+00 7.10987E-01
 -1      2914-2.32070E+00-3.06189E-01 1.87000E+00
 -1      2915-2.32070E+00-3.26148E-01 2.00629E+00
 -1      2916-2.21970E+00-7.05454E-01 1.54604E+00
 -1      2917 6.05677E-01 2.26103E+00 1.76404E+00
 -1      2918 1.41329E+00-1.86868E+00 1.47724E+00
 -1      2919 1.44808E+00-1.83389E+00 1.80884E+00
 -1      2920-2.26466E+00-5.96906E-01 6.42117E-01
 -1      2921-2.27220E+00-5.78703E-01 7.82694E-01
 -1      2922 6.74855E-01-2.23237E+00 1.10643E+00
 -1      2923-1.15355E+00-2.03410E+00 1.65660E+00
 -1      2924 2.32070E+00 3.48633E-01 1.48438E+00
 -1      2925 4.74999E-01 2.76516E+00 1.60474E+00
 -1      2926 1.49514E+00 2.16689E+00 1.42969E+00
 -1      2927 1.74123E+00 2.22834E-01 5.00000E-01
 -1      2928 1.42119E+00 1.86078E+00 1.91261E+00
 -1      2929 1.15404E-01 2.32070E+00 7.72109E-01
 -1      2930 2.78546E-01 2.32070E+00 6.80772E-01
 -1      2931 1.53849E+00-1.31974E-01-5.00000E-01
 -1      2932-1.41984E+00 1.86213E+00 8.67005E-01
 -1      2933-1.42920E+00-1.85277E+00 1.30293E+00
 -1      2934-1.41764E+00 1.86433E+00 1.10809E+00
 -1      2935-2.32070E+00 1.66960E-01 7.44112E-01
 -1      2936-2.32070E+00-2.57729E-01 7.02736E-01
 -1      2937-2.26527E+00-5.95449E-01 1.64123E+00
 -1      2938-2.26144E+00-6.04679E-01 1.42521E+00
 -1      2939-6.36804E-01 2.24814E+00 1.89338E+00
 -1      2940 2.23275E+00 1.56100E+00 1.13835E+00
 -1      2941 2.83340E+00-4.74999E-01 1.59375E+00
 -1      2942 2.23479E+00 6.69029E-01 1.56412E+00
 -1      2943-6.74123E-01-2.23268E+00 1.08261E+00
 -1      2944-1.19827E+00-2.01557E+00 1.04434E+00
 -1      2945 2.01546E+00 1.19855E+00 1.19800E+00
 -1      2946-2.70757E+00-1.12151E+00 2.25000E+00
 -1      2947 2.91960E+00 4.74999E-01 1.75036E+00
 -1      2948-1.80544E+00-1.47653E+00 1.43713E+00
 -1      2949-2.03350E+00-1.15499E+00 1.21210E+00
 -1      2950-1.41597E+00-1.86600E+00 1.53598E+00
 -1      2951-1.55520E+00 2.22695E+00 1.11221E+00
 -1      2952-1.49094E+00 2.16269E+00 1.28661E+00
 -1      2953 1.11259E+00-2.05106E+00 1.73839E+00
 -1      2954 2.77705E+00 4.74999E-01 1.38812E+00
 -1      2955-4.74999E-01-2.63755E+00 9.92188E-01
 -1      2956 2.05311E+00 1.10764E+00 1.71563E+00
 -1      2957-1.17140E+00 2.02670E+00 1.22362E+00
 -1      2958-1.18770E+00 2.01995E+00 9.68656E-01
 -1      2959-1.45623E+00-2.27442E+00 1.09902E+00
 -1      2960 1.73641E+00 2.40816E+00 1.87581E+00
 -1      2961 1.42660E+00-1.85537E+00 1.31825E+00
 -1      2962 1.68098E+00-2.35273E+00 1.37802E+00
 -1      2963 2.67646E+00 5.94491E-01 9.92188E-01
 -1      2964 1.54261E+00-2.21436E+00 1.75781E+00
 -1      2965 2.91155E+00-7.93915E-02-5.00000E-01
 -1      2966-2.64129E+00 4.74999E-01 1.59375E+00
 -1      2967 1.14194E+00-2.03890E+00 2.06524E+00
 -1      2968-2.03816E+00 1.14374E+00 6.82708E-01
 -1      2969 2.49236E+00 1.54651E+00 1.37500E+00
 -1      2970 6.07758E-01-2.26017E+00 6.54510E-01
 -1      2971-1.57404E+00 7.76901E-01 5.00000E-01
 -1      2972 2.28022E+00 1.45863E+00 1.21094E+00
 -1      2973-2.19512E+00 7.64793E-01 1.00573E+00
 -1      2974-5.88152E-01-2.66116E+00 1.57285E+00
 -1      2975 1.56547E+00 2.23722E+00 1.14546E+00
 -1      2976 2.32070E+00-3.07338E-01 6.50393E-01
 -1      2977 2.10974E+00-9.70929E-01 1.32651E+00
 -1      2978 2.01428E+00 1.20138E+00 1.06669E+00
 -1      2979-2.70114E+00-4.74999E-01 1.04688E+00
 -1      2980-2.49648E+00 7.97128E-01 2.25000E+00
 -1      2981-2.26090E+00-1.25450E+00 2.25000E+00
 -1      2982 1.80217E+00-1.47980E+00 1.59534E+00
 -1      2983-2.68880E+00-1.62787E+00 9.54343E-01
 -1      2984 1.11864E+00-2.60788E+00 2.25000E+00
 -1      2985-2.19503E+00-7.65015E-01 1.04826E+00
 -1      2986-2.32070E+00-2.99737E-01 1.33161E+00
 -1      2987 1.09180E+00-2.05967E+00 1.59497E+00
 -1      2988 1.83809E+00-1.44388E+00 1.37733E+00
 -1      2989-2.32070E+00-2.62949E-01 9.80027E-01
 -1      2990-1.84804E+00-1.43393E+00 1.59482E+00
 -1      2991-1.55521E+00 2.22696E+00 1.96959E+00
 -1      2992-2.32070E+00-3.08809E-01 1.61799E+00
 -1      2993 3.16991E-01-2.32070E+00 1.53613E+00
 -1      2994 4.74999E-01-2.66505E+00 1.11778E+00
 -1      2995-2.34191E+00-1.67016E+00 1.80956E+00
 -1      2996 1.46213E+00-2.28867E+00 1.63132E+00
 -1      2997-1.45686E+00 2.27594E+00 1.98956E+00
 -1      2998 2.85650E+00 4.74999E-01 8.95275E-01
 -1      2999 2.25828E+00 6.12309E-01 1.40919E+00
 -1      3000-2.63385E+00-5.76843E-01 1.70312E+00
 -1      3001 2.02124E+00 1.18458E+00 1.60193E+00
 -1      3002-1.72001E-01 2.32070E+00 7.33474E-01
 -1      3003 1.44135E+00-2.23850E+00 1.86194E+00
 -1      3004-1.55776E+00 1.40086E-02 5.00000E-01
 -1      3005-1.82244E+00 1.45953E+00 1.21047E+00
 -1      3006-1.65827E-01 2.32070E+00 1.28837E+00
 -1      3007 1.39488E+00-1.88709E+00 1.00402E+00
 -1      3008-2.97572E-01 2.32070E+00 1.90707E+00
 -1      3009-2.22284E+00 6.97883E-01 7.57439E-01
 -1      3010-2.70791E+00-4.74999E-01 1.93264E+00
 -1      3011-2.25344E+00 6.23990E-01 9.15478E-01
 -1      3012 1.76806E+00-1.51391E+00 1.97734E+00
 -1      3013 1.46064E+00 2.28506E+00 1.64844E+00
 -1      3014 1.44595E+00 1.83602E+00 1.56784E+00
 -1      3015-4.74999E-01-2.87183E+00 1.64087E+00
 -1      3016-6.22049E-01 2.25425E+00 2.07917E+00
 -1      3017-1.41654E+00 2.17861E+00 1.85372E+00
 -1      3018-2.79816E+00 0.00000E+00 2.25000E+00
 -1      3019 2.32070E+00-3.09754E-01 8.35255E-01
 -1      3020 1.15741E+00 2.03250E+00 8.91586E-01
 -1      3021-2.22301E-01 2.32070E+00 9.69641E-01
 -1      3022-1.40700E+00 1.87497E+00 1.25795E+00
 -1      3023 1.87262E+00-1.40935E+00 1.50364E+00
 -1      3024-6.44507E-01 2.24495E+00 1.39700E+00
 -1      3025-6.54379E-01 2.24086E+00 1.73842E+00
 -1      3026-2.77691E+00-6.36100E-01 1.41306E+00
 -1      3027 9.94713E-01 2.09989E+00 6.43979E-01
 -1      3028-1.39395E+00-1.88802E+00 1.69873E+00
 -1      3029-2.04438E+00-1.12872E+00 6.99860E-01
 -1      3030-7.70729E-01 1.34568E+00 5.00000E-01
 -1      3031-2.87440E+00 6.76480E-01 9.91164E-01
 -1      3032 3.37546E-01 2.32070E+00 1.13461E+00
 -1      3033-2.35615E+00-1.49008E+00 9.67258E-01
 -1      3034-1.87824E+00 1.40373E+00 1.09415E+00
 -1      3035-4.74999E-01-2.68260E+00 1.41204E+00
 -1      3036 1.20297E+00-2.01363E+00 1.64956E+00
 -1      3037 1.16965E+00-2.02743E+00 1.89736E+00
 -1      3038-2.24760E+00-6.38099E-01 1.18383E+00
 -1      3039 2.70287E+00 4.22646E-01-5.00000E-01
 -1      3040-5.63778E-01-2.60231E+00 1.21094E+00
 -1      3041 2.15064E+00 1.47889E+00 9.92188E-01
 -1      3042-1.86399E+00 1.41798E+00 8.28125E-01
 -1      3043 2.02697E-01 2.32070E+00 1.55695E+00
 -1      3044 1.46535E+00 2.29644E+00 1.95286E+00
 -1      3045-4.49454E+00-2.69273E+00-5.00000E-01
 -1      3046-6.04706E-01-2.26143E+00 1.22423E+00
 -1      3047 2.55042E+00-1.57055E+00 1.61658E+00
 -1      3048 2.29596E+00 1.46515E+00 1.57852E+00
 -1      3049-1.14315E+00 2.03841E+00 1.67429E+00
 -1      3050 6.40932E-01-2.24643E+00 1.85841E+00
 -1      3051-2.23469E+00-6.69277E-01 9.17601E-01
 -1      3052-2.19267E+00-1.52092E+00 9.92188E-01
 -1      3053-2.67730E+00-5.94839E-01 1.04688E+00
 -1      3054 2.19582E+00-1.52407E+00 1.70312E+00
 -1      3055 2.06317E+00-1.08335E+00 1.54961E+00
 -1      3056 2.32070E+00 2.24279E-01 1.75762E+00
 -1      3057 1.97860E+00 1.97860E+00 2.25000E+00
 -1      3058-3.35087E-01-2.32070E+00 1.11257E+00
 -1      3059-1.83532E+00-3.88939E-01 5.00000E-01
 -1      3060-2.02300E+00-1.18033E+00 1.35604E+00
 -1      3061-2.40486E+00 6.48648E-01 2.25000E+00
 -1      3062-2.66508E+00-4.74999E-01 1.65261E+00
 -1      3063 2.01529E+00 1.19895E+00 1.41139E+00
 -1      3064-5.94839E-01 2.67730E+00 1.64844E+00
 -1      3065-1.41682E+00 2.17927E+00 1.42969E+00
 -1      3066-5.73293E-01 2.62528E+00 1.92188E+00
 -1      3067-1.85998E+00-1.42199E+00 1.26823E+00
 -1      3068 2.00198E+00 1.68968E+00 2.25000E+00
 -1      3069 2.21018E+00 1.42962E+00 1.39864E+00
 -1      3070 2.92645E+00 6.98041E-01 1.68409E+00
 -1      3071-2.64305E+00-5.80652E-01 1.98319E+00
 -1      3072 5.93004E-01 2.26628E+00 8.58225E-01
 -1      3073 2.25100E+00 6.29893E-01 6.79791E-01
 -1      3074 1.83034E+00-1.45163E+00 6.92120E-01
 -1      3075-4.74999E-01 2.83340E+00 1.48438E+00
 -1      3076-1.17561E+00-2.02496E+00 1.86719E+00
 -1      3077 2.32070E+00 3.18634E-01 1.89021E+00
 -1      3078 1.21565E+00 1.60161E+00 5.00000E-01
 -1      3079-2.23351E+00 1.56176E+00 1.17715E+00
 -1      3080-1.57443E+00-2.24618E+00 1.48438E+00
 -1      3081 2.22015E+00-7.04377E-01 1.20438E+00
 -1      3082 6.02947E-01-2.26216E+00 1.24050E+00
 -1      3083 1.25450E+00 2.26090E+00 2.25000E+00
 -1      3084 1.10761E+00 2.05313E+00 2.07613E+00
 -1      3085-2.32070E+00 3.07315E-01 6.50417E-01
 -1      3086-2.26502E+00-1.45233E+00 1.75781E+00
 -1      3087 1.43219E+00-1.84978E+00 1.12881E+00
 -1      3088 6.63046E-01-2.23727E+00 9.20317E-01
 -1      3089 2.15992E+00 1.48817E+00 1.30456E+00
 -1      3090-2.68506E+00 4.74999E-01 1.94846E+00
 -1      3091-1.93872E+00-2.06466E-02 5.00000E-01
 -1      3092-2.88369E-01-2.32070E+00 1.86404E+00
 -1      3093 2.06991E+00-1.06709E+00 7.70251E-01
 -1      3094-4.74999E-01 2.77011E+00 1.86484E+00
 -1      3095 2.02572E+00-1.17376E+00 6.48421E-01
 -1      3096-4.74999E-01 2.94691E+00 9.84963E-01
 -1      3097 2.32070E+00-1.01647E-01 1.98245E+00
 -1      3098-6.30462E-01-2.25076E+00 9.02669E-01
 -1      3099 2.32070E+00-1.93280E-01 1.51134E+00
 -1      3100 1.85303E+00-1.42894E+00 8.66020E-01
 -1      3101 1.01381E+00 1.79225E+00 5.00000E-01
 -1      3102-5.79120E-01 2.63935E+00 1.37944E+00
 -1      3103-3.47145E-01 2.32070E+00 9.92188E-01
 -1      3104-5.56389E-01-2.58447E+00 9.92188E-01
 -1      3105 2.35755E+00-1.00608E-01-5.00000E-01
 -1      3106-2.24668E+00-6.40318E-01 1.04888E+00
 -1      3107-1.18897E+00-2.01943E+00 7.88546E-01
 -1      3108-5.41266E-01 2.54796E+00 1.76213E+00
 -1      3109-2.20126E+00-1.52951E+00 1.64844E+00
 -1      3110 2.32070E+00-2.34892E-01 1.74439E+00
 -1      3111 1.85073E+00 1.43124E+00 2.09065E+00
 -1      3112 2.23006E+00 6.80445E-01 2.01248E+00
 -1      3113-6.51340E-01-2.24212E+00 2.04572E+00
 -1      3114-2.05956E+00-2.53236E-01 5.00000E-01
 -1      3115 1.15751E+00 2.03245E+00 6.66979E-01
 -1      3116-1.81377E+00-1.46820E+00 1.14656E+00
 -1      3117 1.39664E+00-1.88533E+00 1.93844E+00
 -1      3118-1.87789E+00-1.40408E+00 6.21166E-01
 -1      3119 1.52237E+00-2.19412E+00 1.50276E+00
 -1      3120-2.36441E+00 1.49350E+00 1.38900E+00
 -1      3121 9.47994E-01-4.76589E+00 5.00000E-01
 -1      3122-2.18724E+00-1.42012E+00 9.92188E-01
 -1      3123 1.45783E+00 2.12958E+00 1.10156E+00
 -1      3124 1.46349E+00 2.29194E+00 1.09315E+00
 -1      3125 2.27368E+00 1.45592E+00 1.84980E+00
 -1      3126-1.18204E+00-2.35412E+00 2.25000E+00
 -1      3127-1.02008E+00-2.08938E+00 2.03168E+00
 -1      3128-2.32070E+00 2.27048E-01 9.73731E-01
 -1      3129 1.16355E+00 2.02995E+00 1.21447E+00
 -1      3130-2.56887E+00-2.93795E-01 2.25000E+00
 -1      3131-2.23575E+00 6.66719E-01 1.63605E+00
 -1      3132 6.25999E-01 2.25261E+00 1.02485E+00
 -1      3133 2.74446E-01 2.32070E+00 8.64815E-01
 -1      3134 2.88511E-01 2.02395E+00 5.00000E-01
 -1      3135 7.81474E-01 2.18821E+00 2.04429E+00
 -1      3136-2.05929E+00 1.09273E+00 1.39038E+00
 -1      3137-2.24636E+00 6.41092E-01 1.83198E+00
 -1      3138 2.06278E+00-1.08429E+00 1.10315E+00
 -1      3139-1.88116E+00 1.40081E+00 1.31035E+00
 -1      3140-2.02421E+00-1.60872E+00 2.25000E+00
 -1      3141 3.32485E-01 2.32070E+00 1.57304E+00
 -1      3142-2.93795E-01-2.56887E+00 2.25000E+00
 -1      3143-2.50454E+00-8.61414E-01 2.25000E+00
 -1      3144 2.72338E-01-2.32070E+00 1.86719E+00
 -1      3145-2.69046E+00-4.74999E-01 1.35018E+00
 -1      3146-1.45340E+00 1.82857E+00 2.08393E+00
 -1      3147-1.82857E+00 1.45340E+00 6.66073E-01
 -1      3148 3.32934E-01-2.32070E+00 1.40497E+00
 -1      3149 1.80665E+00-1.96986E+00 2.25000E+00
 -1      3150-2.27339E+00-5.75834E-01 1.77017E+00
 -1      3151 4.74999E-01-2.66462E+00 1.61877E+00
 -1      3152-2.02396E+00 1.17802E+00 1.12004E+00
 -1      3153 2.03959E+00-1.14028E+00 1.37127E+00
 -1      3154 2.56887E+00 2.93795E-01 2.25000E+00
 -1      3155 6.15315E-01-2.25704E+00 7.92309E-01
 -1      3156-4.74999E-01-2.62715E+00 1.65055E+00
 -1      3157-1.16732E+00-2.02839E+00 2.02639E+00
 -1      3158 6.33437E-01 2.24953E+00 1.94836E+00
 -1      3159-5.92501E-01-2.26649E+00 1.89478E+00
 -1      3160 2.27215E+00 5.78840E-01 2.12851E+00
 -1      3161 1.68968E+00 2.00198E+00 2.25000E+00
 -1      3162 3.34356E-01-2.32070E+00 1.72694E+00
 -1      3163-2.32070E+00 3.22437E-01 8.26097E-01
 -1      3164 1.19560E+00 2.01668E+00 1.65614E+00
 -1      3165 5.86426E-01-2.65699E+00 9.92188E-01
 -1      3166-2.32070E+00-3.47165E-01 1.21641E+00
 -1      3167 1.88433E+00 1.39764E+00 1.00475E+00
 -1      3168 1.82585E+00-1.45613E+00 1.79362E+00
 -1      3169 2.65915E+00 5.87322E-01 1.75781E+00
 -1      3170-2.29419E+00 1.46442E+00 1.10189E+00
 -1      3171 2.35041E+00-1.48771E+00 1.33513E+00
 -1      3172 5.94639E-01-2.67682E+00 1.30679E+00
 -1      3173 7.11633E-01-2.48576E+00 2.25000E+00
 -1      3174-2.91448E+00 4.74999E-01 9.91163E-01
 -1      3175 2.28718E+00-1.46151E+00 1.61176E+00
 -1      3176 3.18967E-01-2.32070E+00 1.26298E+00
 -1      3177-1.20125E+00-2.01434E+00 1.52669E+00
 -1      3178-2.32070E+00-3.38124E-01 1.74431E+00
 -1      3179-6.23826E-01-2.25351E+00 6.72861E-01
 -1      3180 2.28062E+00 5.58375E-01 1.52195E+00
 -1      3181-2.02402E+00-1.17788E+00 1.82650E+00
 -1      3182 2.22717E+00 1.43666E+00 9.92188E-01
 -1      3183-1.84499E+00-1.43698E+00 2.12414E+00
 -1      3184 4.74999E-01 2.69239E+00 1.04688E+00
 -1      3185-2.17362E+00 1.41448E+00 9.92188E-01
 -1      3186-2.57696E+00-4.74999E-01 1.19435E+00
 -1      3187 2.72934E+00 6.16395E-01 1.38233E+00
 -1      3188-2.60527E+00-5.65004E-01 1.26880E+00
 -1      3189 6.57496E-01 1.81558E+00 5.00000E-01
 -1      3190-2.25446E+00 6.21546E-01 2.13873E+00
 -1      3191-6.48648E-01-2.40486E+00 2.25000E+00
 -1      3192 2.26210E+00 6.03093E-01 1.87138E+00
 -1      3193-2.16630E+00 1.49455E+00 9.92188E-01
 -1      3194 5.65919E-01 2.60748E+00 1.70312E+00
 -1      3195 2.58995E+00 5.58658E-01 1.54723E+00
 -1      3196-1.43698E+00-1.84499E+00 6.18802E-01
 -1      3197 1.75223E+00 1.03808E+00 5.00000E-01
 -1      3198-1.60872E+00-2.02421E+00 2.25000E+00
 -1      3199-1.49308E+00-1.78889E+00 2.03581E+00
 -1      3200-2.42151E+00-6.90740E-01 2.25000E+00
 -1      3201-1.62692E+00-1.11914E+00 5.00000E-01
 -1      3202-2.26401E+00-1.45192E+00 1.49814E+00
 -1      3203 1.42130E+00-1.86067E+00 6.46866E-01
 -1      3204 7.81476E-01-1.58508E+00 5.00000E-01
 -1      3205 1.13550E+00-2.04157E+00 6.92120E-01
 -1      3206-2.58904E+00-5.58282E-01 1.49087E+00
 -1      3207 1.88287E+00-1.39910E+00 9.89258E-01
 -1      3208 1.42908E+00 2.20887E+00 1.27149E+00
 -1      3209-2.25144E+00-6.28820E-01 1.30573E+00
 -1      3210-1.43698E+00-1.84499E+00 2.13598E+00
 -1      3211-1.40403E+00-1.87794E+00 2.01756E+00
 -1      3212 6.18504E-01 2.25572E+00 1.47606E+00
 -1      3213 2.04442E+00 1.12864E+00 1.87675E+00
 -1      3214 2.32070E+00-2.87469E-01 1.36448E+00
 -1      3215 2.32070E+00 2.95318E-01 8.65140E-01
 -1      3216 3.28475E-01-2.32070E+00 1.10156E+00
 -1      3217-1.09255E+00-1.73295E+00 5.00000E-01
 -1      3218 2.23192E+00-1.56017E+00 9.98889E-01
 -1      3219-1.89812E+00 4.03915E-01 5.00000E-01
 -1      3220 2.03743E+00-1.14549E+00 9.32474E-01
 -1      3221-1.49445E+00-2.36669E+00 1.86719E+00
 -1      3222 1.59397E+00 1.27970E+00 5.00000E-01
 -1      3223-4.74999E-01-2.76096E+00 1.93545E+00
 -1      3224-2.32070E+00-3.19566E-01 1.09305E+00
 -1      3225 1.69958E+00-3.99948E-01 5.00000E-01
 -1      3226 2.52780E+00 5.32912E-01 9.92188E-01
 -1      3227-5.70843E-01 2.27546E+00 1.64604E+00
 -1      3228-2.03556E+00-1.15001E+00 8.68743E-01
 -1      3229 2.24587E+00 1.57412E+00 1.92188E+00
 -1      3230 2.66254E+00 4.74999E-01 1.64235E+00
 -1      3231 1.69825E+00-8.41736E-01 5.00000E-01
 -1      3232-2.03472E+00-1.15205E+00 2.03626E+00
 -1      3233-1.66051E-01 2.32070E+00 1.52382E+00
 -1      3234 1.51850E+00 1.97297E+00 2.25000E+00
 -1      3235-1.88123E+00-1.40074E+00 1.97699E+00
 -1      3236 2.19703E+00-7.60193E-01 1.46351E+00
 -1      3237 2.32070E+00 3.12154E-01 1.63269E+00
 -1      3238 2.70403E-01-2.32070E+00 2.06064E+00
 -1      3239 2.01791E+00-1.19262E+00 1.49066E+00
 -1      3240-3.12673E-01 2.32070E+00 6.44763E-01
 -1      3241-3.36697E-01-2.32070E+00 1.35455E+00
 -1      3242-2.88511E-01-2.32070E+00 2.10867E+00
 -1      3243 2.26011E-01-1.74319E+00 5.00000E-01
 -1      3244 1.16514E+00-2.02930E+00 8.66019E-01
 -1      3245 1.04739E+00-2.07807E+00 1.03436E+00
 -1      3246-1.24228E+00-1.81351E+00 5.00000E-01
 -1      3247-2.32070E+00 2.68467E-01 1.16249E+00
 -1      3248-1.20162E+00 2.32893E+00 2.25000E+00
 -1      3249-1.46642E+00 2.13817E+00 2.08240E+00
 -1      3250-2.27467E+00 5.72754E-01 7.88153E-01
 -1      3251 1.87476E+00-1.40721E+00 1.67997E+00
 -1      3252 2.63755E+00-4.74999E-01 1.75781E+00
 -1      3253-4.74999E-01 2.63725E+00 1.64724E+00
 -1      3254-2.04123E+00 1.13632E+00 1.25556E+00
 -1      3255 6.21546E-01 2.25446E+00 6.01134E-01
 -1      3256 2.04906E+00-1.11742E+00 1.76508E+00
 -1      3257 2.23259E+00-6.74334E-01 1.67591E+00
 -1      3258 1.40424E+00-1.87773E+00 1.69809E+00
 -1      3259-6.12332E-01 2.25827E+00 6.59734E-01
 -1      3260-2.32070E+00-2.49989E-01 8.41577E-01
 -1      3261 1.87699E+00-1.40498E+00 1.93582E+00
 -1      3262 1.03158E+00-2.08462E+00 1.19306E+00
 -1      3263 1.19155E+00-2.01836E+00 1.02008E+00
 -1      3264-6.50791E-01-2.24234E+00 7.86965E-01
 -1      3265 2.32070E+00-3.21456E-01 1.22153E+00
 -1      3266-2.03678E+00 1.14707E+00 1.56438E+00
 -1      3267 1.40284E+00 1.87913E+00 1.67933E+00
 -1      3268 2.01715E+00-1.19447E+00 1.05124E+00
 -1      3269-1.57337E+00 1.16535E+00 5.00000E-01
 -1      3270-2.10085E+00 4.95465E-01 5.00000E-01
 -1      3271 1.53813E+00 2.20988E+00 1.92188E+00
 -1      3272-1.42992E+00 1.85205E+00 6.59735E-01
 -1      3273-1.40607E+00 1.87590E+00 9.87317E-01
 -1      3274 2.32070E+00-2.41509E-01 1.12603E+00
 -1      3275-2.97038E-01-2.32070E+00 1.98635E+00
 -1      3276 2.32070E+00 3.05154E-01 6.41332E-01
 -1      3277 2.32070E+00-3.09552E-01 1.61082E+00
 -1      3278 2.25493E+00-1.44816E+00 1.10156E+00
 -1      3279-1.49568E+00-2.36965E+00 1.61377E+00
 -1      3280-3.36631E+00-4.28113E-01-5.00000E-01
 -1      3281-2.27207E+00 5.79022E-01 1.94164E+00
 -1      3282 4.74999E-01-2.68818E+00 1.95440E+00
 -1      3283-2.26541E+00-5.95095E-01 2.10376E+00
 -1      3284 1.21121E+00 1.79908E+00 5.00000E-01
 -1      3285-5.69262E-01 2.27611E+00 1.50820E+00
 -1      3286 2.67400E+00 4.74999E-01 1.11868E+00
 -1      3287-1.85840E+00-1.42357E+00 1.72408E+00
 -1      3288 2.72641E+00-4.74999E-01 1.27261E+00
 -1      3289-1.41041E+00-2.16380E+00 9.92188E-01
 -1      3290-1.46803E+00 2.13978E+00 9.92188E-01
 -1      3291 5.81777E-01-2.27093E+00 1.01985E+00
 -1      3292-2.57135E+00-4.74999E-01 1.81024E+00
 -1      3293 2.25274E+00-6.25684E-01 1.36084E+00
 -1      3294-5.81052E-01-2.64402E+00 1.92188E+00
 -1      3295-5.49460E-01-2.56774E+00 1.40408E+00
 -1      3296-4.74999E-01 2.66482E+00 9.92188E-01
 -1      3297-2.03361E+00 1.15473E+00 8.30783E-01
 -1      3298-2.91965E-01 2.32070E+00 1.40597E+00
 -1      3299-2.16934E+00 8.27037E-01 1.24488E+00
 -1      3300-2.54632E+00-4.74999E-01 1.97555E+00
 -1      3301 2.01998E+00-1.18764E+00 1.64118E+00
 -1      3302-1.19500E+00 2.01693E+00 1.93945E+00
 -1      3303 1.03888E+00-1.75416E+00 5.00000E-01
 -1      3304-3.02414E-01 2.32070E+00 1.60705E+00
 -1      3305-2.21164E+00-1.53989E+00 2.00194E+00
 -1      3306 2.27050E+00-5.82818E-01 1.23417E+00
 -1      3307 2.01623E+00-1.19669E+00 1.92188E+00
 -1      3308 6.50215E-01 2.24258E+00 2.09981E+00
 -1      3309 2.32070E+00 3.06843E-01 2.09909E+00
 -1      3310-1.57891E+00-2.25066E+00 1.93264E+00
 -1      3311 1.26152E+00-1.75115E+00 5.00000E-01
 -1      3312 1.53432E+00-2.20607E+00 2.01495E+00
 -1      3313 2.26090E+00-1.25450E+00 2.25000E+00
 -1      3314-2.25514E+00 6.19891E-01 1.09677E+00
 -1      3315 2.69495E+00-6.02148E-01 9.92188E-01
 -1      3316-3.12244E-01 2.32070E+00 1.25777E+00
 -1      3317 2.90607E+00-6.89598E-01 1.71328E+00
 -1      3318 2.72311E+00-6.13816E-01 1.40761E+00
 -1      3319 2.18517E+00 1.41926E+00 1.70457E+00
 -1      3320-2.66420E+00 5.89413E-01 1.95574E+00
 -1      3321 5.42233E-01-2.55030E+00 1.42969E+00
 -1      3322 2.55236E+00-5.43087E-01 1.42969E+00
 -1      3323 2.26124E+00 6.05169E-01 1.70328E+00
 -1      3324-1.46495E+00 2.29548E+00 9.92188E-01
 -1      3325 2.16216E+00 1.49041E+00 1.75781E+00
 -1      3326 2.01471E+00-1.20035E+00 7.98102E-01
 -1      3327 1.52640E+00 2.19815E+00 1.67517E+00
 -1      3328 4.74999E-01-2.58069E+00 1.79330E+00
 -1      3329 2.55373E+00 4.74999E-01 9.92188E-01
 -1      3330 2.02431E+00-1.17718E+00 1.22133E+00
 -1      3331 2.96857E+00 0.00000E+00 2.25000E+00
 -1      3332-4.74999E-01-2.62521E+00 1.20585E+00
 -1      3333-4.74999E-01 2.63755E+00 1.32031E+00
 -1      3334-2.60351E-01 2.32070E+00 1.11587E+00
 -1      3335-2.22529E+00 6.91953E-01 1.41409E+00
 -1      3336 2.01455E+00 1.20074E+00 2.12619E+00
 -1      3337 5.48556E-01-2.56556E+00 1.15697E+00
 -1      3338-1.87295E+00-2.55704E+00-5.00000E-01
 -1      3339-1.43754E+00 2.22929E+00 1.20842E+00
 -1      3340-2.58199E+00 4.74999E-01 1.78112E+00
 -1      3341 2.59600E+00-4.74999E-01 1.10156E+00
 -1      3342 2.32070E+00 3.47699E-01 1.75107E+00
 -1      3343-1.79385E+00-1.22262E+00 5.00000E-01
 -1      3344 1.44846E+00 1.83351E+00 2.08165E+00
 -1      3345 2.23288E+00-6.73643E-01 9.74339E-01
 -1      3346 6.02690E-01-2.26227E+00 2.00732E+00
 -1      3347-3.15264E-01-2.32070E+00 8.94278E-01
 -1      3348 2.32070E+00-3.15546E-01 1.48612E+00
 -1      3349 1.20162E+00-2.32893E+00 2.25000E+00
 -1      3350 2.32070E+00-2.91710E-01 1.93251E+00
 -1      3351 2.19528E+00-7.64423E-01 1.96700E+00
 -1      3352-1.80479E+00 1.05985E+00 5.00000E-01
 -1      3353-5.75069E-01-2.27371E+00 1.01459E+00
 -1      3354-3.12522E-01 2.32070E+00 8.26985E-01
 -1      3355-2.53358E+00 5.35310E-01 1.86719E+00
 -1      3356 2.61302E+00-4.74999E-01 1.52959E+00
 -1      3357 2.41403E+00-1.51406E+00 1.91892E+00
 -1      3358-2.32070E+00 1.64222E-01 1.39679E+00
 -1      3359 1.20989E+00 2.01076E+00 1.09988E+00
 -1      3360-2.26053E+00 6.06878E-01 6.37050E-01
 -1      3361-2.27839E+00 5.63773E-01 1.48438E+00
 -1      3362-2.32070E+00 2.30808E-01 1.68675E+00
 -1      3363-2.80819E-01 1.72922E+00 5.00000E-01
 -1      3364-2.01496E+00 1.19975E+00 1.44816E+00
 -1      3365 4.74999E-01 2.66442E+00 1.34564E+00
 -1      3366 2.78497E-01 2.32070E+00 1.41113E+00
 -1      3367 8.61414E-01 2.50454E+00 2.25000E+00
 -1      3368-2.32070E+00 2.19707E-01 1.82227E+00
 -1      3369-4.74999E-01 2.58002E+00 1.83154E+00
 -1      3370-1.32040E+00-1.48886E+00 5.00000E-01
 -1      3371 2.25162E+00-6.28395E-01 1.85444E+00
 -1      3372 4.74999E-01-2.58830E+00 1.42653E+00
 -1      3373-2.06359E+00 2.05517E-01 5.00000E-01
 -1      3374-2.27210E+00 5.78947E-01 1.72253E+00
 -1      3375-2.68679E+00 5.98768E-01 1.48438E+00
 -1      3376 2.27428E+00-5.73680E-01 1.74176E+00
 -1      3377-5.41826E-01 2.54932E+00 1.53195E+00
 -1      3378-2.32070E+00 3.49512E-01 1.64844E+00
 -1      3379-2.32070E+00 3.42490E-01 9.43687E-01
 -1      3380 2.64620E+00-5.81955E-01 1.75781E+00
 -1      3381 5.65750E-01-1.88198E+00 5.00000E-01
 -1      3382 2.21428E+00 1.43132E+00 2.04549E+00
 -1      3383-3.22091E-01-2.32070E+00 1.72662E+00
 -1      3384 2.15967E+00-1.48792E+00 1.16062E+00
 -1      3385-2.32070E+00 2.88511E-01 2.15757E+00
 -1      3386-2.64282E+00 4.74999E-01 1.04688E+00
 -1      3387 2.32070E+00-2.30268E-01 2.08531E+00
 -1      3388-1.21305E+00 1.43801E+00 5.00000E-01
 -1      3389 5.49023E-01-2.07937E+00 5.00000E-01
 -1      3390-2.17955E+00 1.50780E+00 1.42969E+00
 -1      3391-2.21471E+00-1.54296E+00 1.37997E+00
 -1      3392-8.46014E-01-5.28151E+00-5.00000E-01
 -1      3393 1.89134E+00 1.39063E+00 7.83007E-01
 -1      3394 2.27011E+00-5.83758E-01 8.47166E-01
 -1      3395 2.48576E+00-7.11633E-01 2.25000E+00
 -1      3396 1.19099E+00-2.01859E+00 1.34870E+00
 -1      3397 2.25622E+00-6.17297E-01 2.02274E+00
 -1      3398 2.65455E+00-1.43248E-01 2.25000E+00
 -1      3399-5.04120E+00-6.65131E-01-5.00000E-01
 -1      3400-1.76090E+00 1.52107E+00 1.77915E+00
 -1      3401-1.42930E+00-2.20941E+00 1.73830E+00
 -1      3402-2.82214E-01 1.64477E+00-5.00000E-01
 -1      3403 4.76589E+00 9.47994E-01 5.00000E-01
 -1      3404 2.02421E+00-1.60872E+00 2.25000E+00
 -1      3405-1.88213E+00 1.39984E+00 1.54994E+00
 -1      3406-2.65628E+00 4.74999E-01 1.32035E+00
 -1      3407 1.62600E-01-2.64354E+00 2.25000E+00
 -1      3408-2.66362E+00 5.89170E-01 1.18564E+00
 -1      3409-1.87717E+00 1.40480E+00 1.92188E+00
 -1      3410-4.95342E+00 7.24878E-01-5.00000E-01
 -1      3411 1.17127E+00 5.23392E+00-5.00000E-01
 -1      3412 4.04032E+00 2.69966E+00 5.00000E-01
 -1      3413-5.09860E-02 1.98250E+00 5.00000E-01
 -1      3414-7.02733E-01 1.76349E+00 5.00000E-01
 -1      3415 2.62555E+00-5.73401E-01 2.01452E+00
 -1      3416-2.73240E+00-4.57954E+00-5.00000E-01
 -1      3417-1.86590E+00 1.41607E+00 1.77416E+00
 -1      3418-2.23235E+00 6.74914E-01 1.25038E+00
 -1      3419-5.76230E-01 2.27323E+00 1.09365E+00
 -1      3420 2.68481E+00 4.74999E-01 1.94924E+00
 -1      3421-4.72389E-01 1.98506E+00 5.00000E-01
 -1      3422-2.32473E+00 1.16350E+00 2.25000E+00
 -1      3423 1.21172E+00 2.01000E+00 7.79310E-01
 -1      3424-9.47994E-01 4.76589E+00 5.00000E-01
 -1      3425 4.34219E+00-2.75335E+00-5.00000E-01
 -1      3426-2.26998E+00 5.84056E-01 1.34435E+00
 -1      3427-1.07211E+00 5.84378E+00-5.00000E-01
 -1      3428 1.84499E+00-1.43698E+00 2.09807E+00
 -1      3429-2.31408E+00 1.64233E+00 1.84210E+00
 -1      3430 2.69966E+00-4.04032E+00 5.00000E-01
 -1      3431-2.61056E-01 2.08771E+00 5.00000E-01
 -1      3432-2.32070E+00 3.19554E-01 1.47646E+00
 -1      3433 4.18402E+00 3.11295E+00-5.00000E-01
 -1      3434-2.57156E+00 5.51038E-01 1.64844E+00
 -1      3435 2.64480E+00-4.74999E-01 2.01504E+00
 -1      3436-1.44159E+00-2.23907E+00 2.05556E+00
 -1      3437 2.75340E+00-6.10768E-01-5.00000E-01
 -1      3438-1.49199E+00 2.16374E+00 1.50192E+00
 -1      3439 1.88040E+00 5.64453E-01 5.00000E-01
 -1      3440 2.22890E+00-1.43738E+00 1.82422E+00
 -1      3441-1.03601E+00 1.72323E+00 5.00000E-01
 -1      3442-2.59865E+00 1.96533E-01 2.25000E+00
 -1      3443-2.32070E+00-2.88511E-01 5.95493E-01
 -1      3444 2.59965E+00-5.62677E-01 1.20177E+00
 -1      3445 5.46754E-01-2.56121E+00 1.78135E+00
 -1      3446-2.24249E+00-6.50431E-01 1.85911E+00
 -1      3447 2.06159E+00 3.46213E-01 5.00000E-01
 -1      3448-2.08058E+00 1.04132E+00 1.98814E+00
 -1      3449-2.20911E+00 1.42918E+00 1.27988E+00
 -1      3450 1.12814E+00-2.04462E+00 1.25065E+00
 -1      3451-2.03317E+00 1.15578E+00 1.85992E+00
 -1      3452-2.01490E+00 1.19989E+00 1.71048E+00
 -1      3453 2.03364E+00-1.15464E+00 2.09232E+00
 -1      3454 2.53717E+00-5.36794E-01 1.87687E+00
 -1      3455 5.31208E-01 2.03636E+00 5.00000E-01
 -1      3456-1.42632E+00-2.20222E+00 1.49921E+00
 -1      3457-2.58276E+00-4.74999E-01 8.82812E-01
 -1      3458 2.55614E+00-4.74999E-01 1.32031E+00
 -1      3459 2.26733E+00-5.90459E-01 1.08879E+00
 -1      3460 2.27226E+00-5.78558E-01 6.21163E-01
 -1      3461-2.02866E+00 1.16666E+00 2.09347E+00
 -1      3462-4.74999E-01 2.56626E+00 1.48371E+00
 -1      3463-9.32145E-01 1.02968E+00-5.00000E-01
 -1      3464-1.93088E+00-6.74886E-01 5.00000E-01
 -1      3465 2.32070E+00-3.36906E-01 1.81622E+00
 -1      3466-1.09295E+00 1.88471E+00 5.00000E-01
 -1      3467-6.59579E-01-1.89393E+00 5.00000E-01
 -1      3468-3.46213E-01-2.04862E+00 5.00000E-01
 -1      3469-2.58581E+00 4.74999E-01 8.28125E-01
 -1      3470-2.32070E+00 3.09703E-01 1.05452E+00
 -1      3471 2.26357E+00-5.99549E-01 1.53906E+00
 -1      3472-2.32070E+00 3.20734E-01 1.76233E+00
 -1      3473 1.95568E+00-1.15404E-01 5.00000E-01
 -1      3474 1.45775E+00-2.27809E+00 1.10765E+00
 -1      3475 2.22012E+00-1.54837E+00 1.98210E+00
 -1      3476-2.02421E+00 1.60872E+00 2.25000E+00
 -1      3477 2.94419E+00-4.38621E+00-5.00000E-01
 -1      3478-1.84499E+00 1.43698E+00 2.09232E+00
 -1      3479 4.76589E+00-9.47994E-01 5.00000E-01
 -1      3480-2.27717E+00 5.66713E-01 1.20744E+00
 -1      3481-2.69966E+00-4.04032E+00 5.00000E-01
 -1      3482 4.04032E+00-2.69966E+00 5.00000E-01
 -1      3483-2.18796E+00 1.51621E+00 1.67429E+00
 -1      3484-1.12567E+00-2.04564E+00 6.51205E-01
 -1      3485 2.07868E+00 5.44730E-01 5.00000E-01
 -1      3486 1.70553E+00-1.14821E+00 5.00000E-01
 -1      3487-2.22430E+00-1.43547E+00 1.97656E+00
 -1      3488-2.15810E+00-1.48635E+00 1.82803E+00
 -1      3489-2.56793E+00-5.49538E-01 8.82812E-01
 -1      3490 1.12896E+00-2.04428E+00 1.12542E+00
 -1      3491 1.61839E+00-1.35385E+00 5.00000E-01
 -1      3492 1.41427E+00-2.17312E+00 1.26562E+00
 -1      3493-2.31280E+00 1.47213E+00 1.92188E+00
 -1      3494 2.74259E+00-1.13602E+00 2.25000E+00
 -1      3495-2.03577E+00 1.14951E+00 1.97734E+00
 -1      3496 1.92258E+00-6.21515E-01 5.00000E-01
 -1      3497-5.50844E-01-2.06840E+00 5.00000E-01
 -1      3498 5.49439E-01-2.56769E+00 2.05456E+00
 -1      3499 2.62226E-01-2.03166E+00 5.00000E-01
 -1      3500 1.59752E+00-7.40741E-01-5.00000E-01
 -1      3501 1.86137E+00-1.53496E+00 1.48310E-03
 -1      3502-5.63875E+00-1.12162E+00 7.81772E-02
 -1      3503-1.53496E+00-1.86137E+00 1.61991E-02
 -1      3504-2.30710E+00-7.05808E-01-1.32898E-02
 -1      3505 2.06508E+00-1.23012E+00 1.32641E-01
 -1      3506 7.05808E-01 2.30710E+00 3.94070E-03
 -1      3507 2.05405E+00-1.89084E+00 3.20222E-01
 -1      3508 4.78031E+00-3.19409E+00 6.22717E-02
 -1      3509 2.30808E-01 2.40158E+00 7.58462E-02
 -1      3510 1.12162E+00 5.63875E+00 2.47605E-02
 -1      3511 1.86137E+00 1.53496E+00-2.16509E-02
 -1      3512 2.05405E+00 1.89084E+00 3.05574E-01
 -1      3513 1.92675E+00 1.43713E+00 2.41885E-01
 -1      3514 2.44709E+00 1.27768E+00 1.54159E-01
 -1      3515-2.40158E+00-2.30808E-01 7.31432E-02
 -1      3516 1.13229E+00-2.13046E+00-2.23607E-02
 -1      3517 1.34712E+00 1.83674E+00-6.61216E-02
 -1      3518-3.19409E+00 4.78031E+00 2.86538E-02
 -1      3519 7.05808E-01-2.30710E+00 9.21073E-02
 -1      3520-7.05808E-01-2.30710E+00-1.24514E-02
 -1      3521 2.84581E+00 4.25904E+00 2.73926E-02
 -1      3522-1.86137E+00-1.53496E+00 9.96867E-02
 -1      3523-1.86137E+00 1.53496E+00 1.29519E-02
 -1      3524-4.58868E+00 3.06606E+00-5.29062E-02
 -1      3525 1.38821E+00 1.95944E+00 2.06998E-01
 -1      3526-4.78031E+00-3.19409E+00 6.94251E-02
 -1      3527 2.03276E+00 1.79378E+00 1.61850E+00
 -1      3528 5.63875E+00-1.12162E+00 6.59414E-02
 -1      3529 9.97292E-01-5.01373E+00-4.51804E-03
 -1      3530 1.12162E+00-5.63875E+00 1.63641E-02
 -1      3531-1.90747E+00-2.01249E+00 1.34971E+00
 -1      3532-9.60858E-01-2.62129E+00 3.11378E-01
 -1      3533-1.07222E+00 2.58420E+00 1.69780E+00
 -1      3534-1.19347E+00 1.97661E+00-5.02579E-02
 -1      3535 2.43457E+00 1.15932E+00 9.97609E-01
 -1      3536-2.62129E+00 9.60858E-01 1.08981E-01
 -1      3537-1.81415E+00-1.97829E+00 9.79695E-01
 -1      3538 1.15404E-01 2.78946E+00 3.69596E-01
 -1      3539 3.46213E-01 2.37862E+00 2.91257E-01
 -1      3540-2.88522E+00 4.31804E+00-2.15112E-02
 -1      3541 4.98343E+00 9.91265E-01 9.36812E-04
 -1      3542-1.11944E+00 2.72579E+00 8.20484E-01
 -1      3543-1.70804E+00 1.98874E+00 1.84135E+00
 -1      3544 1.15404E-01-2.71877E+00 3.29844E-02
 -1      3545 1.15404E-01-2.17847E+00-1.01293E-02
 -1      3546 1.37435E+00-1.53756E+00 9.48709E-02
 -1      3547-2.13046E+00 1.13229E+00 7.70931E-02
 -1      3548 2.06508E+00 1.23012E+00 2.83163E-01
 -1      3549 9.60858E-01 2.62129E+00 3.21808E-01
 -1      3550-4.25904E+00 2.84581E+00 1.43986E-01
 -1      3551 1.06779E+00-2.63141E+00 7.99335E-01
 -1      3552 2.21868E+00 7.94094E-01-6.56208E-02
 -1      3553 1.10112E+00 2.54083E+00 1.77498E+00
 -1      3554-2.78946E+00-1.15404E-01 3.67727E-01
 -1      3555 1.98638E+00 1.94523E+00 9.78826E-01
 -1      3556-2.37862E+00-3.46213E-01 2.89885E-01
 -1      3557 1.63040E+00-2.03653E+00 6.68449E-02
 -1      3558 1.82334E+00-2.00170E+00 1.74510E+00
 -1      3559-2.50157E+00-1.10455E+00 1.76193E+00
 -1      3560-1.98391E+00 1.35160E+00 2.08233E-01
 -1      3561-2.05405E+00 1.89084E+00 3.27593E-01
 -1      3562-1.43713E+00-1.92675E+00 2.61022E-01
 -1      3563-2.33006E+00-5.90404E-01 2.87109E-01
 -1      3564-2.80068E+00-3.19778E-02 1.36301E+00
 -1      3565-7.83271E-01-2.46918E+00 1.64115E+00
 -1      3566 1.88194E+00-2.00113E+00 1.21359E+00
 -1      3567 2.89683E-01-2.52159E+00 1.10156E+00
 -1      3568 8.95829E-01-2.48925E+00 1.55968E+00
 -1      3569-1.20332E+00 2.40290E+00 1.18974E+00
 -1      3570-1.87300E+00 1.97927E+00 1.24892E+00
 -1      3571 1.33584E+00-1.99444E+00 1.82583E-01
 -1      3572-3.09535E-01-2.53074E+00 1.42969E+00
 -1      3573 2.03250E+00 1.15404E-01-5.35514E-03
 -1      3574-2.06508E+00-1.23012E+00 1.52770E-01
 -1      3575 2.62129E+00 9.60858E-01 4.75019E-01
 -1      3576-2.37282E+00 3.75401E-01-3.35907E-02
 -1      3577-1.25696E+00 2.28067E+00 2.05185E-01
 -1      3578 5.54802E+00 1.10357E+00 1.28599E-02
 -1      3579-7.90484E-01 2.58703E+00 6.03627E-02
 -1      3580-6.94030E-01 2.44822E+00 1.10156E+00
 -1      3581 2.00891E+00-1.71131E+00 1.47634E+00
 -1      3582-4.25904E+00-2.84581E+00-4.84896E-03
 -1      3583 1.38821E+00 1.95944E+00 3.62862E-01
 -1      3584-2.65775E-01-2.53340E+00 8.75451E-01
 -1      3585-2.45951E+00-7.12558E-01 1.86719E+00
 -1      3586-1.92675E+00-1.43713E+00 3.03375E-01
 -1      3587-5.90404E-01-2.33006E+00 2.46534E-01
 -1      3588 2.67195E+00 1.15404E-01 2.06716E-02
 -1      3589 9.15090E-02 2.75619E+00 1.85479E+00
 -1      3590 1.20985E+00 2.28727E+00 1.84683E+00
 -1      3591 1.18095E+00-2.35141E+00 1.47478E+00
 -1      3592 2.78946E+00-1.15404E-01 4.33466E-01
 -1      3593-1.15404E-01-2.78946E+00 4.53619E-01
 -1      3594-2.37862E+00 3.46213E-01 2.47999E-01
 -1      3595-1.90225E+00-1.73086E+00 1.08660E+00
 -1      3596-1.80209E+00-2.01961E+00 1.76248E+00
 -1      3597-2.55329E+00 8.82862E-01 8.79187E-01
 -1      3598-2.00267E+00 1.67806E+00 1.33693E+00
 -1      3599-1.89286E+00 6.59137E-01 9.36974E-02
 -1      3600 1.98784E+00 1.34571E+00 3.50213E-01
 -1      3601-1.87577E+00-2.01035E-01 4.44025E-03
 -1      3602-2.33330E+00-1.63048E+00 1.29928E-01
 -1      3603-2.06508E+00 1.23012E+00 3.46110E-01
 -1      3604 1.73554E+00-1.98438E+00 8.93097E-01
 -1      3605 5.90404E-01-2.33006E+00 2.99521E-01
 -1      3606 1.97410E+00 1.67549E+00 1.17169E+00
 -1      3607 8.33264E-01 2.51798E+00 1.29726E+00
 -1      3608 2.30698E+00-3.46213E-01-2.46863E-02
 -1      3609 1.57814E+00-2.01252E+00 1.64844E+00
 -1      3610 2.30710E+00-7.05808E-01 1.71432E-01
 -1      3611-5.90404E-01 2.33006E+00 1.78510E-01
 -1      3612-2.97814E-01-2.52536E+00 1.75781E+00
 -1      3613-2.36715E+00 4.03915E-01 3.78018E-01
 -1      3614 1.20749E+00 2.31636E+00 1.44217E+00
 -1      3615-1.23012E+00-2.06508E+00 2.85702E-01
 -1      3616 1.23012E+00-2.06508E+00 3.42089E-01
 -1      3617-1.43713E+00 1.92675E+00 1.83817E-01
 -1      3618 9.51986E-01 2.47627E+00 6.72828E-01
 -1      3619-6.77501E-01 2.45236E+00 1.32031E+00
 -1      3620-2.54200E+00 8.87581E-01 1.74827E+00
 -1      3621 5.57444E-01 2.77185E+00 8.01515E-02
 -1      3622 2.28454E+00-1.24331E+00 1.44371E+00
 -1      3623-1.98258E+00 1.35358E+00 3.57109E-01
 -1      3624 2.43819E+00 6.82746E-01 1.64844E+00
 -1      3625 2.48469E+00 8.47233E-01 9.26016E-01
 -1      3626 1.23012E+00 2.06508E+00 3.60407E-01
 -1      3627 2.46671E+00-1.16755E+00 9.04440E-01
 -1      3628 1.71591E+00 1.91562E+00 2.84930E-01
 -1      3629 5.32702E-01 2.34153E+00 3.22172E-01
 -1      3630 1.43713E+00-1.92675E+00 3.44177E-01
 -1      3631-2.06508E+00-1.23012E+00 3.50395E-01
 -1      3632-2.80899E+00-5.49605E-01 8.68558E-02
 -1      3633 3.46213E-01-2.37862E+00 2.86744E-01
 -1      3634-1.97570E+00-2.03664E+00 2.96205E-01
 -1      3635 1.14487E+00-2.46241E+00 4.27860E-01
 -1      3636 2.66714E+00 1.46118E-01 9.09028E-01
 -1      3637-1.21043E+00-2.28220E+00 1.20809E+00
 -1      3638 1.52662E+00 1.06295E+00-3.23973E-02
 -1      3639 1.14450E+00-2.43342E+00 1.10965E+00
 -1      3640-2.76915E-01 2.54260E+00 1.10156E+00
 -1      3641 2.64722E+00-1.40925E-01 1.37413E+00
 -1      3642-2.58599E+00-2.14952E-01 1.07476E+00
 -1      3643-1.18266E+00 2.27907E+00 1.92037E+00
 -1      3644-2.62129E+00-9.60858E-01 4.19385E-01
 -1      3645-2.35418E+00-4.69094E-01 3.60390E-01
 -1      3646 2.56954E+00 2.32897E-01 1.19310E+00
 -1      3647-1.94875E+00-1.75505E+00 1.56464E+00
 -1      3648 2.49013E+00 7.10317E-01 2.04022E-01
 -1      3649-1.27904E+00 2.03239E+00 2.93413E-01
 -1      3650 2.37862E+00 3.46213E-01 1.35218E-01
 -1      3651-2.48280E+00-8.11508E-01 1.11759E+00
 -1      3652-1.13441E+00 2.29687E+00 9.35516E-01
 -1      3653-1.62625E+00-1.99588E+00 1.95237E+00
 -1      3654 2.59251E+00-1.05136E-01 1.07232E+00
 -1      3655-8.29798E-02-2.94027E+00 1.39161E+00
 -1      3656 2.34153E+00 5.32702E-01 2.75574E-01
 -1      3657 2.46015E+00 1.11918E+00 1.71695E+00
 -1      3658-2.33006E+00 5.90404E-01 3.59159E-01
 -1      3659-2.54472E+00-3.00448E-01 1.42969E+00
 -1      3660-2.06932E+00-4.10802E-01 2.16664E-01
 -1      3661 5.97198E-01-2.78815E+00 1.15523E-01
 -1      3662 1.76574E+00 1.17093E+00 2.18004E-01
 -1      3663 1.29205E+00 2.41394E+00-1.05487E-02
 -1      3664 2.35966E+00-4.41563E-01 2.28178E-01
 -1      3665-1.57895E+00-2.40479E+00 3.93563E-02
 -1      3666-5.90404E-01 2.33006E+00 3.65187E-01
 -1      3667-2.46697E+00-7.61604E-01 1.37712E+00
 -1      3668-2.38298E+00 1.14530E+00 1.01710E+00
 -1      3669-8.23059E-01-2.49231E+00 8.58984E-01
 -1      3670 2.41887E+00-6.98784E-01 1.53906E+00
 -1      3671-2.30226E+00 1.22458E+00 1.47757E+00
 -1      3672-3.46213E-01 2.37862E+00 2.68779E-01
 -1      3673 2.32941E-01 2.58509E+00 1.15194E+00
 -1      3674-2.20715E-01-2.56325E+00 1.14092E+00
 -1      3675-2.35536E+00-1.18133E+00 1.32539E+00
 -1      3676-1.34033E+00-1.99143E+00 3.54751E-01
 -1      3677-2.53282E+00 3.19843E-01 1.97656E+00
 -1      3678-2.53066E+00 2.45963E-01 1.53064E+00
 -1      3679 2.62129E+00-9.60858E-01 4.41154E-01
 -1      3680 2.00971E+00 1.58884E+00 1.97656E+00
 -1      3681-1.71225E+00 1.30423E+00 2.99286E-01
 -1      3682 7.52328E-02-2.74875E+00 1.79757E+00
 -1      3683-3.46213E-01-2.37862E+00 2.83877E-01
 -1      3684-5.63875E+00 1.12162E+00 6.94453E-02
 -1      3685-1.43713E+00 1.92675E+00 3.68274E-01
 -1      3686 4.89660E+00-9.73992E-01-1.41680E-02
 -1      3687 4.05573E-01 2.00216E+00 8.16771E-02
 -1      3688 3.16918E+00 4.74302E+00 3.66347E-02
 -1      3689-4.50824E-01 2.35782E+00 3.63020E-01
 -1      3690 4.78031E+00 3.19409E+00 4.95422E-02
 -1      3691-2.53674E+00 7.43489E-02 1.74214E+00
 -1      3692-9.26383E-01 2.53806E+00 4.34674E-01
 -1      3693 2.06508E+00-1.23012E+00 3.39014E-01
 -1      3694-2.78252E+00-4.16433E+00-1.86027E-02
 -1      3695-2.48535E+00 2.86650E-01 1.32031E+00
 -1      3696-3.19409E+00-4.78031E+00 2.70499E-02
 -1      3697 3.19409E+00-4.78031E+00 7.72649E-02
 -1      3698-1.12162E+00-5.63875E+00 5.01419E-02
 -1      3699 4.32565E+00 2.89031E+00-1.65375E-02
 -1      3700-4.19936E-01 2.09570E+00 2.31955E-01
 -1      3701 3.03684E-01-2.53392E+00 1.97656E+00
 -1      3702-2.49258E+00 7.68182E-01 1.33478E+00
 -1      3703 2.57026E+00 2.88417E-01 1.80004E+00
 -1      3704-9.99311E-01 5.02388E+00 7.02276E-03
 -1      3705 8.48811E-01-2.47304E+00 1.23589E+00
 -1      3706 4.64849E-01-2.35503E+00 3.61855E-01
 -1      3707 2.72690E-01 2.58959E+00 1.52387E+00
 -1      3708 2.53074E+00-3.15122E-01 1.86719E+00
 -1      3709 4.18194E-01-2.08176E+00 2.14742E-01
 -1      3710-2.22409E+00-1.25591E+00 1.64844E+00
 -1      3711-1.23861E+00-1.64090E+00 1.89460E-01
 -1      3712 1.95944E+00-1.38821E+00 3.24258E-01
 -1      3713 1.98482E+00-1.63932E+00 9.53897E-01
 -1      3714 2.43469E+00-7.01791E-01 1.10156E+00
 -1      3715-3.47168E-01-1.93625E+00 1.68290E-02
 -1      3716-2.37381E-01-2.56788E+00 2.00159E+00
 -1      3717-2.61341E+00-1.78527E-01 7.67957E-01
 -1      3718 2.33006E+00-5.90404E-01 3.52397E-01
 -1      3719 2.37862E+00-3.46213E-01 3.77373E-01
 -1      3720-5.32702E-01-2.34153E+00 3.77263E-01
 -1      3721 2.37862E+00 3.46213E-01 3.44386E-01
 -1      3722-2.57545E+00 2.10804E-01 1.07303E+00
 -1      3723-9.99311E-01-5.02388E+00-1.03387E-02
 -1      3724-5.26012E-01-2.83542E+00 1.68290E-02
 -1      3725-5.02388E+00-9.99311E-01-2.13908E-02
 -1      3726-5.02388E+00 9.99311E-01-5.54194E-03
 -1      3727 9.99311E-01 5.02388E+00-2.24367E-03
 -1      3728 4.34634E+00-2.90413E+00 3.13594E-03
 -1      3729-1.12162E+00 5.63875E+00 5.60237E-02
 -1      3730-1.19340E-01 2.69973E+00 1.52294E+00
 -1      3731-1.30542E+00 9.70663E-01-1.65569E-02
 -1      3732-8.84365E-01 1.86748E+00 1.67035E-01
 -1      3733 2.84581E+00-4.25904E+00 2.16716E-02
 -1      3734-1.09868E+00-2.40875E+00 6.35666E-01
 -1      3735 1.97378E+00 4.96683E-01 1.13249E-01
 -1      3736 2.52623E+00-9.04275E-01 1.88823E+00
 -1      3737-2.30972E+00 1.19876E+00 1.97429E+00
 -3
    3C                         12252                                     1
 -1         1    3    0    1
 -2        56      1216       266       800
 -1         2    3    0    1
 -2       429      1311      2110      2235
 -1         3    3    0    1
 -2      2011      2021      2176      2382
 -1         4    3    0    1
 -2      1330       784       792      2175
 -1         5    3    0    1
 -2       451       677       689       690
 -1         6    3    0    1
 -2       645       454       903      1137
 -1         7    3    0    1
 -2       285      1335      1338      2170
 -1         8    3    0    1
 -2      1232      1297      2665      2774
 -1         9    3    0    1
 -2      1990      2332      2435      2062
 -1        10    3    0    1
 -2      2041      2004      2101      2181
 -1        11    3    0    1
 -2      1575      1420      2818      3146
 -1        12    3    0    1
 -2      1646      1743      3291      3337
 -1        13    3    0    1
 -2      2035      2094      2190      2225
 -1        14    3    0    1
 -2      1015      1312      2153      2690
 -1        15    3    0    1
 -2      1579      1578      3190      3281
 -1        16    3    0    1
 -2      1984       104      2118      2239
 -1        17    3    0    1
 -2       800       383       801      1058
 -1        18    3    0    1
 -2      3054      3168      1833      3251
 -1        19    3    0    1
 -2       660      1140       663       455
 -1        20    3    0    1
 -2      2175      1049      2504      3529
 -1        21    3    0    1
 -2      2135      2232      2500      3528
 -1        22    3    0    1
 -2      2185      2228      2322      2819
 -1        23    3    0    1
 -2      1065       503       922      1209
 -1        24    3    0    1
 -2       400      1283      3541      3403
 -1        25    3    0    1
 -2       507       803      1063      1215
 -1        26    3    0    1
 -2       604       617       618       972
 -1        27    3    0    1
 -2       310      1405      1113      2144
 -1        28    3    0    1
 -2      2261       270      2415      2475
 -1        29    3    0    1
 -2       276       279      1511      3095
 -1        30    3    0    1
 -2      3363      2846      3402      3687
 -1        31    3    0    1
 -2       253       351      1994      2080
 -1        32    3    0    1
 -2      1023       527      1249      1251
 -1        33    3    0    1
 -2       511       767       779       780
 -1        34    3    0    1
 -2        60      1234       138       621
 -1        35    3    0    1
 -2       285       280       825      1335
 -1        36    3    0    1
 -2       755      1032      1221      1323
 -1        37    3    0    1
 -2      3684      1004      1943      1944
 -1        38    3    0    1
 -2      1991      2052      2227      2434
 -1        39    3    0    1
 -2       281        48       821      1205
 -1        40    3    0    1
 -2       824       821       831      1069
 -1        41    3    0    1
 -2      1914      3409      3429      3476
 -1        42    3    0    1
 -2       102       112       573       951
 -1        43    3    0    1
 -2      2655      2566      2828      3553
 -1        44    3    0    1
 -2      1847      1848      1859      3265
 -1        45    3    0    1
 -2       782       251       783      1190
 -1        46    3    0    1
 -2       533       534       718       726
 -1        47    3    0    1
 -2       681       688      1003      1134
 -1        48    3    0    1
 -2      2836      1783      1784      3082
 -1        49    3    0    1
 -2       157       640       646      1300
 -1        50    3    0    1
 -2      2045      1972      2332      2455
 -1        51    3    0    1
 -2       309       379      1340      2345
 -1        52    3    0    1
 -2      1375      1094      2147      2313
 -1        53    3    0    1
 -2      1969      1064      2453      2480
 -1        54    3    0    1
 -2       320       295      1354      2334
 -1        55    3    0    1
 -2       663       670       995      1140
 -1        56    3    0    1
 -2      1089      2036      2132      2180
 -1        57    3    0    1
 -2       144       976      1295      2160
 -1        58    3    0    1
 -2       768      1247       239       770
 -1        59    3    0    1
 -2       357       943      2237      2404
 -1        60    3    0    1
 -2       535      1266      1008      1311
 -1        61    3    0    1
 -2       595       115       586      1953
 -1        62    3    0    1
 -2       942      2067      2215      2347
 -1        63    3    0    1
 -2       324       430      2151      2200
 -1        64    3    0    1
 -2       464       640       989      1151
 -1        65    3    0    1
 -2      1469      2919      3117      3609
 -1        66    3    0    1
 -2      3113      1669      3191      3294
 -1        67    3    0    1
 -2      1080       327      1082      2076
 -1        68    3    0    1
 -2       559        92        97      1172
 -1        69    3    0    1
 -2      1442      1612      1613      2928
 -1        70    3    0    1
 -2      2739      1754      1755      3203
 -1        71    3    0    1
 -2      2433      2244      2436      2448
 -1        72    3    0    1
 -2       367       660       995       998
 -1        73    3    0    1
 -2      2145       998      2278      2337
 -1        74    3    0    1
 -2      2015      1981      2039      2213
 -1        75    3    0    1
 -2       482       483       590       960
 -1        76    3    0    1
 -2       932      2774      2878      3094
 -1        77    3    0    1
 -2       798      2154      2377      2603
 -1        78    3    0    1
 -2       625       517       626       976
 -1        79    3    0    1
 -2       534       713       726      1021
 -1        80    3    0    1
 -2       372       112       953      2461
 -1        81    3    0    1
 -2       552       478       564       948
 -1        82    3    0    1
 -2       552       555       911       943
 -1        83    3    0    1
 -2       622       631       980      1244
 -1        84    3    0    1
 -2       963       972      3688      1951
 -1        85    3    0    1
 -2       821       281      1205      1206
 -1        86    3    0    1
 -2      2105       599      2340      2421
 -1        87    3    0    1
 -2       599       600      2105      2447
 -1        88    3    0    1
 -2       225       220      1965      2305
 -1        89    3    0    1
 -2      2176      1988      2178      2239
 -1        90    3    0    1
 -2      2251       554      2371      2378
 -1        91    3    0    1
 -2       851      1367       852      2122
 -1        92    3    0    1
 -2      2275       618       962       973
 -1        93    3    0    1
 -2      2055       426      2116      2211
 -1        94    3    0    1
 -2      1307       680      2055      2188
 -1        95    3    0    1
 -2      1524      1662      1663      2887
 -1        96    3    0    1
 -2       409       414       628       979
 -1        97    3    0    1
 -2      2257      2194      2600      3557
 -1        98    3    0    1
 -2       744      1030      2361      2442
 -1        99    3    0    1
 -2       487       486       574       581
 -1       100    3    0    1
 -2       821        48       824      1205
 -1       101    3    0    1
 -2       337       208      3694      3696
 -1       102    3    0    1
 -2       805      1333       807       508
 -1       103    3    0    1
 -2      1432      1433      3244      3263
 -1       104    3    0    1
 -2      1393      1390      2167      2274
 -1       105    3    0    1
 -2       500       821       824      1205
 -1       106    3    0    1
 -2       197        90       710       939
 -1       107    3    0    1
 -2      1050       783      1189      1190
 -1       108    3    0    1
 -2       585       584       959      1176
 -1       109    3    0    1
 -2       202       417      1017      2234
 -1       110    3    0    1
 -2      1399      2121       895      1129
 -1       111    3    0    1
 -2       363       144       978      2259
 -1       112    3    0    1
 -2      1337      2067      2267      2293
 -1       113    3    0    1
 -2      1385       304      1100      2182
 -1       114    3    0    1
 -2       664       658      1255      1304
 -1       115    3    0    1
 -2      1024       216      2195      2198
 -1       116    3    0    1
 -2      3503      2752      3522      2777
 -1       117    3    0    1
 -2      1350       841      2020      2184
 -1       118    3    0    1
 -2       999      1308       683      2510
 -1       119    3    0    1
 -2       604       407       610       971
 -1       120    3    0    1
 -2       750       453       761       762
 -1       121    3    0    1
 -2       644      1299      2133      2326
 -1       122    3    0    1
 -2        46        49       825       921
 -1       123    3    0    1
 -2       488       588      1185      1186
 -1       124    3    0    1
 -2      1401       879       889      2150
 -1       125    3    0    1
 -2       125      3539      3455      1814
 -1       126    3    0    1
 -2       422       183      3524      1724
 -1       127    3    0    1
 -2       201       718      1020      1751
 -1       128    3    0    1
 -2      1988      2029      2171      2313
 -1       129    3    0    1
 -2      3683       435      3468      3720
 -1       130    3    0    1
 -2       678       451      1006      1131
 -1       131    3    0    1
 -2       433       119      3583      3626
 -1       132    3    0    1
 -2      1995      2192      2373      2202
 -1       133    3    0    1
 -2       366      2089      2351      2460
 -1       134    3    0    1
 -2       647      1298       641      3542
 -1       135    3    0    1
 -2      1315       716      2196      2380
 -1       136    3    0    1
 -2       767       779       780      1047
 -1       137    3    0    1
 -2      2682      2745      3559      3026
 -1       138    3    0    1
 -2       378       943      2248      2371
 -1       139    3    0    1
 -2       477       552       555      1170
 -1       140    3    0    1
 -2       330      3502      3399      3725
 -1       141    3    0    1
 -2       721        79        80      1262
 -1       142    3    0    1
 -2      1973      1992      2108      2167
 -1       143    3    0    1
 -2       345      1049      1330      2175
 -1       144    3    0    1
 -2      2228      2185      2246      2491
 -1       145    3    0    1
 -2       166       995      2297      2339
 -1       146    3    0    1
 -2       660      1140         7       663
 -1       147    3    0    1
 -2      1362      1979      2104      2463
 -1       148    3    0    1
 -2       837      1345       838      2042
 -1       149    3    0    1
 -2       965       371      2269      2447
 -1       150    3    0    1
 -2      1989      2027      2099      2430
 -1       151    3    0    1
 -2       534       713       718       726
 -1       152    3    0    1
 -2      1318      2309      2329      2400
 -1       153    3    0    1
 -2        56       800       801       927
 -1       154    3    0    1
 -2        18         3       677      1148
 -1       155    3    0    1
 -2      2783      2835      2993      3372
 -1       156    3    0    1
 -2       552       378       555       943
 -1       157    3    0    1
 -2      1329       787       789      2468
 -1       158    3    0    1
 -2       732       531       743       744
 -1       159    3    0    1
 -2      1571      1414      3135      3367
 -1       160    3    0    1
 -2       527       528      1023      1249
 -1       161    3    0    1
 -2      1540      1672      2926      3014
 -1       162    3    0    1
 -2       454       646       653       654
 -1       163    3    0    1
 -2      2560      2659      3543      3146
 -1       164    3    0    1
 -2      2326      2133      2384      2460
 -1       165    3    0    1
 -2       749       757      1038      1135
 -1       166    3    0    1
 -2      1768        51      1769      1788
 -1       167    3    0    1
 -2      1998      2095      2119      2174
 -1       168    3    0    1
 -2       658       664       671       996
 -1       169    3    0    1
 -2      1043       771      2283      2301
 -1       170    3    0    1
 -2      1736       173      3623      1832
 -1       171    3    0    1
 -2       383      2014      2349      2379
 -1       172    3    0    1
 -2       805      1333       508      1058
 -1       173    3    0    1
 -2       804       506       815       816
 -1       174    3    0    1
 -2      1057       805      2349      2486
 -1       175    3    0    1
 -2       726      1021      2365      3502
 -1       176    3    0    1
 -2       366       992      1303      1967
 -1       177    3    0    1
 -2       365       300      1350      2015
 -1       178    3    0    1
 -2        36       597       124      1186
 -1       179    3    0    1
 -2       563       945      2135      2268
 -1       180    3    0    1
 -2      1003      2068      2317      2516
 -1       181    3    0    1
 -2       518       519      2794      2878
 -1       182    3    0    1
 -2      2592      2564      2624      3625
 -1       183    3    0    1
 -2      2997      2679      3248      3643
 -1       184    3    0    1
 -2       175      1001      1306      2271
 -1       185    3    0    1
 -2      2208       427      3684      3726
 -1       186    3    0    1
 -2       975      1966      2280      2385
 -1       187    3    0    1
 -2      2077      2065      2122      2139
 -1       188    3    0    1
 -2      2235      2159      2169      2110
 -1       189    3    0    1
 -2      1995      1978      2072      2191
 -1       190    3    0    1
 -2      2050       366      2351      2460
 -1       191    3    0    1
 -2       532       531       732       744
 -1       192    3    0    1
 -2        61        66       624      1230
 -1       193    3    0    1
 -2       454       464       646       654
 -1       194    3    0    1
 -2       857      1372      2132      2180
 -1       195    3    0    1
 -2      2118      2155      2156      2354
 -1       196    3    0    1
 -2       383      1058      1333      2254
 -1       197    3    0    1
 -2       696      1265        89      1264
 -1       198    3    0    1
 -2      1684      2831      3559      3487
 -1       199    3    0    1
 -2       642       464       645       654
 -1       200    3    0    1
 -2        14      1578      1666      3061
 -1       201    3    0    1
 -2       574       486       916      1184
 -1       202    3    0    1
 -2      2069      1993      2085      2197
 -1       203    3    0    1
 -2       942       553      2215      2293
 -1       204    3    0    1
 -2      1149      1147      2510      2536
 -1       205    3    0    1
 -2       209        70       731      1249
 -1       206    3    0    1
 -2       678       451       689       690
 -1       207    3    0    1
 -2      1981      2015      2039      2207
 -1       208    3    0    1
 -2      2725      2588      2897      3596
 -1       209    3    0    1
 -2      1041      2229      2418      2464
 -1       210    3    0    1
 -2      1101      2144      2182      2315
 -1       211    3    0    1
 -2       490      1329       787       789
 -1       212    3    0    1
 -2       779      1046      1055      2603
 -1       213    3    0    1
 -2      3706       434      3709      1947
 -1       214    3    0    1
 -2       695       189      1012      1013
 -1       215    3    0    1
 -2      1097      1099      2034      2043
 -1       216    3    0    1
 -2       804       267       806      1059
 -1       217    3    0    1
 -2       783       251      1189      1190
 -1       218    3    0    1
 -2       543      1026      1024       937
 -1       219    3    0    1
 -2       696       705       936      1014
 -1       220    3    0    1
 -2      1987      2028      2067      2411
 -1       221    3    0    1
 -2        35       255       786      1188
 -1       222    3    0    1
 -2       310      1113      2106      2144
 -1       223    3    0    1
 -2       947       352      3528      1676
 -1       224    3    0    1
 -2      2001      2070      2128      2262
 -1       225    3    0    1
 -2       959      2306      2437      2481
 -1       226    3    0    1
 -2       404      3690      1953      1954
 -1       227    3    0    1
 -2      2085      2069      2182      2315
 -1       228    3    0    1
 -2       516       622       635       636
 -1       229    3    0    1
 -2       755       758       902      1037
 -1       230    3    0    1
 -2       541       695       708      1013
 -1       231    3    0    1
 -2      2206       987      2278      2343
 -1       232    3    0    1
 -2       467      1292      1156       967
 -1       233    3    0    1
 -2      2108      1393      2167      2274
 -1       234    3    0    1
 -2      2037      2007      2094      2190
 -1       235    3    0    1
 -2      2729      2588      3531      3391
 -1       236    3    0    1
 -2      1513      1512      1604      2932
 -1       237    3    0    1
 -2      2238      1057      2349      2486
 -1       238    3    0    1
 -2       601      1581      1582      2909
 -1       239    3    0    1
 -2      1336       819      2258      2314
 -1       240    3    0    1
 -2       647       641      1300      2544
 -1       241    3    0    1
 -2      2639      2845      1819      3207
 -1       242    3    0    1
 -2       686       682      1004      1133
 -1       243    3    0    1
 -2      1349       293      1077      2006
 -1       244    3    0    1
 -2       544      1025       733       543
 -1       245    3    0    1
 -2       586       488       917      1187
 -1       246    3    0    1
 -2      2024      1967      2048      2098
 -1       247    3    0    1
 -2       904      1291       968       466
 -1       248    3    0    1
 -2       539      1270       540       993
 -1       249    3    0    1
 -2       161       670       663      1140
 -1       250    3    0    1
 -2       627       624       635       978
 -1       251    3    0    1
 -2       734        75       742      1257
 -1       252    3    0    1
 -2       485       949      1180      1181
 -1       253    3    0    1
 -2      1655      2699      3537      2904
 -1       254    3    0    1
 -2       487       954       574       916
 -1       255    3    0    1
 -2       604        22       610      1158
 -1       256    3    0    1
 -2       591       588        36      1185
 -1       257    3    0    1
 -2       477       478       551       564
 -1       258    3    0    1
 -2       403      1569      3512      3513
 -1       259    3    0    1
 -2       465       604       610       617
 -1       260    3    0    1
 -2      2501      2247      3004      3731
 -1       261    3    0    1
 -2      2009      2110      2124      2126
 -1       262    3    0    1
 -2      2016      2043      2103      2186
 -1       263    3    0    1
 -2      2027      1987      2028      2088
 -1       264    3    0    1
 -2       477       946       556       910
 -1       265    3    0    1
 -2       576       565      2805      1721
 -1       266    3    0    1
 -2      1599      1598      2915      1745
 -1       267    3    0    1
 -2        93       352       551       940
 -1       268    3    0    1
 -2       577        38       106      1184
 -1       269    3    0    1
 -2      1050      2080      2427      2468
 -1       270    3    0    1
 -2      1211       924      3558      3149
 -1       271    3    0    1
 -2       766      1324      2367      3724
 -1       272    3    0    1
 -2      2499      2646      3535      3625
 -1       273    3    0    1
 -2       541       695      1013      1272
 -1       274    3    0    1
 -2      2194      1060      3505      3507
 -1       275    3    0    1
 -2      1525      1524      2887      1722
 -1       276    3    0    1
 -2       604       610       617       971
 -1       277    3    0    1
 -2        64       152       642      1242
 -1       278    3    0    1
 -2       101       566       914      1182
 -1       279    3    0    1
 -2       517      1234      1229       975
 -1       280    3    0    1
 -2       670       161       164      1140
 -1       281    3    0    1
 -2       534       533       717       726
 -1       282    3    0    1
 -2      1126      1397      2056      2097
 -1       283    3    0    1
 -2       418      1315      2051      2196
 -1       284    3    0    1
 -2      1547      1548      2845      1882
 -1       285    3    0    1
 -2       556       551      1168      1282
 -1       286    3    0    1
 -2       606       465       609       617
 -1       287    3    0    1
 -2      1541      2783      3151      3162
 -1       288    3    0    1
 -2       198      1017      1314      2234
 -1       289    3    0    1
 -2       731       739      1030      1245
 -1       290    3    0    1
 -2       803       270      1331      1334
 -1       291    3    0    1
 -2      1574      1573      2778      1749
 -1       292    3    0    1
 -2       104      1984      2118      2354
 -1       293    3    0    1
 -2       573       570       582       956
 -1       294    3    0    1
 -2       470       973       606       905
 -1       295    3    0    1
 -2      1558      1557      1611      3103
 -1       296    3    0    1
 -2      3054      3581      3168      3251
 -1       297    3    0    1
 -2      2356       405      2370      2458
 -1       298    3    0    1
 -2      1992      2167      2168      2274
 -1       299    3    0    1
 -2      3501      1419      3546      3557
 -1       300    3    0    1
 -2      3109      1738      3647      3391
 -1       301    3    0    1
 -2       588        36      1185      1186
 -1       302    3    0    1
 -2      2254      1333      2332      2455
 -1       303    3    0    1
 -2       139      1982      2064      2096
 -1       304    3    0    1
 -2       707      1011      1014      2316
 -1       305    3    0    1
 -2       695       189       700      1012
 -1       306    3    0    1
 -2      2015      1981      2323      2374
 -1       307    3    0    1
 -2       291       393      1076      2136
 -1       308    3    0    1
 -2       629      1297      2189      2609
 -1       309    3    0    1
 -2       554      1281      2251      2389
 -1       310    3    0    1
 -2       574       569      1166      1286
 -1       311    3    0    1
 -2       624       525       636       981
 -1       312    3    0    1
 -2      1970      2041      2124      2126
 -1       313    3    0    1
 -2      1397       881      2056      2097
 -1       314    3    0    1
 -2       690      1005      2068      2242
 -1       315    3    0    1
 -2       103       570       573      1181
 -1       316    3    0    1
 -2       315      1088      1373      2203
 -1       317    3    0    1
 -2        25       586       917      1187
 -1       318    3    0    1
 -2      2559      1248      2634      2670
 -1       319    3    0    1
 -2      1988      2011      2029      2344
 -1       320    3    0    1
 -2      2556      2861      2905      3564
 -1       321    3    0    1
 -2       712      1316       719      2667
 -1       322    3    0    1
 -2       516       525       622       636
 -1       323    3    0    1
 -2      3572      2529      3612      3682
 -1       324    3    0    1
 -2       212      2331      2381      2466
 -1       325    3    0    1
 -2      1544      3085      3163      3469
 -1       326    3    0    1
 -2       425       428       699      1009
 -1       327    3    0    1
 -2       714       198       717      1017
 -1       328    3    0    1
 -2      3138      2977      3622      3627
 -1       329    3    0    1
 -2       162       341       991      2141
 -1       330    3    0    1
 -2       363       976      2160      2324
 -1       331    3    0    1
 -2       807      2254      2432      2455
 -1       332    3    0    1
 -2       378       552       555       945
 -1       333    3    0    1
 -2      3004      2971      3599      3219
 -1       334    3    0    1
 -2       487       953       915       573
 -1       335    3    0    1
 -2      3012      1409      3149      3404
 -1       336    3    0    1
 -2       174      1006      2068      2271
 -1       337    3    0    1
 -2      2250      2396      3503      2752
 -1       338    3    0    1
 -2      2700      2708      3655      3682
 -1       339    3    0    1
 -2       100       101       566       914
 -1       340    3    0    1
 -2        74         9       658      1253
 -1       341    3    0    1
 -2        45      1246       773       241
 -1       342    3    0    1
 -2       405      2356      2370      2417
 -1       343    3    0    1
 -2        25      1163        40       592
 -1       344    3    0    1
 -2       400       399      3578      1797
 -1       345    3    0    1
 -2      2214       328      2365      3502
 -1       346    3    0    1
 -2       510       481       788       798
 -1       347    3    0    1
 -2       923      1337      1066       502
 -1       348    3    0    1
 -2       997      2270      2343      2488
 -1       349    3    0    1
 -2      2898      1474      3017      3049
 -1       350    3    0    1
 -2       270      1062      1063      1969
 -1       351    3    0    1
 -2       324       430      1105      2151
 -1       352    3    0    1
 -2       506       803       815       816
 -1       353    3    0    1
 -2      1119      1122      2168      2274
 -1       354    3    0    1
 -2       486       487       573       581
 -1       355    3    0    1
 -2       491      1329       787       490
 -1       356    3    0    1
 -2       749       755       761      1037
 -1       357    3    0    1
 -2      2141       999      2208      2243
 -1       358    3    0    1
 -2       811        50        54      1215
 -1       359    3    0    1
 -2       786        35       788       929
 -1       360    3    0    1
 -2       115       118       592       963
 -1       361    3    0    1
 -2       786       510       788       798
 -1       362    3    0    1
 -2       116       584       585      1176
 -1       363    3    0    1
 -2      1399       441      2120      2121
 -1       364    3    0    1
 -2      1407       321       440      2078
 -1       365    3    0    1
 -2       852       851      2122      2142
 -1       366    3    0    1
 -2       571       950      2021      2389
 -1       367    3    0    1
 -2      1691      3142      1839      3242
 -1       368    3    0    1
 -2      3504      3574      3660      3464
 -1       369    3    0    1
 -2       707       708      2216      2316
 -1       370    3    0    1
 -2       281       829       286      1206
 -1       371    3    0    1
 -2        53       804       926      1217
 -1       372    3    0    1
 -2       797       798      1054      2335
 -1       373    3    0    1
 -2       486       487       574       916
 -1       374    3    0    1
 -2      2120       895      1399      2121
 -1       375    3    0    1
 -2      1025       396      2051      2298
 -1       376    3    0    1
 -2       488       588       591      1185
 -1       377    3    0    1
 -2      2212      1975      2286      2296
 -1       378    3    0    1
 -2       732      1257       933        76
 -1       379    3    0    1
 -2      2907      1759      1760      3211
 -1       380    3    0    1
 -2       782       783      1050      1190
 -1       381    3    0    1
 -2      1119      2167      2168      2200
 -1       382    3    0    1
 -2       510       481       791       913
 -1       383    3    0    1
 -2      2185      2322      2777      2782
 -1       384    3    0    1
 -2       863      1379      1095      2119
 -1       385    3    0    1
 -2       749       755      1032      1219
 -1       386    3    0    1
 -2      3603      3623      3352      3681
 -1       387    3    0    1
 -2       144       363       976      2160
 -1       388    3    0    1
 -2      2713      2843      2926      3123
 -1       389    3    0    1
 -2      1566      2798      1648      3016
 -1       390    3    0    1
 -2       226      1665      3683      1949
 -1       391    3    0    1
 -2      2051      2181      2196      2298
 -1       392    3    0    1
 -2       776       241       773      1246
 -1       393    3    0    1
 -2      3568      2730      3172      3705
 -1       394    3    0    1
 -2      2537      3636      3646      3654
 -1       395    3    0    1
 -2      2065      2012      2122      2142
 -1       396    3    0    1
 -2       298      1368       308      2142
 -1       397    3    0    1
 -2       467       466       608       967
 -1       398    3    0    1
 -2        22       610      1158      1160
 -1       399    3    0    1
 -2       999       422      2497      3550
 -1       400    3    0    1
 -2       532       731      1030      1245
 -1       401    3    0    1
 -2       804       507       816      1064
 -1       402    3    0    1
 -2       773       526       779      1046
 -1       403    3    0    1
 -2      1299      2133      2326      2460
 -1       404    3    0    1
 -2      1395       877      1394      2111
 -1       405    3    0    1
 -2      1343      2038      2183      2345
 -1       406    3    0    1
 -2       477       551       556       563
 -1       407    3    0    1
 -2      1298       641      2205      2386
 -1       408    3    0    1
 -2      1110      2097      2123      2295
 -1       409    3    0    1
 -2       841      1351       842      2184
 -1       410    3    0    1
 -2        92        31       551       909
 -1       411    3    0    1
 -2      1298      2143      2386      2584
 -1       412    3    0    1
 -2      1254      1248      2559      2817
 -1       413    3    0    1
 -2      3305      3596      3647      3488
 -1       414    3    0    1
 -2        34      1174       552       911
 -1       415    3    0    1
 -2      1981      2323       149      2213
 -1       416    3    0    1
 -2      2110      1311      2159      2169
 -1       417    3    0    1
 -2       990       654      2206      2259
 -1       418    3    0    1
 -2      1996      2016      2075      2103
 -1       419    3    0    1
 -2       481       791       797       798
 -1       420    3    0    1
 -2       561       552       948      1171
 -1       421    3    0    1
 -2       465       609       970      1153
 -1       422    3    0    1
 -2       715      1016      2159      2177
 -1       423    3    0    1
 -2        92       559       551      1172
 -1       424    3    0    1
 -2       421      1090      2005      2024
 -1       425    3    0    1
 -2      1520      1668      3101      3626
 -1       426    3    0    1
 -2      1423      1835      3672      3431
 -1       427    3    0    1
 -2        93       551       556      1282
 -1       428    3    0    1
 -2       525       516       624       636
 -1       429    3    0    1
 -2      2195      2196      2198      2234
 -1       430    3    0    1
 -2       115       118       963      2105
 -1       431    3    0    1
 -2      1101       310      2106      2144
 -1       432    3    0    1
 -2       157       416      2026      2507
 -1       433    3    0    1
 -2       486       570       573      1183
 -1       434    3    0    1
 -2       508      1059      1057       926
 -1       435    3    0    1
 -2       718       534      1258      1262
 -1       436    3    0    1
 -2       579       570       956      1183
 -1       437    3    0    1
 -2       477       551       563       564
 -1       438    3    0    1
 -2       219      2233      2405      2450
 -1       439    3    0    1
 -2      2540      2698      3531      3080
 -1       440    3    0    1
 -2       733      2265      2331      2469
 -1       441    3    0    1
 -2      2520      2247      2586      2777
 -1       442    3    0    1
 -2       375       376       942      2347
 -1       443    3    0    1
 -2      1002      2910      3031      3597
 -1       444    3    0    1
 -2       968       608      2059      2082
 -1       445    3    0    1
 -2       567       104       368       950
 -1       446    3    0    1
 -2      2588      1252      2897      2995
 -1       447    3    0    1
 -2       411       971      3510      1924
 -1       448    3    0    1
 -2      1339       311      1075      2166
 -1       449    3    0    1
 -2      1007       694      1312      2153
 -1       450    3    0    1
 -2      1854       268      3404      3475
 -1       451    3    0    1
 -2      2058      2025      2090      2098
 -1       452    3    0    1
 -2       660       993      1269      1302
 -1       453    3    0    1
 -2       108       404      3690      3699
 -1       454    3    0    1
 -2       480       942       479       912
 -1       455    3    0    1
 -2       144       363      2160      2259
 -1       456    3    0    1
 -2      2023      1977      2076      2394
 -1       457    3    0    1
 -2      1986      1341      2038      2183
 -1       458    3    0    1
 -2      2934      2723      2951      3570
 -1       459    3    0    1
 -2       732      1257       531       933
 -1       460    3    0    1
 -2      1015      2153      2498      3725
 -1       461    3    0    1
 -2       998      2145      2278      2343
 -1       462    3    0    1
 -2       556       560       910       946
 -1       463    3    0    1
 -2       586       595       964      1187
 -1       464    3    0    1
 -2       223      1034      1321      2233
 -1       465    3    0    1
 -2       451       452       677      1132
 -1       466    3    0    1
 -2       128       129       609      1291
 -1       467    3    0    1
 -2       532       731       744      1030
 -1       468    3    0    1
 -2       588       488       600       965
 -1       469    3    0    1
 -2       743      1028      2361      2467
 -1       470    3    0    1
 -2       985       338      2278      2395
 -1       471    3    0    1
 -2        32        95       552      1171
 -1       472    3    0    1
 -2      2030      2010      2077      2139
 -1       473    3    0    1
 -2      1347       377      2393      2472
 -1       474    3    0    1
 -2      1562       147      1563      1587
 -1       475    3    0    1
 -2      3246       438      3676      1932
 -1       476    3    0    1
 -2       455       658       671       672
 -1       477    3    0    1
 -2       465       606       609      1153
 -1       478    3    0    1
 -2      3559      2682      3026      3675
 -1       479    3    0    1
 -2       219       750      1036      1039
 -1       480    3    0    1
 -2      1975      2212      2294      2296
 -1       481    3    0    1
 -2       510      1056       798       786
 -1       482    3    0    1
 -2        53       804       806       926
 -1       483    3    0    1
 -2       323      2256      2260      2353
 -1       484    3    0    1
 -2       730      2046      2388      2396
 -1       485    3    0    1
 -2      1353      2017      2078      2112
 -1       486    3    0    1
 -2      1064       816      1969      2453
 -1       487    3    0    1
 -2       403      1287      3512      1658
 -1       488    3    0    1
 -2      1456      1697      3556      3114
 -1       489    3    0    1
 -2       628       516       635       979
 -1       490    3    0    1
 -2       992      1303      1967      2351
 -1       491    3    0    1
 -2       817       818      1208      1337
 -1       492    3    0    1
 -2      1194      1192      2660      2984
 -1       493    3    0    1
 -2       310      1384       389      2144
 -1       494    3    0    1
 -2       654       646       988       989
 -1       495    3    0    1
 -2       623      2138      2189      2204
 -1       496    3    0    1
 -2        76       732       937      1276
 -1       497    3    0    1
 -2      2016       253      2075      2103
 -1       498    3    0    1
 -2      1980      1974      2036      2096
 -1       499    3    0    1
 -2      2096      2064      2104      2132
 -1       500    3    0    1
 -2      1306      1001      2107      2271
 -1       501    3    0    1
 -2        31       551       556       910
 -1       502    3    0    1
 -2      2290      1289      2403      3521
 -1       503    3    0    1
 -2      2063      2129      2149      2199
 -1       504    3    0    1
 -2      1532      1533      2666      1659
 -1       505    3    0    1
 -2       587       957      1289      2512
 -1       506    3    0    1
 -2        34      1174        95       552
 -1       507    3    0    1
 -2       825       820       921      1335
 -1       508    3    0    1
 -2       130      1977      2092      2394
 -1       509    3    0    1
 -2       449       558      1489      2624
 -1       510    3    0    1
 -2       257       345      1330      2175
 -1       511    3    0    1
 -2       713       534       718      1262
 -1       512    3    0    1
 -2      2442      1030      2543      3526
 -1       513    3    0    1
 -2       582       574       954       955
 -1       514    3    0    1
 -2       488       489       591       599
 -1       515    3    0    1
 -2      1337       923       818      1208
 -1       516    3    0    1
 -2       477       555       563       945
 -1       517    3    0    1
 -2       555       562       945      1170
 -1       518    3    0    1
 -2       479      1174       941       480
 -1       519    3    0    1
 -2      1299       984      2133      2279
 -1       520    3    0    1
 -2        31       551       909      1168
 -1       521    3    0    1
 -2      1368       298      1365      2142
 -1       522    3    0    1
 -2      2798      1562      3016      3066
 -1       523    3    0    1
 -2       426      2116      2211      2516
 -1       524    3    0    1
 -2       996      1005      2431      2558
 -1       525    3    0    1
 -2       900       458      2556      2905
 -1       526    3    0    1
 -2       984       643      2133      2279
 -1       527    3    0    1
 -2      1438      1856      1857      3281
 -1       528    3    0    1
 -2         1      3664      3718      3496
 -1       529    3    0    1
 -2       364      1981      2081      2374
 -1       530    3    0    1
 -2      2262       220      2357      2438
 -1       531    3    0    1
 -2      2858      1719      3129      3208
 -1       532    3    0    1
 -2       843      1356      1353      2017
 -1       533    3    0    1
 -2       105       574       916      1184
 -1       534    3    0    1
 -2      1065       385      2284      2428
 -1       535    3    0    1
 -2       162       996       997      2270
 -1       536    3    0    1
 -2      3231      3505      3486      3500
 -1       537    3    0    1
 -2       588       488       591       599
 -1       538    3    0    1
 -2      1095      1379      1998      2119
 -1       539    3    0    1
 -2      3506      2514      3517      3687
 -1       540    3    0    1
 -2      2209       193      2304      2316
 -1       541    3    0    1
 -2       565      1635      1636      3063
 -1       542    3    0    1
 -2       718       725       726      1020
 -1       543    3    0    1
 -2      1080      2289      2076      1082
 -1       544    3    0    1
 -2       610       465       971      1152
 -1       545    3    0    1
 -2       762      2446      2467      2612
 -1       546    3    0    1
 -2      1334       802      1331      2594
 -1       547    3    0    1
 -2      2068       690      2242      2431
 -1       548    3    0    1
 -2       680      2055      2188      2211
 -1       549    3    0    1
 -2       658       991      1255      1304
 -1       550    3    0    1
 -2      1028       212      1031      2361
 -1       551    3    0    1
 -2       588       121       591       960
 -1       552    3    0    1
 -2       500       501       820       832
 -1       553    3    0    1
 -2      3558      3012      3149      3404
 -1       554    3    0    1
 -2      2065      2122      2139      2142
 -1       555    3    0    1
 -2       548       375       376       942
 -1       556    3    0    1
 -2       487       953       573       581
 -1       557    3    0    1
 -2        66       633       142      1235
 -1       558    3    0    1
 -2       972       407      3688      1952
 -1       559    3    0    1
 -2      1049      1326      2355      2504
 -1       560    3    0    1
 -2       385       381      2284      2462
 -1       561    3    0    1
 -2       245       243       770      1045
 -1       562    3    0    1
 -2      1407      1121      2078      2120
 -1       563    3    0    1
 -2       966      1293       611      2566
 -1       564    3    0    1
 -2       788       786      1051      1188
 -1       565    3    0    1
 -2       316      1352      2036      2180
 -1       566    3    0    1
 -2       646       653       654       988
 -1       567    3    0    1
 -2      2033      2009      2110      2310
 -1       568    3    0    1
 -2       168       339      2278      2337
 -1       569    3    0    1
 -2       677       689       690      1005
 -1       570    3    0    1
 -2        21       133       606      1155
 -1       571    3    0    1
 -2       486       569       582       955
 -1       572    3    0    1
 -2       885      1119      2168      2200
 -1       573    3    0    1
 -2       624       525       981      1235
 -1       574    3    0    1
 -2      1573      3640      3316      3334
 -1       575    3    0    1
 -2      1482      1481      3181      1936
 -1       576    3    0    1
 -2       293      1349       296      2006
 -1       577    3    0    1
 -2       617      2321      2470      2485
 -1       578    3    0    1
 -2       983       524       985      1242
 -1       579    3    0    1
 -2      1378       863      1377      2114
 -1       580    3    0    1
 -2      2006      1985      2294      2296
 -1       581    3    0    1
 -2      3574      3586      3201      3343
 -1       582    3    0    1
 -2       570       486       582       956
 -1       583    3    0    1
 -2      1023       730      2046      2471
 -1       584    3    0    1
 -2       481      1054       797       791
 -1       585    3    0    1
 -2       569       400       574       955
 -1       586    3    0    1
 -2       981      2158      2259      2321
 -1       587    3    0    1
 -2      2881      2798      2939      3066
 -1       588    3    0    1
 -2       593      1289      2220      2290
 -1       589    3    0    1
 -2       362       315      2104      2203
 -1       590    3    0    1
 -2      2118      2178      2239      2382
 -1       591    3    0    1
 -2       514      1322      1225      1033
 -1       592    3    0    1
 -2       591        36        37      1185
 -1       593    3    0    1
 -2       229       228       755       902
 -1       594    3    0    1
 -2       477       946       563       556
 -1       595    3    0    1
 -2       414       409       628      1297
 -1       596    3    0    1
 -2      1066      1972      2045      2236
 -1       597    3    0    1
 -2       735      1318      2309      2329
 -1       598    3    0    1
 -2       707       708      1013      2216
 -1       599    3    0    1
 -2      2017       843      1355      2112
 -1       600    3    0    1
 -2      1442      1612      3044      3590
 -1       601    3    0    1
 -2       574       578       916       954
 -1       602    3    0    1
 -2       624       516       635       636
 -1       603    3    0    1
 -2       395       396       728      1025
 -1       604    3    0    1
 -2      2061      2522      3638      3735
 -1       605    3    0    1
 -2       270       350      3508      3728
 -1       606    3    0    1
 -2       770        68       778      1247
 -1       607    3    0    1
 -2      1305      2910      3597      3668
 -1       608    3    0    1
 -2       755       343      1032      1323
 -1       609    3    0    1
 -2        11      1273       700        12
 -1       610    3    0    1
 -2      1440      1576      1577      3155
 -1       611    3    0    1
 -2       345       257       785      1055
 -1       612    3    0    1
 -2      1323      1032       756      2342
 -1       613    3    0    1
 -2       690      1003      1006      2068
 -1       614    3    0    1
 -2      1052      1332      2257      3557
 -1       615    3    0    1
 -2       552       911       941       943
 -1       616    3    0    1
 -2       551        93       940      1282
 -1       617    3    0    1
 -2       682       999      1148      1150
 -1       618    3    0    1
 -2       321      1356       440      2078
 -1       619    3    0    1
 -2       198       202       717      1017
 -1       620    3    0    1
 -2       220      2305      2357      2438
 -1       621    3    0    1
 -2      2621      2741      3558      3012
 -1       622    3    0    1
 -2       875      1393      1390      2108
 -1       623    3    0    1
 -2       586       115       963       964
 -1       624    3    0    1
 -2      2264       396      2265      2298
 -1       625    3    0    1
 -2      1428      2653      3050      3445
 -1       626    3    0    1
 -2       950       368      2176      2382
 -1       627    3    0    1
 -2      2131       626      2324      2385
 -1       628    3    0    1
 -2       423      2030      2057      2113
 -1       629    3    0    1
 -2       453      1039       750       897
 -1       630    3    0    1
 -2      2964      3558      3119      3609
 -1       631    3    0    1
 -2      2511      2777      3711      3715
 -1       632    3    0    1
 -2       427       999      1308      2208
 -1       633    3    0    1
 -2      3668      3299      3671      3702
 -1       634    3    0    1
 -2      3328      2783      3682      3701
 -1       635    3    0    1
 -2      2011      1281      2021      2389
 -1       636    3    0    1
 -2       736      1526      2692      3637
 -1       637    3    0    1
 -2       737       731      1251      1319
 -1       638    3    0    1
 -2       791       510       913       928
 -1       639    3    0    1
 -2      2118      1984      2155      2354
 -1       640    3    0    1
 -2       453       749       761       762
 -1       641    3    0    1
 -2      2030      2071      2240      2266
 -1       642    3    0    1
 -2       719       712      1313      2388
 -1       643    3    0    1
 -2       770       768      1043      1196
 -1       644    3    0    1
 -2      2031      1986      2083      2091
 -1       645    3    0    1
 -2      1395       308      2012      2111
 -1       646    3    0    1
 -2      2765      2573      3533      3569
 -1       647    3    0    1
 -2         2      1935      1941      1942
 -1       648    3    0    1
 -2      1056       798      2154      2377
 -1       649    3    0    1
 -2       551        31       556      1168
 -1       650    3    0    1
 -2       402       960      2410      2474
 -1       651    3    0    1
 -2      2109      1987      2165      2287
 -1       652    3    0    1
 -2      3571      3516      3616      3303
 -1       653    3    0    1
 -2      1311      1008      2169      2240
 -1       654    3    0    1
 -2       225      1965      2217      2305
 -1       655    3    0    1
 -2      2377      1046      2603      3530
 -1       656    3    0    1
 -2      1512      1513      1726      3273
 -1       657    3    0    1
 -2      3255       408      1813      1812
 -1       658    3    0    1
 -2       130      2073      2210      2303
 -1       659    3    0    1
 -2       144       624       627       978
 -1       660    3    0    1
 -2       407       406      3688      1952
 -1       661    3    0    1
 -2         9        74       658      1138
 -1       662    3    0    1
 -2      2422       272      2480      2486
 -1       663    3    0    1
 -2       557       568      2230      2282
 -1       664    3    0    1
 -2      1298       986      2143      3579
 -1       665    3    0    1
 -2      2794      1231      2878      3589
 -1       666    3    0    1
 -2      2044      2012      2111      2336
 -1       667    3    0    1
 -2        62        24      1554      2702
 -1       668    3    0    1
 -2      1392      2004      2101      2352
 -1       669    3    0    1
 -2       382      1397      1126      2097
 -1       670    3    0    1
 -2      1115      2076      2179      2191
 -1       671    3    0    1
 -2       531       731       743       744
 -1       672    3    0    1
 -2       569       486       574      1184
 -1       673    3    0    1
 -2       277       386      1972      2328
 -1       674    3    0    1
 -2      1211      2594      2641      2710
 -1       675    3    0    1
 -2       239       768       770      1196
 -1       676    3    0    1
 -2       454       464       645       903
 -1       677    3    0    1
 -2       589       482       959      1288
 -1       678    3    0    1
 -2      1305      2243      2406      3536
 -1       679    3    0    1
 -2       750       762      1036      1039
 -1       680    3    0    1
 -2      1248       530      2559      2634
 -1       681    3    0    1
 -2      1998      1379       392      2086
 -1       682    3    0    1
 -2       553      1281       554       479
 -1       683    3    0    1
 -2       352      2232      3528      3686
 -1       684    3    0    1
 -2       737       531       743      1029
 -1       685    3    0    1
 -2        81       714       717      1277
 -1       686    3    0    1
 -2        78        79       713      1262
 -1       687    3    0    1
 -2       984       643      1299      2133
 -1       688    3    0    1
 -2       115       586       592      1289
 -1       689    3    0    1
 -2       587       575      2220      2555
 -1       690    3    0    1
 -2      2033      2009      2117      2260
 -1       691    3    0    1
 -2       515       514      1034      1224
 -1       692    3    0    1
 -2      2471      1316      3045      3582
 -1       693    3    0    1
 -2       304      1385       305      2182
 -1       694    3    0    1
 -2      1000       538      1260      1268
 -1       695    3    0    1
 -2      2219      1057      2238      2486
 -1       696    3    0    1
 -2      2700       919      2708      2784
 -1       697    3    0    1
 -2      2027      1987      2088      2109
 -1       698    3    0    1
 -2       660       671       995       998
 -1       699    3    0    1
 -2       958      1178       482       960
 -1       700    3    0    1
 -2      1988      2011      2083      2176
 -1       701    3    0    1
 -2      2062      1990      2097      2123
 -1       702    3    0    1
 -2       531       532       731       744
 -1       703    3    0    1
 -2       975      2073      2082      2130
 -1       704    3    0    1
 -2       645       454       653       654
 -1       705    3    0    1
 -2      3447      3656      3721      3735
 -1       706    3    0    1
 -2       241       776       246      1246
 -1       707    3    0    1
 -2       869      1385      1100      2182
 -1       708    3    0    1
 -2      1704      1469      2953      3003
 -1       709    3    0    1
 -2       576       565      1721      3063
 -1       710    3    0    1
 -2       359      1977      2076      2368
 -1       711    3    0    1
 -2       734       742      1028      1257
 -1       712    3    0    1
 -2       516       624       627      1228
 -1       713    3    0    1
 -2      2065      2010      2071      2139
 -1       714    3    0    1
 -2       960       360      2340      2391
 -1       715    3    0    1
 -2       626       625       976      2324
 -1       716    3    0    1
 -2       402       962       973      2275
 -1       717    3    0    1
 -2       146       622       631      1923
 -1       718    3    0    1
 -2      1619      1768      3349      1948
 -1       719    3    0    1
 -2      1696      1413      3552      3735
 -1       720    3    0    1
 -2      3543      1740      2991      3249
 -1       721    3    0    1
 -2      3544      1415      3545      3683
 -1       722    3    0    1
 -2       512       513      2524      2721
 -1       723    3    0    1
 -2      2010      2030      2077      2113
 -1       724    3    0    1
 -2      2891      2526      3046      3295
 -1       725    3    0    1
 -2       132        22       604      1158
 -1       726    3    0    1
 -2       573       486       581       582
 -1       727    3    0    1
 -2      1452      1708      3563      3644
 -1       728    3    0    1
 -2      1021       328      3502      1912
 -1       729    3    0    1
 -2      3554      3515      3556      3632
 -1       730    3    0    1
 -2      2041      2004      2152      2352
 -1       731    3    0    1
 -2      1222      1220      2524      2681
 -1       732    3    0    1
 -2       533       718       725       726
 -1       733    3    0    1
 -2       488       586       964      1187
 -1       734    3    0    1
 -2      2034      1994      2043      2186
 -1       735    3    0    1
 -2       677       685      1005      1132
 -1       736    3    0    1
 -2      2002       396      2084      2264
 -1       737    3    0    1
 -2       643      2133      2279      2395
 -1       738    3    0    1
 -2      1012       707      2365      3502
 -1       739    3    0    1
 -2       867      1099       868      2034
 -1       740    3    0    1
 -2       464       640       654       989
 -1       741    3    0    1
 -2       488       586       592       599
 -1       742    3    0    1
 -2       643       523       644       983
 -1       743    3    0    1
 -2      2003      1991      2414      2434
 -1       744    3    0    1
 -2       297      1114      1402      2376
 -1       745    3    0    1
 -2        90       711       939      1278
 -1       746    3    0    1
 -2       722       718      1020      1258
 -1       747    3    0    1
 -2      3173      1473      1946      3498
 -1       748    3    0    1
 -2      2016      1996      2093      2186
 -1       749    3    0    1
 -2       610       966      1160      1293
 -1       750    3    0    1
 -2        79        78       713      1144
 -1       751    3    0    1
 -2       976      2163      2324      2444
 -1       752    3    0    1
 -2      2195       216      2381      2399
 -1       753    3    0    1
 -2       453      1039       762       750
 -1       754    3    0    1
 -2      1287       403      3512      3514
 -1       755    3    0    1
 -2      2922      1646      3082      3291
 -1       756    3    0    1
 -2      1598      1808      3200      3283
 -1       757    3    0    1
 -2       732      1257        76       734
 -1       758    3    0    1
 -2       696       541       707       708
 -1       759    3    0    1
 -2      1343      1340      2038      2345
 -1       760    3    0    1
 -2      1976      2053      2092      2245
 -1       761    3    0    1
 -2       660       455       671       672
 -1       762    3    0    1
 -2      1481      1482      1776      3287
 -1       763    3    0    1
 -2       792       784      2241      2257
 -1       764    3    0    1
 -2       658         9       664      1255
 -1       765    3    0    1
 -2      2116       426      2317      2516
 -1       766    3    0    1
 -2       317       421      1084      2090
 -1       767    3    0    1
 -2      1101       869      1384      2315
 -1       768    3    0    1
 -2       531       734      1028      1257
 -1       769    3    0    1
 -2      2009      2033      2256      2260
 -1       770    3    0    1
 -2      1449      1450      2693      3393
 -1       771    3    0    1
 -2       882      1127      1112      2341
 -1       772    3    0    1
 -2       876       875      2101      2108
 -1       773    3    0    1
 -2       856       855      2157      2207
 -1       774    3    0    1
 -2        42        41       785      1193
 -1       775    3    0    1
 -2      2578       343      3698      3723
 -1       776    3    0    1
 -2       189      1007      1312      2390
 -1       777    3    0    1
 -2       604       610       966      1158
 -1       778    3    0    1
 -2       524       644       983       985
 -1       779    3    0    1
 -2       199      1016      1970      2177
 -1       780    3    0    1
 -2       635       622       979       980
 -1       781    3    0    1
 -2      2770      2681      3565      3637
 -1       782    3    0    1
 -2       609       616       970      1153
 -1       783    3    0    1
 -2       658       667       997      1138
 -1       784    3    0    1
 -2      3387      1849      1935      1961
 -1       785    3    0    1
 -2       523       524       983      1241
 -1       786    3    0    1
 -2       622       628       635       979
 -1       787    3    0    1
 -2       696      1274       699       541
 -1       788    3    0    1
 -2      1658      1532      3535      3182
 -1       789    3    0    1
 -2      2236      2359      2428      2455
 -1       790    3    0    1
 -2       896      1408      2152      2256
 -1       791    3    0    1
 -2       546      1314       545       715
 -1       792    3    0    1
 -2       112       953      2363      2417
 -1       793    3    0    1
 -2       392      2086      1379       314
 -1       794    3    0    1
 -2      3515      3504      3563      3632
 -1       795    3    0    1
 -2       803       348      1063      1955
 -1       796    3    0    1
 -2       414      2429      3704      3729
 -1       797    3    0    1
 -2       479       943       941       911
 -1       798    3    0    1
 -2        73        71      1837      1838
 -1       799    3    0    1
 -2       464       640       646       654
 -1       800    3    0    1
 -2       678       451       690      1006
 -1       801    3    0    1
 -2      1247       768       239       930
 -1       802    3    0    1
 -2       641      1298      2143      2386
 -1       803    3    0    1
 -2      2073      2082      2130      2303
 -1       804    3    0    1
 -2      1325      2283      2302      2364
 -1       805    3    0    1
 -2       624       144       627       976
 -1       806    3    0    1
 -2       718       533      1020      1258
 -1       807    3    0    1
 -2       642       651       903       990
 -1       808    3    0    1
 -2      2733      3636      3641      3646
 -1       809    3    0    1
 -2      2144      2085      2182      2315
 -1       810    3    0    1
 -2       105        38       574      1184
 -1       811    3    0    1
 -2      2954      2733      3641      3646
 -1       812    3    0    1
 -2       514      1322      1033       753
 -1       813    3    0    1
 -2       524       983      1241      1242
 -1       814    3    0    1
 -2       572       949       951      2420
 -1       815    3    0    1
 -2      1748      2778      3024      3619
 -1       816    3    0    1
 -2       321      1407      1121      2078
 -1       817    3    0    1
 -2      3152      3170      3185      3668
 -1       818    3    0    1
 -2       539      1302       993       661
 -1       819    3    0    1
 -2      2733      2632      2947      3641
 -1       820    3    0    1
 -2         3       677       682      1133
 -1       821    3    0    1
 -2       907      2569      3057      2960
 -1       822    3    0    1
 -2       388       384      2359      2416
 -1       823    3    0    1
 -2      2034      1996      2103      2186
 -1       824    3    0    1
 -2       537      1306      1001       679
 -1       825    3    0    1
 -2       879      1123       889      2171
 -1       826    3    0    1
 -2      1981      2039      2157      2207
 -1       827    3    0    1
 -2       570       102       573       951
 -1       828    3    0    1
 -2       489       963       599       592
 -1       829    3    0    1
 -2       431      2077      2121      2122
 -1       830    3    0    1
 -2        64         6       645      1137
 -1       831    3    0    1
 -2        32       552       561      1171
 -1       832    3    0    1
 -2      2008      1356      2017      2078
 -1       833    3    0    1
 -2       695      1273       541       700
 -1       834    3    0    1
 -2      1967       420      2037      2327
 -1       835    3    0    1
 -2       751       753      1033      2272
 -1       836    3    0    1
 -2       623       611      1294      2138
 -1       837    3    0    1
 -2       704       700      1012      1273
 -1       838    3    0    1
 -2      1439      1438      2676      1857
 -1       839    3    0    1
 -2      2507       988      3518      1733
 -1       840    3    0    1
 -2      1494      1493      1730      3042
 -1       841    3    0    1
 -2      2033      2110      2126      2235
 -1       842    3    0    1
 -2       731       208      1023      1319
 -1       843    3    0    1
 -2       695      1142       899        11
 -1       844    3    0    1
 -2      2029      2031      2083      2344
 -1       845    3    0    1
 -2      1178       958       588       960
 -1       846    3    0    1
 -2       243       768      1045      1048
 -1       847    3    0    1
 -2       892      1404      2056      2227
 -1       848    3    0    1
 -2       700       542      1012      1273
 -1       849    3    0    1
 -2       115       957      1289      2383
 -1       850    3    0    1
 -2      1885      3266      1488      1487
 -1       851    3    0    1
 -2       690       689      1003      2068
 -1       852    3    0    1
 -2       343       227       755      1032
 -1       853    3    0    1
 -2       419       367       663       995
 -1       854    3    0    1
 -2       201       713       718      1316
 -1       855    3    0    1
 -2       740       737      1029      1256
 -1       856    3    0    1
 -2       718       533       725      1020
 -1       857    3    0    1
 -2       466      1291       968       607
 -1       858    3    0    1
 -2       606       465       617       618
 -1       859    3    0    1
 -2       599       600       964      2105
 -1       860    3    0    1
 -2       984       523      1243      1299
 -1       861    3    0    1
 -2       485       572       949       951
 -1       862    3    0    1
 -2      2412      2429      3427      3729
 -1       863    3    0    1
 -2       516       627       635       978
 -1       864    3    0    1
 -2      1994       253      2080      2103
 -1       865    3    0    1
 -2       606        21       609      1153
 -1       866    3    0    1
 -2       714       534       717       726
 -1       867    3    0    1
 -2      3564      2580      3659      3358
 -1       868    3    0    1
 -2      2889      1601      1862      1863
 -1       869    3    0    1
 -2      1556      1555      1705      3036
 -1       870    3    0    1
 -2      2539      3506      3517      3663
 -1       871    3    0    1
 -2      2014      2022      2349      2372
 -1       872    3    0    1
 -2      1291       968       607      2397
 -1       873    3    0    1
 -2      1994       304      2043      2182
 -1       874    3    0    1
 -2        83        81       714      1261
 -1       875    3    0    1
 -2        70       209       731      1245
 -1       876    3    0    1
 -2       386      1066      1972      2045
 -1       877    3    0    1
 -2       385       381      1065      2284
 -1       878    3    0    1
 -2       723       714      1022      1261
 -1       879    3    0    1
 -2      1330       257      2175      2454
 -1       880    3    0    1
 -2      2044      2012      2065      2142
 -1       881    3    0    1
 -2      2019      1997      2053      2413
 -1       882    3    0    1
 -2      1041       391      2229      2263
 -1       883    3    0    1
 -2       228       757       749      1135
 -1       884    3    0    1
 -2      1316      2388      2471      3045
 -1       885    3    0    1
 -2       542       541       700       707
 -1       886    3    0    1
 -2       427      1004      3684      1944
 -1       887    3    0    1
 -2      2109      1343      2183      2345
 -1       888    3    0    1
 -2       481       510       788       929
 -1       889    3    0    1
 -2       514       515       751      1033
 -1       890    3    0    1
 -2        34      1171       552        95
 -1       891    3    0    1
 -2      1971       370      2018      2223
 -1       892    3    0    1
 -2       586      1163       906        25
 -1       893    3    0    1
 -2       121       360       591       960
 -1       894    3    0    1
 -2      2673      2852      3536      3576
 -1       895    3    0    1
 -2       611       969      1294      2138
 -1       896    3    0    1
 -2       588       488       599       600
 -1       897    3    0    1
 -2      2002      1400      2168      2200
 -1       898    3    0    1
 -2       464       454       645       654
 -1       899    3    0    1
 -2       140        67       628      1227
 -1       900    3    0    1
 -2      1291       904       609      1155
 -1       901    3    0    1
 -2      2827      1454      1716      1717
 -1       902    3    0    1
 -2       595       586       964      1953
 -1       903    3    0    1
 -2       515      1321      1034       751
 -1       904    3    0    1
 -2       645         6       652      1137
 -1       905    3    0    1
 -2      1485      1474      2763      2814
 -1       906    3    0    1
 -2       696      1265      1009       699
 -1       907    3    0    1
 -2       711       418      1016      1315
 -1       908    3    0    1
 -2       626      2280      2324      2385
 -1       909    3    0    1
 -2      2104      2192      2202      2463
 -1       910    3    0    1
 -2       453       461       749      1135
 -1       911    3    0    1
 -2       205      1275       207       729
 -1       912    3    0    1
 -2       732       734       937      1026
 -1       913    3    0    1
 -2       939      1315       711      1016
 -1       914    3    0    1
 -2       487       954       581       574
 -1       915    3    0    1
 -2       540      1303       539       662
 -1       916    3    0    1
 -2       695       700       707      1012
 -1       917    3    0    1
 -2       617       604       971       972
 -1       918    3    0    1
 -2       872      2129      1103       871
 -1       919    3    0    1
 -2       440      1356      2008      2078
 -1       920    3    0    1
 -2      2088      2028      2099      2346
 -1       921    3    0    1
 -2      2870      1678      3584      1894
 -1       922    3    0    1
 -2       392       314      1102      2086
 -1       923    3    0    1
 -2      1315       939       711      1278
 -1       924    3    0    1
 -2       228       749       755       902
 -1       925    3    0    1
 -2      2082       625      2130      2280
 -1       926    3    0    1
 -2       861      1376      1093      2147
 -1       927    3    0    1
 -2       992       661      2281      2326
 -1       928    3    0    1
 -2       168       998      2145      2337
 -1       929    3    0    1
 -2       383      2003      2014      2379
 -1       930    3    0    1
 -2       581       600      2447      3690
 -1       931    3    0    1
 -2      1785      1813       408       125
 -1       932    3    0    1
 -2       677       452       682      1133
 -1       933    3    0    1
 -2       551       477       556       910
 -1       934    3    0    1
 -2       635       636       980      2158
 -1       935    3    0    1
 -2      1083      2025      2058      2451
 -1       936    3    0    1
 -2      2027       277      2028      2267
 -1       937    3    0    1
 -2       172      1000      2172      2225
 -1       938    3    0    1
 -2      1475      1474      2898      3049
 -1       939    3    0    1
 -2      1973      2040      2264      2298
 -1       940    3    0    1
 -2      2447       600      2546      3690
 -1       941    3    0    1
 -2       408      1813      1814       125
 -1       942    3    0    1
 -2       558       449      2627      2924
 -1       943    3    0    1
 -2      1974       364      1982      2081
 -1       944    3    0    1
 -2       228       229       755      1219
 -1       945    3    0    1
 -2       547       548       912       942
 -1       946    3    0    1
 -2      2592      1489      1583      3226
 -1       947    3    0    1
 -2      1355      2017      2112      2334
 -1       948    3    0    1
 -2       682       452      1004      1133
 -1       949    3    0    1
 -2        46       820      1204      1207
 -1       950    3    0    1
 -2       366      2050      2089      2460
 -1       951    3    0    1
 -2       465       470       606      1153
 -1       952    3    0    1
 -2       768       511       779       780
 -1       953    3    0    1
 -2       568       473      2562      2796
 -1       954    3    0    1
 -2      1282       909       551      1168
 -1       955    3    0    1
 -2      2110      2159      2177      2235
 -1       956    3    0    1
 -2       132       604      1152      1161
 -1       957    3    0    1
 -2       478       551       947      1172
 -1       958    3    0    1
 -2       600       599       965      2447
 -1       959    3    0    1
 -2       566       104       950      1285
 -1       960    3    0    1
 -2      2479      2612      3416      3696
 -1       961    3    0    1
 -2       489       591       599       962
 -1       962    3    0    1
 -2        40        25       592       917
 -1       963    3    0    1
 -2       586       592       599       963
 -1       964    3    0    1
 -2      1974       364      2081      2374
 -1       965    3    0    1
 -2      1361       297      2373      2376
 -1       966    3    0    1
 -2      1284        94      3575      3648
 -1       967    3    0    1
 -2       584       959      1179      1288
 -1       968    3    0    1
 -2      3282      3682      3407      3701
 -1       969    3    0    1
 -2       971       617      2470      2485
 -1       970    3    0    1
 -2      1521      1537      2957      3339
 -1       971    3    0    1
 -2      2104      1373      2132      2203
 -1       972    3    0    1
 -2      1977      2072      2076      2394
 -1       973    3    0    1
 -2       116      1179       584      1176
 -1       974    3    0    1
 -2       708       707      1014      2316
 -1       975    3    0    1
 -2      2032      2063      2115      2217
 -1       976    3    0    1
 -2      1012       707      2216      2316
 -1       977    3    0    1
 -2       592       596       917       963
 -1       978    3    0    1
 -2      1360       847       848      2289
 -1       979    3    0    1
 -2      2989      2705      3260      3642
 -1       980    3    0    1
 -2      3293      3236      3670      3471
 -1       981    3    0    1
 -2       631        67       141      1244
 -1       982    3    0    1
 -2      1091      1374      2125      2137
 -1       983    3    0    1
 -2       633       624       981      1235
 -1       984    3    0    1
 -2      1987      2165      2287      2411
 -1       985    3    0    1
 -2       244        68       770      1247
 -1       986    3    0    1
 -2       606       615       905       973
 -1       987    3    0    1
 -2       212      1031      2361      2381
 -1       988    3    0    1
 -2       452       681      1003      1134
 -1       989    3    0    1
 -2      2047      2063      2224      2277
 -1       990    3    0    1
 -2      1281       912       547      1173
 -1       991    3    0    1
 -2       257      1054      1055      2335
 -1       992    3    0    1
 -2      1495      1496      2923      3076
 -1       993    3    0    1
 -2       551       563       564       947
 -1       994    3    0    1
 -2      2086      1104      2129      2148
 -1       995    3    0    1
 -2      1983      2039      2125      2366
 -1       996    3    0    1
 -2      2196       716      2198      2234
 -1       997    3    0    1
 -2       624       144       976      1295
 -1       998    3    0    1
 -2      2036      1980      2096      2132
 -1       999    3    0    1
 -2       532      1031       744       732
 -1      1000    3    0    1
 -2      2284       288      2426      2476
 -1      1001    3    0    1
 -2       441      2077      2120      2121
 -1      1002    3    0    1
 -2       465       470       604       618
 -1      1003    3    0    1
 -2      2087      1976      2102      2311
 -1      1004    3    0    1
 -2       620      1234       975      1229
 -1      1005    3    0    1
 -2       816      1063      1969      2453
 -1      1006    3    0    1
 -2      2070      2001      2299      2448
 -1      1007    3    0    1
 -2       213       394      1028      2466
 -1      1008    3    0    1
 -2      1780      1638      1781      3237
 -1      1009    3    0    1
 -2      2853      2923      3565      3401
 -1      1010    3    0    1
 -2       813        53       804      1214
 -1      1011    3    0    1
 -2       345      2175      2454      2483
 -1      1012    3    0    1
 -2      1124       359      1977      2076
 -1      1013    3    0    1
 -2      1081       847      2289      2368
 -1      1014    3    0    1
 -2       486       574       581       582
 -1      1015    3    0    1
 -2       573       570       951      1181
 -1      1016    3    0    1
 -2        67       622      1227      1244
 -1      1017    3    0    1
 -2       570       486       573       582
 -1      1018    3    0    1
 -2      2399      1019      2442      2482
 -1      1019    3    0    1
 -2      2004      2041      2101      2352
 -1      1020    3    0    1
 -2      1395       298       308      2111
 -1      1021    3    0    1
 -2       825       828      1070      1677
 -1      1022    3    0    1
 -2       439       332      3586      1861
 -1      1023    3    0    1
 -2      1360      2060      2166      2289
 -1      1024    3    0    1
 -2       489       591       962      1185
 -1      1025    3    0    1
 -2       486       569       574       582
 -1      1026    3    0    1
 -2       482      1179       959      1288
 -1      1027    3    0    1
 -2       302      1375       374      2313
 -1      1028    3    0    1
 -2       820       280      1070      1071
 -1      1029    3    0    1
 -2       411       407       610       966
 -1      1030    3    0    1
 -2      2929      3538      3002      3640
 -1      1031    3    0    1
 -2      2527      3527      2877      3606
 -1      1032    3    0    1
 -2       488       586       599       600
 -1      1033    3    0    1
 -2      2660      2730      3568      3639
 -1      1034    3    0    1
 -2       680       679      1001      2107
 -1      1035    3    0    1
 -2      3664      3610      3679      3718
 -1      1036    3    0    1
 -2       506       804       806      1213
 -1      1037    3    0    1
 -2       384       385      1065      2428
 -1      1038    3    0    1
 -2       470       973       618       606
 -1      1039    3    0    1
 -2       551       556       563       946
 -1      1040    3    0    1
 -2       747       746      1225      1322
 -1      1041    3    0    1
 -2       883      1115      2179      2191
 -1      1042    3    0    1
 -2       610       411       966      1293
 -1      1043    3    0    1
 -2      2122      2077      2139      2142
 -1      1044    3    0    1
 -2      2623       498      2781      3317
 -1      1045    3    0    1
 -2       293      1077      2006      2066
 -1      1046    3    0    1
 -2      1519      1810      3314      3408
 -1      1047    3    0    1
 -2      1012       707      2316      2365
 -1      1048    3    0    1
 -2      2687      2703      3553      3614
 -1      1049    3    0    1
 -2      2106      1405      2140      2144
 -1      1050    3    0    1
 -2      2127      1117      2433      2436
 -1      1051    3    0    1
 -2       675       674      1268      1307
 -1      1052    3    0    1
 -2       587       593       961      2512
 -1      1053    3    0    1
 -2      1290       969       605      2138
 -1      1054    3    0    1
 -2      1250      2897      1817      3310
 -1      1055    3    0    1
 -2      1295      2059      2160      2280
 -1      1056    3    0    1
 -2       587       593      1289      2220
 -1      1057    3    0    1
 -2      1307      1000       680      2107
 -1      1058    3    0    1
 -2       624        61       627      1228
 -1      1059    3    0    1
 -2        38       569       574      1184
 -1      1060    3    0    1
 -2       597       588       965      1186
 -1      1061    3    0    1
 -2       407       604       610       966
 -1      1062    3    0    1
 -2      2290      2285      3512      3628
 -1      1063    3    0    1
 -2       671       995      2339      2431
 -1      1064    3    0    1
 -2       277      1337      2267      2328
 -1      1065    3    0    1
 -2      1610      3103      3640      3334
 -1      1066    3    0    1
 -2       953       581       965      2461
 -1      1067    3    0    1
 -2      1061       267      1064      1969
 -1      1068    3    0    1
 -2       128       606       970       973
 -1      1069    3    0    1
 -2      1828      3198      3210      1883
 -1      1070    3    0    1
 -2       820        46       825       921
 -1      1071    3    0    1
 -2      1496      2923      3076      3401
 -1      1072    3    0    1
 -2      1543      3519      1675      3389
 -1      1073    3    0    1
 -2      2713      2926      2975      3123
 -1      1074    3    0    1
 -2       172       675       423      1307
 -1      1075    3    0    1
 -2       588      1178        36      1177
 -1      1076    3    0    1
 -2       118       115       592      1289
 -1      1077    3    0    1
 -2       639       984      1243      1299
 -1      1078    3    0    1
 -2      3670      3317      3380      3736
 -1      1079    3    0    1
 -2       109       357       956      2425
 -1      1080    3    0    1
 -2      1005       422      2068      2242
 -1      1081    3    0    1
 -2       988       653      2412      2507
 -1      1082    3    0    1
 -2       870       869      1101      2315
 -1      1083    3    0    1
 -2      2067       376      2165      2347
 -1      1084    3    0    1
 -2       646       650       988      1733
 -1      1085    3    0    1
 -2       329       196      2920      1875
 -1      1086    3    0    1
 -2       381       824      1065      1067
 -1      1087    3    0    1
 -2       672       671       998      2145
 -1      1088    3    0    1
 -2       465       604       617       618
 -1      1089    3    0    1
 -2       786      1051      1191      1328
 -1      1090    3    0    1
 -2       786      1051      1188      1191
 -1      1091    3    0    1
 -2      1402       883       890      2179
 -1      1092    3    0    1
 -2       608      1292      2210      2303
 -1      1093    3    0    1
 -2      1378       312      2093      2333
 -1      1094    3    0    1
 -2       551        93       556       946
 -1      1095    3    0    1
 -2      1420      2521      1913      3476
 -1      1096    3    0    1
 -2      2080      2069      2085      2164
 -1      1097    3    0    1
 -2      2664      1485      2903      3438
 -1      1098    3    0    1
 -2       488       489       592       917
 -1      1099    3    0    1
 -2       646       454       988      1136
 -1      1100    3    0    1
 -2       480       942       553       479
 -1      1101    3    0    1
 -2      2014      2003      2197      2414
 -1      1102    3    0    1
 -2       267       272       804      1064
 -1      1103    3    0    1
 -2      2253       166      2297      2339
 -1      1104    3    0    1
 -2       954       581      2417      3690
 -1      1105    3    0    1
 -2      1603       340      1604      3272
 -1      1106    3    0    1
 -2       866       865      2099      2346
 -1      1107    3    0    1
 -2      1362       315      1363      2104
 -1      1108    3    0    1
 -2       610       465       617       971
 -1      1109    3    0    1
 -2       506       507       803       816
 -1      1110    3    0    1
 -2      1530      1459      3536      3597
 -1      1111    3    0    1
 -2      2908      2674      3126      3127
 -1      1112    3    0    1
 -2       586       488       592       917
 -1      1113    3    0    1
 -2       570       486       956      1183
 -1      1114    3    0    1
 -2      2007      2025      2049      2094
 -1      1115    3    0    1
 -2       552       477       555       563
 -1      1116    3    0    1
 -2      1071      3508      1921      1922
 -1      1117    3    0    1
 -2       539      1302      1269       993
 -1      1118    3    0    1
 -2       809       506      1062      1212
 -1      1119    3    0    1
 -2       881      1404       892      2227
 -1      1120    3    0    1
 -2       198       714       717      1022
 -1      1121    3    0    1
 -2       497       496       769      1041
 -1      1122    3    0    1
 -2      1012       707      1013      2216
 -1      1123    3    0    1
 -2       714      1017      1279      1314
 -1      1124    3    0    1
 -2       821       501      1072      1206
 -1      1125    3    0    1
 -2      1289       957      2220      2383
 -1      1126    3    0    1
 -2       623       629      2189      2205
 -1      1127    3    0    1
 -2      1987      2038      2109      2165
 -1      1128    3    0    1
 -2       912      1281       942       479
 -1      1129    3    0    1
 -2      2254       387      2379      2401
 -1      1130    3    0    1
 -2       785       510       791       928
 -1      1131    3    0    1
 -2       912      1281       547       942
 -1      1132    3    0    1
 -2       227       336      3696      1930
 -1      1133    3    0    1
 -2       257       785       791      1330
 -1      1134    3    0    1
 -2       255        35       786       929
 -1      1135    3    0    1
 -2      1087       855      1085      2157
 -1      1136    3    0    1
 -2       749       227       755      1037
 -1      1137    3    0    1
 -2       100       566       567       914
 -1      1138    3    0    1
 -2       509      1058       805       508
 -1      1139    3    0    1
 -2       644       985      2133      2395
 -1      1140    3    0    1
 -2       340      1301      1712      3272
 -1      1141    3    0    1
 -2       731      1023      1251      1319
 -1      1142    3    0    1
 -2      2075      1996      2095      2193
 -1      1143    3    0    1
 -2       115       963       964      2105
 -1      1144    3    0    1
 -2       193      2079      2304      2316
 -1      1145    3    0    1
 -2      3287      3109      3647      3488
 -1      1146    3    0    1
 -2      3515      3091      3373      1456
 -1      1147    3    0    1
 -2      2821      1493      1763      1764
 -1      1148    3    0    1
 -2      2084       395      2128      2400
 -1      1149    3    0    1
 -2       489       488       592       599
 -1      1150    3    0    1
 -2       769      1325       771       496
 -1      1151    3    0    1
 -2      2159      1314      2177      2304
 -1      1152    3    0    1
 -2      1979       362      2104      2203
 -1      1153    3    0    1
 -2       370      2286      2294      2296
 -1      1154    3    0    1
 -2       961       593      2220      2290
 -1      1155    3    0    1
 -2      3622      3278      1881      3330
 -1      1156    3    0    1
 -2       516      1235       525       624
 -1      1157    3    0    1
 -2        41        42       785       928
 -1      1158    3    0    1
 -2       509      1058       508       927
 -1      1159    3    0    1
 -2      1374       299      1091      2366
 -1      1160    3    0    1
 -2      1975      1347      2066      2212
 -1      1161    3    0    1
 -2       586       115       592       963
 -1      1162    3    0    1
 -2      1810      1907      1908      3480
 -1      1163    3    0    1
 -2      1407       895      2120      2121
 -1      1164    3    0    1
 -2      1998      2086      2129      2149
 -1      1165    3    0    1
 -2       508      1217      1057       509
 -1      1166    3    0    1
 -2      2237       378      2268      2371
 -1      1167    3    0    1
 -2      2107       680      2188      2211
 -1      1168    3    0    1
 -2       370       369      1975      2286
 -1      1169    3    0    1
 -2       732       212       734      1026
 -1      1170    3    0    1
 -2       957       587      2220      2555
 -1      1171    3    0    1
 -2       481      1054       791       913
 -1      1172    3    0    1
 -2      2072       130      2073      2394
 -1      1173    3    0    1
 -2       791       794       913      1054
 -1      1174    3    0    1
 -2      2138       623      2189      2205
 -1      1175    3    0    1
 -2       381       821       824      1069
 -1      1176    3    0    1
 -2      2205      1298      2386      2584
 -1      1177    3    0    1
 -2      3232      1652      1936      1937
 -1      1178    3    0    1
 -2       695      1273       700        11
 -1      1179    3    0    1
 -2      1405       882      1113      2140
 -1      1180    3    0    1
 -2       687       678      1006      1131
 -1      1181    3    0    1
 -2       489       488       591      1185
 -1      1182    3    0    1
 -2       943       553       941      2371
 -1      1183    3    0    1
 -2       658       162       664       996
 -1      1184    3    0    1
 -2      1748       630      3316      3333
 -1      1185    3    0    1
 -2       774      1044       766      2708
 -1      1186    3    0    1
 -2      2883      3279      3637      3456
 -1      1187    3    0    1
 -2      1669      3242      1871      1872
 -1      1188    3    0    1
 -2       877      2111      2117      2260
 -1      1189    3    0    1
 -2      1302       993       661      2320
 -1      1190    3    0    1
 -2      1026       735      2309      2329
 -1      1191    3    0    1
 -2      1048       391      2398      2418
 -1      1192    3    0    1
 -2      2775      2952      3570      3438
 -1      1193    3    0    1
 -2      2500      2232      2766      3528
 -1      1194    3    0    1
 -2      2240      1008      2252      2266
 -1      1195    3    0    1
 -2      1643       763      1644      2836
 -1      1196    3    0    1
 -2      1978      1995      2072      2073
 -1      1197    3    0    1
 -2       510       785       791       798
 -1      1198    3    0    1
 -2      2052      2062      2227      2401
 -1      1199    3    0    1
 -2      1692       702      3145      3659
 -1      1200    3    0    1
 -2       320       295      2334      2451
 -1      1201    3    0    1
 -2       238      2149      2199      2277
 -1      1202    3    0    1
 -2       500       820       831       832
 -1      1203    3    0    1
 -2      1375       302      1094      2313
 -1      1204    3    0    1
 -2      2901      2736      3572      3674
 -1      1205    3    0    1
 -2       481       510       791       798
 -1      1206    3    0    1
 -2      1989      2146      2295      2325
 -1      1207    3    0    1
 -2       254       260       788      1051
 -1      1208    3    0    1
 -2       937       732      1024      1276
 -1      1209    3    0    1
 -2       452       451       678      1134
 -1      1210    3    0    1
 -2       361       970      2321      2409
 -1      1211    3    0    1
 -2      2031      1986      2091      2147
 -1      1212    3    0    1
 -2        93       352      2230      2689
 -1      1213    3    0    1
 -2      2373      1364      2376      2463
 -1      1214    3    0    1
 -2      1998      2095      2114      2119
 -1      1215    3    0    1
 -2       455       998       672       660
 -1      1216    3    0    1
 -2       461      1037       755       902
 -1      1217    3    0    1
 -2      2293      2215      2424      2426
 -1      1218    3    0    1
 -2       717       714      1017      1277
 -1      1219    3    0    1
 -2       187       429      2012      2044
 -1      1220    3    0    1
 -2       162       991      1304      2141
 -1      1221    3    0    1
 -2       692       184       693      1266
 -1      1222    3    0    1
 -2       953       112       956      2417
 -1      1223    3    0    1
 -2       191       706       699      1274
 -1      1224    3    0    1
 -2      2228      2491      2563      3546
 -1      1225    3    0    1
 -2       151       436      3666      3689
 -1      1226    3    0    1
 -2        50       803      1212      1215
 -1      1227    3    0    1
 -2      1015       712      2388      2498
 -1      1228    3    0    1
 -2       764       236      1042      1325
 -1      1229    3    0    1
 -2      2925      2707      3707      3730
 -1      1230    3    0    1
 -2      2777      2830      3201      3711
 -1      1231    3    0    1
 -2       387      1333      2045      2332
 -1      1232    3    0    1
 -2      1397       382       446      2097
 -1      1233    3    0    1
 -2       365      1350      1981      2015
 -1      1234    3    0    1
 -2       118       115      1289      2383
 -1      1235    3    0    1
 -2      1640      2800      1716      3122
 -1      1236    3    0    1
 -2       839       840      2066      2212
 -1      1237    3    0    1
 -2       466       607       608       967
 -1      1238    3    0    1
 -2      2949       720      1641      3060
 -1      1239    3    0    1
 -2      1625      1626      3192      3323
 -1      1240    3    0    1
 -2       510      1055       928       785
 -1      1241    3    0    1
 -2       378       552       941       943
 -1      1242    3    0    1
 -2       464       454       646      1136
 -1      1243    3    0    1
 -2      2755      3253      3369      3730
 -1      1244    3    0    1
 -2      1087      2039      2157      2366
 -1      1245    3    0    1
 -2      1637      1701      3112      3169
 -1      1246    3    0    1
 -2        72        17      1915      3461
 -1      1247    3    0    1
 -2       325      1079      1359      2173
 -1      1248    3    0    1
 -2       380       378       941      2248
 -1      1249    3    0    1
 -2       220      1033      1965      2300
 -1      1250    3    0    1
 -2      1350       300      1351      2015
 -1      1251    3    0    1
 -2       622      1232       931        67
 -1      1252    3    0    1
 -2       591       598       962      1185
 -1      1253    3    0    1
 -2       531       731      1245      1256
 -1      1254    3    0    1
 -2       696      1274        89       699
 -1      1255    3    0    1
 -2      1460      2823      2824      2889
 -1      1256    3    0    1
 -2      2538      2537      2593      3646
 -1      1257    3    0    1
 -2       998       168      2278      2337
 -1      1258    3    0    1
 -2      2031      2029      2147      2344
 -1      1259    3    0    1
 -2      2048       366      2050      2089
 -1      1260    3    0    1
 -2      1971       370      2294      2437
 -1      1261    3    0    1
 -2      2028       277      2067      2411
 -1      1262    3    0    1
 -2       767        45       773      1195
 -1      1263    3    0    1
 -2      1974      1980      2036      2081
 -1      1264    3    0    1
 -2       640        63       646      1239
 -1      1265    3    0    1
 -2       400       955      2356      2417
 -1      1266    3    0    1
 -2      1606      2823      2889      3336
 -1      1267    3    0    1
 -2       541      1014       708       696
 -1      1268    3    0    1
 -2      1086       365      1981      2207
 -1      1269    3    0    1
 -2      1056      2154      2335      2452
 -1      1270    3    0    1
 -2      1370       853       854      2058
 -1      1271    3    0    1
 -2      1081      1360      2166      2289
 -1      1272    3    0    1
 -2      1008       187      2071      2240
 -1      1273    3    0    1
 -2      1076      2000      2042      2136
 -1      1274    3    0    1
 -2      2287      2067      2347      2456
 -1      1275    3    0    1
 -2      1623      2943      3040      3046
 -1      1276    3    0    1
 -2       535      1265       536      1009
 -1      1277    3    0    1
 -2       589       590      1288      2306
 -1      1278    3    0    1
 -2       954       405      2370      2417
 -1      1279    3    0    1
 -2       481       788      1053      1175
 -1      1280    3    0    1
 -2       832       815      2415      2416
 -1      1281    3    0    1
 -2      2269      2018      2318      2481
 -1      1282    3    0    1
 -2       829       821      1072      1206
 -1      1283    3    0    1
 -2       441       431      2077      2121
 -1      1284    3    0    1
 -2      1317      2396      3602      3634
 -1      1285    3    0    1
 -2       803       811      1063      1215
 -1      1286    3    0    1
 -2        65       639      1240      1243
 -1      1287    3    0    1
 -2       517      1295      1230       976
 -1      1288    3    0    1
 -2       700       704      1012      1911
 -1      1289    3    0    1
 -2      2767      1491      2877      1685
 -1      1290    3    0    1
 -2       726       718      1020      1021
 -1      1291    3    0    1
 -2      2023      1976      2060      2092
 -1      1292    3    0    1
 -2       137       975      1296      1966
 -1      1293    3    0    1
 -2       804        53      1213      1214
 -1      1294    3    0    1
 -2        93       940      1282      2230
 -1      1295    3    0    1
 -2      2226       951      2318      2363
 -1      1296    3    0    1
 -2       482      1178       483       960
 -1      1297    3    0    1
 -2       517      1234       975      1296
 -1      1298    3    0    1
 -2      1986      2038      2165      2183
 -1      1299    3    0    1
 -2       429      1311      2235      2449
 -1      1300    3    0    1
 -2       571       484       572       949
 -1      1301    3    0    1
 -2      2010      2030      2057      2071
 -1      1302    3    0    1
 -2      1386      1103      2148      2358
 -1      1303    3    0    1
 -2      2771      2506      3533      2888
 -1      1304    3    0    1
 -2       786       795       929      1056
 -1      1305    3    0    1
 -2      1440      1441      1577      2837
 -1      1306    3    0    1
 -2       413       412       981      2321
 -1      1307    3    0    1
 -2      2185      2013      2228      2246
 -1      1308    3    0    1
 -2      2131      1982      2221      2279
 -1      1309    3    0    1
 -2       815       832      1061      2416
 -1      1310    3    0    1
 -2       693       692      1266      1311
 -1      1311    3    0    1
 -2      1298       986       647      2143
 -1      1312    3    0    1
 -2       582       581       956      2417
 -1      1313    3    0    1
 -2       967       467      1154      1156
 -1      1314    3    0    1
 -2      2003      2014      2379      2414
 -1      1315    3    0    1
 -2      2888      3024      3619      3285
 -1      1316    3    0    1
 -2        64       645       903      1137
 -1      1317    3    0    1
 -2      1999      2042      2115      2358
 -1      1318    3    0    1
 -2       803       270       809      1062
 -1      1319    3    0    1
 -2        53       813       274      1214
 -1      1320    3    0    1
 -2      1973      1992      2167      2168
 -1      1321    3    0    1
 -2       949       485       951      1181
 -1      1322    3    0    1
 -2      2091      2083      2344      2457
 -1      1323    3    0    1
 -2      2035      2017      2100      2112
 -1      1324    3    0    1
 -2       255       786      1188      1191
 -1      1325    3    0    1
 -2      2335      1054      2453      3697
 -1      1326    3    0    1
 -2      3608      3664      3719      3473
 -1      1327    3    0    1
 -2      2361       743      2467      2612
 -1      1328    3    0    1
 -2       574       581       582       954
 -1      1329    3    0    1
 -2      1981      2015      2081      2374
 -1      1330    3    0    1
 -2      3542      2658      3652      3692
 -1      1331    3    0    1
 -2      1378      2093      2114      2333
 -1      1332    3    0    1
 -2       660      1270       663         7
 -1      1333    3    0    1
 -2      1564      1734      1735      3224
 -1      1334    3    0    1
 -2      1317       730      2540      2588
 -1      1335    3    0    1
 -2      1001      2211      2271      2516
 -1      1336    3    0    1
 -2        22       132       604      1152
 -1      1337    3    0    1
 -2       614       610       971      1152
 -1      1338    3    0    1
 -2      2030      2071      2139      2240
 -1      1339    3    0    1
 -2       423      1307      2055      2188
 -1      1340    3    0    1
 -2      1436      3525      3583      3628
 -1      1341    3    0    1
 -2      1512      1603      1604      2932
 -1      1342    3    0    1
 -2       717       533       725       726
 -1      1343    3    0    1
 -2      2569      2512      2637      2960
 -1      1344    3    0    1
 -2      2713      2496      3555      2975
 -1      1345    3    0    1
 -2      1049       784      2175      2355
 -1      1346    3    0    1
 -2       214        76       734       937
 -1      1347    3    0    1
 -2       733      1026      1024       543
 -1      1348    3    0    1
 -2      2269       121      2391      2447
 -1      1349    3    0    1
 -2       989       416      3729      1963
 -1      1350    3    0    1
 -2       732       743      1028      1031
 -1      1351    3    0    1
 -2       527      1319      1251      1023
 -1      1352    3    0    1
 -2       555       552       563       945
 -1      1353    3    0    1
 -2      1353       843      2017      2112
 -1      1354    3    0    1
 -2       278       282       817      1208
 -1      1355    3    0    1
 -2      1056      1045      2154      2445
 -1      1356    3    0    1
 -2      3516      3571      3616      3635
 -1      1357    3    0    1
 -2       714       198      1017      1314
 -1      1358    3    0    1
 -2       671       995       998      2145
 -1      1359    3    0    1
 -2       226       435      3683      3720
 -1      1360    3    0    1
 -2      2673      2406      3536      3547
 -1      1361    3    0    1
 -2      1274       696        89       936
 -1      1362    3    0    1
 -2      1497      1498      1918      3465
 -1      1363    3    0    1
 -2      2801      1754      3639      3474
 -1      1364    3    0    1
 -2       187      2065      2139      2240
 -1      1365    3    0    1
 -2       588      1178       960       591
 -1      1366    3    0    1
 -2       678       174       681      1306
 -1      1367    3    0    1
 -2       375       942      1281      2347
 -1      1368    3    0    1
 -2        76       732       734       937
 -1      1369    3    0    1
 -2       174       678      1003      1006
 -1      1370    3    0    1
 -2      1140       660         7       898
 -1      1371    3    0    1
 -2      2011      1988      2083      2344
 -1      1372    3    0    1
 -2       456       663       995      1140
 -1      1373    3    0    1
 -2      1489       449      1490      2627
 -1      1374    3    0    1
 -2      2035      2008      2078      2113
 -1      1375    3    0    1
 -2      2009      2124      2152      2256
 -1      1376    3    0    1
 -2       982      1297      2386      2609
 -1      1377    3    0    1
 -2        21       606       609      1155
 -1      1378    3    0    1
 -2      1738      2727      3060      3710
 -1      1379    3    0    1
 -2      3564      2966      3678      3406
 -1      1380    3    0    1
 -2      2192      1995      2373      1978
 -1      1381    3    0    1
 -2       418       199      1970      2004
 -1      1382    3    0    1
 -2        85       181       678      1267
 -1      1383    3    0    1
 -2       540      1303      1271       539
 -1      1384    3    0    1
 -2      1975      1347      2212      2393
 -1      1385    3    0    1
 -2      1993      2003      2014      2164
 -1      1386    3    0    1
 -2       737       740      1029      1929
 -1      1387    3    0    1
 -2      1399       431       441      2121
 -1      1388    3    0    1
 -2      2698      2540      3531      3537
 -1      1389    3    0    1
 -2      2005       421      2024      2090
 -1      1390    3    0    1
 -2       328      2214      2365      2498
 -1      1391    3    0    1
 -2       717       724      1019      1259
 -1      1392    3    0    1
 -2       375      1281      2011      2251
 -1      1393    3    0    1
 -2       767      1246        45      1218
 -1      1394    3    0    1
 -2      2454       345      2335       257
 -1      1395    3    0    1
 -2      2030       423      2057      2071
 -1      1396    3    0    1
 -2       533       717      1019      1259
 -1      1397    3    0    1
 -2       584       369       959      1288
 -1      1398    3    0    1
 -2      2229      2263      2398      2419
 -1      1399    3    0    1
 -2       507       506       804       816
 -1      1400    3    0    1
 -2      1334       802       810      2258
 -1      1401    3    0    1
 -2      1049      1326      2504      3121
 -1      1402    3    0    1
 -2      3587      3520      3683      3724
 -1      1403    3    0    1
 -2       267       804      1061      1064
 -1      1404    3    0    1
 -2       768      1247       770       511
 -1      1405    3    0    1
 -2       788       481       797       798
 -1      1406    3    0    1
 -2       819       826      1335      2170
 -1      1407    3    0    1
 -2       552       478       948      1171
 -1      1408    3    0    1
 -2       237       242       773      1046
 -1      1409    3    0    1
 -2      2253       179      2271      2297
 -1      1410    3    0    1
 -2      2490      2664      2683      3543
 -1      1411    3    0    1
 -2      1001       426      2055      2211
 -1      1412    3    0    1
 -2       238      1968      1998      2149
 -1      1413    3    0    1
 -2       926       804      1057      1217
 -1      1414    3    0    1
 -2       510       786       788       929
 -1      1415    3    0    1
 -2      1991      2052      2056      2227
 -1      1416    3    0    1
 -2       691       702      2986      1798
 -1      1417    3    0    1
 -2        34       552       555       911
 -1      1418    3    0    1
 -2       628       516       979      1227
 -1      1419    3    0    1
 -2        33       547       548       912
 -1      1420    3    0    1
 -2       405       400       574      1286
 -1      1421    3    0    1
 -2       477      1172       910       551
 -1      1422    3    0    1
 -2       262      1051      2219      2238
 -1      1423    3    0    1
 -2      2033      2009      2041      2124
 -1      1424    3    0    1
 -2      1062       815      1969      2415
 -1      1425    3    0    1
 -2      2836      2567      3568      3705
 -1      1426    3    0    1
 -2       470       465       606       618
 -1      1427    3    0    1
 -2       963       599       964      2105
 -1      1428    3    0    1
 -2      1337      1972      2267      2328
 -1      1429    3    0    1
 -2       478       477       552       564
 -1      1430    3    0    1
 -2       552       477       563       564
 -1      1431    3    0    1
 -2       682       999      1150      1308
 -1      1432    3    0    1
 -2      2175      1049      2355      2504
 -1      1433    3    0    1
 -2      1041       496      1043      1196
 -1      1434    3    0    1
 -2      1289       118      2383      3521
 -1      1435    3    0    1
 -2       804       507      1064      1214
 -1      1436    3    0    1
 -2       424      1310      2055      2116
 -1      1437    3    0    1
 -2      1104       872      2129      2148
 -1      1438    3    0    1
 -2       237       767       773      1326
 -1      1439    3    0    1
 -2       451       677      1005      1132
 -1      1440    3    0    1
 -2      3560      1736      3623      3681
 -1      1441    3    0    1
 -2       659       991      1304      2559
 -1      1442    3    0    1
 -2      1374      2125      2137      2330
 -1      1443    3    0    1
 -2       728      1275       938       205
 -1      1444    3    0    1
 -2      2069      1994      2085      2182
 -1      1445    3    0    1
 -2      1404       881      1111      2227
 -1      1446    3    0    1
 -2       938      1318      1025       543
 -1      1447    3    0    1
 -2      1396       877       878      2117
 -1      1448    3    0    1
 -2        67       631       622      1244
 -1      1449    3    0    1
 -2      1999      2032      2063      2115
 -1      1450    3    0    1
 -2       664       456       996      1139
 -1      1451    3    0    1
 -2      2009      2033      2117      2310
 -1      1452    3    0    1
 -2      1994       351      2069      2080
 -1      1453    3    0    1
 -2        64       642       645      1242
 -1      1454    3    0    1
 -2      1123       302       374      2313
 -1      1455    3    0    1
 -2      2019       590      2306      2413
 -1      1456    3    0    1
 -2       773       526      1046      1246
 -1      1457    3    0    1
 -2       620      1234      1229        60
 -1      1458    3    0    1
 -2      3407      1478      3701      1959
 -1      1459    3    0    1
 -2      2037       420      2049      2190
 -1      1460    3    0    1
 -2      1295       412      2059      2082
 -1      1461    3    0    1
 -2      2101      1973      2181      2231
 -1      1462    3    0    1
 -2       380       378       552       941
 -1      1463    3    0    1
 -2       569       577       955      1184
 -1      1464    3    0    1
 -2      1307      1000      2107      2172
 -1      1465    3    0    1
 -2       360       121       591       962
 -1      1466    3    0    1
 -2      1590      1471      1591      2724
 -1      1467    3    0    1
 -2      1380       379      2338      2345
 -1      1468    3    0    1
 -2       489       963       592       917
 -1      1469    3    0    1
 -2       384       385      2428      2462
 -1      1470    3    0    1
 -2      3125      1479      3213      1862
 -1      1471    3    0    1
 -2       148        65       638      1240
 -1      1472    3    0    1
 -2      3563      3556      3632      3645
 -1      1473    3    0    1
 -2       627       624       976      1233
 -1      1474    3    0    1
 -2       516       627       978      1228
 -1      1475    3    0    1
 -2        61      1235      1228       624
 -1      1476    3    0    1
 -2       678        85       681      1134
 -1      1477    3    0    1
 -2       780      1048      2074      2408
 -1      1478    3    0    1
 -2      3533      2798      2881      3066
 -1      1479    3    0    1
 -2       467       968       608       466
 -1      1480    3    0    1
 -2       645       642       985      1242
 -1      1481    3    0    1
 -2      1989      2027      2028      2346
 -1      1482    3    0    1
 -2      3587      3720      3468      3497
 -1      1483    3    0    1
 -2       766      1040      2273      2355
 -1      1484    3    0    1
 -2      2490      3543      3570      3598
 -1      1485    3    0    1
 -2       604       465       610      1152
 -1      1486    3    0    1
 -2      1079       326      1984      2173
 -1      1487    3    0    1
 -2      1441      1440      2773      2837
 -1      1488    3    0    1
 -2        51      1768      1769      1805
 -1      1489    3    0    1
 -2       531       532       732       933
 -1      1490    3    0    1
 -2      1471      1591      2724      2832
 -1      1491    3    0    1
 -2      1521      1522      2712      2957
 -1      1492    3    0    1
 -2       653      2343      2412      2507
 -1      1493    3    0    1
 -2      1325       769       771      2364
 -1      1494    3    0    1
 -2       157       988       989      2507
 -1      1495    3    0    1
 -2       516       622       628       635
 -1      1496    3    0    1
 -2       989       988      2412      2507
 -1      1497    3    0    1
 -2      2048      1983      2050      2137
 -1      1498    3    0    1
 -2       624       516       627       635
 -1      1499    3    0    1
 -2      2026       416      2412      2507
 -1      1500    3    0    1
 -2       416       157       989      2507
 -1      1501    3    0    1
 -2      2569       907      3057      1162
 -1      1502    3    0    1
 -2      1985      1971      2294      2296
 -1      1503    3    0    1
 -2       622       409       628       979
 -1      1504    3    0    1
 -2      1345       837      1344      2042
 -1      1505    3    0    1
 -2       622       635       636       980
 -1      1506    3    0    1
 -2       410       411      3510      1924
 -1      1507    3    0    1
 -2       600       964      2546      3690
 -1      1508    3    0    1
 -2       525       622       636       980
 -1      1509    3    0    1
 -2       418      2051      2181      2196
 -1      1510    3    0    1
 -2       626      1296      2280      2385
 -1      1511    3    0    1
 -2      3416       227      3694      3696
 -1      1512    3    0    1
 -2       151      3579      3666      3692
 -1      1513    3    0    1
 -2      2244      2001      2357      2438
 -1      1514    3    0    1
 -2       311       358      1081      2166
 -1      1515    3    0    1
 -2      2581      3068      3111      3680
 -1      1516    3    0    1
 -2      3644      3053      3651      3489
 -1      1517    3    0    1
 -2       942       376      2067      2347
 -1      1518    3    0    1
 -2      2040      1973      2168      1992
 -1      1519    3    0    1
 -2       225      2032      2217      2224
 -1      1520    3    0    1
 -2       642       153       645       985
 -1      1521    3    0    1
 -2      2019      1997      2410      2474
 -1      1522    3    0    1
 -2       153       338       645       985
 -1      1523    3    0    1
 -2       617       618       972      2470
 -1      1524    3    0    1
 -2       162       996      2270      1723
 -1      1525    3    0    1
 -2      1094       861      1375      2147
 -1      1526    3    0    1
 -2       455       658       997      1138
 -1      1527    3    0    1
 -2       416       157       640       989
 -1      1528    3    0    1
 -2      2117      2111      2310      2336
 -1      1529    3    0    1
 -2      3554      1765      3594      3613
 -1      1530    3    0    1
 -2      1758       151      3666      3692
 -1      1531    3    0    1
 -2       422      1004      1005      2068
 -1      1532    3    0    1
 -2      1463      1462      1631      3383
 -1      1533    3    0    1
 -2       194       330      3502      1911
 -1      1534    3    0    1
 -2       220      1965      2305      2438
 -1      1535    3    0    1
 -2       646       454       653       988
 -1      1536    3    0    1
 -2        11      1142        12       700
 -1      1537    3    0    1
 -2       608      2303      2362      2397
 -1      1538    3    0    1
 -2      1526      1590      1591      2779
 -1      1539    3    0    1
 -2       957      2220      2383      2555
 -1      1540    3    0    1
 -2      2531      2660      2801      3551
 -1      1541    3    0    1
 -2      1293      2138      2204      2291
 -1      1542    3    0    1
 -2       658      1139       455       664
 -1      1543    3    0    1
 -2       162       658       664      1304
 -1      1544    3    0    1
 -2       452       677      1132      1133
 -1      1545    3    0    1
 -2      2052      1990      2056      2062
 -1      1546    3    0    1
 -2      1731      1730      3147      1822
 -1      1547    3    0    1
 -2      2012      1395      2111      2117
 -1      1548    3    0    1
 -2      1099       304       305      2043
 -1      1549    3    0    1
 -2       447       397      1117      2433
 -1      1550    3    0    1
 -2       645       652       987      1137
 -1      1551    3    0    1
 -2      1337       277      1972      2328
 -1      1552    3    0    1
 -2       153       642       645       990
 -1      1553    3    0    1
 -2       645       642       654       990
 -1      1554    3    0    1
 -2       338       153       645       990
 -1      1555    3    0    1
 -2       277      2028      2267      2411
 -1      1556    3    0    1
 -2      2281      1302      2320      2337
 -1      1557    3    0    1
 -2       351      2069      2080      2164
 -1      1558    3    0    1
 -2       569       574       582       955
 -1      1559    3    0    1
 -2      3553      2685      3590      3135
 -1      1560    3    0    1
 -2      1421      3220      3627      3326
 -1      1561    3    0    1
 -2       868      1383      2034      2093
 -1      1562    3    0    1
 -2      1296       975      2280      2385
 -1      1563    3    0    1
 -2       682       427       999      1308
 -1      1564    3    0    1
 -2      1422      1421      3220      3268
 -1      1565    3    0    1
 -2      1346      2042      2115      2136
 -1      1566    3    0    1
 -2      1973      2168      2200      2264
 -1      1567    3    0    1
 -2       238      1968      2149      2277
 -1      1568    3    0    1
 -2       367       419       663       993
 -1      1569    3    0    1
 -2       660       367       663       993
 -1      1570    3    0    1
 -2       446       382      1110      2123
 -1      1571    3    0    1
 -2       396       395      2084      2265
 -1      1572    3    0    1
 -2       213      1026      2309      2329
 -1      1573    3    0    1
 -2       656      1271        87       657
 -1      1574    3    0    1
 -2       539      1270       993      1269
 -1      1575    3    0    1
 -2       120       118      3688      1951
 -1      1576    3    0    1
 -2       589       958       960      2391
 -1      1577    3    0    1
 -2       668         9       664      1139
 -1      1578    3    0    1
 -2       259      2301      2445      2473
 -1      1579    3    0    1
 -2       953      2363      2417      2461
 -1      1580    3    0    1
 -2         3        18       677      1133
 -1      1581    3    0    1
 -2      1532      3512      2666      3555
 -1      1582    3    0    1
 -2      1509      1426      2822      2859
 -1      1583    3    0    1
 -2       944      1284      2282      3039
 -1      1584    3    0    1
 -2      2037      2054      2225      2350
 -1      1585    3    0    1
 -2      1635       565      1636      2892
 -1      1586    3    0    1
 -2       668       664       996      1139
 -1      1587    3    0    1
 -2      2128      1033      2262      2300
 -1      1588    3    0    1
 -2       454       645       987      1137
 -1      1589    3    0    1
 -2       455       658       672       997
 -1      1590    3    0    1
 -2       456       455       664       671
 -1      1591    3    0    1
 -2       455       456       663       671
 -1      1592    3    0    1
 -2      2359       388      2422      2432
 -1      1593    3    0    1
 -2      2215      2067      2293      2456
 -1      1594    3    0    1
 -2      2854      2785      3590      3164
 -1      1595    3    0    1
 -2       455       658       664       671
 -1      1596    3    0    1
 -2       563       551       946       947
 -1      1597    3    0    1
 -2       660       455       663       671
 -1      1598    3    0    1
 -2       199       711       418      1016
 -1      1599    3    0    1
 -2       664       456       671       996
 -1      1600    3    0    1
 -2       671       660       672       998
 -1      1601    3    0    1
 -2       658       671       672       997
 -1      1602    3    0    1
 -2       671       658       996       997
 -1      1603    3    0    1
 -2       541       542       699       707
 -1      1604    3    0    1
 -2       696      1265       699        89
 -1      1605    3    0    1
 -2       870      1101      2182      2315
 -1      1606    3    0    1
 -2       456       663       671       995
 -1      1607    3    0    1
 -2       714      1017      1277      1279
 -1      1608    3    0    1
 -2       157       416      1300      2026
 -1      1609    3    0    1
 -2      1486      1485      2664      2814
 -1      1610    3    0    1
 -2       711       710       939      1016
 -1      1611    3    0    1
 -2       965       600      2447      2461
 -1      1612    3    0    1
 -2       538       537       680      1000
 -1      1613    3    0    1
 -2       254       259      1056      2154
 -1      1614    3    0    1
 -2       677         3       682      1148
 -1      1615    3    0    1
 -2      2022      2014      2164      2372
 -1      1616    3    0    1
 -2      1195      1040      1197      2644
 -1      1617    3    0    1
 -2       208       210      1023      2479
 -1      1618    3    0    1
 -2       757       228       233      1135
 -1      1619    3    0    1
 -2       413       981      2259      2321
 -1      1620    3    0    1
 -2       656      1271       935        87
 -1      1621    3    0    1
 -2       362      1362      1979      2104
 -1      1622    3    0    1
 -2      1488      1487      3266      3452
 -1      1623    3    0    1
 -2       452       678       681      1134
 -1      1624    3    0    1
 -2       678       451      1131      1134
 -1      1625    3    0    1
 -2       537       679       680      1000
 -1      1626    3    0    1
 -2       736       727      1526      2933
 -1      1627    3    0    1
 -2       678       452       681       689
 -1      1628    3    0    1
 -2       704        12       700      1273
 -1      1629    3    0    1
 -2      3536      1305      1703      3603
 -1      1630    3    0    1
 -2       766      1044      2644      2708
 -1      1631    3    0    1
 -2       695      1273        11      1272
 -1      1632    3    0    1
 -2       677       682       999      1148
 -1      1633    3    0    1
 -2      1265       696      1009      1264
 -1      1634    3    0    1
 -2      2309       213      2329      2405
 -1      1635    3    0    1
 -2       163      3518      1732      1733
 -1      1636    3    0    1
 -2      2588      2995      3596      3647
 -1      1637    3    0    1
 -2      1048      1045      2375      2408
 -1      1638    3    0    1
 -2       452       677       682       689
 -1      1639    3    0    1
 -2       677       422      1004      1005
 -1      1640    3    0    1
 -2       451       452       678       689
 -1      1641    3    0    1
 -2       452       451       677       689
 -1      1642    3    0    1
 -2       677       422       682      1004
 -1      1643    3    0    1
 -2       677       682       689      1004
 -1      1644    3    0    1
 -2      2212      2066      2294      2296
 -1      1645    3    0    1
 -2        78       718      1258      1262
 -1      1646    3    0    1
 -2      1030       210      2479      2543
 -1      1647    3    0    1
 -2       999      2141      2242      3550
 -1      1648    3    0    1
 -2      2043      1994      2069      2080
 -1      1649    3    0    1
 -2       341       162       658       997
 -1      1650    3    0    1
 -2         4       224       752      1146
 -1      1651    3    0    1
 -2       172      1000      1307      2172
 -1      1652    3    0    1
 -2        12       704       190      1273
 -1      1653    3    0    1
 -2       566       567       914       950
 -1      1654    3    0    1
 -2       941      2248      2371      2378
 -1      1655    3    0    1
 -2       706       191       192      1274
 -1      1656    3    0    1
 -2       730      1319       738       527
 -1      1657    3    0    1
 -2       671       690      2297      2431
 -1      1658    3    0    1
 -2       938      1318       728      1025
 -1      1659    3    0    1
 -2       718       713      1144      1316
 -1      1660    3    0    1
 -2       541       695       707       708
 -1      1661    3    0    1
 -2      1109      1125      2346      2430
 -1      1662    3    0    1
 -2      1502      1503      1720      3129
 -1      1663    3    0    1
 -2      1051       789      2219      2238
 -1      1664    3    0    1
 -2      1318       938       728      1275
 -1      1665    3    0    1
 -2       236       238      1968      1998
 -1      1666    3    0    1
 -2       695      1142       700      1312
 -1      1667    3    0    1
 -2       372      2269      2363      2461
 -1      1668    3    0    1
 -2       361       412      2059      2321
 -1      1669    3    0    1
 -2      1515      1514      3168      3261
 -1      1670    3    0    1
 -2       728      1275       205       729
 -1      1671    3    0    1
 -2       535      1265      1009      1264
 -1      1672    3    0    1
 -2       835      1342       836      2183
 -1      1673    3    0    1
 -2       553       941      2215      2293
 -1      1674    3    0    1
 -2      2954       558      3286      3646
 -1      1675    3    0    1
 -2       888       885      2168      2200
 -1      1676    3    0    1
 -2       951       572      2226      2318
 -1      1677    3    0    1
 -2       527       528       730      1023
 -1      1678    3    0    1
 -2       542       699       707      1011
 -1      1679    3    0    1
 -2      1999      2063      2129      2148
 -1      1680    3    0    1
 -2       713       721      1021      1262
 -1      1681    3    0    1
 -2       189       330       700      1012
 -1      1682    3    0    1
 -2       461      1037       761       755
 -1      1683    3    0    1
 -2       934      1306      1001       537
 -1      1684    3    0    1
 -2      2709      1555      2918      3609
 -1      1685    3    0    1
 -2       784      1330       792      2531
 -1      1686    3    0    1
 -2      1553      3194      1877      3367
 -1      1687    3    0    1
 -2      1211       924      2710      3558
 -1      1688    3    0    1
 -2      1587      1562      2680      2789
 -1      1689    3    0    1
 -2       541       695       700       707
 -1      1690    3    0    1
 -2       219       223      1321      2233
 -1      1691    3    0    1
 -2       187       429      2044      2240
 -1      1692    3    0    1
 -2       696       541       699       707
 -1      1693    3    0    1
 -2       564       831      1070      2500
 -1      1694    3    0    1
 -2       276       279      1892      3712
 -1      1695    3    0    1
 -2      3040      2770      3637      3669
 -1      1696    3    0    1
 -2       425       696      1011      1014
 -1      1697    3    0    1
 -2       695       707       708      1013
 -1      1698    3    0    1
 -2       707       695      1012      1013
 -1      1699    3    0    1
 -2      1094       302      2147      2313
 -1      1700    3    0    1
 -2       423      2030      2113      2188
 -1      1701    3    0    1
 -2      2919      2621      3558      3609
 -1      1702    3    0    1
 -2        70       731      1249      1251
 -1      1703    3    0    1
 -2      1306       934       681      1267
 -1      1704    3    0    1
 -2      2040      2002      2200      2264
 -1      1705    3    0    1
 -2       749       461       755       902
 -1      1706    3    0    1
 -2      3599      3594      3270      3658
 -1      1707    3    0    1
 -2      3556      1779      3645      3660
 -1      1708    3    0    1
 -2       594       583      2858      1719
 -1      1709    3    0    1
 -2      2000      2032      2042      2136
 -1      1710    3    0    1
 -2      2146      2062      2295      2325
 -1      1711    3    0    1
 -2       429      2044      2240      2449
 -1      1712    3    0    1
 -2      2101      1973      2108      2167
 -1      1713    3    0    1
 -2      1995      2072      2073      2394
 -1      1714    3    0    1
 -2      1983      2048      2050      2089
 -1      1715    3    0    1
 -2       175      1001      2271      2516
 -1      1716    3    0    1
 -2       713        78       718      1144
 -1      1717    3    0    1
 -2        78       713       718      1262
 -1      1718    3    0    1
 -2       714       534       726      1022
 -1      1719    3    0    1
 -2       700       542       707      1012
 -1      1720    3    0    1
 -2       328       201       713      1021
 -1      1721    3    0    1
 -2       538       537      1000      1260
 -1      1722    3    0    1
 -2      2145       419      2320      2339
 -1      1723    3    0    1
 -2      1457      1458      1488      3417
 -1      1724    3    0    1
 -2       428       425       699      1011
 -1      1725    3    0    1
 -2       983       153       985      2395
 -1      1726    3    0    1
 -2       756       748      1035      2342
 -1      1727    3    0    1
 -2       883      1124       890      2179
 -1      1728    3    0    1
 -2      2966       684      3678      3406
 -1      1729    3    0    1
 -2       208       210       731      1023
 -1      1730    3    0    1
 -2       214        75       734      1257
 -1      1731    3    0    1
 -2      1095      1998      2114      2119
 -1      1732    3    0    1
 -2      2032      1999      2063      2224
 -1      1733    3    0    1
 -2       991      1300      2312      2503
 -1      1734    3    0    1
 -2       776       773      1046      1246
 -1      1735    3    0    1
 -2      3588      3592      3608      3437
 -1      1736    3    0    1
 -2       732       741       933      1031
 -1      1737    3    0    1
 -2       427       682      1004      1944
 -1      1738    3    0    1
 -2      1304      2141      2497      3550
 -1      1739    3    0    1
 -2       564      2135      2476      2500
 -1      1740    3    0    1
 -2      2673      2134      2734      3547
 -1      1741    3    0    1
 -2       564       947      2135      2500
 -1      1742    3    0    1
 -2      1280      1068      3664      3437
 -1      1743    3    0    1
 -2       632       628       979      1227
 -1      1744    3    0    1
 -2       957       906      1289      2512
 -1      1745    3    0    1
 -2      2423       831      2476      2500
 -1      1746    3    0    1
 -2       534       533       718      1258
 -1      1747    3    0    1
 -2       237       242      2408      2615
 -1      1748    3    0    1
 -2      2062      1990      2123      2325
 -1      1749    3    0    1
 -2       212       732      1028      1031
 -1      1750    3    0    1
 -2       713       328      1021      1912
 -1      1751    3    0    1
 -2      2063      2047      2199      2277
 -1      1752    3    0    1
 -2       288      1067      2284      2426
 -1      1753    3    0    1
 -2       717       714       726      1022
 -1      1754    3    0    1
 -2      2155      2006      2354      1985
 -1      1755    3    0    1
 -2       543      1276      1024       544
 -1      1756    3    0    1
 -2      1294       623      2138      2205
 -1      1757    3    0    1
 -2       421      1090      2024      2330
 -1      1758    3    0    1
 -2        83       714      1277      1279
 -1      1759    3    0    1
 -2       731        70       737      1251
 -1      1760    3    0    1
 -2       538      1001       680       537
 -1      1761    3    0    1
 -2      2070      2002      2084      2392
 -1      1762    3    0    1
 -2       733      1318       735       543
 -1      1763    3    0    1
 -2      2012       187      2044      2065
 -1      1764    3    0    1
 -2       536      1311      1266       535
 -1      1765    3    0    1
 -2       538      1307      1268      1000
 -1      1766    3    0    1
 -2      1539      1540      2675      3164
 -1      1767    3    0    1
 -2       732       937      1024      1026
 -1      1768    3    0    1
 -2       212       394       734      1026
 -1      1769    3    0    1
 -2      2179      1978      2373      2376
 -1      1770    3    0    1
 -2       762      1036      1039      2450
 -1      1771    3    0    1
 -2      3509      3506      3539      3687
 -1      1772    3    0    1
 -2       229       755      1219      1221
 -1      1773    3    0    1
 -2       946       563       947      2255
 -1      1774    3    0    1
 -2      2496      2713      2926      2975
 -1      1775    3    0    1
 -2       345      1049      2175      3529
 -1      1776    3    0    1
 -2       841      1078      2020      2184
 -1      1777    3    0    1
 -2      1996      2016      2093      2193
 -1      1778    3    0    1
 -2       531       734       743      1028
 -1      1779    3    0    1
 -2      3511      3512      3513      3514
 -1      1780    3    0    1
 -2       223       232      2233      2398
 -1      1781    3    0    1
 -2       546      1315       545      1278
 -1      1782    3    0    1
 -2      2809       736      2933      2950
 -1      1783    3    0    1
 -2      3406      3386      3695      3722
 -1      1784    3    0    1
 -2      2362       607      2410      2474
 -1      1785    3    0    1
 -2       855      1086      2157      2207
 -1      1786    3    0    1
 -2      1988      2029      2083      2344
 -1      1787    3    0    1
 -2       731       737       743      1029
 -1      1788    3    0    1
 -2      1104      1102      2086      2129
 -1      1789    3    0    1
 -2       568       944      1284      2282
 -1      1790    3    0    1
 -2       531       731       737       743
 -1      1791    3    0    1
 -2      2008      2078      2113      2120
 -1      1792    3    0    1
 -2      1483      1630      3612      3383
 -1      1793    3    0    1
 -2       732       531       734       743
 -1      1794    3    0    1
 -2      2858      1719      1720      3129
 -1      1795    3    0    1
 -2      3513      3511      3514      3548
 -1      1796    3    0    1
 -2      2194      1336      2258      2314
 -1      1797    3    0    1
 -2       731       208       737      1029
 -1      1798    3    0    1
 -2       985      2278      2384      2395
 -1      1799    3    0    1
 -2       731       743       744      1030
 -1      1800    3    0    1
 -2       743       731      1029      1030
 -1      1801    3    0    1
 -2      1385       869       870      2182
 -1      1802    3    0    1
 -2       186       184       692      1263
 -1      1803    3    0    1
 -2      1400       885       888      2200
 -1      1804    3    0    1
 -2       642        64       645       903
 -1      1805    3    0    1
 -2       955      3578      1796      1797
 -1      1806    3    0    1
 -2      1122       885      1119      2168
 -1      1807    3    0    1
 -2      1867       353      3679      3718
 -1      1808    3    0    1
 -2       464       642       645       903
 -1      1809    3    0    1
 -2       785        41       791      1193
 -1      1810    3    0    1
 -2        67       622       628      1227
 -1      1811    3    0    1
 -2      1294      1627      3538      1812
 -1      1812    3    0    1
 -2       387      1991      2379      2434
 -1      1813    3    0    1
 -2       243       245       770      1043
 -1      1814    3    0    1
 -2       751       514       753      1034
 -1      1815    3    0    1
 -2      1970       418      2004      2231
 -1      1816    3    0    1
 -2       826      1338      2170      2575
 -1      1817    3    0    1
 -2      1632      1633      3074      3100
 -1      1818    3    0    1
 -2      1325       920       764      1199
 -1      1819    3    0    1
 -2       747       221       222      1225
 -1      1820    3    0    1
 -2      2249       945      2268      2425
 -1      1821    3    0    1
 -2      1033       514      1223      1225
 -1      1822    3    0    1
 -2       568       557       944      2282
 -1      1823    3    0    1
 -2      2038      2109      2183      2345
 -1      1824    3    0    1
 -2       240       235       764       920
 -1      1825    3    0    1
 -2       630      1748      3024      3619
 -1      1826    3    0    1
 -2       755      1032      1219      1221
 -1      1827    3    0    1
 -2      1358       293       296      2156
 -1      1828    3    0    1
 -2       514       515      1033      1223
 -1      1829    3    0    1
 -2       388      1059      2422      2432
 -1      1830    3    0    1
 -2       464       990       654       642
 -1      1831    3    0    1
 -2      1664      1453      2967      3349
 -1      1832    3    0    1
 -2         4       750       752      1226
 -1      1833    3    0    1
 -2       514       751       753      1033
 -1      1834    3    0    1
 -2       755       758      1037      1958
 -1      1835    3    0    1
 -2       152        64       642       903
 -1      1836    3    0    1
 -2      1109      2295      2325      2430
 -1      1837    3    0    1
 -2       395       396      1025      2265
 -1      1838    3    0    1
 -2      2065      2044      2139      2240
 -1      1839    3    0    1
 -2       750       461       752       761
 -1      1840    3    0    1
 -2       650       646       988      1136
 -1      1841    3    0    1
 -2       446      1110      2097      2123
 -1      1842    3    0    1
 -2       461       749       755       761
 -1      1843    3    0    1
 -2       453       461       750       761
 -1      1844    3    0    1
 -2       461       453       749       761
 -1      1845    3    0    1
 -2       839      1349      1077      2066
 -1      1846    3    0    1
 -2      2674      1499      2908      3113
 -1      1847    3    0    1
 -2      3553      2703      3044      3590
 -1      1848    3    0    1
 -2       858       857      1089      2132
 -1      1849    3    0    1
 -2       749       227      1037      1038
 -1      1850    3    0    1
 -2      1573      1610      3296      3640
 -1      1851    3    0    1
 -2       407       411       610       971
 -1      1852    3    0    1
 -2       355      2248      2426      2476
 -1      1853    3    0    1
 -2       749       227      1038      1930
 -1      1854    3    0    1
 -2      3504      3574      3601      3660
 -1      1855    3    0    1
 -2       421      2005      2058      2090
 -1      1856    3    0    1
 -2      1583      1489      2868      3646
 -1      1857    3    0    1
 -2      2013      2185      2247      2407
 -1      1858    3    0    1
 -2      1323       756      2273      2342
 -1      1859    3    0    1
 -2       879      1401      1107      2150
 -1      1860    3    0    1
 -2        67      1232       140       628
 -1      1861    3    0    1
 -2      1383       867       868      2034
 -1      1862    3    0    1
 -2      1998      1379      2086      2119
 -1      1863    3    0    1
 -2      2153      1312      3399      3725
 -1      1864    3    0    1
 -2      1329       491      1050      1189
 -1      1865    3    0    1
 -2       157       156       646      1733
 -1      1866    3    0    1
 -2       697      2116      2252      2266
 -1      1867    3    0    1
 -2      1040       767      1195      1197
 -1      1868    3    0    1
 -2      2800      1454      1716      3122
 -1      1869    3    0    1
 -2       491      1328      1191       490
 -1      1870    3    0    1
 -2       511      1048       780       768
 -1      1871    3    0    1
 -2       496      1200      1196      1041
 -1      1872    3    0    1
 -2       749       228       755      1219
 -1      1873    3    0    1
 -2       497      1042       769       496
 -1      1874    3    0    1
 -2      2030      2055      2071      2266
 -1      1875    3    0    1
 -2       767       773       779      1046
 -1      1876    3    0    1
 -2       659       665      1304      2141
 -1      1877    3    0    1
 -2      2733      2899      3641      3654
 -1      1878    3    0    1
 -2       526       770       779      1045
 -1      1879    3    0    1
 -2      2006      1985      2066      2294
 -1      1880    3    0    1
 -2       149      2089      2213      2360
 -1      1881    3    0    1
 -2       770       778      1045      1247
 -1      1882    3    0    1
 -2      2035       172      2172      2225
 -1      1883    3    0    1
 -2      1389      2151      2299      2308
 -1      1884    3    0    1
 -2       526       511       773       779
 -1      1885    3    0    1
 -2       511       526       770       779
 -1      1886    3    0    1
 -2       311      1339       358      2166
 -1      1887    3    0    1
 -2       511       767       773       779
 -1      1888    3    0    1
 -2       768       511       770       779
 -1      1889    3    0    1
 -2      3191      1698      3294      1872
 -1      1890    3    0    1
 -2      2246      2288      2563      2931
 -1      1891    3    0    1
 -2      2023       126      2092      2394
 -1      1892    3    0    1
 -2       779       767      1046      1047
 -1      1893    3    0    1
 -2       767       237      1046      1047
 -1      1894    3    0    1
 -2      2003      1993      2014      2197
 -1      1895    3    0    1
 -2       767       237       773      1046
 -1      1896    3    0    1
 -2       511       767       780      1047
 -1      1897    3    0    1
 -2      2004      1970      2041      2124
 -1      1898    3    0    1
 -2      2091      1986      2165      2287
 -1      1899    3    0    1
 -2       623       974      1293      2204
 -1      1900    3    0    1
 -2       252       251       782      1190
 -1      1901    3    0    1
 -2       339       338       987      2278
 -1      1902    3    0    1
 -2      1468      3071      1808      3200
 -1      1903    3    0    1
 -2       183       422      3524      3550
 -1      1904    3    0    1
 -2       385       381       821      1065
 -1      1905    3    0    1
 -2       482      1179      1176       959
 -1      1906    3    0    1
 -2      1356      1353      2017      2078
 -1      1907    3    0    1
 -2       786       254       788      1051
 -1      1908    3    0    1
 -2      3619      3285      1899      3377
 -1      1909    3    0    1
 -2       927      1333      1058       508
 -1      1910    3    0    1
 -2      3511      2522      3548      3662
 -1      1911    3    0    1
 -2      1316       712       719      2388
 -1      1912    3    0    1
 -2      1320      1035       748      2342
 -1      1913    3    0    1
 -2       671       995      2145      2339
 -1      1914    3    0    1
 -2      1333       927       800      1216
 -1      1915    3    0    1
 -2       962      2275      2340      2421
 -1      1916    3    0    1
 -2       927      1333       800      1058
 -1      1917    3    0    1
 -2       803      1210       925        50
 -1      1918    3    0    1
 -2       441      1366      2077      2122
 -1      1919    3    0    1
 -2       326      1401      1984      2173
 -1      1920    3    0    1
 -2       428       193      1009      2209
 -1      1921    3    0    1
 -2       390       245      1045      2375
 -1      1922    3    0    1
 -2       510      1055       785       798
 -1      1923    3    0    1
 -2       227       343       755      1037
 -1      1924    3    0    1
 -2      1375       861      2031      2147
 -1      1925    3    0    1
 -2       804        53       806      1213
 -1      1926    3    0    1
 -2       800       383      1058      1333
 -1      1927    3    0    1
 -2       636       981      2158      2259
 -1      1928    3    0    1
 -2       767       775      1047      1218
 -1      1929    3    0    1
 -2       369       370      2306      2437
 -1      1930    3    0    1
 -2       506       806      1061      1213
 -1      1931    3    0    1
 -2       506      1214       804      1213
 -1      1932    3    0    1
 -2      1970       418      2181      2196
 -1      1933    3    0    1
 -2       635       654      2259      2412
 -1      1934    3    0    1
 -2       798       791      1054      1055
 -1      1935    3    0    1
 -2       785       791       798      1055
 -1      1936    3    0    1
 -2       791       797       798      1054
 -1      1937    3    0    1
 -2       254       786       788      1056
 -1      1938    3    0    1
 -2       788       786       798      1056
 -1      1939    3    0    1
 -2       260       254       788      1056
 -1      1940    3    0    1
 -2        55        53       806       926
 -1      1941    3    0    1
 -2       821       501       832      1072
 -1      1942    3    0    1
 -2      1967       366      2005      2098
 -1      1943    3    0    1
 -2      1334       270      2475      3728
 -1      1944    3    0    1
 -2       187      2065      2071      2139
 -1      1945    3    0    1
 -2       785       345      1055      1807
 -1      1946    3    0    1
 -2      3564      2643      3642      3722
 -1      1947    3    0    1
 -2      2073       137      2192      2202
 -1      1948    3    0    1
 -2       804       926      1057      1059
 -1      1949    3    0    1
 -2       396      2084      2264      2265
 -1      1950    3    0    1
 -2      1376       289      1986      2091
 -1      1951    3    0    1
 -2       804       806       926      1059
 -1      1952    3    0    1
 -2      1114       883      2179      2191
 -1      1953    3    0    1
 -2      2013      2222      2407      2501
 -1      1954    3    0    1
 -2       267       804      1057      1059
 -1      1955    3    0    1
 -2       260       788      1053      1056
 -1      1956    3    0    1
 -2        49       825       921      1202
 -1      1957    3    0    1
 -2      1440      1742      1743      3291
 -1      1958    3    0    1
 -2       629       623      1297      2665
 -1      1959    3    0    1
 -2       800       801       927      1058
 -1      1960    3    0    1
 -2      2415      3508      3425      3728
 -1      1961    3    0    1
 -2       311      1081      1360      2166
 -1      1962    3    0    1
 -2        46       820       825      1204
 -1      1963    3    0    1
 -2        50      1210        52       809
 -1      1964    3    0    1
 -2      2282       575      2458      2555
 -1      1965    3    0    1
 -2      1485      1551      1552      2903
 -1      1966    3    0    1
 -2      2273      2578      3392      3723
 -1      1967    3    0    1
 -2       353      1689      3592      3719
 -1      1968    3    0    1
 -2       166       419       995      2339
 -1      1969    3    0    1
 -2       267       804       806      1061
 -1      1970    3    0    1
 -2      1988      2150      2171      2178
 -1      1971    3    0    1
 -2       806       814      1061      1213
 -1      1972    3    0    1
 -2       835      1343      1340      2038
 -1      1973    3    0    1
 -2       803      1210       809      1334
 -1      1974    3    0    1
 -2       507       803       816      1063
 -1      1975    3    0    1
 -2      1345       838      2042      2115
 -1      1976    3    0    1
 -2       270       803       809      1334
 -1      1977    3    0    1
 -2       506       803       809       815
 -1      1978    3    0    1
 -2       625       626      2280      2324
 -1      1979    3    0    1
 -2       804       506       806       815
 -1      1980    3    0    1
 -2       500       824       831      1069
 -1      1981    3    0    1
 -2       289      1093      1376      1986
 -1      1982    3    0    1
 -2        48       821       824      1209
 -1      1983    3    0    1
 -2       803       815       816      1063
 -1      1984    3    0    1
 -2       815       803      1062      1063
 -1      1985    3    0    1
 -2       809       506       815      1062
 -1      1986    3    0    1
 -2      2019       607      2362      2474
 -1      1987    3    0    1
 -2       501       820      1071      1207
 -1      1988    3    0    1
 -2      1102      1998      2086      2129
 -1      1989    3    0    1
 -2       425      1009      1310      2209
 -1      1990    3    0    1
 -2       820       827      1071      1207
 -1      1991    3    0    1
 -2       821       500       831       832
 -1      1992    3    0    1
 -2       501       500       821       832
 -1      1993    3    0    1
 -2       824       922      1065      1067
 -1      1994    3    0    1
 -2       503      1066       822       502
 -1      1995    3    0    1
 -2      1393       875       876      2108
 -1      1996    3    0    1
 -2       733      1025      2195      2265
 -1      1997    3    0    1
 -2      1971       370      2223      2294
 -1      1998    3    0    1
 -2      1093      1376      1986      2147
 -1      1999    3    0    1
 -2       422       427      1004      2068
 -1      2000    3    0    1
 -2      2574      2686      3519      3545
 -1      2001    3    0    1
 -2       501       821      1205      1206
 -1      2002    3    0    1
 -2       500       824      1069      1205
 -1      2003    3    0    1
 -2       503      1067       922       502
 -1      2004    3    0    1
 -2       502      1067       823       822
 -1      2005    3    0    1
 -2      1054       798      1055      2335
 -1      2006    3    0    1
 -2      2107      1001      2211      2271
 -1      2007    3    0    1
 -2       179       174      1306      2271
 -1      2008    3    0    1
 -2       887      1407       895      2120
 -1      2009    3    0    1
 -2      2323      1981       149      2374
 -1      2010    3    0    1
 -2      1100       869      2182      2315
 -1      2011    3    0    1
 -2      2064      1979      2104      2132
 -1      2012    3    0    1
 -2       824       830      1069      1205
 -1      2013    3    0    1
 -2      1111       442      1404      2227
 -1      2014    3    0    1
 -2       825       500       831      1070
 -1      2015    3    0    1
 -2      2206       653      2343      2412
 -1      2016    3    0    1
 -2      1395       878      2111      2117
 -1      2017    3    0    1
 -2       821       500       824       831
 -1      2018    3    0    1
 -2       866       865      2088      2099
 -1      2019    3    0    1
 -2       500       820       825       831
 -1      2020    3    0    1
 -2      2041      2004      2124      2152
 -1      2021    3    0    1
 -2       238      1042      1968      2277
 -1      2022    3    0    1
 -2       280       285       825      1070
 -1      2023    3    0    1
 -2      1306       179      2253      2276
 -1      2024    3    0    1
 -2       625       975      2082      2130
 -1      2025    3    0    1
 -2      1854      1855      3261      3428
 -1      2026    3    0    1
 -2       696       425       699      1009
 -1      2027    3    0    1
 -2      2247      2586      3004      3601
 -1      2028    3    0    1
 -2       338       645       987       990
 -1      2029    3    0    1
 -2      2306       589      2391      2481
 -1      2030    3    0    1
 -2       351      1050      1329      2080
 -1      2031    3    0    1
 -2      1973      2040      2168      2264
 -1      2032    3    0    1
 -2       520      1296       517       626
 -1      2033    3    0    1
 -2       653       987       990      2206
 -1      2034    3    0    1
 -2       422       427       682      1004
 -1      2035    3    0    1
 -2       660       367       993      1302
 -1      2036    3    0    1
 -2      1339       833      2102      2187
 -1      2037    3    0    1
 -2      2128      1318      2329      2400
 -1      2038    3    0    1
 -2       640       646       654       989
 -1      2039    3    0    1
 -2       882      1113      2140      2341
 -1      2040    3    0    1
 -2      1541      2731      1643      1644
 -1      2041    3    0    1
 -2       622       409       979       980
 -1      2042    3    0    1
 -2      2055      2030      2188      2266
 -1      2043    3    0    1
 -2      1016       199      2110      2177
 -1      2044    3    0    1
 -2      2230       557      2282      2440
 -1      2045    3    0    1
 -2       237      3392      3698      3723
 -1      2046    3    0    1
 -2       855      1371      1086      2207
 -1      2047    3    0    1
 -2       588      1178       591        36
 -1      2048    3    0    1
 -2       689      1003      2068      2317
 -1      2049    3    0    1
 -2       179       166      2253      2276
 -1      2050    3    0    1
 -2      2176       368      2239      2382
 -1      2051    3    0    1
 -2      1987      2067      2165      2411
 -1      2052    3    0    1
 -2       453       749       762      1038
 -1      2053    3    0    1
 -2      2267      2067      2411      2456
 -1      2054    3    0    1
 -2       944        94      3592      3636
 -1      2055    3    0    1
 -2      3517      2626      3078      3101
 -1      2056    3    0    1
 -2      2045      1333      2236      2455
 -1      2057    3    0    1
 -2       208      1029      2361      2479
 -1      2058    3    0    1
 -2       656      1271       657      1303
 -1      2059    3    0    1
 -2      1333       805       807      2254
 -1      2060    3    0    1
 -2       995       367       998      2145
 -1      2061    3    0    1
 -2      2888      3533      3064      3377
 -1      2062    3    0    1
 -2      2110       199      2124      2126
 -1      2063    3    0    1
 -2       980      2158      2485      3510
 -1      2064    3    0    1
 -2      1333       807      2236      2455
 -1      2065    3    0    1
 -2       588       488       965      1186
 -1      2066    3    0    1
 -2      2011      2021      2382      2389
 -1      2067    3    0    1
 -2       488       586       600       964
 -1      2068    3    0    1
 -2       102       570       573       956
 -1      2069    3    0    1
 -2       627       634       978      1228
 -1      2070    3    0    1
 -2      1047      2408      2465      3698
 -1      2071    3    0    1
 -2       220      1965      2262      2300
 -1      2072    3    0    1
 -2       301      1089      1372      2180
 -1      2073    3    0    1
 -2       502      1337      1066       823
 -1      2074    3    0    1
 -2       126       967      2210      2307
 -1      2075    3    0    1
 -2      1102       314      1104      2086
 -1      2076    3    0    1
 -2         9       668        10      1139
 -1      2077    3    0    1
 -2       416       154      3424      3704
 -1      2078    3    0    1
 -2      1550      1549      2976      3019
 -1      2079    3    0    1
 -2       367       419       993      2320
 -1      2080    3    0    1
 -2      1398       886      2152      2256
 -1      2081    3    0    1
 -2       364       149      1981      2374
 -1      2082    3    0    1
 -2      1067       823       822      2424
 -1      2083    3    0    1
 -2        35       786       788      1188
 -1      2084    3    0    1
 -2       126       130      2092      2394
 -1      2085    3    0    1
 -2      1424      1569      3512      2666
 -1      2086    3    0    1
 -2       470       604       618       972
 -1      2087    3    0    1
 -2       330       189      1312      2390
 -1      2088    3    0    1
 -2       676       683       999      2243
 -1      2089    3    0    1
 -2       139       137      1966      1979
 -1      2090    3    0    1
 -2       995       419      2145      2339
 -1      2091    3    0    1
 -2       682       452       689      1004
 -1      2092    3    0    1
 -2       606       609      1155      1291
 -1      2093    3    0    1
 -2       259      1056      2154      2445
 -1      2094    3    0    1
 -2       407       411       971      2201
 -1      2095    3    0    1
 -2      2085      2106      2144      2182
 -1      2096    3    0    1
 -2       536      1311       535       698
 -1      2097    3    0    1
 -2       451       677       690      1005
 -1      2098    3    0    1
 -2      2057      2008      2120      2121
 -1      2099    3    0    1
 -2       689       677      1004      1005
 -1      2100    3    0    1
 -2       542       699      1011      1274
 -1      2101    3    0    1
 -2      2210       126      2307      2394
 -1      2102    3    0    1
 -2      2508      3566      3604      3713
 -1      2103    3    0    1
 -2      2047      1999      2063      2199
 -1      2104    3    0    1
 -2       886      1130      1398      2152
 -1      2105    3    0    1
 -2       356       285      3528      1677
 -1      2106    3    0    1
 -2      2042      2115      2136      2217
 -1      2107    3    0    1
 -2       658       162       996       997
 -1      2108    3    0    1
 -2      2185      2013      2247      2322
 -1      2109    3    0    1
 -2       366      1967      2050      2351
 -1      2110    3    0    1
 -2       662       661       993      2320
 -1      2111    3    0    1
 -2       296       293      2006      2156
 -1      2112    3    0    1
 -2       478       551       564       947
 -1      2113    3    0    1
 -2      2110      1311      2169      2235
 -1      2114    3    0    1
 -2      1356       843       844      2017
 -1      2115    3    0    1
 -2        22       604       610      1152
 -1      2116    3    0    1
 -2      1035      2873      3669      3734
 -1      2117    3    0    1
 -2      2178      2176      2239      2382
 -1      2118    3    0    1
 -2       185      1530      3597      3360
 -1      2119    3    0    1
 -2      2104      1979      2192      2463
 -1      2120    3    0    1
 -2      1029       743      1030      2361
 -1      2121    3    0    1
 -2       793       785       928      1055
 -1      2122    3    0    1
 -2       821       381       824      1065
 -1      2123    3    0    1
 -2      2008      1407      2120      2121
 -1      2124    3    0    1
 -2       940      1282      2230      2440
 -1      2125    3    0    1
 -2      2174      2095      2193      2302
 -1      2126    3    0    1
 -2       225      1322      2047      2224
 -1      2127    3    0    1
 -2       786       254      1051      1328
 -1      2128    3    0    1
 -2       367      2145      2320      2337
 -1      2129    3    0    1
 -2       694       701      1010      2556
 -1      2130    3    0    1
 -2       925      1334       803      1331
 -1      2131    3    0    1
 -2      2002      2084      2151      2264
 -1      2132    3    0    1
 -2      1466      1687      3584      3347
 -1      2133    3    0    1
 -2      1351      1350      2015      2184
 -1      2134    3    0    1
 -2       564       563       948      2135
 -1      2135    3    0    1
 -2      2069      2085      2164      2197
 -1      2136    3    0    1
 -2       665       676       999      2141
 -1      2137    3    0    1
 -2       629       623       977      2205
 -1      2138    3    0    1
 -2        53        55       806      1213
 -1      2139    3    0    1
 -2       364      1974      1982      2279
 -1      2140    3    0    1
 -2       975      1296      1966      2385
 -1      2141    3    0    1
 -2       803       809       815      1062
 -1      2142    3    0    1
 -2       253      2075      2427      2477
 -1      2143    3    0    1
 -2      1295       625      2280      2324
 -1      2144    3    0    1
 -2      2014      2080      2085      2164
 -1      2145    3    0    1
 -2       418       199      1016      1970
 -1      2146    3    0    1
 -2       348       270       803      1063
 -1      2147    3    0    1
 -2       975      1966      2130      2280
 -1      2148    3    0    1
 -2      1065      2236      2359      2428
 -1      2149    3    0    1
 -2      1966       139      2064      2096
 -1      2150    3    0    1
 -2      2043      1994      2103      2186
 -1      2151    3    0    1
 -2       711       199       710      1016
 -1      2152    3    0    1
 -2       643       644      1299      2133
 -1      2153    3    0    1
 -2       228       749       902      1135
 -1      2154    3    0    1
 -2      2846      3134      3687      3413
 -1      2155    3    0    1
 -2       802      1331      2257      2258
 -1      2156    3    0    1
 -2      2063      1999      2129      2199
 -1      2157    3    0    1
 -2       604       407       971       972
 -1      2158    3    0    1
 -2       746      1033      1225      1322
 -1      2159    3    0    1
 -2      3298      3333      3462      3730
 -1      2160    3    0    1
 -2      1373       857       858      2203
 -1      2161    3    0    1
 -2       713       718       726      1021
 -1      2162    3    0    1
 -2      1970      1315      2196      2380
 -1      2163    3    0    1
 -2       999      2141      2208      2242
 -1      2164    3    0    1
 -2      2016      2043      2080      2103
 -1      2165    3    0    1
 -2       623       611      2138      2204
 -1      2166    3    0    1
 -2      2118       368      2354      2382
 -1      2167    3    0    1
 -2       641       977      1298      2205
 -1      2168    3    0    1
 -2      1440      1743      3165      3291
 -1      2169    3    0    1
 -2       946       563      2255      2601
 -1      2170    3    0    1
 -2      1348       839      1347      2212
 -1      2171    3    0    1
 -2       418      1970      2181      2231
 -1      2172    3    0    1
 -2       995      2297      2339      2431
 -1      2173    3    0    1
 -2      2511      2250      3520      3711
 -1      2174    3    0    1
 -2       139       137      1296      1966
 -1      2175    3    0    1
 -2      2095      1996      2114      2193
 -1      2176    3    0    1
 -2       368      2226      2354      2382
 -1      2177    3    0    1
 -2      1976      2087      2245      2311
 -1      2178    3    0    1
 -2      1972      2045      2236      2455
 -1      2179    3    0    1
 -2      1090      2005      2024      2330
 -1      2180    3    0    1
 -2       367       168       998      2145
 -1      2181    3    0    1
 -2      2036      1974      2081      2184
 -1      2182    3    0    1
 -2      1355       843      1354      2112
 -1      2183    3    0    1
 -2       803       270      1062      1063
 -1      2184    3    0    1
 -2      1070       831      2423      2500
 -1      2185    3    0    1
 -2      2097      2062      2123      2295
 -1      2186    3    0    1
 -2       780      1047      2408      2465
 -1      2187    3    0    1
 -2      2072      1995      2191      2394
 -1      2188    3    0    1
 -2      1008       697      2252      2266
 -1      2189    3    0    1
 -2       413       144      2160      2259
 -1      2190    3    0    1
 -2      1105      1389      2151      2299
 -1      2191    3    0    1
 -2      1979      2104      2132      2203
 -1      2192    3    0    1
 -2      1321      1034       751      2233
 -1      2193    3    0    1
 -2       641       629       977      2205
 -1      2194    3    0    1
 -2      1285      2226      2318      2354
 -1      2195    3    0    1
 -2      1998       238      2149      2199
 -1      2196    3    0    1
 -2      1965       225      2224      2272
 -1      2197    3    0    1
 -2      1783      3082      3321      3705
 -1      2198    3    0    1
 -2      3544      3519      3633      3661
 -1      2199    3    0    1
 -2      2187      2102      2393      2472
 -1      2200    3    0    1
 -2      2655      2687      3553      3607
 -1      2201    3    0    1
 -2      2893       576      1721      3063
 -1      2202    3    0    1
 -2         3       682      1148      1150
 -1      2203    3    0    1
 -2         4       759       230       897
 -1      2204    3    0    1
 -2       759         4       750       897
 -1      2205    3    0    1
 -2         7      1140       161       663
 -1      2206    3    0    1
 -2         7       669       167       898
 -1      2207    3    0    1
 -2       669         7       660       898
 -1      2208    3    0    1
 -2      3570      3079      2842      2820
 -1      2209    3    0    1
 -2      2703      2828      3044      1159
 -1      2210    3    0    1
 -2      1310       697      2116      2252
 -1      2211    3    0    1
 -2       695      1142        11       700
 -1      2212    3    0    1
 -2       343       342      3698      3723
 -1      2213    3    0    1
 -2      1521      1537      1538      2957
 -1      2214    3    0    1
 -2      2167      1119      2168      2274
 -1      2215    3    0    1
 -2        16       755       758       902
 -1      2216    3    0    1
 -2        16       229       755       902
 -1      2217    3    0    1
 -2       152       651       158       903
 -1      2218    3    0    1
 -2       651       152       642       903
 -1      2219    3    0    1
 -2       603        20       127      1156
 -1      2220    3    0    1
 -2       467       968       466       904
 -1      2221    3    0    1
 -2       467       466       967      1154
 -1      2222    3    0    1
 -2       133       615       134       905
 -1      2223    3    0    1
 -2       615       133       606       905
 -1      2224    3    0    1
 -2       505      1211      2594      2641
 -1      2225    3    0    1
 -2      2816      2537      3274      3654
 -1      2226    3    0    1
 -2      2232       352      2255      2689
 -1      2227    3    0    1
 -2       586      1163        25       592
 -1      2228    3    0    1
 -2      1292       967       608      2362
 -1      2229    3    0    1
 -2      2072      1978      2179      2191
 -1      2230    3    0    1
 -2       348      1331      2261      3733
 -1      2231    3    0    1
 -2       569        38       574      1166
 -1      2232    3    0    1
 -2       279      1336      3627      1890
 -1      2233    3    0    1
 -2      2106      1101      2144      2182
 -1      2234    3    0    1
 -2      1079      1984      2155      2173
 -1      2235    3    0    1
 -2        31      1172       551       910
 -1      2236    3    0    1
 -2        31      1172        92       551
 -1      2237    3    0    1
 -2        31       560        96       910
 -1      2238    3    0    1
 -2       560        31       556       910
 -1      2239    3    0    1
 -2      1089       857      1372      2132
 -1      2240    3    0    1
 -2       911       552       941      1174
 -1      2241    3    0    1
 -2        33      1173        91       547
 -1      2242    3    0    1
 -2      2219      2238      2349      2486
 -1      2243    3    0    1
 -2      1976      2023      2060      2245
 -1      2244    3    0    1
 -2        41       794       256       913
 -1      2245    3    0    1
 -2       794        41       791       913
 -1      2246    3    0    1
 -2       570       103       573      1183
 -1      2247    3    0    1
 -2       486       569       955      1184
 -1      2248    3    0    1
 -2       573       110       580       915
 -1      2249    3    0    1
 -2       111       110       573       915
 -1      2250    3    0    1
 -2       105       578       107       916
 -1      2251    3    0    1
 -2       578       105       574       916
 -1      2252    3    0    1
 -2        25       586       592       917
 -1      2253    3    0    1
 -2        40       596       123       917
 -1      2254    3    0    1
 -2       596        40       592       917
 -1      2255    3    0    1
 -2       346      1675      3551      3635
 -1      2256    3    0    1
 -2      3018      2677      3130      3691
 -1      2257    3    0    1
 -2       235       764       920      1199
 -1      2258    3    0    1
 -2       920      1325      1042       496
 -1      2259    3    0    1
 -2       767      1040      1195      1326
 -1      2260    3    0    1
 -2       768      1041      1196      1200
 -1      2261    3    0    1
 -2       497      1042       496       920
 -1      2262    3    0    1
 -2      2961      2738      3566      3087
 -1      2263    3    0    1
 -2      2369      2661      3529      3530
 -1      2264    3    0    1
 -2      2369      1046      3530      1806
 -1      2265    3    0    1
 -2       371       953       965      2461
 -1      2266    3    0    1
 -2       803      1210        50       809
 -1      2267    3    0    1
 -2      1998      2086      2149      2174
 -1      2268    3    0    1
 -2       922       824      1065      1209
 -1      2269    3    0    1
 -2       824       821      1065      1209
 -1      2270    3    0    1
 -2       503      1066       502       923
 -1      2271    3    0    1
 -2        52        50       809      1212
 -1      2272    3    0    1
 -2       812       809      1062      1212
 -1      2273    3    0    1
 -2       511       767      1047      1218
 -1      2274    3    0    1
 -2       270       348       803      1331
 -1      2275    3    0    1
 -2        41       791       913       928
 -1      2276    3    0    1
 -2        41       785       791       928
 -1      2277    3    0    1
 -2       793        42        57       928
 -1      2278    3    0    1
 -2        42       793       785       928
 -1      2279    3    0    1
 -2       255       795       258       929
 -1      2280    3    0    1
 -2       795       255       786       929
 -1      2281    3    0    1
 -2       239      1247       244       770
 -1      2282    3    0    1
 -2       239       777       249       930
 -1      2283    3    0    1
 -2       777       239       768       930
 -1      2284    3    0    1
 -2       624        61      1230      1233
 -1      2285    3    0    1
 -2        61       624       627      1233
 -1      2286    3    0    1
 -2       622      1232        67       628
 -1      2287    3    0    1
 -2      1087       318      2125      2366
 -1      2288    3    0    1
 -2      1257       732       531       734
 -1      2289    3    0    1
 -2        76      1257       214       734
 -1      2290    3    0    1
 -2        76       741       211       933
 -1      2291    3    0    1
 -2       741        76       732       933
 -1      2292    3    0    1
 -2       675        84        86      1268
 -1      2293    3    0    1
 -2       538      1001       537       934
 -1      2294    3    0    1
 -2       695       703      1013      1272
 -1      2295    3    0    1
 -2        87      1271       160       657
 -1      2296    3    0    1
 -2        89      1274       191       699
 -1      2297    3    0    1
 -2        89       705       195       936
 -1      2298    3    0    1
 -2       705        89       696       936
 -1      2299    3    0    1
 -2       201       328       713      1316
 -1      2300    3    0    1
 -2       544      1025       543       938
 -1      2301    3    0    1
 -2       710        90       711       939
 -1      2302    3    0    1
 -2       546      1314      1279       545
 -1      2303    3    0    1
 -2       293      1358      1357      2156
 -1      2304    3    0    1
 -2      1011       726      1022      2079
 -1      2305    3    0    1
 -2      1292       608      2210      2362
 -1      2306    3    0    1
 -2      1371       855       856      2207
 -1      2307    3    0    1
 -2      2009      2033      2110      2126
 -1      2308    3    0    1
 -2      1532      1287      3512      3041
 -1      2309    3    0    1
 -2      1966       139      1979      2064
 -1      2310    3    0    1
 -2      2052       387      2401      2434
 -1      2311    3    0    1
 -2      2055      2188      2211      2266
 -1      2312    3    0    1
 -2      1557      1614      1615      2839
 -1      2313    3    0    1
 -2      3544      3519      3545      3633
 -1      2314    3    0    1
 -2      1067       503      1065       822
 -1      2315    3    0    1
 -2      2828      3044      3083      3590
 -1      2316    3    0    1
 -2       553       943       941       479
 -1      2317    3    0    1
 -2       480       479       553       941
 -1      2318    3    0    1
 -2      2000      2032      2136      2217
 -1      2319    3    0    1
 -2       479      1174       911       941
 -1      2320    3    0    1
 -2       375       548       547       942
 -1      2321    3    0    1
 -2       878       877      2111      2117
 -1      2322    3    0    1
 -2        33      1173       547       912
 -1      2323    3    0    1
 -2       553       943       479       554
 -1      2324    3    0    1
 -2      2664      2683      3543      2903
 -1      2325    3    0    1
 -2       275       272      1057      2480
 -1      2326    3    0    1
 -2      2693      2666      3041      3393
 -1      2327    3    0    1
 -2      2018      1971      2223      2318
 -1      2328    3    0    1
 -2       802      1334       810      2594
 -1      2329    3    0    1
 -2       372      2269      2318      2363
 -1      2330    3    0    1
 -2      1338       826      2440      2575
 -1      2331    3    0    1
 -2       563       564       947      2255
 -1      2332    3    0    1
 -2      2020      1980      2036      2180
 -1      2333    3    0    1
 -2       111       103       573      1181
 -1      2334    3    0    1
 -2       357       555       562       945
 -1      2335    3    0    1
 -2       357       378       555       945
 -1      2336    3    0    1
 -2       955       400      3578      1797
 -1      2337    3    0    1
 -2       577       569       955      1797
 -1      2338    3    0    1
 -2      2017      2035      2078      2112
 -1      2339    3    0    1
 -2       501       820       832      1071
 -1      2340    3    0    1
 -2      2018       959      2437      2481
 -1      2341    3    0    1
 -2       352        93       551       947
 -1      2342    3    0    1
 -2       551        93       946       947
 -1      2343    3    0    1
 -2       354       356      3528      1677
 -1      2344    3    0    1
 -2       354      3528      1676      1677
 -1      2345    3    0    1
 -2      3528      1070      1676      1677
 -1      2346    3    0    1
 -2       820       831       832      1071
 -1      2347    3    0    1
 -2       831       820      1070      1071
 -1      2348    3    0    1
 -2      2012      1368      2122      2142
 -1      2349    3    0    1
 -2       552       563       945       948
 -1      2350    3    0    1
 -2       563       552       564       948
 -1      2351    3    0    1
 -2       378       552       945       948
 -1      2352    3    0    1
 -2       378       380       552       948
 -1      2353    3    0    1
 -2       552       355       561       948
 -1      2354    3    0    1
 -2       380       355       552       948
 -1      2355    3    0    1
 -2       484       485       572       949
 -1      2356    3    0    1
 -2      2067      2165      2287      2347
 -1      2357    3    0    1
 -2      1980      2020      2036      2081
 -1      2358    3    0    1
 -2        38       105       574      1166
 -1      2359    3    0    1
 -2       104       567       566       950
 -1      2360    3    0    1
 -2       780       761      1037      2465
 -1      2361    3    0    1
 -2      1004       689      1005      2068
 -1      2362    3    0    1
 -2       102       570       949       951
 -1      2363    3    0    1
 -2       308       298      2012      2111
 -1      2364    3    0    1
 -2       580       573       915       953
 -1      2365    3    0    1
 -2      1296       626      2131      2385
 -1      2366    3    0    1
 -2       851      1366      2122      2142
 -1      2367    3    0    1
 -2      1967      2024      2048      2050
 -1      2368    3    0    1
 -2       112       580       372       953
 -1      2369    3    0    1
 -2       580       112       573       953
 -1      2370    3    0    1
 -2      1810      1811      3314      3480
 -1      2371    3    0    1
 -2       811       803      1063      1955
 -1      2372    3    0    1
 -2       605      1290      2138      2290
 -1      2373    3    0    1
 -2       121       588       962       965
 -1      2374    3    0    1
 -2      2267      2215      2293      2456
 -1      2375    3    0    1
 -2      2485      2158      2585      3510
 -1      2376    3    0    1
 -2       980      2585      3510      1923
 -1      2377    3    0    1
 -2       386      1066      1337      1972
 -1      2378    3    0    1
 -2       400       405       574       955
 -1      2379    3    0    1
 -2       574       405       954       955
 -1      2380    3    0    1
 -2      2650      3677      3691      3442
 -1      2381    3    0    1
 -2      3229      3527      3325      3680
 -1      2382    3    0    1
 -2       112       102       573       956
 -1      2383    3    0    1
 -2       112       573       953       956
 -1      2384    3    0    1
 -2       953       573       581       956
 -1      2385    3    0    1
 -2       581       573       582       956
 -1      2386    3    0    1
 -2       579       102       109       956
 -1      2387    3    0    1
 -2       102       579       570       956
 -1      2388    3    0    1
 -2       659       647      1301      2143
 -1      2389    3    0    1
 -2      2012      2044      2111      2142
 -1      2390    3    0    1
 -2      2482      2442      2543      3526
 -1      2391    3    0    1
 -2       219       223      2233      2450
 -1      2392    3    0    1
 -2      2165       376      2287      2347
 -1      2393    3    0    1
 -2      1471      1472      1590      2944
 -1      2394    3    0    1
 -2      1302       661      2281      2320
 -1      2395    3    0    1
 -2       585       369       370       959
 -1      2396    3    0    1
 -2       369       585       584       959
 -1      2397    3    0    1
 -2       679      1306      2253      2276
 -1      2398    3    0    1
 -2       483      1288      1179       482
 -1      2399    3    0    1
 -2      1998       236      2095      2174
 -1      2400    3    0    1
 -2      2015      1981      2213      2323
 -1      2401    3    0    1
 -2       589       482       590       960
 -1      2402    3    0    1
 -2       861      1093      2031      2147
 -1      2403    3    0    1
 -2       121       588       958       960
 -1      2404    3    0    1
 -2       482       589       958       960
 -1      2405    3    0    1
 -2      2160       413      2259      2321
 -1      2406    3    0    1
 -2       121       588       591       962
 -1      2407    3    0    1
 -2       591       588       599       962
 -1      2408    3    0    1
 -2       599       963      2421      2605
 -1      2409    3    0    1
 -2       360       598       402       962
 -1      2410    3    0    1
 -2       598       360       591       962
 -1      2411    3    0    1
 -2      1330      1049       784      2175
 -1      2412    3    0    1
 -2       606       618       970       973
 -1      2413    3    0    1
 -2      3573      2931      3105      3608
 -1      2414    3    0    1
 -2       599       586       963       964
 -1      2415    3    0    1
 -2       586       599       600       964
 -1      2416    3    0    1
 -2       405       954      3690      1954
 -1      2417    3    0    1
 -2      3690       954      1953      1954
 -1      2418    3    0    1
 -2       405       574       954      1954
 -1      2419    3    0    1
 -2      2028      2027      2099      2346
 -1      2420    3    0    1
 -2       426       424      2055      2116
 -1      2421    3    0    1
 -2       588       599       962       965
 -1      2422    3    0    1
 -2       599       588       600       965
 -1      2423    3    0    1
 -2       597       121       371       965
 -1      2424    3    0    1
 -2       121       597       588       965
 -1      2425    3    0    1
 -2       323      1396       448      2353
 -1      2426    3    0    1
 -2       257      1054      2335      3697
 -1      2427    3    0    1
 -2      2201      1293      2204      2291
 -1      2428    3    0    1
 -2      1978      1995      2373      2376
 -1      2429    3    0    1
 -2       467      1292       967       608
 -1      2430    3    0    1
 -2      1996      2093      2114      2193
 -1      2431    3    0    1
 -2       408      1600      1785      3629
 -1      2432    3    0    1
 -2      2051       418      2181      2231
 -1      2433    3    0    1
 -2      2780      3517      3222      3638
 -1      2434    3    0    1
 -2       607       466       608       968
 -1      2435    3    0    1
 -2       149      2213      2323      2360
 -1      2436    3    0    1
 -2      1836      2997      3248      3643
 -1      2437    3    0    1
 -2      3666      3611      3689      3700
 -1      2438    3    0    1
 -2      1990      2056      2062      2097
 -1      2439    3    0    1
 -2       606       128       609      1291
 -1      2440    3    0    1
 -2       413       144       624      1295
 -1      2441    3    0    1
 -2       129       128       609       970
 -1      2442    3    0    1
 -2       465       609       617       970
 -1      2443    3    0    1
 -2      1054      1063      2453      3697
 -1      2444    3    0    1
 -2       945       357      2237      2425
 -1      2445    3    0    1
 -2       128       606       609       970
 -1      2446    3    0    1
 -2       609       606       617       970
 -1      2447    3    0    1
 -2      2325      1989      2346      2430
 -1      2448    3    0    1
 -2       617       606       618       970
 -1      2449    3    0    1
 -2       129       616       361       970
 -1      2450    3    0    1
 -2       616       129       609       970
 -1      2451    3    0    1
 -2      1286      2555      3412      3699
 -1      2452    3    0    1
 -2      2383       957      2555      3699
 -1      2453    3    0    1
 -2       423      2113      2172      2188
 -1      2454    3    0    1
 -2       178       188      3684      3726
 -1      2455    3    0    1
 -2      1007      1308      3410      3726
 -1      2456    3    0    1
 -2       189      1007      3410      3726
 -1      2457    3    0    1
 -2       615       128       401       973
 -1      2458    3    0    1
 -2       128       615       606       973
 -1      2459    3    0    1
 -2      1530       185      3597      3658
 -1      2460    3    0    1
 -2      1326       242      2504      3529
 -1      2461    3    0    1
 -2       159      2206      2395      2444
 -1      2462    3    0    1
 -2      2496      3527      2926      3014
 -1      2463    3    0    1
 -2      2037      2054      2190      2225
 -1      2464    3    0    1
 -2      2101      2004      2108      2231
 -1      2465    3    0    1
 -2       679      1000      2054      2225
 -1      2466    3    0    1
 -2       647       641      2143      2386
 -1      2467    3    0    1
 -2      1035      1320      2873      3734
 -1      2468    3    0    1
 -2       622      1232       628      1297
 -1      2469    3    0    1
 -2       520      1296      1234       517
 -1      2470    3    0    1
 -2      1234       620       975      1296
 -1      2471    3    0    1
 -2       689       690      1005      2068
 -1      2472    3    0    1
 -2      1354      1355      2112      2334
 -1      2473    3    0    1
 -2      2487      2387      3509      3687
 -1      2474    3    0    1
 -2      3622      2977      3670      3714
 -1      2475    3    0    1
 -2       517       520       626       976
 -1      2476    3    0    1
 -2       979       635       980      2158
 -1      2477    3    0    1
 -2       620      1234       621      1296
 -1      2478    3    0    1
 -2      2731      1643      1644      2836
 -1      2479    3    0    1
 -2       624       976      1230      1295
 -1      2480    3    0    1
 -2      1296      1982      2131      2163
 -1      2481    3    0    1
 -2      1077      1349      2006      2066
 -1      2482    3    0    1
 -2      1999      2148      2358      2459
 -1      2483    3    0    1
 -2       280      2525      3508      3425
 -1      2484    3    0    1
 -2       874      1389      2299      2308
 -1      2485    3    0    1
 -2      2129       872      1103      2148
 -1      2486    3    0    1
 -2       144       634       363       978
 -1      2487    3    0    1
 -2       634       144       627       978
 -1      2488    3    0    1
 -2       416       154      3729      1963
 -1      2489    3    0    1
 -2       324      1105      1389      2151
 -1      2490    3    0    1
 -2       977      1294       623      2665
 -1      2491    3    0    1
 -2      3510       971      1923      1924
 -1      2492    3    0    1
 -2       831       832      1071      2423
 -1      2493    3    0    1
 -2       624       635       978       981
 -1      2494    3    0    1
 -2       635       624       636       981
 -1      2495    3    0    1
 -2       144       624       978       981
 -1      2496    3    0    1
 -2       144       413       624       981
 -1      2497    3    0    1
 -2      2145       672      2270      2343
 -1      2498    3    0    1
 -2      2138       605      2290      2291
 -1      2499    3    0    1
 -2       413       412       624       981
 -1      2500    3    0    1
 -2       624       412       633       981
 -1      2501    3    0    1
 -2       137      1966      2192      2202
 -1      2502    3    0    1
 -2       523       643       644      1299
 -1      2503    3    0    1
 -2       639       149       984      1299
 -1      2504    3    0    1
 -2      1281       942      2251      2347
 -1      2505    3    0    1
 -2      3060      2727      3675      3710
 -1      2506    3    0    1
 -2       494      1195      2644      2708
 -1      2507    3    0    1
 -2       523       524       644       983
 -1      2508    3    0    1
 -2       298      1395      1394      2111
 -1      2509    3    0    1
 -2      1066       822      1972      2236
 -1      2510    3    0    1
 -2      3422        17      1927      3461
 -1      2511    3    0    1
 -2       149       364       638       984
 -1      2512    3    0    1
 -2       149       638       639       984
 -1      2513    3    0    1
 -2       525       622       980      1244
 -1      2514    3    0    1
 -2      1105       430      2002      2151
 -1      2515    3    0    1
 -2      2077      2010      2113      2120
 -1      2516    3    0    1
 -2      2095      2119      2174      2193
 -1      2517    3    0    1
 -2      2015      1981      2020      2184
 -1      2518    3    0    1
 -2      2094      2035      2100      2112
 -1      2519    3    0    1
 -2       153       642       983       985
 -1      2520    3    0    1
 -2      1329       789      2022      2372
 -1      2521    3    0    1
 -2       661       992      2281      2351
 -1      2522    3    0    1
 -2       464       990       642       903
 -1      2523    3    0    1
 -2       426      1003      2317      2516
 -1      2524    3    0    1
 -2       454       645       653       987
 -1      2525    3    0    1
 -2      1405      1113      2106      2140
 -1      2526    3    0    1
 -2       366       992      1967      2351
 -1      2527    3    0    1
 -2      3261      1854      3428      3475
 -1      2528    3    0    1
 -2       162       341       658       991
 -1      2529    3    0    1
 -2       338       652       339       987
 -1      2530    3    0    1
 -2       652       338       645       987
 -1      2531    3    0    1
 -2       347      3616      3635      1866
 -1      2532    3    0    1
 -2      3203       347      3604      1841
 -1      2533    3    0    1
 -2       572      1285      2226      2318
 -1      2534    3    0    1
 -2      2123      1110      2295      2325
 -1      2535    3    0    1
 -2       102      2363      2420      2425
 -1      2536    3    0    1
 -2      2040      2002      2168      2200
 -1      2537    3    0    1
 -2       259       254      1328      2154
 -1      2538    3    0    1
 -2      2335       797      2452      2453
 -1      2539    3    0    1
 -2       640       157       646       989
 -1      2540    3    0    1
 -2       646       157       988       989
 -1      2541    3    0    1
 -2      1634      1435      3532      3734
 -1      2542    3    0    1
 -2      1634      3532      3669      3734
 -1      2543    3    0    1
 -2      2652      2678      3669      3734
 -1      2544    3    0    1
 -2       645       653       987       990
 -1      2545    3    0    1
 -2       653       645       654       990
 -1      2546    3    0    1
 -2       651       153       159       990
 -1      2547    3    0    1
 -2       153       651       642       990
 -1      2548    3    0    1
 -2      3013      1727      3590      3164
 -1      2549    3    0    1
 -2      2521      1420      2560      2818
 -1      2550    3    0    1
 -2       617       636      2321      2485
 -1      2551    3    0    1
 -2       232      1034      2233      2398
 -1      2552    3    0    1
 -2       589       590      2306      2391
 -1      2553    3    0    1
 -2      2036      1980      2132      2180
 -1      2554    3    0    1
 -2      2005      2024      2048      2098
 -1      2555    3    0    1
 -2      3511      2522      3514      3548
 -1      2556    3    0    1
 -2       539       540       662       993
 -1      2557    3    0    1
 -2       660      1270         7      1269
 -1      2558    3    0    1
 -2       661       539       662       993
 -1      2559    3    0    1
 -2      2029       302      2171      2313
 -1      2560    3    0    1
 -2      1113      1405      2106      2144
 -1      2561    3    0    1
 -2       838      1346      2042      2115
 -1      2562    3    0    1
 -2       455       998       660       898
 -1      2563    3    0    1
 -2      1103      2129      2148      2358
 -1      2564    3    0    1
 -2       367       660       663       995
 -1      2565    3    0    1
 -2       663       660       671       995
 -1      2566    3    0    1
 -2       953       112      2363      2461
 -1      2567    3    0    1
 -2       422       677       682       999
 -1      2568    3    0    1
 -2       166       663       670       995
 -1      2569    3    0    1
 -2       166       419       663       995
 -1      2570    3    0    1
 -2       660       669       898       998
 -1      2571    3    0    1
 -2      1005      3524      1723      1724
 -1      2572    3    0    1
 -2       183       165      3524      1724
 -1      2573    3    0    1
 -2       677       422      1005      1724
 -1      2574    3    0    1
 -2       678       690      1003      1006
 -1      2575    3    0    1
 -2      2301      2283      2427      2477
 -1      2576    3    0    1
 -2      1025       733      2195      2198
 -1      2577    3    0    1
 -2      2043      1994      2080      2103
 -1      2578    3    0    1
 -2      3518       988      1732      1733
 -1      2579    3    0    1
 -2       172      2035      2100      2225
 -1      2580    3    0    1
 -2       367       168       660       998
 -1      2581    3    0    1
 -2       660       168       669       998
 -1      2582    3    0    1
 -2       427       422       682       999
 -1      2583    3    0    1
 -2      1414      2685      3083      3084
 -1      2584    3    0    1
 -2      1338       285      2170      2575
 -1      2585    3    0    1
 -2       352       940      2230      2440
 -1      2586    3    0    1
 -2      1432      2739      1754      1755
 -1      2587    3    0    1
 -2       714       534      1022      1261
 -1      2588    3    0    1
 -2       538      1307      1000       680
 -1      2589    3    0    1
 -2      1669      3113      3191      1872
 -1      2590    3    0    1
 -2      1350      1981      2015      2184
 -1      2591    3    0    1
 -2       679       537       680      1001
 -1      2592    3    0    1
 -2      2018       372      2269      2318
 -1      2593    3    0    1
 -2       535      1310      1009       697
 -1      2594    3    0    1
 -2       696       425      1009      1310
 -1      2595    3    0    1
 -2       674      1000      1268      1307
 -1      2596    3    0    1
 -2      2039      1981      2157      2213
 -1      2597    3    0    1
 -2       696      1009      1264      1310
 -1      2598    3    0    1
 -2       175       174       681      1003
 -1      2599    3    0    1
 -2       452       681       689      1003
 -1      2600    3    0    1
 -2      2706      2809      3531      2933
 -1      2601    3    0    1
 -2       174       678       681      1003
 -1      2602    3    0    1
 -2       681       678       689      1003
 -1      2603    3    0    1
 -2       689       678       690      1003
 -1      2604    3    0    1
 -2       175       688       426      1003
 -1      2605    3    0    1
 -2      1980      2064      2132      2180
 -1      2606    3    0    1
 -2       688       175       681      1003
 -1      2607    3    0    1
 -2       630      3298      3333      3462
 -1      2608    3    0    1
 -2      2037      2007      2049      2094
 -1      2609    3    0    1
 -2      2028      2027      2267      2411
 -1      2610    3    0    1
 -2      2076      2072      2179      2191
 -1      2611    3    0    1
 -2      1833      1834      3256      3301
 -1      2612    3    0    1
 -2      1497      1498      3371      1918
 -1      2613    3    0    1
 -2       687       174       179      1006
 -1      2614    3    0    1
 -2       174       687       678      1006
 -1      2615    3    0    1
 -2      1367       851      1366      2122
 -1      2616    3    0    1
 -2      1725      1512      1726      3273
 -1      2617    3    0    1
 -2       976      1295      2160      2324
 -1      2618    3    0    1
 -2       991      1255      1304      2559
 -1      2619    3    0    1
 -2      1995      2073      2192      2202
 -1      2620    3    0    1
 -2       193       428      1011      2316
 -1      2621    3    0    1
 -2       189       695       700      1312
 -1      2622    3    0    1
 -2       971       980      2485      3510
 -1      2623    3    0    1
 -2       535       536       698      1009
 -1      2624    3    0    1
 -2       697       535       698      1009
 -1      2625    3    0    1
 -2      2560      2521      3543      3400
 -1      2626    3    0    1
 -2       692      1008      1266      1311
 -1      2627    3    0    1
 -2       727       736      1621      2950
 -1      2628    3    0    1
 -2      2214      2482      2543      3526
 -1      2629    3    0    1
 -2       237      1046      1047      2408
 -1      2630    3    0    1
 -2      2029      1988      2031      2313
 -1      2631    3    0    1
 -2      1997       967      2019      2053
 -1      2632    3    0    1
 -2       425       696       699      1011
 -1      2633    3    0    1
 -2       699       696       707      1011
 -1      2634    3    0    1
 -2       541      1014       696       936
 -1      2635    3    0    1
 -2       225      1322      2224      2272
 -1      2636    3    0    1
 -2       193       699       706      1011
 -1      2637    3    0    1
 -2       193       428       699      1011
 -1      2638    3    0    1
 -2      2032      2063      2217      2224
 -1      2639    3    0    1
 -2      1021      3502      1911      1912
 -1      2640    3    0    1
 -2       395      2070      2084      2128
 -1      2641    3    0    1
 -2       178       427      3684      1944
 -1      2642    3    0    1
 -2      1982      1974      2221      2279
 -1      2643    3    0    1
 -2       696       707      1011      1014
 -1      2644    3    0    1
 -2       707       696       708      1014
 -1      2645    3    0    1
 -2       426       424      2116      2317
 -1      2646    3    0    1
 -2       425       424       696      1014
 -1      2647    3    0    1
 -2       696       424       705      1014
 -1      2648    3    0    1
 -2       972       407      2201      3688
 -1      2649    3    0    1
 -2      1983      2125      2137      2366
 -1      2650    3    0    1
 -2       694      1007      1312      2556
 -1      2651    3    0    1
 -2      1768      2834      1769      1805
 -1      2652    3    0    1
 -2      3179       226      1679      1678
 -1      2653    3    0    1
 -2       728      1275       729      1318
 -1      2654    3    0    1
 -2       992       661      2327      2351
 -1      2655    3    0    1
 -2      1335      1334      2617      3482
 -1      2656    3    0    1
 -2      2564      2999      3187      3624
 -1      2657    3    0    1
 -2      1639      1638      3180      3323
 -1      2658    3    0    1
 -2      2888      3227      3285      3377
 -1      2659    3    0    1
 -2       752       760      1036      1146
 -1      2660    3    0    1
 -2      2053      1976      2087      2245
 -1      2661    3    0    1
 -2       660      1270       993       663
 -1      2662    3    0    1
 -2       533       717       725      1019
 -1      2663    3    0    1
 -2       822      1065      2424      2428
 -1      2664    3    0    1
 -2      1594      1595      2764      3073
 -1      2665    3    0    1
 -2      1010      1309      2556      2728
 -1      2666    3    0    1
 -2      1099       868      2034      2186
 -1      2667    3    0    1
 -2       202       724       417      1019
 -1      2668    3    0    1
 -2       724       202       717      1019
 -1      2669    3    0    1
 -2       159       990      2206      2444
 -1      2670    3    0    1
 -2      1410      3422      3448      3737
 -1      2671    3    0    1
 -2      3109      2990      3287      3647
 -1      2672    3    0    1
 -2      1415      3544      3545      3633
 -1      2673    3    0    1
 -2      1076       393      2000      2136
 -1      2674    3    0    1
 -2       608       607       968      2397
 -1      2675    3    0    1
 -2       713       201       718      1021
 -1      2676    3    0    1
 -2       718       201      1020      1021
 -1      2677    3    0    1
 -2      2390       330      3502      3399
 -1      2678    3    0    1
 -2       202       198       717      1022
 -1      2679    3    0    1
 -2       202       717      1019      1022
 -1      2680    3    0    1
 -2       717       725      1019      1022
 -1      2681    3    0    1
 -2       725       717       726      1022
 -1      2682    3    0    1
 -2       723       198       331      1022
 -1      2683    3    0    1
 -2       198       723       714      1022
 -1      2684    3    0    1
 -2      2054       679      2225      2350
 -1      2685    3    0    1
 -2      3538      1423      3002      1835
 -1      2686    3    0    1
 -2       553       943       554      2371
 -1      2687    3    0    1
 -2      1289      2290      2291      3521
 -1      2688    3    0    1
 -2      3559      3000      3585      3667
 -1      2689    3    0    1
 -2       728       395      1025      1318
 -1      2690    3    0    1
 -2      2024      2048      2050      2330
 -1      2691    3    0    1
 -2      1328       787      2473      2484
 -1      2692    3    0    1
 -2       544       543       733      1024
 -1      2693    3    0    1
 -2       104       368      2226      2354
 -1      2694    3    0    1
 -2      1103      2148       872      1386
 -1      2695    3    0    1
 -2      1069      2284      2423      2476
 -1      2696    3    0    1
 -2      1312       330      2390      3399
 -1      2697    3    0    1
 -2       543      1276       937      1024
 -1      2698    3    0    1
 -2       208       731       737      1319
 -1      2699    3    0    1
 -2      1376       861       862      2147
 -1      2700    3    0    1
 -2      2308      2433      2436      2448
 -1      2701    3    0    1
 -2       733      1026       543       735
 -1      2702    3    0    1
 -2       212       732      1024      1026
 -1      2703    3    0    1
 -2      1031      2381      2399      2442
 -1      2704    3    0    1
 -2       750       219       752      1321
 -1      2705    3    0    1
 -2       394       212       734      1028
 -1      2706    3    0    1
 -2      2429       414      2608      3729
 -1      2707    3    0    1
 -2       719      1018      1313      2983
 -1      2708    3    0    1
 -2       212       732       734      1028
 -1      2709    3    0    1
 -2       734       732       743      1028
 -1      2710    3    0    1
 -2      2901      1623      1756      1757
 -1      2711    3    0    1
 -2       532      1031       732       933
 -1      2712    3    0    1
 -2       227       749       755      1032
 -1      2713    3    0    1
 -2       213       734       742      1028
 -1      2714    3    0    1
 -2       213       394       734      1028
 -1      2715    3    0    1
 -2       126       967      1292      2210
 -1      2716    3    0    1
 -2       941      2248      2378      2426
 -1      2717    3    0    1
 -2       757       749      1038      1930
 -1      2718    3    0    1
 -2       243      1048      2375      2418
 -1      2719    3    0    1
 -2       750       759       897      1039
 -1      2720    3    0    1
 -2      2152      1398      2256      2352
 -1      2721    3    0    1
 -2       210       208       731      1030
 -1      2722    3    0    1
 -2       731       208      1029      1030
 -1      2723    3    0    1
 -2      3526      1020      1750      1751
 -1      2724    3    0    1
 -2       334       201      3526      1751
 -1      2725    3    0    1
 -2       743       732       744      1031
 -1      2726    3    0    1
 -2       741       212       216      1031
 -1      2727    3    0    1
 -2       212       741       732      1031
 -1      2728    3    0    1
 -2       408      1651      3538      3539
 -1      2729    3    0    1
 -2       643       644      2133      2395
 -1      2730    3    0    1
 -2       893       882      2140      2341
 -1      2731    3    0    1
 -2       304      1099      1097      2043
 -1      2732    3    0    1
 -2      2843      1502      1719      3123
 -1      2733    3    0    1
 -2       611       623      1293      2204
 -1      2734    3    0    1
 -2       418      1016      1315      1970
 -1      2735    3    0    1
 -2      1297       629      2386      2609
 -1      2736    3    0    1
 -2       515       514       751      1034
 -1      2737    3    0    1
 -2      1002      3536      3597      3658
 -1      2738    3    0    1
 -2      2013      2228      2246      2288
 -1      2739    3    0    1
 -2      2150      1107      2171      2173
 -1      2740    3    0    1
 -2       223       219       752      1036
 -1      2741    3    0    1
 -2       461       752       761      1036
 -1      2742    3    0    1
 -2       219       750       752      1036
 -1      2743    3    0    1
 -2       752       750       761      1036
 -1      2744    3    0    1
 -2      1120      1408      2256      2353
 -1      2745    3    0    1
 -2       761       750       762      1036
 -1      2746    3    0    1
 -2       223       760       232      1036
 -1      2747    3    0    1
 -2       760       223       752      1036
 -1      2748    3    0    1
 -2      1925        43      1928      1959
 -1      2749    3    0    1
 -2      1046       779      1047      2408
 -1      2750    3    0    1
 -2      1058       805      2254      2349
 -1      2751    3    0    1
 -2       761       749      1037      1038
 -1      2752    3    0    1
 -2       749       761       762      1038
 -1      2753    3    0    1
 -2       250        43      1926      1931
 -1      2754    3    0    1
 -2       759       219       234      1039
 -1      2755    3    0    1
 -2       219       759       750      1039
 -1      2756    3    0    1
 -2      1021       328      2214      3502
 -1      2757    3    0    1
 -2       944      1280      2733      2899
 -1      2758    3    0    1
 -2      3556      3515      3563      3632
 -1      2759    3    0    1
 -2       130       126      1292      2210
 -1      2760    3    0    1
 -2      1537      2572      1538      2957
 -1      2761    3    0    1
 -2       151       977      3672      3689
 -1      2762    3    0    1
 -2      2499      2628      2646      3625
 -1      2763    3    0    1
 -2      1075       833      1339      2187
 -1      2764    3    0    1
 -2      1993      2085      2144      2315
 -1      2765    3    0    1
 -2       875      2101      2108      2167
 -1      2766    3    0    1
 -2       244       239       770      1196
 -1      2767    3    0    1
 -2      1532      1449      1533      2792
 -1      2768    3    0    1
 -2      2002      2151      2200      2264
 -1      2769    3    0    1
 -2       907       472      2512      2960
 -1      2770    3    0    1
 -2      1968       236      2302      2364
 -1      2771    3    0    1
 -2      1054      1063      3697      1955
 -1      2772    3    0    1
 -2      2009      2117      2260      2353
 -1      2773    3    0    1
 -2       766      2273      2342      2367
 -1      2774    3    0    1
 -2      1734      1798      1799      3166
 -1      2775    3    0    1
 -2       236       238       764      1042
 -1      2776    3    0    1
 -2       242       237       773      1326
 -1      2777    3    0    1
 -2       773       767      1195      1326
 -1      2778    3    0    1
 -2       239       768      1196      1200
 -1      2779    3    0    1
 -2       768       243       770      1043
 -1      2780    3    0    1
 -2       496       769      1041      1043
 -1      2781    3    0    1
 -2       769       496       771      1043
 -1      2782    3    0    1
 -2       767        45      1195      1197
 -1      2783    3    0    1
 -2       424       425      1310      2116
 -1      2784    3    0    1
 -2      1992      1973      2108      2231
 -1      2785    3    0    1
 -2       243       768      1041      1043
 -1      2786    3    0    1
 -2      2075      2283      2301      2477
 -1      2787    3    0    1
 -2      1086      1981      2157      2207
 -1      2788    3    0    1
 -2       242       773      1046      1806
 -1      2789    3    0    1
 -2       243       768       770      1045
 -1      2790    3    0    1
 -2       770       768       779      1045
 -1      2791    3    0    1
 -2      1977       130      2072      2394
 -1      2792    3    0    1
 -2       511      1048       768       930
 -1      2793    3    0    1
 -2       865       866      2088      2338
 -1      2794    3    0    1
 -2       245       778       390      1045
 -1      2795    3    0    1
 -2       778       245       770      1045
 -1      2796    3    0    1
 -2      1055      3530      1806      1807
 -1      2797    3    0    1
 -2      2125      1091      2137      2366
 -1      2798    3    0    1
 -2       839      1348       840      2212
 -1      2799    3    0    1
 -2       342       343      3698      1958
 -1      2800    3    0    1
 -2       768       777       930      1048
 -1      2801    3    0    1
 -2      1356       321      1353      2078
 -1      2802    3    0    1
 -2       236      1042      1325      1968
 -1      2803    3    0    1
 -2       768       779      1045      1048
 -1      2804    3    0    1
 -2       779       768       780      1048
 -1      2805    3    0    1
 -2       777       243       391      1048
 -1      2806    3    0    1
 -2       243       777       768      1048
 -1      2807    3    0    1
 -2      1012      2365      2390      3502
 -1      2808    3    0    1
 -2      1497      3371      1917      1918
 -1      2809    3    0    1
 -2      2100      2035      2190      2225
 -1      2810    3    0    1
 -2      1996      2034      2093      2186
 -1      2811    3    0    1
 -2      2067      2287      2411      2456
 -1      2812    3    0    1
 -2       236      2075      2095      2302
 -1      2813    3    0    1
 -2       427       422      2208      2242
 -1      2814    3    0    1
 -2      3545      3243      3715      3499
 -1      2815    3    0    1
 -2       253       783       351      1050
 -1      2816    3    0    1
 -2       783       253       782      1050
 -1      2817    3    0    1
 -2       791       785      1193      1330
 -1      2818    3    0    1
 -2       491      1050      1189      1190
 -1      2819    3    0    1
 -2      2490      2560      3543      3400
 -1      2820    3    0    1
 -2       698       697      1009      2252
 -1      2821    3    0    1
 -2      1392       876      2101      2108
 -1      2822    3    0    1
 -2      1326      2273      2355      2504
 -1      2823    3    0    1
 -2      2631       790      3591      3396
 -1      2824    3    0    1
 -2       307      1390      1393      2274
 -1      2825    3    0    1
 -2       137      1966      1979      2192
 -1      2826    3    0    1
 -2       510      1056       786       929
 -1      2827    3    0    1
 -2       272       267       804      1057
 -1      2828    3    0    1
 -2       481       788       797      1053
 -1      2829    3    0    1
 -2      1662      1663      2887      3167
 -1      2830    3    0    1
 -2       845      1359      1079      2155
 -1      2831    3    0    1
 -2      3040      1756      3046      3295
 -1      2832    3    0    1
 -2      1400       888      2168      2200
 -1      2833    3    0    1
 -2       260       796       262      1053
 -1      2834    3    0    1
 -2       796       260       788      1053
 -1      2835    3    0    1
 -2      2251       375      2347      2457
 -1      2836    3    0    1
 -2      1811      1810      1908      3480
 -1      2837    3    0    1
 -2      2133      1299      2323      2460
 -1      2838    3    0    1
 -2      2312       991      2503      3540
 -1      2839    3    0    1
 -2      1401       325      1107      2173
 -1      2840    3    0    1
 -2      2091      2083      2147      2344
 -1      2841    3    0    1
 -2       785       257       791      1055
 -1      2842    3    0    1
 -2       791       257      1054      1055
 -1      2843    3    0    1
 -2      1601      1602      2856      1863
 -1      2844    3    0    1
 -2       788       797      1053      1056
 -1      2845    3    0    1
 -2       797       788       798      1056
 -1      2846    3    0    1
 -2       795       254       259      1056
 -1      2847    3    0    1
 -2       254       795       786      1056
 -1      2848    3    0    1
 -2       805      1059      1057       508
 -1      2849    3    0    1
 -2       509       508       805      1057
 -1      2850    3    0    1
 -2       508      1217       926      1057
 -1      2851    3    0    1
 -2        56      1216       800       927
 -1      2852    3    0    1
 -2       430      1400      2002      2200
 -1      2853    3    0    1
 -2       805      1059       508       807
 -1      2854    3    0    1
 -2        13      1808      1809      1816
 -1      2855    3    0    1
 -2       957       587      1289      2220
 -1      2856    3    0    1
 -2       806       804       815      1061
 -1      2857    3    0    1
 -2       813       804      1064      1214
 -1      2858    3    0    1
 -2       506       806       815      1061
 -1      2859    3    0    1
 -2      2106      2140      2341      2414
 -1      2860    3    0    1
 -2       769      1325      1042      2364
 -1      2861    3    0    1
 -2      1413      1568      3514      3548
 -1      2862    3    0    1
 -2       289       373      1986      2183
 -1      2863    3    0    1
 -2       280       820       825      1335
 -1      2864    3    0    1
 -2       684      1896      3361      3434
 -1      2865    3    0    1
 -2       267       814       388      1061
 -1      2866    3    0    1
 -2       814       267       806      1061
 -1      2867    3    0    1
 -2      2241      1052      2600      3635
 -1      2868    3    0    1
 -2      1071       280      3508      1922
 -1      2869    3    0    1
 -2       349       350      3508      1922
 -1      2870    3    0    1
 -2      2796      2562      3535      2969
 -1      2871    3    0    1
 -2      2024      2005      2048      2330
 -1      2872    3    0    1
 -2       172      2008      2035      2172
 -1      2873    3    0    1
 -2      1993      2069      2164      2197
 -1      2874    3    0    1
 -2       263       257      3697      1956
 -1      2875    3    0    1
 -2      3697      1054      1955      1956
 -1      2876    3    0    1
 -2       269      3697      1955      1956
 -1      2877    3    0    1
 -2       862       861      1094      2147
 -1      2878    3    0    1
 -2       126      2023      2092      2307
 -1      2879    3    0    1
 -2       402       960      2340      2410
 -1      2880    3    0    1
 -2       804       815      1061      1064
 -1      2881    3    0    1
 -2       815       804       816      1064
 -1      2882    3    0    1
 -2       813       272       275      1064
 -1      2883    3    0    1
 -2       272       813       804      1064
 -1      2884    3    0    1
 -2       503      1067      1065       922
 -1      2885    3    0    1
 -2       502       822       823      1066
 -1      2886    3    0    1
 -2        48       281       821      1209
 -1      2887    3    0    1
 -2       659       991      1300      2312
 -1      2888    3    0    1
 -2       779      2369      2377      2408
 -1      2889    3    0    1
 -2       503      1067       502       822
 -1      2890    3    0    1
 -2      2566       469      2655      2828
 -1      2891    3    0    1
 -2       835       836      2038      2183
 -1      2892    3    0    1
 -2       550      1282       940      2440
 -1      2893    3    0    1
 -2       949       102       951      2363
 -1      2894    3    0    1
 -2      2230      1282      3541      3403
 -1      2895    3    0    1
 -2       381       385       821      1069
 -1      2896    3    0    1
 -2      1995      2073      2210      2394
 -1      2897    3    0    1
 -2      2617      1335      3482      3728
 -1      2898    3    0    1
 -2       831       821       832      1069
 -1      2899    3    0    1
 -2      2017      2008      2035      2100
 -1      2900    3    0    1
 -2       665       999      1304      2141
 -1      2901    3    0    1
 -2       417       202      1019      2399
 -1      2902    3    0    1
 -2       288       381       824      1069
 -1      2903    3    0    1
 -2       288       824       830      1069
 -1      2904    3    0    1
 -2       385       821      1069      1072
 -1      2905    3    0    1
 -2       820       825       831      1070
 -1      2906    3    0    1
 -2       820       280       825      1070
 -1      2907    3    0    1
 -2       821       832      1069      1072
 -1      2908    3    0    1
 -2      1476      1477      1584      2867
 -1      2909    3    0    1
 -2       268      1854      3404      3428
 -1      2910    3    0    1
 -2       885      1400      1118      2200
 -1      2911    3    0    1
 -2       385       384       821      1072
 -1      2912    3    0    1
 -2       821       384       829      1072
 -1      2913    3    0    1
 -2      2007      2017      2094      2100
 -1      2914    3    0    1
 -2       586      1163       592      1289
 -1      2915    3    0    1
 -2       680      1307      2107      2188
 -1      2916    3    0    1
 -2      1384       310      1101      2144
 -1      2917    3    0    1
 -2       877      1395       878      2111
 -1      2918    3    0    1
 -2      1312      1007      2153      2390
 -1      2919    3    0    1
 -2      3545      3520      3683      3715
 -1      2920    3    0    1
 -2      1966       137      2130      2202
 -1      2921    3    0    1
 -2       563       945       948      2135
 -1      2922    3    0    1
 -2      1358       845      1357      2156
 -1      2923    3    0    1
 -2      3010      2677      3292      3691
 -1      2924    3    0    1
 -2      1978      2179      2191      2376
 -1      2925    3    0    1
 -2       982       641      1300      2386
 -1      2926    3    0    1
 -2      1973      1992      2040      2298
 -1      2927    3    0    1
 -2       193      2209      2304      2439
 -1      2928    3    0    1
 -2       175       426      1001      2516
 -1      2929    3    0    1
 -2      2389      2237      2404      2420
 -1      2930    3    0    1
 -2      2919      3558      3117      3609
 -1      2931    3    0    1
 -2      2733      2954      3286      3646
 -1      2932    3    0    1
 -2      2000       220      2305      2357
 -1      2933    3    0    1
 -2      2032      1999      2042      2115
 -1      2934    3    0    1
 -2       822      1972      2236      2455
 -1      2935    3    0    1
 -2      1379       863       864      2119
 -1      2936    3    0    1
 -2        93       946       947      2255
 -1      2937    3    0    1
 -2      2032       225      2047      2224
 -1      2938    3    0    1
 -2      2109      2088      2338      2345
 -1      2939    3    0    1
 -2       391      1041      2229      2418
 -1      2940    3    0    1
 -2       130      1292      2073      2303
 -1      2941    3    0    1
 -2      1351       841      1350      2184
 -1      2942    3    0    1
 -2      1989      2099      2346      2430
 -1      2943    3    0    1
 -2       339       985      2278      2384
 -1      2944    3    0    1
 -2      1392       875      1391      2101
 -1      2945    3    0    1
 -2      2107      1307      2172      2188
 -1      2946    3    0    1
 -2      1294       977       623      2205
 -1      2947    3    0    1
 -2       881       892      2056      2227
 -1      2948    3    0    1
 -2      2073      1995      2130      2202
 -1      2949    3    0    1
 -2       237       242      1046      2408
 -1      2950    3    0    1
 -2      2253       679      2276      2350
 -1      2951    3    0    1
 -2      1298       986      3579      3692
 -1      2952    3    0    1
 -2       658       162       991      1304
 -1      2953    3    0    1
 -2      1366       431      1367      2122
 -1      2954    3    0    1
 -2      2086      1998      2119      2174
 -1      2955    3    0    1
 -2      2010      2057      2120      2121
 -1      2956    3    0    1
 -2      1601      1766      1767      3111
 -1      2957    3    0    1
 -2      1016      1315      1970      2380
 -1      2958    3    0    1
 -2      2060       311      2166      2187
 -1      2959    3    0    1
 -2      1063       348      3697      1955
 -1      2960    3    0    1
 -2       761       762      1038      2446
 -1      2961    3    0    1
 -2      1291       401      2410      2474
 -1      2962    3    0    1
 -2      2003      1991      2341      2414
 -1      2963    3    0    1
 -2      3636      2593      3646      3329
 -1      2964    3    0    1
 -2      2011       375      2083      2176
 -1      2965    3    0    1
 -2       201      1020      1021      2214
 -1      2966    3    0    1
 -2       771       769      1043      2464
 -1      2967    3    0    1
 -2       995       671      2297      2431
 -1      2968    3    0    1
 -2       153       159       990      2206
 -1      2969    3    0    1
 -2      2047      2263      2277      2419
 -1      2970    3    0    1
 -2       375      1281      2251      2347
 -1      2971    3    0    1
 -2      2056      2052      2062      2227
 -1      2972    3    0    1
 -2       994      3560      3561      3623
 -1      2973    3    0    1
 -2      1326       766       774      2355
 -1      2974    3    0    1
 -2      1000       172      2190      2225
 -1      2975    3    0    1
 -2       978       363      2259      2444
 -1      2976    3    0    1
 -2      1372      1089      2132      2180
 -1      2977    3    0    1
 -2       262       260      1053      2452
 -1      2978    3    0    1
 -2      2003       383      2014      2164
 -1      2979    3    0    1
 -2       423      2030      2055      2071
 -1      2980    3    0    1
 -2      1341       289      1342      2183
 -1      2981    3    0    1
 -2       299      1374       318      2366
 -1      2982    3    0    1
 -2       789      1051      2219      2484
 -1      2983    3    0    1
 -2      1408       323       448      2353
 -1      2984    3    0    1
 -2      1379      1998       392      1095
 -1      2985    3    0    1
 -2      2870      3584      3347      1894
 -1      2986    3    0    1
 -2       424      2116      2317      2443
 -1      2987    3    0    1
 -2       680      1001      2055      2211
 -1      2988    3    0    1
 -2       373      1341      1986      2183
 -1      2989    3    0    1
 -2       958      2269      2391      2481
 -1      2990    3    0    1
 -2      1008       697      1311      2252
 -1      2991    3    0    1
 -2       137      2073      2130      2202
 -1      2992    3    0    1
 -2      3223      3015      3612      3682
 -1      2993    3    0    1
 -2       991       659      1304      2141
 -1      2994    3    0    1
 -2      1302       367      2320      2337
 -1      2995    3    0    1
 -2      1310       697      2055      2266
 -1      2996    3    0    1
 -2      1295       976       625      2324
 -1      2997    3    0    1
 -2       708      1014      2216      2316
 -1      2998    3    0    1
 -2      1029      2361      2479      3696
 -1      2999    3    0    1
 -2       227       336      3694      3696
 -1      3000    3    0    1
 -2       277       386      1337      1972
 -1      3001    3    0    1
 -2       975       625      1296      2280
 -1      3002    3    0    1
 -2      1033       220      2128      2262
 -1      3003    3    0    1
 -2      1829      3205      1841      1866
 -1      3004    3    0    1
 -2       744       743      1031      2361
 -1      3005    3    0    1
 -2      2008       423      2057      2113
 -1      3006    3    0    1
 -2      1364       297      1361      2376
 -1      3007    3    0    1
 -2      2057      2008      2113      2120
 -1      3008    3    0    1
 -2       384      1065      2359      2428
 -1      3009    3    0    1
 -2      2044       429      2310      2336
 -1      3010    3    0    1
 -2       994      1301       659      2559
 -1      3011    3    0    1
 -2       819      2170      2258      2314
 -1      3012    3    0    1
 -2      1084       853      1369      2090
 -1      3013    3    0    1
 -2       370       369      2286      2437
 -1      3014    3    0    1
 -2       253      1050      2080      2427
 -1      3015    3    0    1
 -2       293      1985      2006      2155
 -1      3016    3    0    1
 -2      1971      2018      2437      2481
 -1      3017    3    0    1
 -2      2076      2072      2191      2394
 -1      3018    3    0    1
 -2      2235      2033      2310      2336
 -1      3019    3    0    1
 -2      2185      2013      2246      2407
 -1      3020    3    0    1
 -2       676       999      2141      2243
 -1      3021    3    0    1
 -2      1336      1068       819      2314
 -1      3022    3    0    1
 -2      2016      1996      2075      2193
 -1      3023    3    0    1
 -2       330       189       700      1312
 -1      3024    3    0    1
 -2      1974      1980      1982      2221
 -1      3025    3    0    1
 -2      2022      2238      2349      2372
 -1      3026    3    0    1
 -2       119      1436      2715      1607
 -1      3027    3    0    1
 -2       807      1059      2432      2486
 -1      3028    3    0    1
 -2      2899      3288      3654      3341
 -1      3029    3    0    1
 -2       864       863      2114      2119
 -1      3030    3    0    1
 -2       407       971       972      2201
 -1      3031    3    0    1
 -2       566       914      1182      1285
 -1      3032    3    0    1
 -2       232      1036      2398      2450
 -1      3033    3    0    1
 -2       121       360      2340      2447
 -1      3034    3    0    1
 -2      1634      3532      3587      3720
 -1      3035    3    0    1
 -2      2573      2544      3533      3542
 -1      3036    3    0    1
 -2      1060      1336      2194      3505
 -1      3037    3    0    1
 -2      1993      2003      2140      2414
 -1      3038    3    0    1
 -2      2027      1987      2109      2411
 -1      3039    3    0    1
 -2      1407       440      2008      2078
 -1      3040    3    0    1
 -2      2685      2812      3553      3590
 -1      3041    3    0    1
 -2      2007      2025      2094      2334
 -1      3042    3    0    1
 -2       420      2037      2054      2190
 -1      3043    3    0    1
 -2       419       367      2145      2320
 -1      3044    3    0    1
 -2      2084      2070      2392      2448
 -1      3045    3    0    1
 -2      1990      2062      2146      2325
 -1      3046    3    0    1
 -2      2195       733      2265      2331
 -1      3047    3    0    1
 -2       149       364       984      2279
 -1      3048    3    0    1
 -2       302      2029      2147      2313
 -1      3049    3    0    1
 -2      1759      1495      1760      3076
 -1      3050    3    0    1
 -2       311      1360      2060      2166
 -1      3051    3    0    1
 -2      1977      1124      2076      2179
 -1      3052    3    0    1
 -2      1352      1078      2036      2180
 -1      3053    3    0    1
 -2       414       628       979      1962
 -1      3054    3    0    1
 -2      2049      2025      2058      2098
 -1      3055    3    0    1
 -2       761       780      1048      2074
 -1      3056    3    0    1
 -2       344       247      3529      3530
 -1      3057    3    0    1
 -2       396       395      2002      2084
 -1      3058    3    0    1
 -2      1280       944      3588      3592
 -1      3059    3    0    1
 -2      2915      1598      3130      3300
 -1      3060    3    0    1
 -2      2094      2037      2190      2225
 -1      3061    3    0    1
 -2       413       144      1295      2160
 -1      3062    3    0    1
 -2      1003       174      1006      2068
 -1      3063    3    0    1
 -2       298       308      2012      2142
 -1      3064    3    0    1
 -2       730      1319      1023      2046
 -1      3065    3    0    1
 -2      2111      2012      2117      2310
 -1      3066    3    0    1
 -2       387      2379      2401      2434
 -1      3067    3    0    1
 -2      2140      2003      2341      2414
 -1      3068    3    0    1
 -2       727      1621      1622      2950
 -1      3069    3    0    1
 -2       157       988      2507      1733
 -1      3070    3    0    1
 -2      1971      1985      2006      2296
 -1      3071    3    0    1
 -2       149       364      2279      2323
 -1      3072    3    0    1
 -2      2189       414      2429      3704
 -1      3073    3    0    1
 -2      1968       236      1998      2174
 -1      3074    3    0    1
 -2       391       243      1041      2418
 -1      3075    3    0    1
 -2      1147      2510      2536      2722
 -1      3076    3    0    1
 -2      2021       950      2382      2389
 -1      3077    3    0    1
 -2       517      1295       976       625
 -1      3078    3    0    1
 -2      2159      2177      2235      2439
 -1      3079    3    0    1
 -2      1045       779      2377      2408
 -1      3080    3    0    1
 -2       149       364      2323      2374
 -1      3081    3    0    1
 -2      1404      1991      2056      2227
 -1      3082    3    0    1
 -2      1359      1079      2155      2173
 -1      3083    3    0    1
 -2       404       108      3690      1954
 -1      3084    3    0    1
 -2      1984      1401      2150      2173
 -1      3085    3    0    1
 -2      1971      2223      2318      2354
 -1      3086    3    0    1
 -2      1979      1966      2104      2202
 -1      3087    3    0    1
 -2      1281       554      2021      2389
 -1      3088    3    0    1
 -2      2242      2548      3524      3550
 -1      3089    3    0    1
 -2      2637      2859      3555      2975
 -1      3090    3    0    1
 -2      2136      2000      2217      2305
 -1      3091    3    0    1
 -2      1042      2047      2263      2277
 -1      3092    3    0    1
 -2       877      1396      1106      2117
 -1      3093    3    0    1
 -2       388      1061      1072      2416
 -1      3094    3    0    1
 -2      1065       822      2236      2428
 -1      3095    3    0    1
 -2      2916      2528      3559      3667
 -1      3096    3    0    1
 -2      2085      1993      2106      2197
 -1      3097    3    0    1
 -2      1977      2023      2289      2368
 -1      3098    3    0    1
 -2      1099       867      1097      2034
 -1      3099    3    0    1
 -2      1316      1015       712      2388
 -1      3100    3    0    1
 -2       166      2253      2320      2339
 -1      3101    3    0    1
 -2      1975       369      2087      2286
 -1      3102    3    0    1
 -2      2034      1996      2093      2333
 -1      3103    3    0    1
 -2       947       564      1070      2500
 -1      3104    3    0    1
 -2       967      1292      2210      2362
 -1      3105    3    0    1
 -2      2309      2300      2329      2400
 -1      3106    3    0    1
 -2      1308       999       683      2243
 -1      3107    3    0    1
 -2      1052       792      1327      2241
 -1      3108    3    0    1
 -2      1045      2375      2377      2445
 -1      3109    3    0    1
 -2       499       498      2623      3494
 -1      3110    3    0    1
 -2       304      1100      2182      2315
 -1      3111    3    0    1
 -2       179      1306      2253      2271
 -1      3112    3    0    1
 -2       978       144       981      2259
 -1      3113    3    0    1
 -2      2059      1295      2082      2280
 -1      3114    3    0    1
 -2      1301       659      2143      2406
 -1      3115    3    0    1
 -2      2111      2117      2260      2336
 -1      3116    3    0    1
 -2      2635      2709      2918      3609
 -1      3117    3    0    1
 -2       799      1752      1753      3023
 -1      3118    3    0    1
 -2      1978      1995      2073      2192
 -1      3119    3    0    1
 -2       845      1358       846      2156
 -1      3120    3    0    1
 -2       753       751      2233      2272
 -1      3121    3    0    1
 -2      2070      2084      2128      2262
 -1      3122    3    0    1
 -2      1065      1067       822      2424
 -1      3123    3    0    1
 -2      2005       420      2049      2098
 -1      3124    3    0    1
 -2      1292       130      2210      2303
 -1      3125    3    0    1
 -2      2007      2094      2112      2334
 -1      3126    3    0    1
 -2      2128      2001      2262      2357
 -1      3127    3    0    1
 -2      1966      1979      2192      2202
 -1      3128    3    0    1
 -2       857      1373      1088      2203
 -1      3129    3    0    1
 -2       641       629      2205      2386
 -1      3130    3    0    1
 -2      1117      1406      2127      2433
 -1      3131    3    0    1
 -2      1968      1998      2149      2174
 -1      3132    3    0    1
 -2       362       315      1362      2104
 -1      3133    3    0    1
 -2      2008      2017      2035      2078
 -1      3134    3    0    1
 -2       749       461       902      1135
 -1      3135    3    0    1
 -2       453       749      1038      1135
 -1      3136    3    0    1
 -2       180       678       687      1131
 -1      3137    3    0    1
 -2       180       181       678      1131
 -1      3138    3    0    1
 -2       685        18       176      1132
 -1      3139    3    0    1
 -2        18       685       677      1132
 -1      3140    3    0    1
 -2       677        18      1132      1133
 -1      3141    3    0    1
 -2         3       686       177      1133
 -1      3142    3    0    1
 -2       686         3       682      1133
 -1      3143    3    0    1
 -2       181        85       678      1134
 -1      3144    3    0    1
 -2       181       678      1131      1134
 -1      3145    3    0    1
 -2       688        85       182      1134
 -1      3146    3    0    1
 -2        85       688       681      1134
 -1      3147    3    0    1
 -2         5       646       650      1136
 -1      3148    3    0    1
 -2         5       155       646      1136
 -1      3149    3    0    1
 -2       658      1139      1138       455
 -1      3150    3    0    1
 -2       658      1139         9      1138
 -1      3151    3    0    1
 -2      1139       658         9       664
 -1      3152    3    0    1
 -2       455      1139       456       664
 -1      3153    3    0    1
 -2       658         8       667      1138
 -1      3154    3    0    1
 -2        74         8       658      1138
 -1      3155    3    0    1
 -2       660      1140       455       898
 -1      3156    3    0    1
 -2       455      1140       663       456
 -1      3157    3    0    1
 -2      2479      3416      3694      3696
 -1      3158    3    0    1
 -2      1110       382      1403      2123
 -1      3159    3    0    1
 -2       461       752      1036      1146
 -1      3160    3    0    1
 -2       461       750       752      1146
 -1      3161    3    0    1
 -2      1316       901       713      1144
 -1      3162    3    0    1
 -2      2624      2564      3187      3625
 -1      3163    3    0    1
 -2       901      1316       713      1015
 -1      3164    3    0    1
 -2        79       713       901      1144
 -1      3165    3    0    1
 -2      1689      3573      3608      3473
 -1      3166    3    0    1
 -2       461       453       750      1146
 -1      3167    3    0    1
 -2       750       453       897      1146
 -1      3168    3    0    1
 -2         4       750       897      1146
 -1      3169    3    0    1
 -2       750         4       752      1146
 -1      3170    3    0    1
 -2       760       224       231      1146
 -1      3171    3    0    1
 -2       224       760       752      1146
 -1      3172    3    0    1
 -2       640       649       989      1151
 -1      3173    3    0    1
 -2       640       464       646      1151
 -1      3174    3    0    1
 -2       646       464      1136      1151
 -1      3175    3    0    1
 -2        63       640       646      1151
 -1      3176    3    0    1
 -2       155        63       646      1151
 -1      3177    3    0    1
 -2       155       646      1136      1151
 -1      3178    3    0    1
 -2       640        19       649      1151
 -1      3179    3    0    1
 -2        63        19       640      1151
 -1      3180    3    0    1
 -2        22       614       136      1152
 -1      3181    3    0    1
 -2       614        22       610      1152
 -1      3182    3    0    1
 -2       606       470       905      1153
 -1      3183    3    0    1
 -2       133        21       606      1153
 -1      3184    3    0    1
 -2       133       606       905      1153
 -1      3185    3    0    1
 -2       616        21       135      1153
 -1      3186    3    0    1
 -2        21       616       609      1153
 -1      3187    3    0    1
 -2       904      1291       609       968
 -1      3188    3    0    1
 -2        21       609       904      1155
 -1      3189    3    0    1
 -2        20       603       602      1156
 -1      3190    3    0    1
 -2       602       967      1154      1156
 -1      3191    3    0    1
 -2        20       602      1154      1156
 -1      3192    3    0    1
 -2      2840      2727      1738      3710
 -1      3193    3    0    1
 -2       610       966      1158      1160
 -1      3194    3    0    1
 -2      2658      1614      2768      2839
 -1      3195    3    0    1
 -2       470       604       972      1161
 -1      3196    3    0    1
 -2       604       613       972      1161
 -1      3197    3    0    1
 -2      2963      1284      3575      3625
 -1      3198    3    0    1
 -2      1030       210      2543      3526
 -1      3199    3    0    1
 -2      1700      3198      3199      3210
 -1      3200    3    0    1
 -2       125       408      3539      1814
 -1      3201    3    0    1
 -2       470       465       604      1161
 -1      3202    3    0    1
 -2       604       465      1152      1161
 -1      3203    3    0    1
 -2       604       131       613      1161
 -1      3204    3    0    1
 -2       132       131       604      1161
 -1      3205    3    0    1
 -2      1555      2709      2918      3258
 -1      3206    3    0    1
 -2       575       568      2562      2796
 -1      3207    3    0    1
 -2       552        34       555      1170
 -1      3208    3    0    1
 -2       477       555       945      1170
 -1      3209    3    0    1
 -2      3386      1519      3470      3722
 -1      3210    3    0    1
 -2      3586      1642      3201      3343
 -1      3211    3    0    1
 -2      2454      2335      2613      3697
 -1      3212    3    0    1
 -2       187      1008      1311      2240
 -1      3213    3    0    1
 -2        38       569      1164      1166
 -1      3214    3    0    1
 -2       909      1282       551       940
 -1      3215    3    0    1
 -2      1255      1304      2559      2634
 -1      3216    3    0    1
 -2       551       559       947      1172
 -1      3217    3    0    1
 -2       477      1171       478       552
 -1      3218    3    0    1
 -2        34      1171      1170       552
 -1      3219    3    0    1
 -2       477      1171       552      1170
 -1      3220    3    0    1
 -2       555        30       562      1170
 -1      3221    3    0    1
 -2        34        30       555      1170
 -1      3222    3    0    1
 -2       477      1172       551       478
 -1      3223    3    0    1
 -2       788       796      1053      1175
 -1      3224    3    0    1
 -2       788       481       929      1175
 -1      3225    3    0    1
 -2        35       788       929      1175
 -1      3226    3    0    1
 -2       796        35       261      1175
 -1      3227    3    0    1
 -2        35       796       788      1175
 -1      3228    3    0    1
 -2       484       485       949      1180
 -1      3229    3    0    1
 -2       116      1179       117       584
 -1      3230    3    0    1
 -2       958      1178      1177       482
 -1      3231    3    0    1
 -2       958      1178       588      1177
 -1      3232    3    0    1
 -2       584       959      1176      1179
 -1      3233    3    0    1
 -2        36      1178       591        37
 -1      3234    3    0    1
 -2       483      1288       482       590
 -1      3235    3    0    1
 -2       869       870      2182      2315
 -1      3236    3    0    1
 -2       485      1285      1182       484
 -1      3237    3    0    1
 -2       443       442      1111      2227
 -1      3238    3    0    1
 -2       343      1037      2446      3698
 -1      3239    3    0    1
 -2       570       949       951      1181
 -1      3240    3    0    1
 -2       570       103      1180      1181
 -1      3241    3    0    1
 -2       949       570      1180      1181
 -1      3242    3    0    1
 -2       485      1285       484       572
 -1      3243    3    0    1
 -2       103       111       573      1183
 -1      3244    3    0    1
 -2       573       111       915      1183
 -1      3245    3    0    1
 -2       487       486       573      1183
 -1      3246    3    0    1
 -2       915       487       573      1183
 -1      3247    3    0    1
 -2       103       579       113      1183
 -1      3248    3    0    1
 -2       579       103       570      1183
 -1      3249    3    0    1
 -2        38       577       569      1184
 -1      3250    3    0    1
 -2       598        37       122      1185
 -1      3251    3    0    1
 -2        37       598       591      1185
 -1      3252    3    0    1
 -2       597        36       588      1186
 -1      3253    3    0    1
 -2       595        25        39      1187
 -1      3254    3    0    1
 -2        25       595       586      1187
 -1      3255    3    0    1
 -2      3038      1734      3106      3651
 -1      3256    3    0    1
 -2        45       241       773      1195
 -1      3257    3    0    1
 -2       783      1050      1189      1329
 -1      3258    3    0    1
 -2       491      1329      1050       787
 -1      3259    3    0    1
 -2       491      1328       490       787
 -1      3260    3    0    1
 -2      1051       490      1188      1191
 -1      3261    3    0    1
 -2       586       115       964      1953
 -1      3262    3    0    1
 -2      1426      1427      2886      1795
 -1      3263    3    0    1
 -2      1330       918       785      1193
 -1      3264    3    0    1
 -2        43      1925      1926      1931
 -1      3265    3    0    1
 -2      2700      3015      3223      3682
 -1      3266    3    0    1
 -2       918      1330       785      1049
 -1      3267    3    0    1
 -2      3114      3601      3515      3091
 -1      3268    3    0    1
 -2        42       785       918      1193
 -1      3269    3    0    1
 -2      2553      2783      3144      3701
 -1      3270    3    0    1
 -2      1338      1335       826      2170
 -1      3271    3    0    1
 -2      1078      2020      2036      2180
 -1      3272    3    0    1
 -2      1628      1627      2930      3133
 -1      3273    3    0    1
 -2       768      1041      1043      1196
 -1      3274    3    0    1
 -2      2802      2660      3568      3591
 -1      3275    3    0    1
 -2       825       500      1070      1204
 -1      3276    3    0    1
 -2       496      1200      1041       497
 -1      3277    3    0    1
 -2      1786      1694      1787        94
 -1      3278    3    0    1
 -2      2509      2534      3570      3598
 -1      3279    3    0    1
 -2      3362      3358      3678      3432
 -1      3280    3    0    1
 -2      2010      2065      2077      2139
 -1      3281    3    0    1
 -2       764       235       765      1199
 -1      3282    3    0    1
 -2       920      1325       764      1042
 -1      3283    3    0    1
 -2       439      3631      1878      3343
 -1      3284    3    0    1
 -2       828       825      1070      1204
 -1      3285    3    0    1
 -2        49        46       825      1204
 -1      3286    3    0    1
 -2       820       500       825      1204
 -1      3287    3    0    1
 -2      1896      1902      3374      3434
 -1      3288    3    0    1
 -2      1349       839       840      2066
 -1      3289    3    0    1
 -2       352       559       354      1676
 -1      3290    3    0    1
 -2      1689      3608      3719      3473
 -1      3291    3    0    1
 -2       826      2170      2314      2575
 -1      3292    3    0    1
 -2        49       828       284      1204
 -1      3293    3    0    1
 -2       828        49       825      1204
 -1      3294    3    0    1
 -2       500       501       821      1205
 -1      3295    3    0    1
 -2       830        48       287      1205
 -1      3296    3    0    1
 -2        48       830       824      1205
 -1      3297    3    0    1
 -2       829       281       821      1206
 -1      3298    3    0    1
 -2       501       500       820      1207
 -1      3299    3    0    1
 -2       820       500      1204      1207
 -1      3300    3    0    1
 -2       827        46       283      1207
 -1      3301    3    0    1
 -2        46       827       820      1207
 -1      3302    3    0    1
 -2       278       817       818      1208
 -1      3303    3    0    1
 -2       923      1337       818      1066
 -1      3304    3    0    1
 -2       278       818       923      1208
 -1      3305    3    0    1
 -2        48       824       922      1209
 -1      3306    3    0    1
 -2       803       506       809      1212
 -1      3307    3    0    1
 -2        50       803       809      1212
 -1      3308    3    0    1
 -2       506      1215      1212       803
 -1      3309    3    0    1
 -2       506      1215       803       507
 -1      3310    3    0    1
 -2        52       812       271      1212
 -1      3311    3    0    1
 -2       812        52       809      1212
 -1      3312    3    0    1
 -2       506      1214       507       804
 -1      3313    3    0    1
 -2       814        55       273      1213
 -1      3314    3    0    1
 -2        55       814       806      1213
 -1      3315    3    0    1
 -2        50       811       803      1215
 -1      3316    3    0    1
 -2       767      1246       511       773
 -1      3317    3    0    1
 -2       767      1246       773        45
 -1      3318    3    0    1
 -2       526       770      1045      1247
 -1      3319    3    0    1
 -2       511      1246       526       773
 -1      3320    3    0    1
 -2      1246       767       511      1218
 -1      3321    3    0    1
 -2       775        45        58      1218
 -1      3322    3    0    1
 -2        45       775       767      1218
 -1      3323    3    0    1
 -2      1851      3350      1917      1918
 -1      3324    3    0    1
 -2      1034       515      1224      1226
 -1      3325    3    0    1
 -2       988       997      2343      3518
 -1      3326    3    0    1
 -2      1534      3146      1836      3249
 -1      3327    3    0    1
 -2       974       623      2189      2204
 -1      3328    3    0    1
 -2      1393      1390      2108      2167
 -1      3329    3    0    1
 -2       515      1321      1226      1034
 -1      3330    3    0    1
 -2       622       516       628      1227
 -1      3331    3    0    1
 -2       221       747       746      1225
 -1      3332    3    0    1
 -2       746      1033      1223      1225
 -1      3333    3    0    1
 -2       221       746      1223      1225
 -1      3334    3    0    1
 -2       224         4       752      1226
 -1      3335    3    0    1
 -2       752      1034      1224      1226
 -1      3336    3    0    1
 -2       224       752      1224      1226
 -1      3337    3    0    1
 -2       516      1244      1227       622
 -1      3338    3    0    1
 -2       516      1244       622       525
 -1      3339    3    0    1
 -2       140       632       145      1227
 -1      3340    3    0    1
 -2       632       140       628      1227
 -1      3341    3    0    1
 -2       516      1235       624      1228
 -1      3342    3    0    1
 -2       634        61       143      1228
 -1      3343    3    0    1
 -2        61       634       627      1228
 -1      3344    3    0    1
 -2       517      1233       976      1230
 -1      3345    3    0    1
 -2       517      1233       520       976
 -1      3346    3    0    1
 -2       620      1234        60       621
 -1      3347    3    0    1
 -2      1999      2032      2047      2224
 -1      3348    3    0    1
 -2       976       624      1230      1233
 -1      3349    3    0    1
 -2       280      2170      2525      3425
 -1      3350    3    0    1
 -2      1108      1123      2171      2313
 -1      3351    3    0    1
 -2       633        66       624      1235
 -1      3352    3    0    1
 -2        61      1235       624        66
 -1      3353    3    0    1
 -2       638        65       639      1240
 -1      3354    3    0    1
 -2       638       639       984      1240
 -1      3355    3    0    1
 -2      2194      1336      2314      3505
 -1      3356    3    0    1
 -2      2993      1541      3151      3372
 -1      3357    3    0    1
 -2        63       155       646      1239
 -1      3358    3    0    1
 -2       396      2040      2051      2298
 -1      3359    3    0    1
 -2       640       982      1236      1239
 -1      3360    3    0    1
 -2        63       640      1236      1239
 -1      3361    3    0    1
 -2       524      1299      1243       523
 -1      3362    3    0    1
 -2       639       984      1240      1243
 -1      3363    3    0    1
 -2       642       983       985      1242
 -1      3364    3    0    1
 -2       642       152      1241      1242
 -1      3365    3    0    1
 -2       983       642      1241      1242
 -1      3366    3    0    1
 -2       984       523      1240      1243
 -1      3367    3    0    1
 -2       524      1299       523       644
 -1      3368    3    0    1
 -2       532       531       731      1245
 -1      3369    3    0    1
 -2       731        77       739      1245
 -1      3370    3    0    1
 -2       209        77       731      1245
 -1      3371    3    0    1
 -2       768      1247       511       930
 -1      3372    3    0    1
 -2       511      1247       770       526
 -1      3373    3    0    1
 -2      1471      1472      1656      2904
 -1      3374    3    0    1
 -2         9       658      1253      1255
 -1      3375    3    0    1
 -2       630      3619      3285      1899
 -1      3376    3    0    1
 -2       433       119      1510      1607
 -1      3377    3    0    1
 -2       731      1023      1249      1251
 -1      3378    3    0    1
 -2       737       531      1029      1256
 -1      3379    3    0    1
 -2      3520      3587      3683      3715
 -1      3380    3    0    1
 -2        70       731       737      1256
 -1      3381    3    0    1
 -2       731        70      1245      1256
 -1      3382    3    0    1
 -2       945      2237      2268      2425
 -1      3383    3    0    1
 -2       658       991      1253      1255
 -1      3384    3    0    1
 -2       731       531       737      1256
 -1      3385    3    0    1
 -2        70       740       215      1256
 -1      3386    3    0    1
 -2       740        70       737      1256
 -1      3387    3    0    1
 -2       535      1266      1263      1008
 -1      3388    3    0    1
 -2        78       722       203      1258
 -1      3389    3    0    1
 -2       722        78       718      1258
 -1      3390    3    0    1
 -2       534       713      1021      1262
 -1      3391    3    0    1
 -2       724        81        82      1259
 -1      3392    3    0    1
 -2        81       724       717      1259
 -1      3393    3    0    1
 -2      1270       660       993      1269
 -1      3394    3    0    1
 -2       534       714       717      1261
 -1      3395    3    0    1
 -2       533       534       717      1261
 -1      3396    3    0    1
 -2       533       717      1259      1261
 -1      3397    3    0    1
 -2       714        81       717      1261
 -1      3398    3    0    1
 -2       717        81      1259      1261
 -1      3399    3    0    1
 -2        83       723       204      1261
 -1      3400    3    0    1
 -2       723        83       714      1261
 -1      3401    3    0    1
 -2        79       721       713      1262
 -1      3402    3    0    1
 -2       535      1310      1264      1009
 -1      3403    3    0    1
 -2      1298       647       641      2143
 -1      3404    3    0    1
 -2       184       692      1263      1266
 -1      3405    3    0    1
 -2        89      1265       699       191
 -1      3406    3    0    1
 -2       692      1008      1263      1266
 -1      3407    3    0    1
 -2       744      2361      2381      2442
 -1      3408    3    0    1
 -2        85       678       681      1267
 -1      3409    3    0    1
 -2       934      1306       681      1001
 -1      3410    3    0    1
 -2        85       681       934      1267
 -1      3411    3    0    1
 -2        84       675       674      1268
 -1      3412    3    0    1
 -2       674      1000      1260      1268
 -1      3413    3    0    1
 -2        84       674      1260      1268
 -1      3414    3    0    1
 -2      2665       519      2774      2794
 -1      3415    3    0    1
 -2         7      1270       663       161
 -1      3416    3    0    1
 -2       699       706      1011      1274
 -1      3417    3    0    1
 -2       541      1273       542       700
 -1      3418    3    0    1
 -2      1273       695       541      1272
 -1      3419    3    0    1
 -2       703        11        88      1272
 -1      3420    3    0    1
 -2        11       703       695      1272
 -1      3421    3    0    1
 -2       696      1274       541       936
 -1      3422    3    0    1
 -2       541      1274       699       542
 -1      3423    3    0    1
 -2        81        83       714      1277
 -1      3424    3    0    1
 -2       198       331      1022      2348
 -1      3425    3    0    1
 -2       545      1315       715       716
 -1      3426    3    0    1
 -2       546      1315       715       545
 -1      3427    3    0    1
 -2       939      1315      1016       546
 -1      3428    3    0    1
 -2       546      1315      1016       715
 -1      3429    3    0    1
 -2      1017       545      1277      1279
 -1      3430    3    0    1
 -2      2255       563      2268      2601
 -1      3431    3    0    1
 -2       871      1104       872      2129
 -1      3432    3    0    1
 -2      2712      1521      1725      1726
 -1      3433    3    0    1
 -2      3221      3076      3401      3436
 -1      3434    3    0    1
 -2       530      1255      2559      2634
 -1      3435    3    0    1
 -2      1167      2947      3331      3420
 -1      3436    3    0    1
 -2       547       375       942      1281
 -1      3437    3    0    1
 -2      3198      3211      3653      3210
 -1      3438    3    0    1
 -2      1123       879      1108      2171
 -1      3439    3    0    1
 -2      2035      2008      2113      2172
 -1      3440    3    0    1
 -2       366      1967      2005      2048
 -1      3441    3    0    1
 -2       109       102      2420      2425
 -1      3442    3    0    1
 -2       553      1281       479       942
 -1      3443    3    0    1
 -2       912      1281       479      1173
 -1      3444    3    0    1
 -2       779      1045      1048      2408
 -1      3445    3    0    1
 -2      1645      2960      3161      3271
 -1      3446    3    0    1
 -2       361       968      2059      2082
 -1      3447    3    0    1
 -2      2767      1491      1685      1686
 -1      3448    3    0    1
 -2      2093      1996      2114      2333
 -1      3449    3    0    1
 -2      2218      2520      3504      2752
 -1      3450    3    0    1
 -2      2129      2086      2148      2149
 -1      3451    3    0    1
 -2       943       378      2237      2371
 -1      3452    3    0    1
 -2      1429      1428      3144      3162
 -1      3453    3    0    1
 -2      2375      1045      2377      2408
 -1      3454    3    0    1
 -2      1999      2047      2063      2224
 -1      3455    3    0    1
 -2       482       589       590      1288
 -1      3456    3    0    1
 -2       882      1405       893      2140
 -1      3457    3    0    1
 -2       291      1076      1346      2136
 -1      3458    3    0    1
 -2       914       566       950      1285
 -1      3459    3    0    1
 -2       484       571       572      1285
 -1      3460    3    0    1
 -2       484       950       571      1285
 -1      3461    3    0    1
 -2       914       484      1182      1285
 -1      3462    3    0    1
 -2       950       484       914      1285
 -1      3463    3    0    1
 -2       400       569       574      1286
 -1      3464    3    0    1
 -2       569      1164      1166      1286
 -1      3465    3    0    1
 -2       569       400      1283      1286
 -1      3466    3    0    1
 -2      1164       569      1283      1286
 -1      3467    3    0    1
 -2      2246      2228      2491      2563
 -1      3468    3    0    1
 -2      2228      2246      2288      2563
 -1      3469    3    0    1
 -2       963       599      2105      2605
 -1      3470    3    0    1
 -2      2105       599      2421      2605
 -1      3471    3    0    1
 -2      1992      1973      2051      2298
 -1      3472    3    0    1
 -2      1163       586       906      1289
 -1      3473    3    0    1
 -2       264      3571      3616      3311
 -1      3474    3    0    1
 -2       586       115       957      1289
 -1      3475    3    0    1
 -2      3545      1580      3709      3499
 -1      3476    3    0    1
 -2      3291      2922      3337      3705
 -1      3477    3    0    1
 -2       906       586       957      1289
 -1      3478    3    0    1
 -2      3539      3506      3629      3687
 -1      3479    3    0    1
 -2       609       129       968      1291
 -1      3480    3    0    1
 -2       904      1291       466      1155
 -1      3481    3    0    1
 -2       429      2012      2044      2310
 -1      3482    3    0    1
 -2       602       967      1156      1292
 -1      3483    3    0    1
 -2       603       602      1156      1292
 -1      3484    3    0    1
 -2       126       603       130      1292
 -1      3485    3    0    1
 -2       602       126       967      1292
 -1      3486    3    0    1
 -2       603       126       602      1292
 -1      3487    3    0    1
 -2       654      2206      2259      2412
 -1      3488    3    0    1
 -2      1406       884      1117      2127
 -1      3489    3    0    1
 -2      1988      2029      2031      2083
 -1      3490    3    0    1
 -2      1988      2011      2176      2178
 -1      3491    3    0    1
 -2      1981       365      2015      2207
 -1      3492    3    0    1
 -2       359       327      1080      2076
 -1      3493    3    0    1
 -2      1997       967      2053      2307
 -1      3494    3    0    1
 -2      2118      2150      2171      2173
 -1      3495    3    0    1
 -2      1319      1023      2046      2479
 -1      3496    3    0    1
 -2       517       625       626      1296
 -1      3497    3    0    1
 -2       137       621       139      1296
 -1      3498    3    0    1
 -2       620       137       975      1296
 -1      3499    3    0    1
 -2       621       137       620      1296
 -1      3500    3    0    1
 -2       625       517       975      1296
 -1      3501    3    0    1
 -2       409       622       628      1297
 -1      3502    3    0    1
 -2      2071      1008      2240      2266
 -1      3503    3    0    1
 -2      1232       622       931      1297
 -1      3504    3    0    1
 -2      1034       753      2233      2419
 -1      3505    3    0    1
 -2      1533      1532      2648      1659
 -1      3506    3    0    1
 -2       622       409       974      1297
 -1      3507    3    0    1
 -2      3322      3318      3670      3444
 -1      3508    3    0    1
 -2       931       622       974      1297
 -1      3509    3    0    1
 -2      1298      2143      2584      3579
 -1      3510    3    0    1
 -2       643       523       984      1299
 -1      3511    3    0    1
 -2       378      2248      2268      2371
 -1      3512    3    0    1
 -2       157       416       640      1300
 -1      3513    3    0    1
 -2       640       982      1239      1300
 -1      3514    3    0    1
 -2       646       640      1239      1300
 -1      3515    3    0    1
 -2      3263      3639      3474      3490
 -1      3516    3    0    1
 -2       672       671      2145      2270
 -1      3517    3    0    1
 -2       640       416       982      1300
 -1      3518    3    0    1
 -2      2246      2288      2502      2570
 -1      3519    3    0    1
 -2      1083       320      2334      2451
 -1      3520    3    0    1
 -2      1973      1992      2051      2231
 -1      3521    3    0    1
 -2       367       168      2145      2337
 -1      3522    3    0    1
 -2       539       661       662      1303
 -1      3523    3    0    1
 -2      1271       656       935      1303
 -1      3524    3    0    1
 -2       366       657       420      1303
 -1      3525    3    0    1
 -2       656       366       992      1303
 -1      3526    3    0    1
 -2       657       366       656      1303
 -1      3527    3    0    1
 -2       992       539       935      1303
 -1      3528    3    0    1
 -2       539      1271       935      1303
 -1      3529    3    0    1
 -2       539       992       661      1303
 -1      3530    3    0    1
 -2       935       656       992      1303
 -1      3531    3    0    1
 -2      2089      1983      2213      2360
 -1      3532    3    0    1
 -2      1297       629      2665      2774
 -1      3533    3    0    1
 -2      1296       139      1966      2385
 -1      3534    3    0    1
 -2       678       681      1267      1306
 -1      3535    3    0    1
 -2       174       175       681      1306
 -1      3536    3    0    1
 -2      2175       784      2241      2355
 -1      3537    3    0    1
 -2       934      1306       537      1267
 -1      3538    3    0    1
 -2       681       175      1001      1306
 -1      3539    3    0    1
 -2       674       172      1000      1307
 -1      3540    3    0    1
 -2       675       172       674      1307
 -1      3541    3    0    1
 -2      1390       875      2108      2167
 -1      3542    3    0    1
 -2      1994      2043      2085      2182
 -1      3543    3    0    1
 -2       442       443      1991      2227
 -1      3544    3    0    1
 -2      2037      2025      2049      2098
 -1      3545    3    0    1
 -2       707       726      1011      2079
 -1      3546    3    0    1
 -2       884      1406       894      2127
 -1      3547    3    0    1
 -2      2106      1993      2140      2414
 -1      3548    3    0    1
 -2      1970      2004      2041      2181
 -1      3549    3    0    1
 -2       647       659      1300      2312
 -1      3550    3    0    1
 -2       679       680      1000      2107
 -1      3551    3    0    1
 -2       535       697       698      1311
 -1      3552    3    0    1
 -2       187       693       429      1311
 -1      3553    3    0    1
 -2       692       187      1008      1311
 -1      3554    3    0    1
 -2       693       187       692      1311
 -1      3555    3    0    1
 -2       697       535      1008      1311
 -1      3556    3    0    1
 -2       429      2310      2336      2449
 -1      3557    3    0    1
 -2      1142       695       899      1312
 -1      3558    3    0    1
 -2      2063      2129      2148      2149
 -1      3559    3    0    1
 -2      1504      1553      3158      3194
 -1      3560    3    0    1
 -2       695       189      1007      1312
 -1      3561    3    0    1
 -2       899       695      1007      1312
 -1      3562    3    0    1
 -2       715       545       716      1314
 -1      3563    3    0    1
 -2      1017       545      1279      1314
 -1      3564    3    0    1
 -2      2056      2062      2097      2227
 -1      3565    3    0    1
 -2      1031       744      2361      2381
 -1      3566    3    0    1
 -2       716       545      1017      1314
 -1      3567    3    0    1
 -2       939      1315       546      1278
 -1      3568    3    0    1
 -2       175       174      1003      2068
 -1      3569    3    0    1
 -2       713       328      1015      1316
 -1      3570    3    0    1
 -2      2228      2185      3204      3243
 -1      3571    3    0    1
 -2      2629      1585      2680      2789
 -1      3572    3    0    1
 -2      1025      2195      2265      2298
 -1      3573    3    0    1
 -2       199      1970      2004      2124
 -1      3574    3    0    1
 -2      2417       581      2447      3690
 -1      3575    3    0    1
 -2      2064      1966      2096      2104
 -1      3576    3    0    1
 -2       395       728       729      1318
 -1      3577    3    0    1
 -2       733      1318       543      1025
 -1      3578    3    0    1
 -2       938      1318       543      1275
 -1      3579    3    0    1
 -2       730      1319       527      1023
 -1      3580    3    0    1
 -2      2698      2706      2779      3537
 -1      3581    3    0    1
 -2      2041      2033      2124      2126
 -1      3582    3    0    1
 -2       219       223       752      1321
 -1      3583    3    0    1
 -2       752      1034      1226      1321
 -1      3584    3    0    1
 -2       750       752      1226      1321
 -1      3585    3    0    1
 -2       752       223      1034      1321
 -1      3586    3    0    1
 -2      3548      1773      3600      3662
 -1      3587    3    0    1
 -2      1303       420      2037      2054
 -1      3588    3    0    1
 -2       220       747       225      1322
 -1      3589    3    0    1
 -2       746       220      1033      1322
 -1      3590    3    0    1
 -2       747       220       746      1322
 -1      3591    3    0    1
 -2      1310      2209      2252      2443
 -1      3592    3    0    1
 -2       739       731      1030      1750
 -1      3593    3    0    1
 -2      2622      1504      2716      3589
 -1      3594    3    0    1
 -2       772       763      1643      2836
 -1      3595    3    0    1
 -2      1979      1966      2064      2104
 -1      3596    3    0    1
 -2       765       764      1199      1325
 -1      3597    3    0    1
 -2       236       764       765      1325
 -1      3598    3    0    1
 -2       769      1325       496      1042
 -1      3599    3    0    1
 -2       920      1325       496      1199
 -1      3600    3    0    1
 -2       104       368      2118      2239
 -1      3601    3    0    1
 -2       659       665       994      2559
 -1      3602    3    0    1
 -2       767       237      1040      1326
 -1      3603    3    0    1
 -2      1457      1914      3493      3737
 -1      3604    3    0    1
 -2      2075      2016      2193      2302
 -1      3605    3    0    1
 -2       412       361      2059      2082
 -1      3606    3    0    1
 -2      1051       490      1191      1328
 -1      3607    3    0    1
 -2       787       490       789      1328
 -1      3608    3    0    1
 -2       783       351      1050      1329
 -1      3609    3    0    1
 -2       789       490      1051      1328
 -1      3610    3    0    1
 -2       819       826      2170      2314
 -1      3611    3    0    1
 -2      2011      1988      2029      2178
 -1      3612    3    0    1
 -2       491      1329       490      1189
 -1      3613    3    0    1
 -2      1658       952      3535      3575
 -1      3614    3    0    1
 -2       257       345       785      1330
 -1      3615    3    0    1
 -2       826      1068      2623      2781
 -1      3616    3    0    1
 -2      1336      1060      2194      2258
 -1      3617    3    0    1
 -2      2085      2014      2164      2197
 -1      3618    3    0    1
 -2       387       383       800      1333
 -1      3619    3    0    1
 -2      1479      1480      2704      1686
 -1      3620    3    0    1
 -2       785       345      1049      1330
 -1      3621    3    0    1
 -2      1675       346      3605      3635
 -1      3622    3    0    1
 -2      2229       769      2364      2464
 -1      3623    3    0    1
 -2      1986      1376      2091      2147
 -1      3624    3    0    1
 -2      1334       925       803      1210
 -1      3625    3    0    1
 -2       927      1333       508      1216
 -1      3626    3    0    1
 -2      1325      2075      2283      2301
 -1      3627    3    0    1
 -2       637       648      2572      1537
 -1      3628    3    0    1
 -2      1475      1474      2659      1741
 -1      3629    3    0    1
 -2      1994      2034      2103      2186
 -1      3630    3    0    1
 -2       819       826      1068      2623
 -1      3631    3    0    1
 -2       863      1378       864      2114
 -1      3632    3    0    1
 -2       921      1338       825      1335
 -1      3633    3    0    1
 -2      2033      2009      2124      2126
 -1      3634    3    0    1
 -2      1338       921       825      1202
 -1      3635    3    0    1
 -2      2941      3252      3641      3356
 -1      3636    3    0    1
 -2       277       818       817      1337
 -1      3637    3    0    1
 -2       923      1337       502      1208
 -1      3638    3    0    1
 -2       818       386      1066      1337
 -1      3639    3    0    1
 -2       818       277       386      1337
 -1      3640    3    0    1
 -2       825       285      1335      1338
 -1      3641    3    0    1
 -2      2198      2195      2234      2399
 -1      3642    3    0    1
 -2       753       751      1034      2233
 -1      3643    3    0    1
 -2      1976      2060      2102      2311
 -1      3644    3    0    1
 -2      1980      1974      1982      2081
 -1      3645    3    0    1
 -2      1990      2056      2097      2123
 -1      3646    3    0    1
 -2      1126       382      2097      2123
 -1      3647    3    0    1
 -2      2062      2123      2295      2325
 -1      3648    3    0    1
 -2       425      1310      2116      2443
 -1      3649    3    0    1
 -2       253      2016      2075      2477
 -1      3650    3    0    1
 -2      2630      3533      3064      3066
 -1      3651    3    0    1
 -2       420      2037      2049      2098
 -1      3652    3    0    1
 -2      1419      3501      1508      3507
 -1      3653    3    0    1
 -2      2433      2308      1388      2299
 -1      3654    3    0    1
 -2       958      2018      2269      2481
 -1      3655    3    0    1
 -2      2038      2109      2165      2287
 -1      3656    3    0    1
 -2       837      1346      1076      2042
 -1      3657    3    0    1
 -2      1124       883      1115      2179
 -1      3658    3    0    1
 -2       623       629      1297      2189
 -1      3659    3    0    1
 -2       156       157      3518      1733
 -1      3660    3    0    1
 -2      1359      2155      2156      2173
 -1      3661    3    0    1
 -2      2065      2010      2077      2122
 -1      3662    3    0    1
 -2      2041      2152      2256      2352
 -1      3663    3    0    1
 -2       987       338       990      2206
 -1      3664    3    0    1
 -2       843      2017      1355       844
 -1      3665    3    0    1
 -2      1329      2022      2164      2372
 -1      3666    3    0    1
 -2      3535      2647      2972      3182
 -1      3667    3    0    1
 -2       697      1008      2055      2266
 -1      3668    3    0    1
 -2      1374       859       860      2137
 -1      3669    3    0    1
 -2       694       701      1312      2153
 -1      3670    3    0    1
 -2       865      2088      2099      2346
 -1      3671    3    0    1
 -2      1993      2106      2140      2144
 -1      3672    3    0    1
 -2      2320       662      2327      2350
 -1      3673    3    0    1
 -2       301       316      1089      2180
 -1      3674    3    0    1
 -2      1314      2234      2304      2348
 -1      3675    3    0    1
 -2      1400       324      1118      2200
 -1      3676    3    0    1
 -2       398        93      3578      1796
 -1      3677    3    0    1
 -2       431       441      2077      2122
 -1      3678    3    0    1
 -2      1037       761      2446      2465
 -1      3679    3    0    1
 -2      2218      1018      2388      3602
 -1      3680    3    0    1
 -2      1311       698      2159      2169
 -1      3681    3    0    1
 -2       581      2417      2447      2461
 -1      3682    3    0    1
 -2       885      1122       888      2168
 -1      3683    3    0    1
 -2      2012      2044      2310      2336
 -1      3684    3    0    1
 -2       301      1352       316      2180
 -1      3685    3    0    1
 -2       756       766      2273      2342
 -1      3686    3    0    1
 -2      1033       220      2262      2300
 -1      3687    3    0    1
 -2      1983      2039      2213      2360
 -1      3688    3    0    1
 -2       302      1123      1108      2313
 -1      3689    3    0    1
 -2      1995      2073      2130      2303
 -1      3690    3    0    1
 -2      2283      2075      2302      2477
 -1      3691    3    0    1
 -2       751      2233      2272      2300
 -1      3692    3    0    1
 -2      2196       716      2234      2380
 -1      3693    3    0    1
 -2       420       366      1303      1967
 -1      3694    3    0    1
 -2       121       958      2269      2391
 -1      3695    3    0    1
 -2       581       582       954      2417
 -1      3696    3    0    1
 -2       983       159      2395      2444
 -1      3697    3    0    1
 -2       629      2189      2205      2386
 -1      3698    3    0    1
 -2      2233       753      2272      2419
 -1      3699    3    0    1
 -2      2031      1375      2147      2313
 -1      3700    3    0    1
 -2      2059       412      2160      2321
 -1      3701    3    0    1
 -2       978       990      2206      2259
 -1      3702    3    0    1
 -2      2129      1999      2148      2358
 -1      3703    3    0    1
 -2      2095      2114      2119      2193
 -1      3704    3    0    1
 -2      2118      1984      2150      2173
 -1      3705    3    0    1
 -2      1063       348      1969      2261
 -1      3706    3    0    1
 -2       607       967      2019      2362
 -1      3707    3    0    1
 -2      2023      2060      2289      2368
 -1      3708    3    0    1
 -2      2047      1322      2263      2419
 -1      3709    3    0    1
 -2      1281       375      2011      2021
 -1      3710    3    0    1
 -2      1405       310       389      2144
 -1      3711    3    0    1
 -2       563      2135      2255      2268
 -1      3712    3    0    1
 -2       405       954       955      2417
 -1      3713    3    0    1
 -2      2763      2664      3543      3438
 -1      3714    3    0    1
 -2       175       174      2068      2271
 -1      3715    3    0    1
 -2       193      1011      2079      2316
 -1      3716    3    0    1
 -2      1306      2107      2253      2271
 -1      3717    3    0    1
 -2       605       611       966      2291
 -1      3718    3    0    1
 -2      2379      2003      2414      2434
 -1      3719    3    0    1
 -2       166       993      2253      2276
 -1      3720    3    0    1
 -2       317      1084      1369      2090
 -1      3721    3    0    1
 -2      2655       969      2687      3618
 -1      3722    3    0    1
 -2       299      1087      1085      2366
 -1      3723    3    0    1
 -2       430      2002      2151      2200
 -1      3724    3    0    1
 -2      1985       293      2006      2066
 -1      3725    3    0    1
 -2       285       280      1335      2170
 -1      3726    3    0    1
 -2       130       126      2210      2394
 -1      3727    3    0    1
 -2      1346       837       838      2042
 -1      3728    3    0    1
 -2      1061       832      1072      2416
 -1      3729    3    0    1
 -2       325      1401       326      2173
 -1      3730    3    0    1
 -2       172       423      2008      2172
 -1      3731    3    0    1
 -2      3690       108      3699      1954
 -1      3732    3    0    1
 -2      1352       301      1078      2180
 -1      3733    3    0    1
 -2       860      1374      2137      2330
 -1      3734    3    0    1
 -2      1366      2077      2122      2142
 -1      3735    3    0    1
 -2       599       962       965      2447
 -1      3736    3    0    1
 -2       387      2254      2332      2401
 -1      3737    3    0    1
 -2       789      2219      2238      2372
 -1      3738    3    0    1
 -2      2064      2132      2180      2203
 -1      3739    3    0    1
 -2      1306      1001       679      2107
 -1      3740    3    0    1
 -2      1307       423      2172      2188
 -1      3741    3    0    1
 -2      1983      2050      2125      2360
 -1      3742    3    0    1
 -2      1314       715      2159      2177
 -1      3743    3    0    1
 -2       856      1087      2039      2157
 -1      3744    3    0    1
 -2      1982      2131      2163      2279
 -1      3745    3    0    1
 -2      1974      2081      2184      2374
 -1      3746    3    0    1
 -2      1315      2051      2196      2198
 -1      3747    3    0    1
 -2       962       599      2340      2447
 -1      3748    3    0    1
 -2       690      2068      2297      2431
 -1      3749    3    0    1
 -2       647       986      1301      2143
 -1      3750    3    0    1
 -2      1123      2150      2171      2313
 -1      3751    3    0    1
 -2      1972       822      2428      2455
 -1      3752    3    0    1
 -2      2133      1299      2279      2323
 -1      3753    3    0    1
 -2      2099       444      2346      2430
 -1      3754    3    0    1
 -2      1125       880       891      2325
 -1      3755    3    0    1
 -2      2025      2037      2049      2094
 -1      3756    3    0    1
 -2       300      1086      1371      2207
 -1      3757    3    0    1
 -2       315      1373      2104      2203
 -1      3758    3    0    1
 -2      1293       611      2138      2291
 -1      3759    3    0    1
 -2      1965       225      2217      2224
 -1      3760    3    0    1
 -2      1683      1682      1753      3239
 -1      3761    3    0    1
 -2       319      1119      2167      2274
 -1      3762    3    0    1
 -2      1975      1347      2393      2472
 -1      3763    3    0    1
 -2      2143       659      2312      2406
 -1      3764    3    0    1
 -2      1018       719      1313      2388
 -1      3765    3    0    1
 -2      2246      2222      2161      2407
 -1      3766    3    0    1
 -2       881      1126      1397      2056
 -1      3767    3    0    1
 -2      1971      2294      2296      2437
 -1      3768    3    0    1
 -2       889      1123      2150      2171
 -1      3769    3    0    1
 -2       679      1306      2107      2253
 -1      3770    3    0    1
 -2      2299      2001      2433      2448
 -1      3771    3    0    1
 -2       881      2056      2097      2227
 -1      3772    3    0    1
 -2      1994      1097      2034      2043
 -1      3773    3    0    1
 -2       851      1368      1365      2142
 -1      3774    3    0    1
 -2      1388       874      2299      2308
 -1      3775    3    0    1
 -2      1002      1305       676      2510
 -1      3776    3    0    1
 -2      1569      1424      3513      3222
 -1      3777    3    0    1
 -2      2146      2295      2328      2430
 -1      3778    3    0    1
 -2       360       121       962      2447
 -1      3779    3    0    1
 -2       881       892      1126      2056
 -1      3780    3    0    1
 -2       797      1053      1056      2452
 -1      3781    3    0    1
 -2       574       578       954      1954
 -1      3782    3    0    1
 -2      2017      2007      2112      2334
 -1      3783    3    0    1
 -2      2167      1973      2168      2200
 -1      3784    3    0    1
 -2      1089       316      2036      2180
 -1      3785    3    0    1
 -2      2059      2082      2130      2280
 -1      3786    3    0    1
 -2       422       427      2068      2242
 -1      3787    3    0    1
 -2       223       232      2398      2450
 -1      3788    3    0    1
 -2      1075      1339      2166      2187
 -1      3789    3    0    1
 -2      1982      1980      2064      2096
 -1      3790    3    0    1
 -2      1036       761      1048      2074
 -1      3791    3    0    1
 -2      3594      3599      3219      3373
 -1      3792    3    0    1
 -2      1325       236      1968      2364
 -1      3793    3    0    1
 -2       600       581      2447      2461
 -1      3794    3    0    1
 -2       836      1343      2038      2183
 -1      3795    3    0    1
 -2      1368       852      2122      2142
 -1      3796    3    0    1
 -2      1064       275      2219      2480
 -1      3797    3    0    1
 -2      2114      2093      2119      2193
 -1      3798    3    0    1
 -2      2046      1023      2471      2479
 -1      3799    3    0    1
 -2      2051      2195      2196      2198
 -1      3800    3    0    1
 -2      1339      2102      2166      2187
 -1      3801    3    0    1
 -2      2117      1106      2260      2353
 -1      3802    3    0    1
 -2      1343       835       836      2038
 -1      3803    3    0    1
 -2       845       846      2155      2156
 -1      3804    3    0    1
 -2       373       289      1341      2183
 -1      3805    3    0    1
 -2      2256      2009      2260      2353
 -1      3806    3    0    1
 -2      2006      2066      2212      2296
 -1      3807    3    0    1
 -2       875      1392       876      2101
 -1      3808    3    0    1
 -2      2241      1052      2257      2600
 -1      3809    3    0    1
 -2       189       330      1012      2390
 -1      3810    3    0    1
 -2      1396      1106      2117      2353
 -1      3811    3    0    1
 -2       999      1308      2208      2243
 -1      3812    3    0    1
 -2       716      1017      2198      2234
 -1      3813    3    0    1
 -2      2034       868      2093      2186
 -1      3814    3    0    1
 -2      1408      2152      2256      2353
 -1      3815    3    0    1
 -2      2202      2192      2373      2463
 -1      3816    3    0    1
 -2      2010      2057      2113      2120
 -1      3817    3    0    1
 -2       387       383      1333      2254
 -1      3818    3    0    1
 -2       351       253      1050      2080
 -1      3819    3    0    1
 -2       102       112      2363      2417
 -1      3820    3    0    1
 -2      1000      2107      2172      2225
 -1      3821    3    0    1
 -2       351      1329      2164      2372
 -1      3822    3    0    1
 -2      2002      1105      2151      2299
 -1      3823    3    0    1
 -2      3545      3520      3724      3683
 -1      3824    3    0    1
 -2       854      1084      2058      2090
 -1      3825    3    0    1
 -2      1996      2016      2103      2186
 -1      3826    3    0    1
 -2      1407       887      1121      2120
 -1      3827    3    0    1
 -2       304      1097      1994      2043
 -1      3828    3    0    1
 -2       365       300      2015      2207
 -1      3829    3    0    1
 -2      1067      2284      2424      2428
 -1      3830    3    0    1
 -2       654       653       990      2206
 -1      3831    3    0    1
 -2      1087       299       318      2366
 -1      3832    3    0    1
 -2       648      2572      1537      3065
 -1      3833    3    0    1
 -2      2301      2283      2445      2473
 -1      3834    3    0    1
 -2      1310      2055      2116      2266
 -1      3835    3    0    1
 -2      2023      1976      2092      2245
 -1      3836    3    0    1
 -2      1130      1398      2152      2352
 -1      3837    3    0    1
 -2      2109      2038      2183      2287
 -1      3838    3    0    1
 -2       212       394      1026      2466
 -1      3839    3    0    1
 -2      1488      1885      3405      1886
 -1      3840    3    0    1
 -2      2093      1378      2114      2119
 -1      3841    3    0    1
 -2       855      1087       856      2157
 -1      3842    3    0    1
 -2      2370       954      2417      3690
 -1      3843    3    0    1
 -2      1373       858      2132      2203
 -1      3844    3    0    1
 -2       816       815      1064      1969
 -1      3845    3    0    1
 -2      1068      1336       819      2623
 -1      3846    3    0    1
 -2      2004      2101      2181      2231
 -1      3847    3    0    1
 -2      1023       210      2471      2479
 -1      3848    3    0    1
 -2      1359       845       846      2155
 -1      3849    3    0    1
 -2      2060      2166      2289      2368
 -1      3850    3    0    1
 -2       327      1124      1115      2076
 -1      3851    3    0    1
 -2      1107       879      2150      2171
 -1      3852    3    0    1
 -2       769      1042      2229      2364
 -1      3853    3    0    1
 -2       272      1057      2480      2486
 -1      3854    3    0    1
 -2      2150      1988      2171      2313
 -1      3855    3    0    1
 -2       375      2011      2021      2176
 -1      3856    3    0    1
 -2       735       733      2331      2469
 -1      3857    3    0    1
 -2       364      2279      2323      2374
 -1      3858    3    0    1
 -2      1323       343      2478      2578
 -1      3859    3    0    1
 -2      1438      1439      3137      3281
 -1      3860    3    0    1
 -2       854       853      1084      2090
 -1      3861    3    0    1
 -2      1731      1730      2968      3297
 -1      3862    3    0    1
 -2      2740      1541      3568      3321
 -1      3863    3    0    1
 -2      2592      1489      2867      1583
 -1      3864    3    0    1
 -2       308      1368      2012      2142
 -1      3865    3    0    1
 -2      2025      2007      2049      2058
 -1      3866    3    0    1
 -2       841      1352      1078      2184
 -1      3867    3    0    1
 -2      2084       395      2400      2469
 -1      3868    3    0    1
 -2       289      1986      2091      2183
 -1      3869    3    0    1
 -2       428       425      1011      2316
 -1      3870    3    0    1
 -2       593       587      1289      2512
 -1      3871    3    0    1
 -2      1080       359      2076      2368
 -1      3872    3    0    1
 -2       993       166      2253      2320
 -1      3873    3    0    1
 -2      1977      2023      2076      2289
 -1      3874    3    0    1
 -2      2242      2141      2548      3550
 -1      3875    3    0    1
 -2      2072      1977      2076      2179
 -1      3876    3    0    1
 -2      2017      2094      2100      2112
 -1      3877    3    0    1
 -2       558       449      1489      2627
 -1      3878    3    0    1
 -2      3018      2861      3677      3691
 -1      3879    3    0    1
 -2      1980      2064      2096      2132
 -1      3880    3    0    1
 -2      1914      1915      3409      3478
 -1      3881    3    0    1
 -2       311      1075      2166      2187
 -1      3882    3    0    1
 -2       832      1069      1072      2423
 -1      3883    3    0    1
 -2       815      1061      1064      1969
 -1      3884    3    0    1
 -2       429       187      1311      2240
 -1      3885    3    0    1
 -2       987       338      2206      2278
 -1      3886    3    0    1
 -2       315       362      1088      2203
 -1      3887    3    0    1
 -2       581       600       965      2461
 -1      3888    3    0    1
 -2       309      1343      2338      2345
 -1      3889    3    0    1
 -2       293      1357      2155      2156
 -1      3890    3    0    1
 -2      1042       238      2047      2277
 -1      3891    3    0    1
 -2      2008       423      2113      2172
 -1      3892    3    0    1
 -2      1101      1384      2144      2315
 -1      3893    3    0    1
 -2       697       698      1311      2252
 -1      3894    3    0    1
 -2      1059       805      1057      2486
 -1      3895    3    0    1
 -2       431      1399      1129      2121
 -1      3896    3    0    1
 -2      1124      1115      2076      2179
 -1      3897    3    0    1
 -2       967       126      2053      2307
 -1      3898    3    0    1
 -2      2094      2007      2100      2190
 -1      3899    3    0    1
 -2      1124       327       359      2076
 -1      3900    3    0    1
 -2      1011       425      1014      2316
 -1      3901    3    0    1
 -2      2132       857      2180      2203
 -1      3902    3    0    1
 -2       701       694      1312      2556
 -1      3903    3    0    1
 -2       779       798      1045      2377
 -1      3904    3    0    1
 -2       319       307      1119      2274
 -1      3905    3    0    1
 -2      1315       418      1970      2196
 -1      3906    3    0    1
 -2       590      1288      2306      2413
 -1      3907    3    0    1
 -2       865      1381       866      2338
 -1      3908    3    0    1
 -2       366      1967      2048      2050
 -1      3909    3    0    1
 -2       385      2284      2428      2462
 -1      3910    3    0    1
 -2      2141       676      2243      2406
 -1      3911    3    0    1
 -2       428       193      2209      2316
 -1      3912    3    0    1
 -2      1808      1816      3200      3283
 -1      3913    3    0    1
 -2      1074       834      2393      2472
 -1      3914    3    0    1
 -2       883      1402      1114      2179
 -1      3915    3    0    1
 -2      1986       376      2091      2165
 -1      3916    3    0    1
 -2       605       593       961      2290
 -1      3917    3    0    1
 -2       347      1536      3604      3630
 -1      3918    3    0    1
 -2       295      1355      2334      2451
 -1      3919    3    0    1
 -2      2362      1291      2397      2410
 -1      3920    3    0    1
 -2       863      1095      2114      2119
 -1      3921    3    0    1
 -2       363       976      2324      2444
 -1      3922    3    0    1
 -2      2004      1392      2101      2108
 -1      3923    3    0    1
 -2      1057      2219      2480      2486
 -1      3924    3    0    1
 -2       712      2153      2388      2498
 -1      3925    3    0    1
 -2      2013      2222      2246      2407
 -1      3926    3    0    1
 -2      2661      2483      3529      3530
 -1      3927    3    0    1
 -2       352      2230      2232      2440
 -1      3928    3    0    1
 -2      1288       590      2019      2413
 -1      3929    3    0    1
 -2       442       443      1112      2341
 -1      3930    3    0    1
 -2       382       446      2097      2123
 -1      3931    3    0    1
 -2      1988      2150      2178      2239
 -1      3932    3    0    1
 -2       149       984      1299      2279
 -1      3933    3    0    1
 -2      2039      1983      2125      2360
 -1      3934    3    0    1
 -2       253      2016      2080      2103
 -1      3935    3    0    1
 -2       797      1053      2452      2453
 -1      3936    3    0    1
 -2       599      2105      2340      2447
 -1      3937    3    0    1
 -2      1424      3517      3525      3628
 -1      3938    3    0    1
 -2      1106       877      2117      2260
 -1      3939    3    0    1
 -2      1281      2011      2251      2389
 -1      3940    3    0    1
 -2      2061      3039      3588      3105
 -1      3941    3    0    1
 -2      1442      1443      2815      2854
 -1      3942    3    0    1
 -2       553       942      2215      2378
 -1      3943    3    0    1
 -2      2009      2041      2124      2256
 -1      3944    3    0    1
 -2      2110       199      2126      2177
 -1      3945    3    0    1
 -2      2275       402      2340      2410
 -1      3946    3    0    1
 -2       733      1024      2195      2198
 -1      3947    3    0    1
 -2      2146      1989      2295      2430
 -1      3948    3    0    1
 -2      2102      2060      2166      2187
 -1      3949    3    0    1
 -2      2044      2065      2139      2142
 -1      3950    3    0    1
 -2      2029      1988      2171      2178
 -1      3951    3    0    1
 -2       384       388      1072      2416
 -1      3952    3    0    1
 -2       370      2286      2296      2437
 -1      3953    3    0    1
 -2       590       960      2306      2391
 -1      3954    3    0    1
 -2      2009      2033      2041      2256
 -1      3955    3    0    1
 -2      1979      2104      2192      2202
 -1      3956    3    0    1
 -2       199      1970      2124      2126
 -1      3957    3    0    1
 -2       414       409      1297      2189
 -1      3958    3    0    1
 -2       396      1025      2265      2298
 -1      3959    3    0    1
 -2       853      1083      2025      2058
 -1      3960    3    0    1
 -2      2017      2007      2094      2112
 -1      3961    3    0    1
 -2       412      1295      2059      2160
 -1      3962    3    0    1
 -2      2050      1983      2125      2137
 -1      3963    3    0    1
 -2      2073       130      2210      2394
 -1      3964    3    0    1
 -2       625       626      1296      2280
 -1      3965    3    0    1
 -2       302      1108      2171      2313
 -1      3966    3    0    1
 -2       441       431      1366      2122
 -1      3967    3    0    1
 -2      2038      1987      2109      2345
 -1      3968    3    0    1
 -2       779      1046      2369      2408
 -1      3969    3    0    1
 -2      2053      2092      2245      2307
 -1      3970    3    0    1
 -2      1532      1449      3041      3393
 -1      3971    3    0    1
 -2      2152      2009      2256      2353
 -1      3972    3    0    1
 -2      1982      1980      2096      2221
 -1      3973    3    0    1
 -2      1346      1076      2042      2136
 -1      3974    3    0    1
 -2      2064      1979      2132      2203
 -1      3975    3    0    1
 -2       392      1102      1998      2086
 -1      3976    3    0    1
 -2      1084       421      2058      2090
 -1      3977    3    0    1
 -2      2077      2010      2121      2122
 -1      3978    3    0    1
 -2       701      1015      1312      2153
 -1      3979    3    0    1
 -2      2226       951      2363      2420
 -1      3980    3    0    1
 -2      2305      2244      2357      2438
 -1      3981    3    0    1
 -2       712      1015      2153      2498
 -1      3982    3    0    1
 -2      2783      2835      3151      3682
 -1      3983    3    0    1
 -2      2071       187      2139      2240
 -1      3984    3    0    1
 -2      1061       267      1969      2422
 -1      3985    3    0    1
 -2       395      1025      1318      2265
 -1      3986    3    0    1
 -2      1965       220      2262      2438
 -1      3987    3    0    1
 -2      2007      2037      2049      2190
 -1      3988    3    0    1
 -2       425       428      1009      2209
 -1      3989    3    0    1
 -2       420      1967      2037      2098
 -1      3990    3    0    1
 -2      2081      2015      2184      2374
 -1      3991    3    0    1
 -2      2267       823      2293      2424
 -1      3992    3    0    1
 -2       364      1974      2279      2374
 -1      3993    3    0    1
 -2      1333       387      2254      2332
 -1      3994    3    0    1
 -2      2002       395      2070      2084
 -1      3995    3    0    1
 -2      1031       744      2381      2442
 -1      3996    3    0    1
 -2      2005      2049      2058      2098
 -1      3997    3    0    1
 -2      1033      1322      1965      2272
 -1      3998    3    0    1
 -2       391      2229      2263      2398
 -1      3999    3    0    1
 -2      2039       856      2157      2207
 -1      4000    3    0    1
 -2       886       896      1130      2152
 -1      4001    3    0    1
 -2      3558      2621      3012      3168
 -1      4002    3    0    1
 -2       949       102      2363      2420
 -1      4003    3    0    1
 -2       946       955      2249      2601
 -1      4004    3    0    1
 -2       716       715      1314      2234
 -1      4005    3    0    1
 -2       367       993      1302      2320
 -1      4006    3    0    1
 -2       216      2195      2198      2399
 -1      4007    3    0    1
 -2       784      2175      2241      2257
 -1      4008    3    0    1
 -2      1417      1416      3345      3394
 -1      4009    3    0    1
 -2       267       272      1064      1969
 -1      4010    3    0    1
 -2      1984      2118      2150      2239
 -1      4011    3    0    1
 -2       832       831      1069      2423
 -1      4012    3    0    1
 -2      2030       423      2055      2188
 -1      4013    3    0    1
 -2      1323      1032      2342      2478
 -1      4014    3    0    1
 -2      1016      2110      2159      2177
 -1      4015    3    0    1
 -2       748       756      1032      2342
 -1      4016    3    0    1
 -2       947       564      2135      2255
 -1      4017    3    0    1
 -2      1061      1969      2416      2422
 -1      4018    3    0    1
 -2      1368       851       852      2142
 -1      4019    3    0    1
 -2      1981      1350      2020      2184
 -1      4020    3    0    1
 -2      1402      1114      2179      2376
 -1      4021    3    0    1
 -2      1977      2023      2092      2394
 -1      4022    3    0    1
 -2      2129      1998      2149      2199
 -1      4023    3    0    1
 -2       779       780      1047      2408
 -1      4024    3    0    1
 -2       366       420      2005      2098
 -1      4025    3    0    1
 -2       564       563      2135      2255
 -1      4026    3    0    1
 -2      2005      2058      2090      2098
 -1      4027    3    0    1
 -2      1017       716      1314      2234
 -1      4028    3    0    1
 -2       129       968      1291      2397
 -1      4029    3    0    1
 -2       118      2105      2383      2403
 -1      4030    3    0    1
 -2      1349      2006      2066      2212
 -1      4031    3    0    1
 -2       635       978       981      2259
 -1      4032    3    0    1
 -2       416       982      1300      2026
 -1      4033    3    0    1
 -2      1050      1329      2080      2468
 -1      4034    3    0    1
 -2      1310       425      2209      2443
 -1      4035    3    0    1
 -2       300       365      1086      2207
 -1      4036    3    0    1
 -2      1000       679      2107      2225
 -1      4037    3    0    1
 -2       422       999      2208      2242
 -1      4038    3    0    1
 -2      1682      1752      3239      3622
 -1      4039    3    0    1
 -2       981       636      2158      2321
 -1      4040    3    0    1
 -2      1303      2037      2327      2350
 -1      4041    3    0    1
 -2      2014       383      2022      2164
 -1      4042    3    0    1
 -2       267       272      1969      2422
 -1      4043    3    0    1
 -2      2025       853      2058      2090
 -1      4044    3    0    1
 -2      2014      1993      2164      2197
 -1      4045    3    0    1
 -2      2024      2005      2090      2098
 -1      4046    3    0    1
 -2       593      1289      2290      2291
 -1      4047    3    0    1
 -2       419       166      2320      2339
 -1      4048    3    0    1
 -2      1001       426      2211      2516
 -1      4049    3    0    1
 -2       951       372      2318      2363
 -1      4050    3    0    1
 -2       951       949      2363      2420
 -1      4051    3    0    1
 -2       895      2120      1399       887
 -1      4052    3    0    1
 -2       369      2087      2286      2413
 -1      4053    3    0    1
 -2      2029      2031      2147      2313
 -1      4054    3    0    1
 -2      1313      2218      3632      3644
 -1      4055    3    0    1
 -2       787       789      2468      2484
 -1      4056    3    0    1
 -2      2776      1662      2978      3182
 -1      4057    3    0    1
 -2       611       605       969      2138
 -1      4058    3    0    1
 -2      2047       238      2199      2277
 -1      4059    3    0    1
 -2      1980      1974      2096      2221
 -1      4060    3    0    1
 -2       625       975      2130      2280
 -1      4061    3    0    1
 -2      2060      1976      2245      2311
 -1      4062    3    0    1
 -2      2032       225      2217      2305
 -1      4063    3    0    1
 -2      2165      1986      2183      2287
 -1      4064    3    0    1
 -2       853       854      2058      2090
 -1      4065    3    0    1
 -2      1099      2034      2043      2186
 -1      4066    3    0    1
 -2       626      1296      2131      2163
 -1      4067    3    0    1
 -2       187      2044      2065      2240
 -1      4068    3    0    1
 -2       303      1378      1377      2333
 -1      4069    3    0    1
 -2      2109      1987      2287      2411
 -1      4070    3    0    1
 -2      1363      1362      2104      2463
 -1      4071    3    0    1
 -2      2056      1126      2097      2123
 -1      4072    3    0    1
 -2      1401      1107      2150      2173
 -1      4073    3    0    1
 -2      1708       329      2920      1875
 -1      4074    3    0    1
 -2      1042      2229      2263       769
 -1      4075    3    0    1
 -2      2019      1997      2306      2410
 -1      4076    3    0    1
 -2       636      2158      2321      2485
 -1      4077    3    0    1
 -2       611      1293      2138      2204
 -1      4078    3    0    1
 -2      2015      2020      2081      2184
 -1      4079    3    0    1
 -2      1343      2109      2338      2345
 -1      4080    3    0    1
 -2       607       608       967      2362
 -1      4081    3    0    1
 -2      1377      1378      2114      2333
 -1      4082    3    0    1
 -2      2016       253      2080      2427
 -1      4083    3    0    1
 -2       372       371      2269      2461
 -1      4084    3    0    1
 -2       822      2236      2428      2455
 -1      4085    3    0    1
 -2      2083      2031      2091      2147
 -1      4086    3    0    1
 -2      1970      2004      2181      2231
 -1      4087    3    0    1
 -2       698      1009      2209      2252
 -1      4088    3    0    1
 -2       858       857      2132      2203
 -1      4089    3    0    1
 -2      2363       102      2417      2425
 -1      4090    3    0    1
 -2      2013      2185      2228      2322
 -1      4091    3    0    1
 -2      1004       689      2068      2319
 -1      4092    3    0    1
 -2      1001       680      2107      2211
 -1      4093    3    0    1
 -2       716       715      2234      2380
 -1      4094    3    0    1
 -2      2216      1012      2365      2390
 -1      4095    3    0    1
 -2      2030      2010      2057      2113
 -1      4096    3    0    1
 -2       236       238      1042      1968
 -1      4097    3    0    1
 -2       419       367       995      2145
 -1      4098    3    0    1
 -2       815      1061      1969      2416
 -1      4099    3    0    1
 -2       304       305      2043      2182
 -1      4100    3    0    1
 -2      3105      2965      3608      3437
 -1      4101    3    0    1
 -2       348       270      1063      1969
 -1      4102    3    0    1
 -2      2155      2118      2156      2173
 -1      4103    3    0    1
 -2       225       220      1322      1965
 -1      4104    3    0    1
 -2      2077      2010      2120      2121
 -1      4105    3    0    1
 -2      1322       225      1965      2272
 -1      4106    3    0    1
 -2      3135      3553      3158      3367
 -1      4107    3    0    1
 -2      1342       835      1341      2183
 -1      4108    3    0    1
 -2      1981      2015      2020      2081
 -1      4109    3    0    1
 -2      1036       761      2074      2450
 -1      4110    3    0    1
 -2      1016      1970      2177      2380
 -1      4111    3    0    1
 -2      1041       243      1043      2464
 -1      4112    3    0    1
 -2       369      2053      2087      2413
 -1      4113    3    0    1
 -2      1053      1064      2452      2453
 -1      4114    3    0    1
 -2       375      2011      2083      2344
 -1      4115    3    0    1
 -2      2028      2027      2088      2099
 -1      4116    3    0    1
 -2       298      2012      2111      2142
 -1      4117    3    0    1
 -2       991       659      2141      2312
 -1      4118    3    0    1
 -2      2263      1034      2398      2419
 -1      4119    3    0    1
 -2      1357       845      2155      2156
 -1      4120    3    0    1
 -2       329      3563      3632      3645
 -1      4121    3    0    1
 -2       409       974      1297      2189
 -1      4122    3    0    1
 -2       636       980      2158      2485
 -1      4123    3    0    1
 -2      2201       972      2421      2470
 -1      4124    3    0    1
 -2       220      1033      1322      1965
 -1      4125    3    0    1
 -2      1033       751      2272      2300
 -1      4126    3    0    1
 -2       128       401       973      2275
 -1      4127    3    0    1
 -2      2270       996      2431      2558
 -1      4128    3    0    1
 -2      1986      2091      2183      2287
 -1      4129    3    0    1
 -2       289       373      1093      1986
 -1      4130    3    0    1
 -2      2075      2301      2427      2477
 -1      4131    3    0    1
 -2       834       833      1075      2187
 -1      4132    3    0    1
 -2      3567      2736      2529      2662
 -1      4133    3    0    1
 -2       338      2206      2278      2395
 -1      4134    3    0    1
 -2      2154      1045      2377      2445
 -1      4135    3    0    1
 -2      2288      2246      2502      2931
 -1      4136    3    0    1
 -2       815       816      1063      1969
 -1      4137    3    0    1
 -2      2073      1995      2210      2303
 -1      4138    3    0    1
 -2       198       202      1017      2234
 -1      4139    3    0    1
 -2       421       317      2024      2090
 -1      4140    3    0    1
 -2      2088      1380      2338      2345
 -1      4141    3    0    1
 -2      1352       841       842      2184
 -1      4142    3    0    1
 -2      2010      2030      2071      2139
 -1      4143    3    0    1
 -2      1404       442      1991      2227
 -1      4144    3    0    1
 -2       236      1325      2075      2302
 -1      4145    3    0    1
 -2      1062       815      1063      1969
 -1      4146    3    0    1
 -2       427       422       999      2208
 -1      4147    3    0    1
 -2      1390       319      2167      2274
 -1      4148    3    0    1
 -2      2160      1295      2280      2324
 -1      4149    3    0    1
 -2      2021       950      2176      2382
 -1      4150    3    0    1
 -2      2003      1993      2197      2414
 -1      4151    3    0    1
 -2      1997      2019      2306      2413
 -1      4152    3    0    1
 -2      2844      2845      3581      3384
 -1      4153    3    0    1
 -2       338       153       990      2206
 -1      4154    3    0    1
 -2      2126      2110      2177      2235
 -1      4155    3    0    1
 -2      1289      2220      2290      2403
 -1      4156    3    0    1
 -2       112       372       951      2363
 -1      4157    3    0    1
 -2      1993      2085      2106      2144
 -1      4158    3    0    1
 -2      1036       219      1039      2450
 -1      4159    3    0    1
 -2       941       355      2248      2426
 -1      4160    3    0    1
 -2       859      1374      1091      2137
 -1      4161    3    0    1
 -2      1892       276      3712      3486
 -1      4162    3    0    1
 -2      2220      1289      2383      2403
 -1      4163    3    0    1
 -2       701       712      1015      2153
 -1      4164    3    0    1
 -2      1104       871      1102      2129
 -1      4165    3    0    1
 -2      1059      2422      2432      2486
 -1      4166    3    0    1
 -2      2039      1087      2125      2366
 -1      4167    3    0    1
 -2       352        93       947      2255
 -1      4168    3    0    1
 -2      2273      1323      2342      2478
 -1      4169    3    0    1
 -2      2051      1025      2195      2198
 -1      4170    3    0    1
 -2      1992      2108      2167      2274
 -1      4171    3    0    1
 -2       394       212      2381      2466
 -1      4172    3    0    1
 -2      1011       707      2079      2316
 -1      4173    3    0    1
 -2      2150      2118      2171      2178
 -1      4174    3    0    1
 -2       368       104      2118      2354
 -1      4175    3    0    1
 -2       307       319      1390      2274
 -1      4176    3    0    1
 -2      2145       671      2339      2431
 -1      4177    3    0    1
 -2      2168      2040      2200      2264
 -1      4178    3    0    1
 -2       294       377      1073      2472
 -1      4179    3    0    1
 -2      2210       608      2303      2362
 -1      4180    3    0    1
 -2       975       137      2073      2130
 -1      4181    3    0    1
 -2      1403      1110      2123      2325
 -1      4182    3    0    1
 -2       412       413      1295      2160
 -1      4183    3    0    1
 -2       174       175      1306      2271
 -1      4184    3    0    1
 -2       420       366      1967      2098
 -1      4185    3    0    1
 -2       369      2019      2053      2413
 -1      4186    3    0    1
 -2      1967      2005      2048      2098
 -1      4187    3    0    1
 -2       662      1303      2327      2350
 -1      4188    3    0    1
 -2      2008       172      2035      2100
 -1      4189    3    0    1
 -2       716      1315      2196      2198
 -1      4190    3    0    1
 -2       139      1982      2096      2221
 -1      4191    3    0    1
 -2      2008      1407      2078      2120
 -1      4192    3    0    1
 -2      2069      1994      2182      2315
 -1      4193    3    0    1
 -2      2262      2128      2329      2400
 -1      4194    3    0    1
 -2      2066      2006      2294      2296
 -1      4195    3    0    1
 -2       644       983       985      2395
 -1      4196    3    0    1
 -2       575      1286      2458      2555
 -1      4197    3    0    1
 -2       853      1370      1083      2058
 -1      4198    3    0    1
 -2      2042      2032      2115      2217
 -1      4199    3    0    1
 -2      2006       293      2155      2156
 -1      4200    3    0    1
 -2       126      2023      2307      2394
 -1      4201    3    0    1
 -2       974       623      1297      2189
 -1      4202    3    0    1
 -2      1285       104      2226      2354
 -1      4203    3    0    1
 -2       867      1383      1098      2034
 -1      4204    3    0    1
 -2      2035      2094      2100      2190
 -1      4205    3    0    1
 -2      1014       708      2216      2317
 -1      4206    3    0    1
 -2       199      1970      2126      2177
 -1      4207    3    0    1
 -2       644       643       983      2395
 -1      4208    3    0    1
 -2      2223      1285      2318      2354
 -1      4209    3    0    1
 -2      1032      2342      2478      2618
 -1      4210    3    0    1
 -2       212       216      1031      2381
 -1      4211    3    0    1
 -2      1341       835      2038      2183
 -1      4212    3    0    1
 -2      1378       864      2114      2119
 -1      4213    3    0    1
 -2       840      1349      2066      2212
 -1      4214    3    0    1
 -2      1983      2039      2157      2213
 -1      4215    3    0    1
 -2      1319       730       738      2046
 -1      4216    3    0    1
 -2       661      1302      2281      2326
 -1      4217    3    0    1
 -2       846      1359      2155      2156
 -1      4218    3    0    1
 -2      1997      2053      2245      2307
 -1      4219    3    0    1
 -2      2060      1976      2102      2166
 -1      4220    3    0    1
 -2       309      1340      1343      2345
 -1      4221    3    0    1
 -2      1965      1033      2272      2300
 -1      4222    3    0    1
 -2       659       647      2143      2312
 -1      4223    3    0    1
 -2       168      1302      2326      2337
 -1      4224    3    0    1
 -2      1994      2043      2069      2085
 -1      4225    3    0    1
 -2       137       975      1966      2130
 -1      4226    3    0    1
 -2       423       172      1307      2172
 -1      4227    3    0    1
 -2      1093      1986      2031      2147
 -1      4228    3    0    1
 -2       325       326      1079      2173
 -1      4229    3    0    1
 -2       879       889      2150      2171
 -1      4230    3    0    1
 -2      1064      1053      2452      2480
 -1      4231    3    0    1
 -2       371       121      2269      2447
 -1      4232    3    0    1
 -2      1022       331      2079      2348
 -1      4233    3    0    1
 -2       324      1400       430      2200
 -1      4234    3    0    1
 -2      2069      2043      2080      2085
 -1      4235    3    0    1
 -2      1984      2118      2155      2173
 -1      4236    3    0    1
 -2      2032      2042      2136      2217
 -1      4237    3    0    1
 -2      2054      1000      2190      2225
 -1      4238    3    0    1
 -2      2074      1048      2398      2418
 -1      4239    3    0    1
 -2       771      1325      2283      2301
 -1      4240    3    0    1
 -2      1993      2106      2197      2414
 -1      4241    3    0    1
 -2      2020      1078      2036      2184
 -1      4242    3    0    1
 -2      1989      2146      2328      2430
 -1      4243    3    0    1
 -2      2020      2036      2081      2184
 -1      4244    3    0    1
 -2      1391      1392      2101      2352
 -1      4245    3    0    1
 -2      1078      1352      2036      2184
 -1      4246    3    0    1
 -2      2131      2163      2279      2444
 -1      4247    3    0    1
 -2      2116      2055      2211      2266
 -1      4248    3    0    1
 -2      2146       386      2328      2435
 -1      4249    3    0    1
 -2      2286      1975      2294      2296
 -1      4250    3    0    1
 -2      1997       967      2307      2362
 -1      4251    3    0    1
 -2       780       779      1048      2408
 -1      4252    3    0    1
 -2       967      2210      2307      2362
 -1      4253    3    0    1
 -2      2080      1329      2372      2468
 -1      4254    3    0    1
 -2      1347       839      2066      2212
 -1      4255    3    0    1
 -2       654       653      2206      2412
 -1      4256    3    0    1
 -2       328       201      1021      2214
 -1      4257    3    0    1
 -2      2361      1028      2466      2467
 -1      4258    3    0    1
 -2      3547      3523      3681      3731
 -1      4259    3    0    1
 -2      1012      1021      3502      1911
 -1      4260    3    0    1
 -2      2522      2061      3552      3735
 -1      4261    3    0    1
 -2      2039      1983      2157      2366
 -1      4262    3    0    1
 -2       458       701      2556      2728
 -1      4263    3    0    1
 -2      1412      3588      3608      3650
 -1      4264    3    0    1
 -2       318      1374      2125      2366
 -1      4265    3    0    1
 -2      1085      1087      2157      2366
 -1      4266    3    0    1
 -2      1374      1091      2125      2366
 -1      4267    3    0    1
 -2      2247      2013      2407      2501
 -1      4268    3    0    1
 -2      2405       219      2450      2467
 -1      4269    3    0    1
 -2      2216      1014      2317      2443
 -1      4270    3    0    1
 -2      2102      2087      2393      2472
 -1      4271    3    0    1
 -2       377       294      2393      2472
 -1      4272    3    0    1
 -2       945       563      2249      2268
 -1      4273    3    0    1
 -2      2079       331      2304      2348
 -1      4274    3    0    1
 -2      1975       370      2286      2294
 -1      4275    3    0    1
 -2      2939      1500      3025      3108
 -1      4276    3    0    1
 -2      2237       109      2420      2425
 -1      4277    3    0    1
 -2      2067       942      2215      2293
 -1      4278    3    0    1
 -2      1314       198      2234      2348
 -1      4279    3    0    1
 -2      2026       982      2386      2609
 -1      4280    3    0    1
 -2      1987      2088      2109      2345
 -1      4281    3    0    1
 -2      2080       351      2164      2372
 -1      4282    3    0    1
 -2      2163      2131      2324      2444
 -1      4283    3    0    1
 -2       331      1314      2304      2348
 -1      4284    3    0    1
 -2       462      1149      2510      2536
 -1      4285    3    0    1
 -2       264      1536      3630      3311
 -1      4286    3    0    1
 -2       608      2059      2303      2397
 -1      4287    3    0    1
 -2      1972       822      2424      2428
 -1      4288    3    0    1
 -2       886      1408       896      2256
 -1      4289    3    0    1
 -2       784       792      2175      2257
 -1      4290    3    0    1
 -2      2974      1630      3565      3294
 -1      4291    3    0    1
 -2       275       262      1053      2219
 -1      4292    3    0    1
 -2      2150      2118      2178      2239
 -1      4293    3    0    1
 -2       275      1053      1064      2219
 -1      4294    3    0    1
 -2       554      2251      2371      2389
 -1      4295    3    0    1
 -2       112       372      2363      2461
 -1      4296    3    0    1
 -2       611       605      2138      2291
 -1      4297    3    0    1
 -2       822      1066      1972      2424
 -1      4298    3    0    1
 -2       168       367      1302      2337
 -1      4299    3    0    1
 -2       955      2249      2356      2417
 -1      4300    3    0    1
 -2      1017      2198      2234      2399
 -1      4301    3    0    1
 -2       339      2278      2337      2384
 -1      4302    3    0    1
 -2       371       372       953      2461
 -1      4303    3    0    1
 -2      2326       339      2337      2384
 -1      4304    3    0    1
 -2       220      2128      2262      2357
 -1      4305    3    0    1
 -2      2953      2668      3003      3037
 -1      4306    3    0    1
 -2       587       575      1287      2220
 -1      4307    3    0    1
 -2       575       952      1287      2220
 -1      4308    3    0    1
 -2      1010      1309       694      2556
 -1      4309    3    0    1
 -2       554      2021      2389      2404
 -1      4310    3    0    1
 -2      1058       383      2349      2379
 -1      4311    3    0    1
 -2       605       593      2290      2291
 -1      4312    3    0    1
 -2      2332      1990      2435      2045
 -1      4313    3    0    1
 -2      3668      3120      3671      3449
 -1      4314    3    0    1
 -2      1383      1098      2034      2333
 -1      4315    3    0    1
 -2       805      1333      1058      2254
 -1      4316    3    0    1
 -2       172      2100      2190      2225
 -1      4317    3    0    1
 -2      1383      2034      2093      2333
 -1      4318    3    0    1
 -2       384      2359      2416      2462
 -1      4319    3    0    1
 -2      1288       369      2306      2413
 -1      4320    3    0    1
 -2      1040      1326      2273      2355
 -1      4321    3    0    1
 -2       104       950      1285      2226
 -1      4322    3    0    1
 -2       950       571      1285      2226
 -1      4323    3    0    1
 -2       766      1326      1040      2355
 -1      4324    3    0    1
 -2       104       368       950      2226
 -1      4325    3    0    1
 -2       198       202      2234      2348
 -1      4326    3    0    1
 -2       571       572      1285      2226
 -1      4327    3    0    1
 -2       414       409      2189      2585
 -1      4328    3    0    1
 -2      1973      2051      2181      2231
 -1      4329    3    0    1
 -2      1973      2101      2108      2231
 -1      4330    3    0    1
 -2      2068       689      2317      2319
 -1      4331    3    0    1
 -2      2195      2051      2196      2298
 -1      4332    3    0    1
 -2      1529      1528      3396      3450
 -1      4333    3    0    1
 -2      2037      1303      2054      2350
 -1      4334    3    0    1
 -2      1646      2922      3082      3337
 -1      4335    3    0    1
 -2      2999      3180      3195      3624
 -1      4336    3    0    1
 -2      2356       400      2458      2591
 -1      4337    3    0    1
 -2       671       672       997      2270
 -1      4338    3    0    1
 -2       725      1020      2442      2482
 -1      4339    3    0    1
 -2        93       352       940      2230
 -1      4340    3    0    1
 -2       335      1655      1656      3196
 -1      4341    3    0    1
 -2       275       262      2219      2238
 -1      4342    3    0    1
 -2      1057       275      2219      2238
 -1      4343    3    0    1
 -2       831       564      2476      2500
 -1      4344    3    0    1
 -2      2060      2023      2092      2368
 -1      4345    3    0    1
 -2       128       129      1291      2397
 -1      4346    3    0    1
 -2       129       128      2275      2397
 -1      4347    3    0    1
 -2       672       997      2270      2343
 -1      4348    3    0    1
 -2      2889      1601      3336      3382
 -1      4349    3    0    1
 -2      2082      2059      2130      2303
 -1      4350    3    0    1
 -2      2001      2127      2244      2357
 -1      4351    3    0    1
 -2      3012      1823      3404      3428
 -1      4352    3    0    1
 -2      1282       557      1283      2230
 -1      4353    3    0    1
 -2      1508      3074      1890      1892
 -1      4354    3    0    1
 -2      1515      1854      3261      3475
 -1      4355    3    0    1
 -2       557       568      1283      2230
 -1      4356    3    0    1
 -2       608      2059      2082      2303
 -1      4357    3    0    1
 -2       590      2019      2306      2410
 -1      4358    3    0    1
 -2       551       352       947      1676
 -1      4359    3    0    1
 -2      2644      1198      2700      3655
 -1      4360    3    0    1
 -2      2127      2000      2305      2357
 -1      4361    3    0    1
 -2      2641      2657      2786      3566
 -1      4362    3    0    1
 -2       401       402       973      2275
 -1      4363    3    0    1
 -2      2102      2060      2187      2311
 -1      4364    3    0    1
 -2       769      1041      2229      2263
 -1      4365    3    0    1
 -2       223       232      1034      2233
 -1      4366    3    0    1
 -2       417      1017      2234      2399
 -1      4367    3    0    1
 -2       996       671       997      2270
 -1      4368    3    0    1
 -2      1067      2293      2424      2426
 -1      4369    3    0    1
 -2      2229      1042      2277      2364
 -1      4370    3    0    1
 -2      2053      1997      2245      2413
 -1      4371    3    0    1
 -2       607       608      2362      2397
 -1      4372    3    0    1
 -2      2995      2897      3596      3305
 -1      4373    3    0    1
 -2       987       998      2278      2343
 -1      4374    3    0    1
 -2      2359       388      2416      2422
 -1      4375    3    0    1
 -2      1291       607      2362      2397
 -1      4376    3    0    1
 -2      2289      1080      2076      2368
 -1      4377    3    0    1
 -2      2803      2660      2996      3591
 -1      4378    3    0    1
 -2       941      2215      2293      2426
 -1      4379    3    0    1
 -2      2300      2309      2329      2405
 -1      4380    3    0    1
 -2       378       357       943      2237
 -1      4381    3    0    1
 -2       962       121       965      2447
 -1      4382    3    0    1
 -2       769       771      2364      2464
 -1      4383    3    0    1
 -2      1338       285      3686      3479
 -1      4384    3    0    1
 -2      1322      2047      2224      2419
 -1      4385    3    0    1
 -2      2166      1081      2289      2368
 -1      4386    3    0    1
 -2       823      1067      2293      2424
 -1      4387    3    0    1
 -2       792       784      1327      2241
 -1      4388    3    0    1
 -2      3347      2870      1894      1895
 -1      4389    3    0    1
 -2      1885       666      3671      3449
 -1      4390    3    0    1
 -2       802      1334      1331      2258
 -1      4391    3    0    1
 -2      2018      1971      2318      2481
 -1      4392    3    0    1
 -2      1370      1083      2058      2451
 -1      4393    3    0    1
 -2      1119       307      1122      2274
 -1      4394    3    0    1
 -2      1329       351      2080      2372
 -1      4395    3    0    1
 -2       954       582       955      2417
 -1      4396    3    0    1
 -2      3137      2848      3620      3281
 -1      4397    3    0    1
 -2       683      1002      1309      2243
 -1      4398    3    0    1
 -2      2011       375      2251      2457
 -1      4399    3    0    1
 -2      2546       115      3690      1953
 -1      4400    3    0    1
 -2       694       683      1309      2243
 -1      4401    3    0    1
 -2       115       595       404      1953
 -1      4402    3    0    1
 -2      2039      2015      2213      2323
 -1      4403    3    0    1
 -2       743      1028      1031      2361
 -1      4404    3    0    1
 -2      1299       149      2279      2323
 -1      4405    3    0    1
 -2       941       378       943      2248
 -1      4406    3    0    1
 -2       849      1363       850      2463
 -1      4407    3    0    1
 -2       380       355       948      2248
 -1      4408    3    0    1
 -2       380       948      2135      2248
 -1      4409    3    0    1
 -2       833      1074      1073      2472
 -1      4410    3    0    1
 -2      2014      2080      2164      2372
 -1      4411    3    0    1
 -2      1008      2169      2240      2252
 -1      4412    3    0    1
 -2      1985      1971      2223      2294
 -1      4413    3    0    1
 -2      1008      1311      2169      2252
 -1      4414    3    0    1
 -2      1311       698      2169      2252
 -1      4415    3    0    1
 -2       954       964      3690      1953
 -1      4416    3    0    1
 -2       355       380       941      2248
 -1      4417    3    0    1
 -2       341       162       997      2270
 -1      4418    3    0    1
 -2      1042      1325      1968      2364
 -1      4419    3    0    1
 -2       427      2068      2242      2319
 -1      4420    3    0    1
 -2      1325       771      2283      2364
 -1      4421    3    0    1
 -2      2074       780      2408      2465
 -1      4422    3    0    1
 -2      2284      1067      2424      2426
 -1      4423    3    0    1
 -2       149      2089      2360      2460
 -1      4424    3    0    1
 -2      1408       886      1120      2256
 -1      4425    3    0    1
 -2      2177      2159      2304      2439
 -1      4426    3    0    1
 -2      2244      2127      2305      2357
 -1      4427    3    0    1
 -2       348       270      1969      2261
 -1      4428    3    0    1
 -2       945       582       956      2249
 -1      4429    3    0    1
 -2       582       563       955      2249
 -1      4430    3    0    1
 -2       563       582       945      2249
 -1      4431    3    0    1
 -2       563       946       955      2249
 -1      4432    3    0    1
 -2       886       896      2152      2256
 -1      4433    3    0    1
 -2      2124      2041      2152      2256
 -1      4434    3    0    1
 -2      1009      1310      2209      2252
 -1      4435    3    0    1
 -2      1310      1009       697      2252
 -1      4436    3    0    1
 -2       102       109       956      2425
 -1      4437    3    0    1
 -2       572       951      2226      2420
 -1      4438    3    0    1
 -2      1025      2051      2195      2298
 -1      4439    3    0    1
 -2      2051      1973      2181      2298
 -1      4440    3    0    1
 -2      2040       396      2264      2298
 -1      4441    3    0    1
 -2      1284       575       568      2282
 -1      4442    3    0    1
 -2       341       991      2141      2312
 -1      4443    3    0    1
 -2      1284       952       575      2282
 -1      4444    3    0    1
 -2       575       952      2220      2282
 -1      4445    3    0    1
 -2      2281      2326      2384      2460
 -1      4446    3    0    1
 -2      2149      2063      2199      2277
 -1      4447    3    0    1
 -2       412       413      2160      2321
 -1      4448    3    0    1
 -2      2237       109      2404      2420
 -1      4449    3    0    1
 -2      1322      1033       753      2272
 -1      4450    3    0    1
 -2      2067      2215      2347      2456
 -1      4451    3    0    1
 -2       581       953      2417      2461
 -1      4452    3    0    1
 -2      2050      1983      2089      2360
 -1      4453    3    0    1
 -2       563       946      2249      2601
 -1      4454    3    0    1
 -2      1052       792      2241      2257
 -1      4455    3    0    1
 -2       563      2249      2268      2601
 -1      4456    3    0    1
 -2       593       961      2512      2637
 -1      4457    3    0    1
 -2       802       792      1332      2257
 -1      4458    3    0    1
 -2       792      1052      1332      2257
 -1      4459    3    0    1
 -2      1993      2069      2085      2315
 -1      4460    3    0    1
 -2      1994       304      2182      2315
 -1      4461    3    0    1
 -2      2046      1319      2479      2618
 -1      4462    3    0    1
 -2       819       810      1060      2258
 -1      4463    3    0    1
 -2       819      1060      1336      2258
 -1      4464    3    0    1
 -2       635       636      2158      2259
 -1      4465    3    0    1
 -2       636       635       981      2259
 -1      4466    3    0    1
 -2       144       413       981      2259
 -1      4467    3    0    1
 -2       201      1020      2214      3526
 -1      4468    3    0    1
 -2       635       654       978      2259
 -1      4469    3    0    1
 -2      2286      2087      2311      2413
 -1      4470    3    0    1
 -2      2087      2245      2311      2413
 -1      4471    3    0    1
 -2       978       654       990      2259
 -1      4472    3    0    1
 -2       807      1333      2254      2455
 -1      4473    3    0    1
 -2      3583      3525      3078      3284
 -1      4474    3    0    1
 -2      2215      2267      2293      2424
 -1      4475    3    0    1
 -2       815      1969      2415      2416
 -1      4476    3    0    1
 -2       849       850      2373      2463
 -1      4477    3    0    1
 -2      1789      1873      3348      3356
 -1      4478    3    0    1
 -2       789      2372      2468      2484
 -1      4479    3    0    1
 -2      2033      2117      2310      2336
 -1      4480    3    0    1
 -2      2117      2033      2260      2336
 -1      4481    3    0    1
 -2       339       168      2326      2337
 -1      4482    3    0    1
 -2      1038      2446      2612      3696
 -1      4483    3    0    1
 -2      2359      2236      2432      2455
 -1      4484    3    0    1
 -2       223       219      1036      2450
 -1      4485    3    0    1
 -2      2236       807      2432      2455
 -1      4486    3    0    1
 -2      2111      2012      2310      2336
 -1      4487    3    0    1
 -2       396      2002      2040      2264
 -1      4488    3    0    1
 -2       697      1310      2116      2266
 -1      4489    3    0    1
 -2      1065      1067      2424      2428
 -1      4490    3    0    1
 -2      1519      3011      3597      3314
 -1      4491    3    0    1
 -2      1302      2281      2326      2337
 -1      4492    3    0    1
 -2      1975      2212      2286      2393
 -1      4493    3    0    1
 -2      2055      1008      2071      2266
 -1      4494    3    0    1
 -2       671      2145      2270      2431
 -1      4495    3    0    1
 -2       277      1337      2067      2267
 -1      4496    3    0    1
 -2       558      1638      2924      3230
 -1      4497    3    0    1
 -2       357       945      2237      2268
 -1      4498    3    0    1
 -2       378       357      2237      2268
 -1      4499    3    0    1
 -2       357       378       945      2268
 -1      4500    3    0    1
 -2       945       378       948      2268
 -1      4501    3    0    1
 -2       945       948      2135      2268
 -1      4502    3    0    1
 -2       380       378      2248      2268
 -1      4503    3    0    1
 -2      2135       380      2248      2268
 -1      4504    3    0    1
 -2       378       380       948      2268
 -1      4505    3    0    1
 -2       948       380      2135      2268
 -1      4506    3    0    1
 -2      2234       715      2177      2380
 -1      4507    3    0    1
 -2      1113      2106      2140      2341
 -1      4508    3    0    1
 -2      2092      2023      2245      2307
 -1      4509    3    0    1
 -2      2038      2165      2183      2287
 -1      4510    3    0    1
 -2       707      2079      2316      2365
 -1      4511    3    0    1
 -2       236      1325      2302      2364
 -1      4512    3    0    1
 -2      2216      1012      2316      2365
 -1      4513    3    0    1
 -2      1347      1348      2212      2393
 -1      4514    3    0    1
 -2      1991      2227      2341      2434
 -1      4515    3    0    1
 -2       243       391      1048      2418
 -1      4516    3    0    1
 -2      2229      1042      2263      2277
 -1      4517    3    0    1
 -2      2201       966      3521       407
 -1      4518    3    0    1
 -2      2083      2031      2147      2344
 -1      4519    3    0    1
 -2       943       941      2248      2371
 -1      4520    3    0    1
 -2      1315       715       716      2380
 -1      4521    3    0    1
 -2      2053       126      2092      2307
 -1      4522    3    0    1
 -2       376      2091      2165      2287
 -1      4523    3    0    1
 -2       371       958      2018      2269
 -1      4524    3    0    1
 -2       372       371      2018      2269
 -1      4525    3    0    1
 -2       371       121       958      2269
 -1      4526    3    0    1
 -2       427      1004      2068      2319
 -1      4527    3    0    1
 -2       708      1013      2216      2319
 -1      4528    3    0    1
 -2       121       360       960      2391
 -1      4529    3    0    1
 -2       102       112       951      2363
 -1      4530    3    0    1
 -2       436      1758      3666      3421
 -1      4531    3    0    1
 -2       391      2229      2398      2418
 -1      4532    3    0    1
 -2      1511      1448      3679      3693
 -1      4533    3    0    1
 -2      2115      2358      1345      2459
 -1      4534    3    0    1
 -2       387       383      2254      2379
 -1      4535    3    0    1
 -2      2115      1999      2358      2459
 -1      4536    3    0    1
 -2      1640      1641      3067      3116
 -1      4537    3    0    1
 -2       653       987      2206      2343
 -1      4538    3    0    1
 -2        17      1914      1916      3476
 -1      4539    3    0    1
 -2      2087      2053      2245      2413
 -1      4540    3    0    1
 -2       966      1160      1293      2566
 -1      4541    3    0    1
 -2       998       672      2145      2343
 -1      4542    3    0    1
 -2       771      1043      2283      2464
 -1      4543    3    0    1
 -2      3576      2852      3599      3601
 -1      4544    3    0    1
 -2      1999      2063      2148      2459
 -1      4545    3    0    1
 -2      2375      1048      2408      2418
 -1      4546    3    0    1
 -2       290      1386       292      2459
 -1      4547    3    0    1
 -2       766      1040      1323      2273
 -1      4548    3    0    1
 -2      1060       279      3507      1890
 -1      4549    3    0    1
 -2       756       766      1323      2273
 -1      4550    3    0    1
 -2      1465      1464      2914      3178
 -1      4551    3    0    1
 -2      2255       946      3578      1796
 -1      4552    3    0    1
 -2       369      1288      2019      2413
 -1      4553    3    0    1
 -2      2361       394      2381      2466
 -1      4554    3    0    1
 -2      1028       394      2361      2466
 -1      4555    3    0    1
 -2       370      1971      2018      2437
 -1      4556    3    0    1
 -2       338       339       985      2278
 -1      4557    3    0    1
 -2       168       339       987      2278
 -1      4558    3    0    1
 -2       168       987       998      2278
 -1      4559    3    0    1
 -2       379       309      2338      2345
 -1      4560    3    0    1
 -2       761      2074      2446      2465
 -1      4561    3    0    1
 -2      2131       626      2163      2324
 -1      4562    3    0    1
 -2       643       984      2163      2279
 -1      4563    3    0    1
 -2       984       364      1982      2279
 -1      4564    3    0    1
 -2       984      1982      2163      2279
 -1      4565    3    0    1
 -2      1295       625      2082      2280
 -1      4566    3    0    1
 -2      2308      2433      1388      2436
 -1      4567    3    0    1
 -2       960      2306      2391      2410
 -1      4568    3    0    1
 -2      1392       306      2004      2352
 -1      4569    3    0    1
 -2       661      2281      2320      2327
 -1      4570    3    0    1
 -2      1303       992      2327      2351
 -1      4571    3    0    1
 -2      1303       420      1967      2327
 -1      4572    3    0    1
 -2       662       661      2320      2327
 -1      4573    3    0    1
 -2       992       661      1303      2327
 -1      4574    3    0    1
 -2       661       662      1303      2327
 -1      4575    3    0    1
 -2       420      1303      2037      2327
 -1      4576    3    0    1
 -2       661      2281      2327      2351
 -1      4577    3    0    1
 -2      1006      2068      2271      2297
 -1      4578    3    0    1
 -2       297      1364       313      2376
 -1      4579    3    0    1
 -2       297      2179      2373      2376
 -1      4580    3    0    1
 -2      2075      1325      2283      2302
 -1      4581    3    0    1
 -2       236      2095      2174      2302
 -1      4582    3    0    1
 -2      2095      2075      2193      2302
 -1      4583    3    0    1
 -2      1968       236      2174      2302
 -1      4584    3    0    1
 -2      1067      1065      2284      2428
 -1      4585    3    0    1
 -2      2179      1114      2191      2376
 -1      4586    3    0    1
 -2       850      1364      2373      2463
 -1      4587    3    0    1
 -2       288       381      1069      2284
 -1      4588    3    0    1
 -2      1065       381      1067      2284
 -1      4589    3    0    1
 -2       112       102       956      2417
 -1      4590    3    0    1
 -2       955       582      2249      2417
 -1      4591    3    0    1
 -2      2922      3082      3337      3705
 -1      4592    3    0    1
 -2      1318      2309      2400      2469
 -1      4593    3    0    1
 -2      1066      1337      1972      2424
 -1      4594    3    0    1
 -2       401       402      2410      2474
 -1      4595    3    0    1
 -2      2066      1975      2212      2294
 -1      4596    3    0    1
 -2       956      2249      2417      2425
 -1      4597    3    0    1
 -2       102       956      2417      2425
 -1      4598    3    0    1
 -2      2783      2553      3682      3701
 -1      4599    3    0    1
 -2      2201       971      2485      3510
 -1      4600    3    0    1
 -2       357       109      2237      2425
 -1      4601    3    0    1
 -2       956       945      2249      2425
 -1      4602    3    0    1
 -2      2213      2039      2323      2360
 -1      4603    3    0    1
 -2       607      1291      2410      2474
 -1      4604    3    0    1
 -2       381       288      1067      2284
 -1      4605    3    0    1
 -2      1995      1978      2191      2376
 -1      4606    3    0    1
 -2      1995      2202      2373      2376
 -1      4607    3    0    1
 -2       847      1360      1081      2289
 -1      4608    3    0    1
 -2       847      1082       848      2289
 -1      4609    3    0    1
 -2      1082       847      1080      2289
 -1      4610    3    0    1
 -2      1541      1542      2731      1644
 -1      4611    3    0    1
 -2       605       961      1290      2290
 -1      4612    3    0    1
 -2      1293       966       611      2291
 -1      4613    3    0    1
 -2      2201      1293       966       411
 -1      4614    3    0    1
 -2      1293      2201       966      2291
 -1      4615    3    0    1
 -2       371       965      2269      2461
 -1      4616    3    0    1
 -2      2371       554      2389      2404
 -1      4617    3    0    1
 -2       966      2201       411       407
 -1      4618    3    0    1
 -2       593       966      1289      2291
 -1      4619    3    0    1
 -2       593       605       966      2291
 -1      4620    3    0    1
 -2       109       357      2237      2404
 -1      4621    3    0    1
 -2       719      1316      2388      2471
 -1      4622    3    0    1
 -2      2281      2326      2337      2384
 -1      4623    3    0    1
 -2       823      1337      2267      2293
 -1      4624    3    0    1
 -2      1025      1318      2265      2469
 -1      4625    3    0    1
 -2      1318       733       735      2469
 -1      4626    3    0    1
 -2      1293       611      2566      2655
 -1      4627    3    0    1
 -2      2088      2027      2109      2338
 -1      4628    3    0    1
 -2       996       671      2270      2431
 -1      4629    3    0    1
 -2      1007       899      1312      2556
 -1      4630    3    0    1
 -2      1006       690      2068      2297
 -1      4631    3    0    1
 -2      2271      1006       179       174
 -1      4632    3    0    1
 -2      1006      2271       179      2297
 -1      4633    3    0    1
 -2       166       179      2253      2297
 -1      4634    3    0    1
 -2       671       690       995      2297
 -1      4635    3    0    1
 -2       166       995      1006      2297
 -1      4636    3    0    1
 -2       995       690      1006      2297
 -1      4637    3    0    1
 -2       179       166      1006      2297
 -1      4638    3    0    1
 -2      2040      1992      2051      2298
 -1      4639    3    0    1
 -2       873      1388       874      2299
 -1      4640    3    0    1
 -2      2062      2146      2295      2435
 -1      4641    3    0    1
 -2      1389       873       874      2299
 -1      4642    3    0    1
 -2      1388       873      1387      2299
 -1      4643    3    0    1
 -2      1987      2027      2028      2411
 -1      4644    3    0    1
 -2       873      1389      1105      2299
 -1      4645    3    0    1
 -2      1991      2341      2414      2434
 -1      4646    3    0    1
 -2      1991      2003      2379      2434
 -1      4647    3    0    1
 -2       756       766      2342      2367
 -1      4648    3    0    1
 -2      2227      2052      2401      2434
 -1      4649    3    0    1
 -2      2033      2110      2235      2310
 -1      4650    3    0    1
 -2      2141       341      2548       162
 -1      4651    3    0    1
 -2      2073      1292      2082      2303
 -1      4652    3    0    1
 -2      1292       608      2082      2303
 -1      4653    3    0    1
 -2      2177      1314      2234      2304
 -1      4654    3    0    1
 -2      2415       832      2416      2423
 -1      4655    3    0    1
 -2      2079       193       331      1011
 -1      4656    3    0    1
 -2      2795      2551      3533      3049
 -1      4657    3    0    1
 -2       193       331      2159      2304
 -1      4658    3    0    1
 -2       331      1314      2159      2304
 -1      4659    3    0    1
 -2       331      2079      1011      1022
 -1      4660    3    0    1
 -2       193      2079       331      2304
 -1      4661    3    0    1
 -2      2000      2032      2217      2305
 -1      4662    3    0    1
 -2       220       225      2000      2305
 -1      4663    3    0    1
 -2      2089      2050      2360      2460
 -1      4664    3    0    1
 -2      2000       225      2032      2305
 -1      4665    3    0    1
 -2       582       956      2249      2417
 -1      4666    3    0    1
 -2       369       959      1288      2306
 -1      4667    3    0    1
 -2      2299      2070      2308      2392
 -1      4668    3    0    1
 -2      2235       429      2310      2110
 -1      4669    3    0    1
 -2       443      1991      2227      2341
 -1      4670    3    0    1
 -2       959       589      1288      2306
 -1      4671    3    0    1
 -2      2159       193      2304      2439
 -1      4672    3    0    1
 -2      2159      2235      2169      2439
 -1      4673    3    0    1
 -2      1009       698      2209      2439
 -1      4674    3    0    1
 -2      2208       427      2242      2319
 -1      4675    3    0    1
 -2       958       121       960      2391
 -1      4676    3    0    1
 -2      1315      1016       715      2380
 -1      4677    3    0    1
 -2       715      1016      2177      2380
 -1      4678    3    0    1
 -2       443       442      1991      2341
 -1      4679    3    0    1
 -2       369       370       959      2306
 -1      4680    3    0    1
 -2      2295      2146      2328      2435
 -1      4681    3    0    1
 -2       385       384      1072      2462
 -1      4682    3    0    1
 -2      1311       429      2240      2449
 -1      4683    3    0    1
 -2      1383       303      1098      2333
 -1      4684    3    0    1
 -2      2273       766      2355      2367
 -1      4685    3    0    1
 -2      2067      2267      2293      2456
 -1      4686    3    0    1
 -2      2125      2050      2137      2330
 -1      4687    3    0    1
 -2      2433       447      1388      2436
 -1      4688    3    0    1
 -2      1117       447      2433      2436
 -1      4689    3    0    1
 -2       370       959      2306      2437
 -1      4690    3    0    1
 -2       859       860      2137      2330
 -1      4691    3    0    1
 -2      2238      2219      2349      2372
 -1      4692    3    0    1
 -2      2001      2262      2357      2438
 -1      4693    3    0    1
 -2       386      1972      2328      2435
 -1      4694    3    0    1
 -2      3282      1803      3328      3701
 -1      4695    3    0    1
 -2      2215       941      2378      2426
 -1      4696    3    0    1
 -2       859      1092       860      2330
 -1      4697    3    0    1
 -2       317       421      2024      2330
 -1      4698    3    0    1
 -2      2050      2048      2137      2330
 -1      4699    3    0    1
 -2       360       121      2340      2391
 -1      4700    3    0    1
 -2      2048      2005      2137      2330
 -1      4701    3    0    1
 -2       826       819      1068      2314
 -1      4702    3    0    1
 -2       834      2187      2393      2472
 -1      4703    3    0    1
 -2      1074       833       834      2472
 -1      4704    3    0    1
 -2      2698      2779      2832      3537
 -1      4705    3    0    1
 -2       157      2507      3518      1733
 -1      4706    3    0    1
 -2      2994      1646      3567      1783
 -1      4707    3    0    1
 -2      2013      2247      2322      2501
 -1      4708    3    0    1
 -2       646       156       650      1733
 -1      4709    3    0    1
 -2       163       156      3518      1733
 -1      4710    3    0    1
 -2       330       194       700      1911
 -1      4711    3    0    1
 -2      3238      1825      3701      1928
 -1      4712    3    0    1
 -2      2687      3124      3607      3618
 -1      4713    3    0    1
 -2       826      1068      1280      2314
 -1      4714    3    0    1
 -2       550       826      1280      2314
 -1      4715    3    0    1
 -2      1579      1578      2676      2866
 -1      4716    3    0    1
 -2      1003       689      1014      2317
 -1      4717    3    0    1
 -2       424      1003      1014      2317
 -1      4718    3    0    1
 -2       689       708      1014      2317
 -1      4719    3    0    1
 -2       424       426      1003      2317
 -1      4720    3    0    1
 -2      2044       429      2336      2449
 -1      4721    3    0    1
 -2      1042      1968      2277      2364
 -1      4722    3    0    1
 -2       572       951      2018      2318
 -1      4723    3    0    1
 -2      1285       572      2018      2318
 -1      4724    3    0    1
 -2      1285      2018      2223      2318
 -1      4725    3    0    1
 -2       951       372      2018      2318
 -1      4726    3    0    1
 -2       422       183      2497      3550
 -1      4727    3    0    1
 -2       708      2216      2317      2319
 -1      4728    3    0    1
 -2       689       708      2317      2319
 -1      4729    3    0    1
 -2       708      1004      1013      2319
 -1      4730    3    0    1
 -2       708       689      1004      2319
 -1      4731    3    0    1
 -2      1500      2939      3066      3108
 -1      4732    3    0    1
 -2      2169      1311      2240      2449
 -1      4733    3    0    1
 -2      2244      2127      2433      2436
 -1      4734    3    0    1
 -2      2088       866      2099      2338
 -1      4735    3    0    1
 -2      1380       309      1381      2338
 -1      4736    3    0    1
 -2      2070      2084      2262      2448
 -1      4737    3    0    1
 -2       402       360       962      2340
 -1      4738    3    0    1
 -2       402       962      2275      2340
 -1      4739    3    0    1
 -2      2027       277      2267      2328
 -1      4740    3    0    1
 -2      2027      1989      2028      2328
 -1      4741    3    0    1
 -2       419       166       993      2320
 -1      4742    3    0    1
 -2       412       970       981      2321
 -1      4743    3    0    1
 -2       970       617       981      2321
 -1      4744    3    0    1
 -2       412       361       970      2321
 -1      4745    3    0    1
 -2       617       636       981      2321
 -1      4746    3    0    1
 -2      2269       965      2447      2461
 -1      4747    3    0    1
 -2       202       417      2234      2399
 -1      4748    3    0    1
 -2      2224      2047      2277      2419
 -1      4749    3    0    1
 -2       245       243      1045      2375
 -1      4750    3    0    1
 -2      2209       428      2316      2443
 -1      4751    3    0    1
 -2      1014       424      2317      2443
 -1      4752    3    0    1
 -2       329       196      1706      2920
 -1      4753    3    0    1
 -2       129       968      2397      2409
 -1      4754    3    0    1
 -2      2283      1043      2301      2445
 -1      4755    3    0    1
 -2       590      2019      2410      2474
 -1      4756    3    0    1
 -2       626       976      2163      2324
 -1      4757    3    0    1
 -2      1045       390      2375      2445
 -1      4758    3    0    1
 -2       880      1403       891      2325
 -1      4759    3    0    1
 -2      1110       880      2295      2325
 -1      4760    3    0    1
 -2       880      1109      2295      2325
 -1      4761    3    0    1
 -2       880      1125      1109      2325
 -1      4762    3    0    1
 -2      1403       880      1110      2325
 -1      4763    3    0    1
 -2      2027      2088      2099      2338
 -1      4764    3    0    1
 -2       277      2027      2028      2328
 -1      4765    3    0    1
 -2       386      1989      2146      2328
 -1      4766    3    0    1
 -2       386       277      1989      2328
 -1      4767    3    0    1
 -2      1989       277      2028      2328
 -1      4768    3    0    1
 -2       659      2141      2312      2406
 -1      4769    3    0    1
 -2      1033       751      2300      2329
 -1      4770    3    0    1
 -2      2128      1033      2300      2329
 -1      4771    3    0    1
 -2      2262      2128      2300      2329
 -1      4772    3    0    1
 -2      2005      1090      2137      2330
 -1      4773    3    0    1
 -2      1090       859      2137      2330
 -1      4774    3    0    1
 -2      1092       859      1090      2330
 -1      4775    3    0    1
 -2      1090       317      1092      2330
 -1      4776    3    0    1
 -2       421       317      1090      2330
 -1      4777    3    0    1
 -2       599       962      2340      2421
 -1      4778    3    0    1
 -2       753      1322      2272      2419
 -1      4779    3    0    1
 -2      1024       733      2195      2331
 -1      4780    3    0    1
 -2      2011      2176      2178      2382
 -1      4781    3    0    1
 -2      1026       733      1024      2331
 -1      4782    3    0    1
 -2       733      1026       735      2331
 -1      4783    3    0    1
 -2       735      1026      2309      2331
 -1      4784    3    0    1
 -2       618      2275      2421      2470
 -1      4785    3    0    1
 -2       805      1059       807      2486
 -1      4786    3    0    1
 -2       805       807      2254      2486
 -1      4787    3    0    1
 -2      1378       303       312      2333
 -1      4788    3    0    1
 -2       312      1383      2093      2333
 -1      4789    3    0    1
 -2       303      1383       312      2333
 -1      4790    3    0    1
 -2      1318       735      2309      2469
 -1      4791    3    0    1
 -2       262      1053      2219      2452
 -1      4792    3    0    1
 -2      1354       295      1355      2334
 -1      4793    3    0    1
 -2      1053       260      1056      2452
 -1      4794    3    0    1
 -2      2201       971      2470      2485
 -1      4795    3    0    1
 -2      3672      1835      1920      3431
 -1      4796    3    0    1
 -2      1333      2045      2332      2455
 -1      4797    3    0    1
 -2       345       257      1055      2335
 -1      4798    3    0    1
 -2      2446       227      3416      3696
 -1      4799    3    0    1
 -2      1969      1063      2261      2453
 -1      4800    3    0    1
 -2       798      1056      2154      2335
 -1      4801    3    0    1
 -2      2900      2580      3659      3691
 -1      4802    3    0    1
 -2      1462      1630      1631      3383
 -1      4803    3    0    1
 -2       816       797      1063      2453
 -1      4804    3    0    1
 -2      1034      2233      2398      2419
 -1      4805    3    0    1
 -2      1054       797      2335      2453
 -1      4806    3    0    1
 -2       985       644      2133      2384
 -1      4807    3    0    1
 -2      2369       242      2504      2615
 -1      4808    3    0    1
 -2      2358      1386       290      2459
 -1      4809    3    0    1
 -2      2063      1999      2115      2459
 -1      4810    3    0    1
 -2      2052      2332      2045      1990
 -1      4811    3    0    1
 -2       753      1034      2263      2419
 -1      4812    3    0    1
 -2       379       309      1380      2338
 -1      4813    3    0    1
 -2      1381       865      1380      2338
 -1      4814    3    0    1
 -2      2027      1989      2099      2346
 -1      4815    3    0    1
 -2      1380       865      2088      2338
 -1      4816    3    0    1
 -2      2001      2262      2438      2448
 -1      4817    3    0    1
 -2      2027      1989      2328      2430
 -1      4818    3    0    1
 -2      2070      2308      2392      2448
 -1      4819    3    0    1
 -2      2151      2299      2308      2392
 -1      4820    3    0    1
 -2      1311      2169      2235      2449
 -1      4821    3    0    1
 -2      2308      2299      2433      2448
 -1      4822    3    0    1
 -2      2084      2002      2151      2392
 -1      4823    3    0    1
 -2      2151      2002      2299      2392
 -1      4824    3    0    1
 -2      2067       277      2267      2411
 -1      4825    3    0    1
 -2       988       654       989      2412
 -1      4826    3    0    1
 -2      2001      2244      2433      2448
 -1      4827    3    0    1
 -2      2070      2299      2308      2448
 -1      4828    3    0    1
 -2       360       402       960      2340
 -1      4829    3    0    1
 -2       715      2234      2177      1314
 -1      4830    3    0    1
 -2      2003      1991      2140      2341
 -1      4831    3    0    1
 -2      1991      1127      2140      2341
 -1      4832    3    0    1
 -2       442      1112      1127      2341
 -1      4833    3    0    1
 -2      1127       882       893      2341
 -1      4834    3    0    1
 -2       442      1127      1991      2341
 -1      4835    3    0    1
 -2      1127       893      2140      2341
 -1      4836    3    0    1
 -2       375      2011      2344      2457
 -1      4837    3    0    1
 -2       967      1997      2019      2362
 -1      4838    3    0    1
 -2      3515      3556      3563      3660
 -1      4839    3    0    1
 -2      2023      1977      2092      2368
 -1      4840    3    0    1
 -2      1072       384      2416      2462
 -1      4841    3    0    1
 -2      3059      3114      3601      3660
 -1      4842    3    0    1
 -2       847      1080      2289      2368
 -1      4843    3    0    1
 -2      2060      1976      2166      2368
 -1      4844    3    0    1
 -2       653       672       998      2343
 -1      4845    3    0    1
 -2       987       653       998      2343
 -1      4846    3    0    1
 -2       672       653       997      2343
 -1      4847    3    0    1
 -2       653       988       997      2343
 -1      4848    3    0    1
 -2       865      1382      1096      2346
 -1      4849    3    0    1
 -2       444       445      1096      2346
 -1      4850    3    0    1
 -2      1382       866      2099      2346
 -1      4851    3    0    1
 -2      1382       865       866      2346
 -1      4852    3    0    1
 -2       444      1382      2099      2346
 -1      4853    3    0    1
 -2       444      1096      1382      2346
 -1      4854    3    0    1
 -2       986      1298       647      3542
 -1      4855    3    0    1
 -2       444      1125       445      2346
 -1      4856    3    0    1
 -2      1125       444      1109      2346
 -1      4857    3    0    1
 -2      2929      3133      3184      3673
 -1      4858    3    0    1
 -2        24      1553      1554      2702
 -1      4859    3    0    1
 -2      1055      2483      2603      3530
 -1      4860    3    0    1
 -2       331       198      1314      2348
 -1      4861    3    0    1
 -2       383      2014      2022      2349
 -1      4862    3    0    1
 -2      1057       805      2238      2349
 -1      4863    3    0    1
 -2       805      1058      2022      2349
 -1      4864    3    0    1
 -2       805      2022      2238      2349
 -1      4865    3    0    1
 -2      1058       383      2022      2349
 -1      4866    3    0    1
 -2       993      2253      2276      2350
 -1      4867    3    0    1
 -2       993       662      2320      2350
 -1      4868    3    0    1
 -2      2253       993      2320      2350
 -1      4869    3    0    1
 -2      2107       679      2253      2350
 -1      4870    3    0    1
 -2       679      2107      2225      2350
 -1      4871    3    0    1
 -2      1303       662      2054      2350
 -1      4872    3    0    1
 -2      2054       662      2276      2350
 -1      4873    3    0    1
 -2       679      2054      2276      2350
 -1      4874    3    0    1
 -2       662       993      2276      2350
 -1      4875    3    0    1
 -2      1967      1303      2327      2351
 -1      4876    3    0    1
 -2       992       366      2089      2351
 -1      4877    3    0    1
 -2       322       306      1391      2352
 -1      4878    3    0    1
 -2      2004       306      2152      2352
 -1      4879    3    0    1
 -2      1398       306       322      2352
 -1      4880    3    0    1
 -2      1391       306      1392      2352
 -1      4881    3    0    1
 -2       306      1398      1130      2352
 -1      4882    3    0    1
 -2       306      1130      2152      2352
 -1      4883    3    0    1
 -2      1106       323      2260      2353
 -1      4884    3    0    1
 -2      1396       323      1106      2353
 -1      4885    3    0    1
 -2       323      1408      1120      2353
 -1      4886    3    0    1
 -2       323      1120      2256      2353
 -1      4887    3    0    1
 -2      1971      1985      2223      2354
 -1      4888    3    0    1
 -2      2006      2155      2354      2156
 -1      4889    3    0    1
 -2      1985      1971      2006      2354
 -1      4890    3    0    1
 -2      2155       104      2223      2354
 -1      4891    3    0    1
 -2       104      1285      2223      2354
 -1      4892    3    0    1
 -2      1984       104      2155      2354
 -1      4893    3    0    1
 -2      1985      2155      2223      2354
 -1      4894    3    0    1
 -2      3074      1632      1890      1891
 -1      4895    3    0    1
 -2      2076      1977      2289      2368
 -1      4896    3    0    1
 -2      1976      2060      2092      2368
 -1      4897    3    0    1
 -2      1048      2074      2408      2418
 -1      4898    3    0    1
 -2      2358      2115      1345      2042
 -1      4899    3    0    1
 -2       774      1049      1326      2355
 -1      4900    3    0    1
 -2       774       784      1049      2355
 -1      4901    3    0    1
 -2      1322       753      2263      2419
 -1      4902    3    0    1
 -2      2148      1386      2358      2459
 -1      4903    3    0    1
 -2      3503      2250      2777      3711
 -1      4904    3    0    1
 -2      1692      2695      1693      2986
 -1      4905    3    0    1
 -2      2557      2490      3598      3400
 -1      4906    3    0    1
 -2      2294       370      2296      2437
 -1      4907    3    0    1
 -2      3390      1487      3405      3483
 -1      4908    3    0    1
 -2      3125      3213      3657      3382
 -1      4909    3    0    1
 -2      2141       162      2548      3550
 -1      4910    3    0    1
 -2       388       384      2236      2359
 -1      4911    3    0    1
 -2      2001      2070      2262      2448
 -1      4912    3    0    1
 -2      2127      2001      2244      2433
 -1      4913    3    0    1
 -2       384      1065      2236      2359
 -1      4914    3    0    1
 -2      1412      1689      3573      3608
 -1      4915    3    0    1
 -2       743       744      1030      2361
 -1      4916    3    0    1
 -2       425       424      1014      2443
 -1      4917    3    0    1
 -2      2074       761      2446      2450
 -1      4918    3    0    1
 -2      2237       943      2371      2404
 -1      4919    3    0    1
 -2       368      2118      2239      2382
 -1      4920    3    0    1
 -2      2743      2929      3640      3673
 -1      4921    3    0    1
 -2       368       950      2226      2382
 -1      4922    3    0    1
 -2       394       212      1028      2361
 -1      4923    3    0    1
 -2       676      1305      2243      2406
 -1      4924    3    0    1
 -2       208      1029      1030      2361
 -1      4925    3    0    1
 -2       272      1064      1969      2480
 -1      4926    3    0    1
 -2       834       833      2187      2472
 -1      4927    3    0    1
 -2       425       428      2209      2443
 -1      4928    3    0    1
 -2       360       962      2340      2447
 -1      4929    3    0    1
 -2       121      2340      2391      2447
 -1      4930    3    0    1
 -2      3533      2771      3025      3108
 -1      4931    3    0    1
 -2       125       408      1785      3629
 -1      4932    3    0    1
 -2       210       208      1030      2361
 -1      4933    3    0    1
 -2      2359       384      2428      2462
 -1      4934    3    0    1
 -2       121       371       965      2447
 -1      4935    3    0    1
 -2      1329       789      2372      2468
 -1      4936    3    0    1
 -2      3368      2650      3677      3691
 -1      4937    3    0    1
 -2      1557      1558      1615      3354
 -1      4938    3    0    1
 -2      3531      2698      2933      3080
 -1      4939    3    0    1
 -2       200       194      2690      3725
 -1      4940    3    0    1
 -2      1051       789      1328      2484
 -1      4941    3    0    1
 -2       787      2468      2473      2484
 -1      4942    3    0    1
 -2       275      1057      2219      2480
 -1      4943    3    0    1
 -2       361       129       970      2409
 -1      4944    3    0    1
 -2      1364      1361      2373      2376
 -1      4945    3    0    1
 -2      2283      1043      2445      2464
 -1      4946    3    0    1
 -2       297       313      1114      2376
 -1      4947    3    0    1
 -2       789      2219      2372      2484
 -1      4948    3    0    1
 -2      2154      1328      2473      2484
 -1      4949    3    0    1
 -2       554       553      2371      2378
 -1      4950    3    0    1
 -2      1699      1499      3126      3127
 -1      4951    3    0    1
 -2      1046       779      2377      2603
 -1      4952    3    0    1
 -2      1290      2138      2290      3663
 -1      4953    3    0    1
 -2      2022       789      2238      2372
 -1      4954    3    0    1
 -2      1364       849       850      2373
 -1      4955    3    0    1
 -2       849      1364      1361      2373
 -1      4956    3    0    1
 -2       771      2283      2364      2464
 -1      4957    3    0    1
 -2      2275       129      2397      2409
 -1      4958    3    0    1
 -2      1477      1476      2593      3215
 -1      4959    3    0    1
 -2      2046       730      2388      2471
 -1      4960    3    0    1
 -2      1045      1056      2154      2377
 -1      4961    3    0    1
 -2       295       320      1083      2451
 -1      4962    3    0    1
 -2       659       665      2406      3561
 -1      4963    3    0    1
 -2      1046       779      2369      2377
 -1      4964    3    0    1
 -2      1322      2224      2272      2419
 -1      4965    3    0    1
 -2       761       780      2074      2465
 -1      4966    3    0    1
 -2      1045       243      1048      2375
 -1      4967    3    0    1
 -2       553       941      2371      2378
 -1      4968    3    0    1
 -2       942      2251      2347      2378
 -1      4969    3    0    1
 -2      1053      2219      2452      2480
 -1      4970    3    0    1
 -2       968      2059      2397      2409
 -1      4971    3    0    1
 -2       941       553      2215      2378
 -1      4972    3    0    1
 -2      2059       361      2321      2409
 -1      4973    3    0    1
 -2       227      1037      1038      2446
 -1      4974    3    0    1
 -2       297      1402      2179      2376
 -1      4975    3    0    1
 -2      1045       798      1056      2377
 -1      4976    3    0    1
 -2      2215       942      2347      2378
 -1      4977    3    0    1
 -2      1281       554      2251      2378
 -1      4978    3    0    1
 -2      1281       553       554      2378
 -1      4979    3    0    1
 -2       553      1281       942      2378
 -1      4980    3    0    1
 -2       942      1281      2251      2378
 -1      4981    3    0    1
 -2       383      1058      2254      2379
 -1      4982    3    0    1
 -2      2254      1058      2349      2379
 -1      4983    3    0    1
 -2      2000      2127      2305      2402
 -1      4984    3    0    1
 -2      2136      2000      2305      2402
 -1      4985    3    0    1
 -2       291       393      2136      2402
 -1      4986    3    0    1
 -2       884      1117      2127      2402
 -1      4987    3    0    1
 -2      2127      2244      2305      2402
 -1      4988    3    0    1
 -2       383      1991      2003      2379
 -1      4989    3    0    1
 -2       383       387      1991      2379
 -1      4990    3    0    1
 -2       972       618      2421      2470
 -1      4991    3    0    1
 -2       216      1024      2195      2381
 -1      4992    3    0    1
 -2      1024       212      2331      2381
 -1      4993    3    0    1
 -2      2195      1024      2331      2381
 -1      4994    3    0    1
 -2       394       212      2361      2381
 -1      4995    3    0    1
 -2       395      1318      2128      2400
 -1      4996    3    0    1
 -2       762      2446      2450      2467
 -1      4997    3    0    1
 -2       805      2254      2349      2486
 -1      4998    3    0    1
 -2      1039       762      2450      2467
 -1      4999    3    0    1
 -2       219      1039      2450      2467
 -1      5000    3    0    1
 -2       213      2405      2466      2467
 -1      5001    3    0    1
 -2      2084      2128      2262      2400
 -1      5002    3    0    1
 -2       216       212      1024      2381
 -1      5003    3    0    1
 -2      2300      2262      2329      2400
 -1      5004    3    0    1
 -2      2237      2371      2389      2404
 -1      5005    3    0    1
 -2       943       554      2371      2404
 -1      5006    3    0    1
 -2       781       790      1555      2631
 -1      5007    3    0    1
 -2      2133       644      2326      2384
 -1      5008    3    0    1
 -2       985       339      2326      2384
 -1      5009    3    0    1
 -2       644       985      2326      2384
 -1      5010    3    0    1
 -2      1982      2131      2221      2385
 -1      5011    3    0    1
 -2      1982      1296      2131      2385
 -1      5012    3    0    1
 -2       139      1982      2221      2385
 -1      5013    3    0    1
 -2      1966       139      2096      2385
 -1      5014    3    0    1
 -2      2096       139      2221      2385
 -1      5015    3    0    1
 -2       139      1296      1982      2385
 -1      5016    3    0    1
 -2       982      1300      2026      2386
 -1      5017    3    0    1
 -2       647      2143      2312      2386
 -1      5018    3    0    1
 -2       340       437      1604      3272
 -1      5019    3    0    1
 -2       641       647      1300      2386
 -1      5020    3    0    1
 -2      1300       647      2312      2386
 -1      5021    3    0    1
 -2      3217      3615      3246      3711
 -1      5022    3    0    1
 -2       629       641       982      2386
 -1      5023    3    0    1
 -2       629       982      1297      2386
 -1      5024    3    0    1
 -2       247       344      3529      3121
 -1      5025    3    0    1
 -2       994      2559      2634      2726
 -1      5026    3    0    1
 -2      2230       352      2232      2689
 -1      5027    3    0    1
 -2      3504      3563      3632      3644
 -1      5028    3    0    1
 -2      1793      1792      1804      3346
 -1      5029    3    0    1
 -2       730      1027      1317      2540
 -1      5030    3    0    1
 -2       343      2446      2478      2578
 -1      5031    3    0    1
 -2       833      2102      2187      2472
 -1      5032    3    0    1
 -2      2087      1975      2393      2472
 -1      5033    3    0    1
 -2       608       968      2059      2397
 -1      5034    3    0    1
 -2      2165      2067      2287      2411
 -1      5035    3    0    1
 -2      2532      2342      3532      3665
 -1      5036    3    0    1
 -2       189      1012      1013      2390
 -1      5037    3    0    1
 -2      1013      1012      2216      2390
 -1      5038    3    0    1
 -2       590       589       960      2391
 -1      5039    3    0    1
 -2      2310      2235      2336      2449
 -1      5040    3    0    1
 -2      2233       223      2398      2450
 -1      5041    3    0    1
 -2       429      2235      2310      2449
 -1      5042    3    0    1
 -2      2002      2070      2299      2392
 -1      5043    3    0    1
 -2      2087      2286      2311      2393
 -1      5044    3    0    1
 -2      2087      1975      2286      2393
 -1      5045    3    0    1
 -2      2187      2102      2311      2393
 -1      5046    3    0    1
 -2      2102      2087      2311      2393
 -1      5047    3    0    1
 -2       636       617       971      2485
 -1      5048    3    0    1
 -2      2699      2724      3537      2904
 -1      5049    3    0    1
 -2      2154       259      2445      2473
 -1      5050    3    0    1
 -2      1347       294      1348      2393
 -1      5051    3    0    1
 -2      2427       787      2468      2473
 -1      5052    3    0    1
 -2       377       294      1347      2393
 -1      5053    3    0    1
 -2      1328       259      2154      2473
 -1      5054    3    0    1
 -2      2899      2733      3636      3654
 -1      5055    3    0    1
 -2      2133       985      2384      2395
 -1      5056    3    0    1
 -2       338       153      2206      2395
 -1      5057    3    0    1
 -2       153       338       985      2395
 -1      5058    3    0    1
 -2       153       159      2206      2395
 -1      5059    3    0    1
 -2       159       153       983      2395
 -1      5060    3    0    1
 -2      3516      1052      3557      3635
 -1      5061    3    0    1
 -2      1018       719      2388      2396
 -1      5062    3    0    1
 -2       719       730      2388      2396
 -1      5063    3    0    1
 -2       719      1018      1317      2396
 -1      5064    3    0    1
 -2       730       719      1317      2396
 -1      5065    3    0    1
 -2      2340       960      2391      2410
 -1      5066    3    0    1
 -2       960       590      2306      2410
 -1      5067    3    0    1
 -2       401       402      2275      2410
 -1      5068    3    0    1
 -2       128       401      2275      2397
 -1      5069    3    0    1
 -2       401       128      1291      2397
 -1      5070    3    0    1
 -2      1048      1036      2074      2398
 -1      5071    3    0    1
 -2      2263      2229      2277      2419
 -1      5072    3    0    1
 -2      1034       232      2263      2398
 -1      5073    3    0    1
 -2       232       391      2263      2398
 -1      5074    3    0    1
 -2       391       232      1036      2398
 -1      5075    3    0    1
 -2       391      1036      1048      2398
 -1      5076    3    0    1
 -2       216      1031      2381      2399
 -1      5077    3    0    1
 -2       424       425      2116      2443
 -1      5078    3    0    1
 -2       428       425      2316      2443
 -1      5079    3    0    1
 -2       425      1014      2316      2443
 -1      5080    3    0    1
 -2       216       417      1019      2399
 -1      5081    3    0    1
 -2       417       216      2198      2399
 -1      5082    3    0    1
 -2      1017       417      2198      2399
 -1      5083    3    0    1
 -2       216      1019      1031      2399
 -1      5084    3    0    1
 -2      1014      2216      2316      2443
 -1      5085    3    0    1
 -2      2062      2052      2332      2401
 -1      5086    3    0    1
 -2      2052      2062      2332      1990
 -1      5087    3    0    1
 -2      2052      2332       387      2045
 -1      5088    3    0    1
 -2      2332      2052       387      2401
 -1      5089    3    0    1
 -2       894       884      2127      2402
 -1      5090    3    0    1
 -2       393      2000      2136      2402
 -1      5091    3    0    1
 -2       884      1128      1116      2402
 -1      5092    3    0    1
 -2      1128       291      1116      2402
 -1      5093    3    0    1
 -2      2000      1128      2127      2402
 -1      5094    3    0    1
 -2      1128       884       894      2402
 -1      5095    3    0    1
 -2       291      1128       393      2402
 -1      5096    3    0    1
 -2      1128       894      2127      2402
 -1      5097    3    0    1
 -2       393      1128      2000      2402
 -1      5098    3    0    1
 -2      2889      3213      1862      3382
 -1      5099    3    0    1
 -2      2642      1603      2932      3272
 -1      5100    3    0    1
 -2      3611      3579      3666      3689
 -1      5101    3    0    1
 -2      3678      3564      3406      3695
 -1      5102    3    0    1
 -2       173      1305      1703      1821
 -1      5103    3    0    1
 -2      1321       219      2233      2405
 -1      5104    3    0    1
 -2       751      2233      2300      2405
 -1      5105    3    0    1
 -2       751      1321      2233      2405
 -1      5106    3    0    1
 -2       751      2300      2329      2405
 -1      5107    3    0    1
 -2        26      3083      1880      1945
 -1      5108    3    0    1
 -2       213       234      2329      2405
 -1      5109    3    0    1
 -2       234       219      1321      2405
 -1      5110    3    0    1
 -2       234      1321      2329      2405
 -1      5111    3    0    1
 -2      1321       751      2329      2405
 -1      5112    3    0    1
 -2       659       665      2141      2406
 -1      5113    3    0    1
 -2      1694      1412      3592      3636
 -1      5114    3    0    1
 -2       665       676      2141      2406
 -1      5115    3    0    1
 -2      3282      3328      3682      3701
 -1      5116    3    0    1
 -2      1568       403      1658      3575
 -1      5117    3    0    1
 -2      1568      1413      3514      3575
 -1      5118    3    0    1
 -2      2158       635      2259      2608
 -1      5119    3    0    1
 -2      2697      2574      3516      3546
 -1      5120    3    0    1
 -2       676       994      1305      2406
 -1      5121    3    0    1
 -2       676       665       994      2406
 -1      5122    3    0    1
 -2       968       361      2059      2409
 -1      5123    3    0    1
 -2       129       361       968      2409
 -1      5124    3    0    1
 -2       401      2275      2397      2410
 -1      5125    3    0    1
 -2      1291       401      2397      2410
 -1      5126    3    0    1
 -2       607      1291      2362      2410
 -1      5127    3    0    1
 -2      1334      1331      2258      2475
 -1      5128    3    0    1
 -2      1793      1792      3346      1926
 -1      5129    3    0    1
 -2      1032       748      2342      2618
 -1      5130    3    0    1
 -2       270      1331      1334      2475
 -1      5131    3    0    1
 -2      1449      2693      3041      3393
 -1      5132    3    0    1
 -2      1125      1109      2325      2430
 -1      5133    3    0    1
 -2       653       654       988      2412
 -1      5134    3    0    1
 -2      1125      2325      2346      2430
 -1      5135    3    0    1
 -2       444      1109      2346      2430
 -1      5136    3    0    1
 -2       640       416       989      1963
 -1      5137    3    0    1
 -2       654       635       989      2412
 -1      5138    3    0    1
 -2       635       979       989      2412
 -1      5139    3    0    1
 -2      2295      1989      2325      2430
 -1      5140    3    0    1
 -2       270      1969      2261      2415
 -1      5141    3    0    1
 -2       270      1062      1969      2415
 -1      5142    3    0    1
 -2       822       823      1066      2424
 -1      5143    3    0    1
 -2      2525      2415      3508      3425
 -1      5144    3    0    1
 -2      2642      2813      2932      3290
 -1      5145    3    0    1
 -2      2559      1248      2670      2817
 -1      5146    3    0    1
 -2      1337      1066       823      2424
 -1      5147    3    0    1
 -2      1972      1337      2267      2424
 -1      5148    3    0    1
 -2      1036      2074      2398      2450
 -1      5149    3    0    1
 -2       831      1069      2423      2476
 -1      5150    3    0    1
 -2      1901      1902      3378      3472
 -1      5151    3    0    1
 -2       948       564      2135      2476
 -1      5152    3    0    1
 -2       288       355      2426      2476
 -1      5153    3    0    1
 -2      3047      3622      3317      3318
 -1      5154    3    0    1
 -2      1337       823      2267      2424
 -1      5155    3    0    1
 -2      1069       288      2284      2476
 -1      5156    3    0    1
 -2       581       953       956      2417
 -1      5157    3    0    1
 -2      1574      1573      1749      3316
 -1      5158    3    0    1
 -2      1803      3050      1804      3346
 -1      5159    3    0    1
 -2       208       737      1029      1929
 -1      5160    3    0    1
 -2       405       400      2356      2417
 -1      5161    3    0    1
 -2       400       405       955      2417
 -1      5162    3    0    1
 -2      2244      2001      2438      2448
 -1      5163    3    0    1
 -2       571       572      2226      2420
 -1      5164    3    0    1
 -2       572       571       949      2420
 -1      5165    3    0    1
 -2       571       950      2389      2420
 -1      5166    3    0    1
 -2       950       571      2226      2420
 -1      5167    3    0    1
 -2       950      2382      2389      2420
 -1      5168    3    0    1
 -2       950      2226      2382      2420
 -1      5169    3    0    1
 -2      2021      2389      2404      2420
 -1      5170    3    0    1
 -2      2021       571      2389      2420
 -1      5171    3    0    1
 -2       109       102       949      2420
 -1      5172    3    0    1
 -2       109       949      2404      2420
 -1      5173    3    0    1
 -2       949       571      2404      2420
 -1      5174    3    0    1
 -2       571      2021      2404      2420
 -1      5175    3    0    1
 -2      3539      3455      3687      3629
 -1      5176    3    0    1
 -2       599       618       962      2421
 -1      5177    3    0    1
 -2       618       599       963      2421
 -1      5178    3    0    1
 -2       618       963       972      2421
 -1      5179    3    0    1
 -2       618      2275       962      2421
 -1      5180    3    0    1
 -2       388       267      1061      2422
 -1      5181    3    0    1
 -2       388      1061      2416      2422
 -1      5182    3    0    1
 -2       959       589      2306      2481
 -1      5183    3    0    1
 -2       589       958      2391      2481
 -1      5184    3    0    1
 -2       267       388      1059      2422
 -1      5185    3    0    1
 -2      1070       831      1071      2423
 -1      5186    3    0    1
 -2      2202      2373      2376      2463
 -1      5187    3    0    1
 -2       280      1070      1071      2423
 -1      5188    3    0    1
 -2       280       285      1070      2423
 -1      5189    3    0    1
 -2       357       945       956      2425
 -1      5190    3    0    1
 -2      2016       253      2427      2477
 -1      5191    3    0    1
 -2      2370       405      3690      3699
 -1      5192    3    0    1
 -2       355       941      2293      2426
 -1      5193    3    0    1
 -2       288       355      2293      2426
 -1      5194    3    0    1
 -2      1067       288      2293      2426
 -1      5195    3    0    1
 -2      2075      2016      2302      2477
 -1      5196    3    0    1
 -2       395      2084      2265      2469
 -1      5197    3    0    1
 -2       733      1025      2265      2469
 -1      5198    3    0    1
 -2      1318       395      2265      2469
 -1      5199    3    0    1
 -2      2309       735      2331      2469
 -1      5200    3    0    1
 -2       395      1318      2400      2469
 -1      5201    3    0    1
 -2       787      1050      2301      2427
 -1      5202    3    0    1
 -2      1050      2075      2301      2427
 -1      5203    3    0    1
 -2      1050       253      2075      2427
 -1      5204    3    0    1
 -2      2630      3533      3542      3569
 -1      5205    3    0    1
 -2      3568      3172      3321      3705
 -1      5206    3    0    1
 -2      1290       969      2138      3549
 -1      5207    3    0    1
 -2      1500      2755      1770      3369
 -1      5208    3    0    1
 -2       350       270      3508      1921
 -1      5209    3    0    1
 -2       690      1005      2242      2431
 -1      5210    3    0    1
 -2       690       671       996      2431
 -1      5211    3    0    1
 -2       690       996      1005      2431
 -1      5212    3    0    1
 -2      2236       388      2359      2432
 -1      5213    3    0    1
 -2       375       376      2347      2457
 -1      5214    3    0    1
 -2      2083       375      2344      2457
 -1      5215    3    0    1
 -2       988      2343      2507      3518
 -1      5216    3    0    1
 -2       807      1059      2236      2432
 -1      5217    3    0    1
 -2      1059       388      2236      2432
 -1      5218    3    0    1
 -2      1117       397      1406      2433
 -1      5219    3    0    1
 -2      1991       387      2052      2434
 -1      5220    3    0    1
 -2      2062      1990      2146      2435
 -1      5221    3    0    1
 -2      1972       386      2045      2435
 -1      5222    3    0    1
 -2      1972      2045      2332      2435
 -1      5223    3    0    1
 -2      1990      2045      2146      2435
 -1      5224    3    0    1
 -2      2045       386      2146      2435
 -1      5225    3    0    1
 -2      2127      2244      2402      2436
 -1      5226    3    0    1
 -2      1117      2127      2402      2436
 -1      5227    3    0    1
 -2       447      2433      1388       397
 -1      5228    3    0    1
 -2      2433      2299      1388      1387
 -1      5229    3    0    1
 -2      1388      2433      1387       397
 -1      5230    3    0    1
 -2      1019       725      2442      2482
 -1      5231    3    0    1
 -2      3108      1559      3227      3377
 -1      5232    3    0    1
 -2       725      1019      1022      2482
 -1      5233    3    0    1
 -2       725       726      1020      2482
 -1      5234    3    0    1
 -2       369      2306      2413      2437
 -1      5235    3    0    1
 -2      2286       369      2413      2437
 -1      5236    3    0    1
 -2      2234       202      2399      2482
 -1      5237    3    0    1
 -2       959       370      2018      2437
 -1      5238    3    0    1
 -2       193      1009      2209      2439
 -1      5239    3    0    1
 -2       698      2159      2169      2439
 -1      5240    3    0    1
 -2       698      2169      2252      2439
 -1      5241    3    0    1
 -2      2209       698      2252      2439
 -1      5242    3    0    1
 -2      1009       193      2159      2439
 -1      5243    3    0    1
 -2       698      1009      2159      2439
 -1      5244    3    0    1
 -2       997       341      3518      1732
 -1      5245    3    0    1
 -2       163       658       667      1732
 -1      5246    3    0    1
 -2       550       826      2314      2440
 -1      5247    3    0    1
 -2      1282       550       557      2440
 -1      5248    3    0    1
 -2      1282       557      2230      2440
 -1      5249    3    0    1
 -2       658       341       997      1732
 -1      5250    3    0    1
 -2      2494      2526      2607      3565
 -1      5251    3    0    1
 -2       163       341       658      1732
 -1      5252    3    0    1
 -2       550       940      1338      2440
 -1      5253    3    0    1
 -2       826       550      1338      2440
 -1      5254    3    0    1
 -2       576      1635      3063      3069
 -1      5255    3    0    1
 -2       988       997      3518      1732
 -1      5256    3    0    1
 -2       762      1038      2446      2612
 -1      5257    3    0    1
 -2      3512      1532      2666      1658
 -1      5258    3    0    1
 -2      1055       345      2335      2483
 -1      5259    3    0    1
 -2       345      2454      2335      2483
 -1      5260    3    0    1
 -2      1019      1031      2399      2442
 -1      5261    3    0    1
 -2       744       725      1030      2442
 -1      5262    3    0    1
 -2       725       744      1031      2442
 -1      5263    3    0    1
 -2       725      1020      1030      2442
 -1      5264    3    0    1
 -2      1019       725      1031      2442
 -1      5265    3    0    1
 -2      2116      1310      2252      2443
 -1      5266    3    0    1
 -2      2206       978      2259      2444
 -1      5267    3    0    1
 -2      2160       363      2324      2444
 -1      5268    3    0    1
 -2       363      2160      2259      2444
 -1      5269    3    0    1
 -2      2163       643      2279      2444
 -1      5270    3    0    1
 -2       643       983      2395      2444
 -1      5271    3    0    1
 -2      2279       643      2395      2444
 -1      5272    3    0    1
 -2       990       978      2206      2444
 -1      5273    3    0    1
 -2       976       363      2163      2444
 -1      5274    3    0    1
 -2       363       159      2163      2444
 -1      5275    3    0    1
 -2       159       983      2163      2444
 -1      5276    3    0    1
 -2       159       363       990      2444
 -1      5277    3    0    1
 -2       983       643      2163      2444
 -1      5278    3    0    1
 -2       363       978       990      2444
 -1      5279    3    0    1
 -2      1043       390      2301      2445
 -1      5280    3    0    1
 -2       390       259      2301      2445
 -1      5281    3    0    1
 -2       259       390      1056      2445
 -1      5282    3    0    1
 -2       390      1045      1056      2445
 -1      5283    3    0    1
 -2      1037       761      1038      2446
 -1      5284    3    0    1
 -2      2017      2007      2334      2451
 -1      5285    3    0    1
 -2       227       343      1037      2446
 -1      5286    3    0    1
 -2       960       590      2410      2474
 -1      5287    3    0    1
 -2      1355      2017      2334      2451
 -1      5288    3    0    1
 -2       208      1023      1319      2479
 -1      5289    3    0    1
 -2      1063      2261      2453      3697
 -1      5290    3    0    1
 -2      2309       213      2405      2466
 -1      5291    3    0    1
 -2      1026       213      2309      2466
 -1      5292    3    0    1
 -2      1026      2309      2331      2466
 -1      5293    3    0    1
 -2      1331       802      2257      2614
 -1      5294    3    0    1
 -2      3567      2790      3584      3593
 -1      5295    3    0    1
 -2      1331      2257      2258      2614
 -1      5296    3    0    1
 -2       210       208      2361      2479
 -1      5297    3    0    1
 -2      2007      2025      2334      2451
 -1      5298    3    0    1
 -2       295      1083      1370      2451
 -1      5299    3    0    1
 -2      2025      2007      2058      2451
 -1      5300    3    0    1
 -2      1637        27      1774      3160
 -1      5301    3    0    1
 -2       272      1969      2422      2480
 -1      5302    3    0    1
 -2       232       223      1036      2450
 -1      5303    3    0    1
 -2       761       762      2446      2450
 -1      5304    3    0    1
 -2       762       761      1036      2450
 -1      5305    3    0    1
 -2      2025      1083      2334      2451
 -1      5306    3    0    1
 -2       254      1328      2154      2484
 -1      5307    3    0    1
 -2      2335      1056       797       798
 -1      5308    3    0    1
 -2      1056      2335       797      2452
 -1      5309    3    0    1
 -2       260       254      1056      2452
 -1      5310    3    0    1
 -2      1056       254      2154      2452
 -1      5311    3    0    1
 -2       257       345      2175      2454
 -1      5312    3    0    1
 -2       254      1051      1328      2484
 -1      5313    3    0    1
 -2       789       787      1328      2484
 -1      5314    3    0    1
 -2       797       816      1064      2453
 -1      5315    3    0    1
 -2       797      1054      1063      2453
 -1      5316    3    0    1
 -2      1053       797      1064      2453
 -1      5317    3    0    1
 -2      1038       227      2446      3696
 -1      5318    3    0    1
 -2      1047       237      2408      2615
 -1      5319    3    0    1
 -2      2261      1331      2475      2614
 -1      5320    3    0    1
 -2      1449      1532      1533      3393
 -1      5321    3    0    1
 -2       336       337      3694      3696
 -1      5322    3    0    1
 -2      1450      1449      1533      3393
 -1      5323    3    0    1
 -2      1029      1038      2612      3696
 -1      5324    3    0    1
 -2      2666      1532      3041      3393
 -1      5325    3    0    1
 -2       376      2091      2287      2457
 -1      5326    3    0    1
 -2       376      2287      2347      2457
 -1      5327    3    0    1
 -2       376      1986      2091      2457
 -1      5328    3    0    1
 -2      1986      2083      2091      2457
 -1      5329    3    0    1
 -2       376       375      1986      2457
 -1      5330    3    0    1
 -2      1986       375      2083      2457
 -1      5331    3    0    1
 -2       400      1283      1286      2458
 -1      5332    3    0    1
 -2      1283       568      1286      2458
 -1      5333    3    0    1
 -2       400       405      2356      2458
 -1      5334    3    0    1
 -2       405       400      1286      2458
 -1      5335    3    0    1
 -2       568      2230      2282      2458
 -1      5336    3    0    1
 -2       568      1283      2230      2458
 -1      5337    3    0    1
 -2       575       568      2282      2458
 -1      5338    3    0    1
 -2       568       575      1286      2458
 -1      5339    3    0    1
 -2      1345       290       292      2459
 -1      5340    3    0    1
 -2      1386      2358       290      1103
 -1      5341    3    0    1
 -2      1345      2358      1344       290
 -1      5342    3    0    1
 -2      1345      2358       290      2459
 -1      5343    3    0    1
 -2      2358      2042      1345      1344
 -1      5344    3    0    1
 -2      2323       149      2360      2460
 -1      5345    3    0    1
 -2       992      2281      2351      2460
 -1      5346    3    0    1
 -2      2281       992      2326      2460
 -1      5347    3    0    1
 -2      2089       992      2351      2460
 -1      5348    3    0    1
 -2      1299       149      2323      2460
 -1      5349    3    0    1
 -2      2089      1299      2326      2460
 -1      5350    3    0    1
 -2       992      2089      2326      2460
 -1      5351    3    0    1
 -2       149      1299      2089      2460
 -1      5352    3    0    1
 -2      1069      1072      2423      2462
 -1      5353    3    0    1
 -2      1069       385      1072      2462
 -1      5354    3    0    1
 -2       832      2416      2423      2462
 -1      5355    3    0    1
 -2      1072       832      2423      2462
 -1      5356    3    0    1
 -2       832      1072      2416      2462
 -1      5357    3    0    1
 -2       381       385      1069      2462
 -1      5358    3    0    1
 -2       381      1069      2284      2462
 -1      5359    3    0    1
 -2      2284      1069      2423      2462
 -1      5360    3    0    1
 -2      1363       849      1362      2463
 -1      5361    3    0    1
 -2      1362       849      2373      2463
 -1      5362    3    0    1
 -2      1979      1362      2373      2463
 -1      5363    3    0    1
 -2      2192      1979      2373      2463
 -1      5364    3    0    1
 -2       243      1041      2418      2464
 -1      5365    3    0    1
 -2      2375       243      2418      2464
 -1      5366    3    0    1
 -2      1041       769      2229      2464
 -1      5367    3    0    1
 -2       769      1041      1043      2464
 -1      5368    3    0    1
 -2       390      2375      2445      2464
 -1      5369    3    0    1
 -2       390       245      2375      2464
 -1      5370    3    0    1
 -2      1043       390      2445      2464
 -1      5371    3    0    1
 -2       245       243      2375      2464
 -1      5372    3    0    1
 -2       243       245      1043      2464
 -1      5373    3    0    1
 -2       245       390      1043      2464
 -1      5374    3    0    1
 -2       780      1037      1047      2465
 -1      5375    3    0    1
 -2      1896       673      1897      3432
 -1      5376    3    0    1
 -2      1024      1026      2331      2466
 -1      5377    3    0    1
 -2       212      1024      2331      2466
 -1      5378    3    0    1
 -2      1024       212      1026      2466
 -1      5379    3    0    1
 -2       394       213      1026      2466
 -1      5380    3    0    1
 -2      1028       213      2466      2467
 -1      5381    3    0    1
 -2       234       219      2405      2467
 -1      5382    3    0    1
 -2       219       234      1039      2467
 -1      5383    3    0    1
 -2       213       234      2405      2467
 -1      5384    3    0    1
 -2      1028       762      1039      2467
 -1      5385    3    0    1
 -2       743       762      1028      2467
 -1      5386    3    0    1
 -2       213      1028      1039      2467
 -1      5387    3    0    1
 -2       234       213      1039      2467
 -1      5388    3    0    1
 -2      2585       409      3510      1923
 -1      5389    3    0    1
 -2      1329      1050       787      2468
 -1      5390    3    0    1
 -2       787      1050      2427      2468
 -1      5391    3    0    1
 -2       733      1318      1025      2469
 -1      5392    3    0    1
 -2       618       617       970      2470
 -1      5393    3    0    1
 -2       970       617      2321      2470
 -1      5394    3    0    1
 -2       970      2321      2409      2470
 -1      5395    3    0    1
 -2       129       970      2409      2470
 -1      5396    3    0    1
 -2      2275       129      2409      2470
 -1      5397    3    0    1
 -2       971       972      2201      2470
 -1      5398    3    0    1
 -2       971       617       972      2470
 -1      5399    3    0    1
 -2       618       970       973      2470
 -1      5400    3    0    1
 -2       618       973      2275      2470
 -1      5401    3    0    1
 -2       128       129      2275      2470
 -1      5402    3    0    1
 -2       129       128       970      2470
 -1      5403    3    0    1
 -2       970       128       973      2470
 -1      5404    3    0    1
 -2       973       128      2275      2470
 -1      5405    3    0    1
 -2       730       719      2388      2471
 -1      5406    3    0    1
 -2      1528      1432      1529      3007
 -1      5407    3    0    1
 -2      1475      1474      1741      3302
 -1      5408    3    0    1
 -2       730      1023      1316      2471
 -1      5409    3    0    1
 -2      2584      2143      3577      3579
 -1      5410    3    0    1
 -2       719       730      1316      2471
 -1      5411    3    0    1
 -2       294      1074      2393      2472
 -1      5412    3    0    1
 -2       294      1073      1074      2472
 -1      5413    3    0    1
 -2      2301       787      2427      2473
 -1      5414    3    0    1
 -2      2283      2301      2427      2473
 -1      5415    3    0    1
 -2       259      1328      2301      2473
 -1      5416    3    0    1
 -2      1328       787      2301      2473
 -1      5417    3    0    1
 -2      1997      2019      2362      2474
 -1      5418    3    0    1
 -2      1997      2362      2410      2474
 -1      5419    3    0    1
 -2      1442      2854      1727      1728
 -1      5420    3    0    1
 -2      1432      3639      1754      3474
 -1      5421    3    0    1
 -2      3120      2910      3668      3671
 -1      5422    3    0    1
 -2       738      1319      2046      2618
 -1      5423    3    0    1
 -2       348       270      2261      2475
 -1      5424    3    0    1
 -2       270       348      1331      2475
 -1      5425    3    0    1
 -2      1331       348      2261      2475
 -1      5426    3    0    1
 -2       350       349      3508      3728
 -1      5427    3    0    1
 -2      3563      3556      3645      3660
 -1      5428    3    0    1
 -2       948      2135      2248      2476
 -1      5429    3    0    1
 -2       355       948      2248      2476
 -1      5430    3    0    1
 -2       831       948      1069      2476
 -1      5431    3    0    1
 -2       831       564       948      2476
 -1      5432    3    0    1
 -2       355       288      1069      2476
 -1      5433    3    0    1
 -2       948       355      1069      2476
 -1      5434    3    0    1
 -2       202      2234      2348      2482
 -1      5435    3    0    1
 -2       227       343      2446      2478
 -1      5436    3    0    1
 -2       343       227      1032      2478
 -1      5437    3    0    1
 -2      3601      3091      3219      3373
 -1      5438    3    0    1
 -2       343      1032      1323      2478
 -1      5439    3    0    1
 -2       589       959      2018      2481
 -1      5440    3    0    1
 -2       411       971      2201      3510
 -1      5441    3    0    1
 -2       958       589      2018      2481
 -1      5442    3    0    1
 -2      1053      1064      2219      2480
 -1      5443    3    0    1
 -2       272       275      1064      2480
 -1      5444    3    0    1
 -2      1064      2452      2453      2480
 -1      5445    3    0    1
 -2       610       614       971      1924
 -1      5446    3    0    1
 -2      1030      2361      2442      2479
 -1      5447    3    0    1
 -2      1030       210      2361      2479
 -1      5448    3    0    1
 -2       208      1029      2479      3696
 -1      5449    3    0    1
 -2      2158       980      2585      3510
 -1      5450    3    0    1
 -2       411       610       971      1924
 -1      5451    3    0    1
 -2       202      1019      2399      2482
 -1      5452    3    0    1
 -2       726      2079      2365      2482
 -1      5453    3    0    1
 -2      1020       726      1021      2482
 -1      5454    3    0    1
 -2      1020      1021      2214      2482
 -1      5455    3    0    1
 -2       726       725      1022      2482
 -1      5456    3    0    1
 -2       726      1022      2079      2482
 -1      5457    3    0    1
 -2      2079      1022      2348      2482
 -1      5458    3    0    1
 -2      1019       202      1022      2482
 -1      5459    3    0    1
 -2      1021       726      2365      2482
 -1      5460    3    0    1
 -2      2214      1021      2365      2482
 -1      5461    3    0    1
 -2       198       202      2348      2482
 -1      5462    3    0    1
 -2       202       198      1022      2482
 -1      5463    3    0    1
 -2      1022       198      2348      2482
 -1      5464    3    0    1
 -2      2600      2697      3516      3557
 -1      5465    3    0    1
 -2       254      2154      2452      2484
 -1      5466    3    0    1
 -2       260       254      2452      2484
 -1      5467    3    0    1
 -2       254       260      1051      2484
 -1      5468    3    0    1
 -2      1051       262      2219      2484
 -1      5469    3    0    1
 -2       262       260      2452      2484
 -1      5470    3    0    1
 -2      2219       262      2452      2484
 -1      5471    3    0    1
 -2       260       262      1051      2484
 -1      5472    3    0    1
 -2       636       971       980      2485
 -1      5473    3    0    1
 -2      3003      2802      1802      3349
 -1      5474    3    0    1
 -2      1920      3672      3431      3700
 -1      5475    3    0    1
 -2      2254       807      2432      2486
 -1      5476    3    0    1
 -2       267       272      2422      2486
 -1      5477    3    0    1
 -2       272       267      1057      2486
 -1      5478    3    0    1
 -2      1057       267      1059      2486
 -1      5479    3    0    1
 -2      1059       267      2422      2486
 -1      5480    3    0    1
 -2      2232      2525      2766      3686
 -1      5481    3    0    1
 -2      2556       458      2728      2905
 -1      5482    3    0    1
 -2      2582      1194      2660      2984
 -1      5483    3    0    1
 -2      1495      1621      1622      2923
 -1      5484    3    0    1
 -2      3000      1464      3071      3585
 -1      5485    3    0    1
 -2      2258      1334      2475      2617
 -1      5486    3    0    1
 -2      2494      2853      2923      3565
 -1      5487    3    0    1
 -2      3397      3371      1917      3454
 -1      5488    3    0    1
 -2      3129      2858      3208      3614
 -1      5489    3    0    1
 -2      1916      1914      3429      3476
 -1      5490    3    0    1
 -2      1541      1428      1542      3162
 -1      5491    3    0    1
 -2      3568      2717      3050      3445
 -1      5492    3    0    1
 -2      2643      3564      3659      3358
 -1      5493    3    0    1
 -2      3569      3324      3652      3339
 -1      5494    3    0    1
 -2       918      1330      1049      2531
 -1      5495    3    0    1
 -2      1308      2208      2243      3410
 -1      5496    3    0    1
 -2       226      3179      1679      1905
 -1      5497    3    0    1
 -2      1454      1455      1617      3228
 -1      5498    3    0    1
 -2      1603      2642      1301      3272
 -1      5499    3    0    1
 -2       997      2488       341      2270
 -1      5500    3    0    1
 -2      1416      1549      1550      3019
 -1      5501    3    0    1
 -2      1308      2208      3410      3726
 -1      5502    3    0    1
 -2      2068       175      2271      2516
 -1      5503    3    0    1
 -2       559       551       947      1676
 -1      5504    3    0    1
 -2       952      1284      2796      3535
 -1      5505    3    0    1
 -2      1162       907      2512      2569
 -1      5506    3    0    1
 -2       426       175      1003      2516
 -1      5507    3    0    1
 -2      2852      2673      3536      3547
 -1      5508    3    0    1
 -2      2897      3140      3596      3305
 -1      5509    3    0    1
 -2       285      1070      2423      2525
 -1      5510    3    0    1
 -2      3035      3015      3572      3156
 -1      5511    3    0    1
 -2      1493      3034      1763      1764
 -1      5512    3    0    1
 -2      2285      2522      3511      3638
 -1      5513    3    0    1
 -2      1049      1330       784      2531
 -1      5514    3    0    1
 -2      2442      1030      2479      2543
 -1      5515    3    0    1
 -2      1614      3002      3240      3296
 -1      5516    3    0    1
 -2      3673      2829      3707      3730
 -1      5517    3    0    1
 -2      1704      1469      1705      3036
 -1      5518    3    0    1
 -2      3622      3175      3256      3301
 -1      5519    3    0    1
 -2      3068      1767      3111      3680
 -1      5520    3    0    1
 -2      1759      1496      3076      3401
 -1      5521    3    0    1
 -2      1534      2659      3146      3249
 -1      5522    3    0    1
 -2       826      2314      2440      2575
 -1      5523    3    0    1
 -2      1632      1421      1633      3100
 -1      5524    3    0    1
 -2      2596      3535      2893      3069
 -1      5525    3    0    1
 -2      1754      3551      3205      3635
 -1      5526    3    0    1
 -2      2553      2633      3612      3716
 -1      5527    3    0    1
 -2      2273      1323      2478      2578
 -1      5528    3    0    1
 -2      2787      1621      2950      3028
 -1      5529    3    0    1
 -2      2520      2218      3504      3515
 -1      5530    3    0    1
 -2      2934      1521      2951      2952
 -1      5531    3    0    1
 -2      2823      1718      1767      3336
 -1      5532    3    0    1
 -2      2232      2135      2255      3528
 -1      5533    3    0    1
 -2      2648      1532      1658      1659
 -1      5534    3    0    1
 -2      1735      1734      1799      3166
 -1      5535    3    0    1
 -2         1       353      1549      3460
 -1      5536    3    0    1
 -2      2185      2511      2841      3715
 -1      5537    3    0    1
 -2      1305       173      1703      3603
 -1      5538    3    0    1
 -2       947       352      2255      3528
 -1      5539    3    0    1
 -2      2858       594      1719      3208
 -1      5540    3    0    1
 -2       449       558      2624      2999
 -1      5541    3    0    1
 -2       730       738      1027      2540
 -1      5542    3    0    1
 -2      3546      3516      3571      3303
 -1      5543    3    0    1
 -2       264      3571      3311      3630
 -1      5544    3    0    1
 -2       629      2189      2386      2609
 -1      5545    3    0    1
 -2       150       147      1562      1587
 -1      5546    3    0    1
 -2       653       988      2343      2507
 -1      5547    3    0    1
 -2      2105       963      2605      3688
 -1      5548    3    0    1
 -2      1007       694      2153      3410
 -1      5549    3    0    1
 -2       623       629       977      2665
 -1      5550    3    0    1
 -2      1651      3509      3538      3539
 -1      5551    3    0    1
 -2      1332       802      2594      2641
 -1      5552    3    0    1
 -2      1046      1055      2603      3530
 -1      5553    3    0    1
 -2      1562      1587      2680       150
 -1      5554    3    0    1
 -2       492       792      2531      2660
 -1      5555    3    0    1
 -2      1544       171      1545      3085
 -1      5556    3    0    1
 -2      1678      2955      3584      1894
 -1      5557    3    0    1
 -2      2679      2691      3533      3643
 -1      5558    3    0    1
 -2      3144      2783      3162      3701
 -1      5559    3    0    1
 -2      1238      2679      2691      3533
 -1      5560    3    0    1
 -2      1675      3519      3605      3389
 -1      5561    3    0    1
 -2      2838      3551      3088      3155
 -1      5562    3    0    1
 -2      2453      2261      2613      3697
 -1      5563    3    0    1
 -2      2937      3000      3206      3667
 -1      5564    3    0    1
 -2      3142        44      1839      1872
 -1      5565    3    0    1
 -2      3523      2651      3561      3617
 -1      5566    3    0    1
 -2      1504      2622      2716      2793
 -1      5567    3    0    1
 -2       810      1060       802      2594
 -1      5568    3    0    1
 -2      2222      2246      2161      2570
 -1      5569    3    0    1
 -2       330      1012      2390      3502
 -1      5570    3    0    1
 -2      1485      1474      1486      3049
 -1      5571    3    0    1
 -2      1496      1621      2923      3401
 -1      5572    3    0    1
 -2      3535      2969      2972      3069
 -1      5573    3    0    1
 -2      3519      3605      3633      3661
 -1      5574    3    0    1
 -2      1192       492      2531      2660
 -1      5575    3    0    1
 -2       790       781      1555      2918
 -1      5576    3    0    1
 -2       328       200      2690      3725
 -1      5577    3    0    1
 -2      2846      2161      3402      3687
 -1      5578    3    0    1
 -2      1428      3050      1803      3445
 -1      5579    3    0    1
 -2      1621      1495      1622      3028
 -1      5580    3    0    1
 -2      3026      2682      3667      3675
 -1      5581    3    0    1
 -2      2829      3366      3673      3707
 -1      5582    3    0    1
 -2      2847      1588      2917      3194
 -1      5583    3    0    1
 -2       961      1287       587      2512
 -1      5584    3    0    1
 -2      1411      2553      3238      3701
 -1      5585    3    0    1
 -2      1504      1588      1589      2793
 -1      5586    3    0    1
 -2      2488       997       341      3518
 -1      5587    3    0    1
 -2      1562      1648      2798      3016
 -1      5588    3    0    1
 -2      2574      2241      3516      3519
 -1      5589    3    0    1
 -2      2590      3266      3671      3452
 -1      5590    3    0    1
 -2      1756      2891      3046      3295
 -1      5591    3    0    1
 -2      1808      2915      3130      1850
 -1      5592    3    0    1
 -2      3640      3096      3333      3730
 -1      5593    3    0    1
 -2      3512      1287      3555      3041
 -1      5594    3    0    1
 -2      2153      1312      2390      3399
 -1      5595    3    0    1
 -2      2996      2953      3036      3591
 -1      5596    3    0    1
 -2      1514      1515      3256      3307
 -1      5597    3    0    1
 -2      2597      2631      2987      3591
 -1      5598    3    0    1
 -2      2640      3569      3580      3619
 -1      5599    3    0    1
 -2      2572      2551      1551      1552
 -1      5600    3    0    1
 -2      2548      2270      2558      3524
 -1      5601    3    0    1
 -2      1044      1324      2790      3593
 -1      5602    3    0    1
 -2      2387      3506      3509      3687
 -1      5603    3    0    1
 -2       328      1015      2498      3725
 -1      5604    3    0    1
 -2      1304       665      2559      2634
 -1      5605    3    0    1
 -2       966      1158      1160      2566
 -1      5606    3    0    1
 -2         1      1549      1550      3460
 -1      5607    3    0    1
 -2      2507       157      3518      3540
 -1      5608    3    0    1
 -2      3220      1421      3627      3278
 -1      5609    3    0    1
 -2      1489      2592      2867      2624
 -1      5610    3    0    1
 -2      1594      1595      3073      1787
 -1      5611    3    0    1
 -2      1003       175      2068      2516
 -1      5612    3    0    1
 -2      3538      1423      2929      3002
 -1      5613    3    0    1
 -2      2365      2390      3502      3399
 -1      5614    3    0    1
 -2      2776      1662      1663      2978
 -1      5615    3    0    1
 -2      1021      2214      2365      3502
 -1      5616    3    0    1
 -2       726      2365       707      3502
 -1      5617    3    0    1
 -2      2365       726       707      2079
 -1      5618    3    0    1
 -2       328       200      3502      1912
 -1      5619    3    0    1
 -2       721       713      1021      1912
 -1      5620    3    0    1
 -2       707      1012      1021      3502
 -1      5621    3    0    1
 -2       726       707      1021      3502
 -1      5622    3    0    1
 -2      1445      2718      3561      3147
 -1      5623    3    0    1
 -2      3538      1627      2930      1812
 -1      5624    3    0    1
 -2      1149      1147      2536      2759
 -1      5625    3    0    1
 -2      3574      3602      3631      3644
 -1      5626    3    0    1
 -2      1610      1611      3103      3334
 -1      5627    3    0    1
 -2       999      1304      2141      2497
 -1      5628    3    0    1
 -2      3140      1820      3183      1887
 -1      5629    3    0    1
 -2      1592      1593      1693      2992
 -1      5630    3    0    1
 -2       408      1294      3538      1812
 -1      5631    3    0    1
 -2      1332      2641      2657      2786
 -1      5632    3    0    1
 -2       743       762      2467      2612
 -1      5633    3    0    1
 -2       754       745      2891      1714
 -1      5634    3    0    1
 -2      2490      3543      3598      3400
 -1      5635    3    0    1
 -2       328      1015      1316      2498
 -1      5636    3    0    1
 -2      1316      1015      2388      2498
 -1      5637    3    0    1
 -2      3622      3138      3278      3330
 -1      5638    3    0    1
 -2       963      2421      2605      3688
 -1      5639    3    0    1
 -2       201      1316      2214      2498
 -1      5640    3    0    1
 -2       328       201      2214      2498
 -1      5641    3    0    1
 -2       201       328      1316      2498
 -1      5642    3    0    1
 -2       353         1      1867      3460
 -1      5643    3    0    1
 -2      1411      3238      3407      3701
 -1      5644    3    0    1
 -2      1591      1590      2724      2779
 -1      5645    3    0    1
 -2      2496      2713      2735      2926
 -1      5646    3    0    1
 -2      1592      2992      3062      3292
 -1      5647    3    0    1
 -2       762      1029      1038      2612
 -1      5648    3    0    1
 -2      2668      2967      3003      3037
 -1      5649    3    0    1
 -2      1469      1619      1620      3037
 -1      5650    3    0    1
 -2      2496      2492      3527      3014
 -1      5651    3    0    1
 -2        51      1768      1805      1933
 -1      5652    3    0    1
 -2       676       683      1002      2510
 -1      5653    3    0    1
 -2      2767      2527      3527      2877
 -1      5654    3    0    1
 -2      2242      2548      2558      3524
 -1      5655    3    0    1
 -2      2046       738      2618      3338
 -1      5656    3    0    1
 -2      2635      2918      3119      3609
 -1      5657    3    0    1
 -2      3040      2943      3104      3669
 -1      5658    3    0    1
 -2      1516      1517      1581      3132
 -1      5659    3    0    1
 -2      3655      2833      3372      3682
 -1      5660    3    0    1
 -2      1432      1528      3263      3474
 -1      5661    3    0    1
 -2       495       494      2644      2700
 -1      5662    3    0    1
 -2        24        62      1570      2702
 -1      5663    3    0    1
 -2       408      3539      3621      3629
 -1      5664    3    0    1
 -2       276      1890      1891      1892
 -1      5665    3    0    1
 -2      2531      2582      2660      3568
 -1      5666    3    0    1
 -2      2698       736      2933      3080
 -1      5667    3    0    1
 -2       979       635      2158      2608
 -1      5668    3    0    1
 -2      1284      2963      3575      1786
 -1      5669    3    0    1
 -2      3553      2703      3013      3614
 -1      5670    3    0    1
 -2      1682      1683      1753      3023
 -1      5671    3    0    1
 -2      1697       329      3556      1779
 -1      5672    3    0    1
 -2      3392      2578      3698      3723
 -1      5673    3    0    1
 -2       171      1830      3613      3270
 -1      5674    3    0    1
 -2      3318      3622      3670      3714
 -1      5675    3    0    1
 -2      2628      1696      3575      3073
 -1      5676    3    0    1
 -2      2134      2673      2852      3547
 -1      5677    3    0    1
 -2       655      2571      1885      1886
 -1      5678    3    0    1
 -2      1476      1594      2764      3226
 -1      5679    3    0    1
 -2      1330       918      1193      2531
 -1      5680    3    0    1
 -2      1687      2757      3584      3347
 -1      5681    3    0    1
 -2      1504      1505      1554      2622
 -1      5682    3    0    1
 -2       763      2836      1783      1784
 -1      5683    3    0    1
 -2      1521      1522      2934      1726
 -1      5684    3    0    1
 -2       405      3690      3699      1954
 -1      5685    3    0    1
 -2      2143      1301      2651      3577
 -1      5686    3    0    1
 -2      1023      1316      2471      2616
 -1      5687    3    0    1
 -2      2273      1326      2615      2504
 -1      5688    3    0    1
 -2      1055       345      3530      1807
 -1      5689    3    0    1
 -2       242      2369      3529      3530
 -1      5690    3    0    1
 -2      2369      1046      2377      3530
 -1      5691    3    0    1
 -2       247       242      3529      3530
 -1      5692    3    0    1
 -2      1852      1851      3350      3387
 -1      5693    3    0    1
 -2      3538      2929      2930      3184
 -1      5694    3    0    1
 -2      3513      3548      3600      3662
 -1      5695    3    0    1
 -2      2986       691      1798      1799
 -1      5696    3    0    1
 -2      2343      2488      2507      3518
 -1      5697    3    0    1
 -2      3113      1669      1871      1872
 -1      5698    3    0    1
 -2      3551      2838      2970      3155
 -1      5699    3    0    1
 -2       594       583      2735      1672
 -1      5700    3    0    1
 -2      1634       226      3532      3720
 -1      5701    3    0    1
 -2      1730      1493      1731      3042
 -1      5702    3    0    1
 -2       637      2572      1551      1552
 -1      5703    3    0    1
 -2      1669      3191      3294      1872
 -1      5704    3    0    1
 -2      2916      2826      2937      3585
 -1      5705    3    0    1
 -2      1547      2845      1819      3384
 -1      5706    3    0    1
 -2      1476      1477      2593      1584
 -1      5707    3    0    1
 -2      3556      1697      1779      3114
 -1      5708    3    0    1
 -2      2582      2660      2802      2984
 -1      5709    3    0    1
 -2       963       972      2421      3688
 -1      5710    3    0    1
 -2      2659      1534      1740      3249
 -1      5711    3    0    1
 -2      1729      3140      3305      1887
 -1      5712    3    0    1
 -2       952       403      3514      1658
 -1      5713    3    0    1
 -2       434       346      1577      2860
 -1      5714    3    0    1
 -2      2767      1491      1635      2877
 -1      5715    3    0    1
 -2      1462      1463      1631      2799
 -1      5716    3    0    1
 -2      3543      2818      3146      3249
 -1      5717    3    0    1
 -2      2220       575      2282      2555
 -1      5718    3    0    1
 -2      2796      3535      3575      3625
 -1      5719    3    0    1
 -2      1211       924      2594      2710
 -1      5720    3    0    1
 -2      3180      1638      3195      3624
 -1      5721    3    0    1
 -2      2625      1576      2837      3567
 -1      5722    3    0    1
 -2      1055       345      2483      3530
 -1      5723    3    0    1
 -2      3596      2897      3310      3653
 -1      5724    3    0    1
 -2       437       340      3649      3685
 -1      5725    3    0    1
 -2      2540      2588      2725      3531
 -1      5726    3    0    1
 -2      2915      1598      1744      1745
 -1      5727    3    0    1
 -2      3202      1738      3675      3710
 -1      5728    3    0    1
 -2      2712      2663      2958      3652
 -1      5729    3    0    1
 -2      2872      2554      3565      3294
 -1      5730    3    0    1
 -2       605       611       969      2566
 -1      5731    3    0    1
 -2      1925        43      1926      1928
 -1      5732    3    0    1
 -2      1847      1848      3274      1864
 -1      5733    3    0    1
 -2       969      1290       605      2566
 -1      5734    3    0    1
 -2      3539      3455      3134      3687
 -1      5735    3    0    1
 -2       416       989      2412      2507
 -1      5736    3    0    1
 -2      2564      2499      3535      3625
 -1      5737    3    0    1
 -2      2972      2647      2978      3182
 -1      5738    3    0    1
 -2      2847      1588      3194      3212
 -1      5739    3    0    1
 -2       979       989      3729      1962
 -1      5740    3    0    1
 -2      2728      3564      3145      3642
 -1      5741    3    0    1
 -2       352      2232      2255      3528
 -1      5742    3    0    1
 -2      1646      3567      3176      3216
 -1      5743    3    0    1
 -2       557      2632      1280       550
 -1      5744    3    0    1
 -2      1500      1501      2755      3008
 -1      5745    3    0    1
 -2       683       676       999      2510
 -1      5746    3    0    1
 -2      2828      2703      3044      3553
 -1      5747    3    0    1
 -2      1568       403      3514      3548
 -1      5748    3    0    1
 -2       999      1148      1150      2510
 -1      5749    3    0    1
 -2       999      1150      1308      2510
 -1      5750    3    0    1
 -2      1759      1596      1760      3211
 -1      5751    3    0    1
 -2      1756      1623      3040      3046
 -1      5752    3    0    1
 -2       463       462      1147      2510
 -1      5753    3    0    1
 -2      1147       462      1149      2510
 -1      5754    3    0    1
 -2       462       463      1148      2510
 -1      5755    3    0    1
 -2       999       462      1148      2510
 -1      5756    3    0    1
 -2      1148       463      1150      2510
 -1      5757    3    0    1
 -2      1485      1486      2664      2903
 -1      5758    3    0    1
 -2       676       462       999      2510
 -1      5759    3    0    1
 -2      1413      3548      3552      3662
 -1      5760    3    0    1
 -2       906      1163      1289      2512
 -1      5761    3    0    1
 -2       907       471      1162      2512
 -1      5762    3    0    1
 -2       472       471       907      2512
 -1      5763    3    0    1
 -2      1479      1480      1686      2956
 -1      5764    3    0    1
 -2       227      1032      2478      3694
 -1      5765    3    0    1
 -2       471      1163       906      2512
 -1      5766    3    0    1
 -2      1163       471       472      2512
 -1      5767    3    0    1
 -2      1289       472       593      2512
 -1      5768    3    0    1
 -2       472      1289      1163      2512
 -1      5769    3    0    1
 -2       684      3678      3406      3695
 -1      5770    3    0    1
 -2       977      3579      3672      3689
 -1      5771    3    0    1
 -2      1035      1320       748      2721
 -1      5772    3    0    1
 -2      3579      3611      3672      3689
 -1      5773    3    0    1
 -2      3073      1696      1786      1840
 -1      5774    3    0    1
 -2      1826      1789      3670      3376
 -1      5775    3    0    1
 -2      1543      2619      3551      3635
 -1      5776    3    0    1
 -2      1635      2767      1636      1491
 -1      5777    3    0    1
 -2      1500      1562      1563      3008
 -1      5778    3    0    1
 -2      1779      3556      3114      3660
 -1      5779    3    0    1
 -2      3579       151      3666      3689
 -1      5780    3    0    1
 -2      1592      2937      3000      3206
 -1      5781    3    0    1
 -2      2755      1500      3008      3369
 -1      5782    3    0    1
 -2      1783      1646      3082      3337
 -1      5783    3    0    1
 -2      1563      1562      2939      3016
 -1      5784    3    0    1
 -2      2614      2454      3477      3733
 -1      5785    3    0    1
 -2      3514       952      1658      3575
 -1      5786    3    0    1
 -2      1063       348      2261      3697
 -1      5787    3    0    1
 -2      1032      1319      2618      3694
 -1      5788    3    0    1
 -2      1792      1803      3346      3498
 -1      5789    3    0    1
 -2      1602      1601      1766      3336
 -1      5790    3    0    1
 -2      2544      2630      3533      3542
 -1      5791    3    0    1
 -2      2170       285      2525      2575
 -1      5792    3    0    1
 -2      3110      3097      3350      3708
 -1      5793    3    0    1
 -2      1748       619      1749      3316
 -1      5794    3    0    1
 -2       648       637      2572      1551
 -1      5795    3    0    1
 -2      1428      1541      1542      2653
 -1      5796    3    0    1
 -2      2510      2536      3620      3671
 -1      5797    3    0    1
 -2       667       658       997      1732
 -1      5798    3    0    1
 -2      1440      1441      1742      3291
 -1      5799    3    0    1
 -2      1578      2848      3190      3281
 -1      5800    3    0    1
 -2       345      2175      2483      3529
 -1      5801    3    0    1
 -2       781      1555      1556      2631
 -1      5802    3    0    1
 -2      1250       527      2588      2725
 -1      5803    3    0    1
 -2       784      2241      2355      3661
 -1      5804    3    0    1
 -2      1071       280      2525      3508
 -1      5805    3    0    1
 -2      2712      1521      2957      3339
 -1      5806    3    0    1
 -2      3586       439      1861      3343
 -1      5807    3    0    1
 -2       604       407       972      1952
 -1      5808    3    0    1
 -2      1706       196      1707      2920
 -1      5809    3    0    1
 -2      1503      1502      2843      2886
 -1      5810    3    0    1
 -2      1588      3194      3212      3607
 -1      5811    3    0    1
 -2      2201       411      3510      3411
 -1      5812    3    0    1
 -2      1516      1517      2804      3032
 -1      5813    3    0    1
 -2      2228      2185      2491      2574
 -1      5814    3    0    1
 -2      1476      2593      1583      1584
 -1      5815    3    0    1
 -2      1786      1594      1787      3276
 -1      5816    3    0    1
 -2      1070       947      2500      3528
 -1      5817    3    0    1
 -2       969      1290      2566      2687
 -1      5818    3    0    1
 -2      1555      1704      3609      3258
 -1      5819    3    0    1
 -2      1165       908      2562      3070
 -1      5820    3    0    1
 -2      2656      3535      2969      2972
 -1      5821    3    0    1
 -2      2535      2671      3537      3595
 -1      5822    3    0    1
 -2      3197      2849      3662      3735
 -1      5823    3    0    1
 -2      3519      3545      3633      3709
 -1      5824    3    0    1
 -2      2383       118      2403      3521
 -1      5825    3    0    1
 -2      3010      2905      3018      3691
 -1      5826    3    0    1
 -2      1729      2897      2995      3305
 -1      5827    3    0    1
 -2       494      2644      2700      2708
 -1      5828    3    0    1
 -2      3559      2745      3071      3585
 -1      5829    3    0    1
 -2      1458      1457      1488      3452
 -1      5830    3    0    1
 -2      3597      2973      3668      3702
 -1      5831    3    0    1
 -2      3525       961      3628      3663
 -1      5832    3    0    1
 -2      2656      3535      2972      3182
 -1      5833    3    0    1
 -2      2222      2013      2246      2570
 -1      5834    3    0    1
 -2      1789      1790      1827      3277
 -1      5835    3    0    1
 -2      1707      1706      2936      3443
 -1      5836    3    0    1
 -2       665       659      1304      2559
 -1      5837    3    0    1
 -2       210       333      2616      3582
 -1      5838    3    0    1
 -2      3068      3057      3229      3680
 -1      5839    3    0    1
 -2      1640      1641      2800      2949
 -1      5840    3    0    1
 -2        69       206      1772      1887
 -1      5841    3    0    1
 -2       332      1845      1846      1878
 -1      5842    3    0    1
 -2      2746      2895      3647      3488
 -1      5843    3    0    1
 -2      2138      1290      3549      3663
 -1      5844    3    0    1
 -2      2739      1432      1754      3604
 -1      5845    3    0    1
 -2        94       944      3592      3721
 -1      5846    3    0    1
 -2      1576      3551      3155      3165
 -1      5847    3    0    1
 -2       468       469      2566      2828
 -1      5848    3    0    1
 -2      1464      2914      3178      3292
 -1      5849    3    0    1
 -2      1309      2556      2728      3174
 -1      5850    3    0    1
 -2      1421      1422      1633      3100
 -1      5851    3    0    1
 -2      1623      1756      1757      3046
 -1      5852    3    0    1
 -2      1652      3232      1887      1888
 -1      5853    3    0    1
 -2      3551      2619      3205      3635
 -1      5854    3    0    1
 -2      1786      1594      3276      3636
 -1      5855    3    0    1
 -2      3225      3608      3473      3496
 -1      5856    3    0    1
 -2      1783       772      3176      3372
 -1      5857    3    0    1
 -2       583       594      2735      1719
 -1      5858    3    0    1
 -2      1581      1582      2909      3032
 -1      5859    3    0    1
 -2      1907       673      1908      3426
 -1      5860    3    0    1
 -2      2214      1020      2482      3526
 -1      5861    3    0    1
 -2       333       210      3526      3582
 -1      5862    3    0    1
 -2      3506      3549      3621      3629
 -1      5863    3    0    1
 -2       512       513      1220      2524
 -1      5864    3    0    1
 -2      1220       513      1222      2524
 -1      5865    3    0    1
 -2      1446      3018      3090      3442
 -1      5866    3    0    1
 -2      1704      1555      1705      3258
 -1      5867    3    0    1
 -2      2563      2610      3546      3231
 -1      5868    3    0    1
 -2      1482      2895      1936      3488
 -1      5869    3    0    1
 -2      2677      2915      3130      3300
 -1      5870    3    0    1
 -2       285       280      2170      2525
 -1      5871    3    0    1
 -2      1052       347      3557      3616
 -1      5872    3    0    1
 -2       472       593      2512      2637
 -1      5873    3    0    1
 -2       280       285      2423      2525
 -1      5874    3    0    1
 -2      1038       227      3696      1930
 -1      5875    3    0    1
 -2       565      2805      1721      1722
 -1      5876    3    0    1
 -2      2423      1070      2500      2525
 -1      5877    3    0    1
 -2      1598      1599      2890      1745
 -1      5878    3    0    1
 -2      1071       280      2423      2525
 -1      5879    3    0    1
 -2      1062      1071      3508      1921
 -1      5880    3    0    1
 -2      2817      1916      3429      3476
 -1      5881    3    0    1
 -2      1847      1858      1859      3306
 -1      5882    3    0    1
 -2      1449      1450      1533      2792
 -1      5883    3    0    1
 -2      1327      2730      3551      3165
 -1      5884    3    0    1
 -2      2890      1598      3585      3283
 -1      5885    3    0    1
 -2      1005      2242      2431      2558
 -1      5886    3    0    1
 -2       342       248      3698      3723
 -1      5887    3    0    1
 -2      1603      1512      1604      2742
 -1      5888    3    0    1
 -2      3263      3245      3639      3490
 -1      5889    3    0    1
 -2      2760      2635      3566      3581
 -1      5890    3    0    1
 -2      2246      2013      2288      2570
 -1      5891    3    0    1
 -2      2632       557      1280      2733
 -1      5892    3    0    1
 -2      1655      1471      1656      2904
 -1      5893    3    0    1
 -2      2526      3565      3040      3295
 -1      5894    3    0    1
 -2      2636      2746      3596      3653
 -1      5895    3    0    1
 -2      3543      2817      3429      3476
 -1      5896    3    0    1
 -2      2526      3040      3046      3295
 -1      5897    3    0    1
 -2       527      2540      2588      2725
 -1      5898    3    0    1
 -2       798       779      1055      2603
 -1      5899    3    0    1
 -2       528       527       730      2588
 -1      5900    3    0    1
 -2       498       826      2623      2781
 -1      5901    3    0    1
 -2      1551       637      1552      2775
 -1      5902    3    0    1
 -2      3562       335      3665      3676
 -1      5903    3    0    1
 -2      2881      2679      3533      3643
 -1      5904    3    0    1
 -2      2735      2496      2926      3014
 -1      5905    3    0    1
 -2      2715       119      1510      1509
 -1      5906    3    0    1
 -2      1581       612      2864      3607
 -1      5907    3    0    1
 -2      2835      2783      3151      3372
 -1      5908    3    0    1
 -2      1326       242      3529      3121
 -1      5909    3    0    1
 -2      1545      1544      3085      3163
 -1      5910    3    0    1
 -2      3654      3265      3341      3458
 -1      5911    3    0    1
 -2      3649      3685      3441      3466
 -1      5912    3    0    1
 -2       701      1010      2556      2728
 -1      5913    3    0    1
 -2      3110      1826      3277      3708
 -1      5914    3    0    1
 -2      2681      1222      2872      3221
 -1      5915    3    0    1
 -2      2717      2788      2984      3568
 -1      5916    3    0    1
 -2      3398      3387      3435      1961
 -1      5917    3    0    1
 -2      3588      3573      3608      3650
 -1      5918    3    0    1
 -2       492       493      1194      2531
 -1      5919    3    0    1
 -2      1192       492      1194      2531
 -1      5920    3    0    1
 -2       493       492      1193      2531
 -1      5921    3    0    1
 -2      1330       492       792      2531
 -1      5922    3    0    1
 -2       492      1330      1193      2531
 -1      5923    3    0    1
 -2       918       493      1193      2531
 -1      5924    3    0    1
 -2      3533      2573      3542      3569
 -1      5925    3    0    1
 -2      1478      3282      3407      3701
 -1      5926    3    0    1
 -2      2795      2765      3533      3065
 -1      5927    3    0    1
 -2       279      1511      3679      3693
 -1      5928    3    0    1
 -2      2577      2701      3644      3651
 -1      5929    3    0    1
 -2      3257      3670      3376      3736
 -1      5930    3    0    1
 -2      2508      2844      3566      3713
 -1      5931    3    0    1
 -2      2388      1018      2396      3602
 -1      5932    3    0    1
 -2      1032      1219      1221      2721
 -1      5933    3    0    1
 -2       346       434      1577      2970
 -1      5934    3    0    1
 -2      2618      2479      3416      3694
 -1      5935    3    0    1
 -2      1576      2625      2837      2860
 -1      5936    3    0    1
 -2      1504      1505      2622      2793
 -1      5937    3    0    1
 -2      2590      2589      3448      3737
 -1      5938    3    0    1
 -2      1530      1459      3599      3658
 -1      5939    3    0    1
 -2      2292      2673      3536      3576
 -1      5940    3    0    1
 -2      3543      2683      3570      3438
 -1      5941    3    0    1
 -2      2943      2526      3040      3046
 -1      5942    3    0    1
 -2       475       557      2632      2733
 -1      5943    3    0    1
 -2       647       641      2544      3542
 -1      5944    3    0    1
 -2      1549      2884      3019      3654
 -1      5945    3    0    1
 -2      1610      1573      1611      3334
 -1      5946    3    0    1
 -2      2775       648      2952      3438
 -1      5947    3    0    1
 -2      3585      3071      3143      3200
 -1      5948    3    0    1
 -2      2923      3279      3401      3456
 -1      5949    3    0    1
 -2        15        13      1808      1850
 -1      5950    3    0    1
 -2      1589      1588      2847      3212
 -1      5951    3    0    1
 -2      3168      1833      1514      1515
 -1      5952    3    0    1
 -2      2514      2539      3506      3517
 -1      5953    3    0    1
 -2       146       409      3510      3727
 -1      5954    3    0    1
 -2       982      1239      1300      2544
 -1      5955    3    0    1
 -2       641       982      1300      2544
 -1      5956    3    0    1
 -2       982      1236      1239      2544
 -1      5957    3    0    1
 -2       522      1237      1238      2544
 -1      5958    3    0    1
 -2      2342      2532      3532      3724
 -1      5959    3    0    1
 -2       522       521      1237      2544
 -1      5960    3    0    1
 -2      2759      2536      3493      3737
 -1      5961    3    0    1
 -2      2695      2643      2732      3659
 -1      5962    3    0    1
 -2       521       522      1239      2544
 -1      5963    3    0    1
 -2      1157      2655      2828      2862
 -1      5964    3    0    1
 -2      1236       521      1239      2544
 -1      5965    3    0    1
 -2       641       521       982      2544
 -1      5966    3    0    1
 -2       982       521      1236      2544
 -1      5967    3    0    1
 -2      2520      3504      2752      3574
 -1      5968    3    0    1
 -2      2478      2618      3416      3694
 -1      5969    3    0    1
 -2      3148      2835      3176      3372
 -1      5970    3    0    1
 -2      1429      1428      1542      2653
 -1      5971    3    0    1
 -2       115       404      3690      1953
 -1      5972    3    0    1
 -2      2752      3522      3574      3602
 -1      5973    3    0    1
 -2       405       954      2370      3690
 -1      5974    3    0    1
 -2       611       605       966      2566
 -1      5975    3    0    1
 -2       964      2546      3690      1953
 -1      5976    3    0    1
 -2       974      1293      2204      2545
 -1      5977    3    0    1
 -2      2161      2222      2570      2626
 -1      5978    3    0    1
 -2      2250      3503      3615      3711
 -1      5979    3    0    1
 -2       779       798      2377      2603
 -1      5980    3    0    1
 -2      2965      3588      3608      3437
 -1      5981    3    0    1
 -2       600       964      2105      2546
 -1      5982    3    0    1
 -2      2370      3690      3433      3699
 -1      5983    3    0    1
 -2      2861      3564      3678      3691
 -1      5984    3    0    1
 -2       964       115      2105      2546
 -1      5985    3    0    1
 -2       600      2105      2447      2546
 -1      5986    3    0    1
 -2      2677      3010      3130      3691
 -1      5987    3    0    1
 -2      3564      3062      3659      3691
 -1      5988    3    0    1
 -2      3062      2900      3659      3691
 -1      5989    3    0    1
 -2       115      2105      2383       118
 -1      5990    3    0    1
 -2      2105       115      2383      2546
 -1      5991    3    0    1
 -2      3564      2905      3062      3691
 -1      5992    3    0    1
 -2      3010      3018      3130      3691
 -1      5993    3    0    1
 -2      3564      2580      3678      3691
 -1      5994    3    0    1
 -2      2900      3062      3292      3691
 -1      5995    3    0    1
 -2      1300       157      2026      2649
 -1      5996    3    0    1
 -2      1619      1620      2967      1769
 -1      5997    3    0    1
 -2      2312      1300      2386      2649
 -1      5998    3    0    1
 -2      1300      2026      2386      2649
 -1      5999    3    0    1
 -2      2732      2643      3642      3659
 -1      6000    3    0    1
 -2       341      2141      2548      2312
 -1      6001    3    0    1
 -2       341       162      2270      2548
 -1      6002    3    0    1
 -2       341      2270      2488      2548
 -1      6003    3    0    1
 -2      2312       341      2488      2548
 -1      6004    3    0    1
 -2      3153      3622      1881      3330
 -1      6005    3    0    1
 -2      3569      2523      3580      3619
 -1      6006    3    0    1
 -2      1313      2218      2388      3632
 -1      6007    3    0    1
 -2      3187      2999      3195      3624
 -1      6008    3    0    1
 -2      2396      3522      3602      3634
 -1      6009    3    0    1
 -2      3594      3515      3601      3373
 -1      6010    3    0    1
 -2      1029       743      2361      2612
 -1      6011    3    0    1
 -2      1283      2230      2458      2591
 -1      6012    3    0    1
 -2      3169      1625      3192      3624
 -1      6013    3    0    1
 -2      1484      1483      2874      1713
 -1      6014    3    0    1
 -2      2557      1487      3405      3417
 -1      6015    3    0    1
 -2      1479      2704      1685      1686
 -1      6016    3    0    1
 -2      1738      2948      2990      3647
 -1      6017    3    0    1
 -2      1602      1601      2889      1863
 -1      6018    3    0    1
 -2      2628      2764      3073      3625
 -1      6019    3    0    1
 -2      1601      2856      3111      3680
 -1      6020    3    0    1
 -2      2204       974      2545      3727
 -1      6021    3    0    1
 -2       348       269      3697      1955
 -1      6022    3    0    1
 -2      2768      2640      3580      3102
 -1      6023    3    0    1
 -2      2514      2161      2626      3687
 -1      6024    3    0    1
 -2       665       994      2559      2634
 -1      6025    3    0    1
 -2      1478      3282      3701      1959
 -1      6026    3    0    1
 -2      3548      2522      3552      3662
 -1      6027    3    0    1
 -2      3517      3222      3638      3662
 -1      6028    3    0    1
 -2      1455      1454      1617      2906
 -1      6029    3    0    1
 -2      2584      2487      3579      3611
 -1      6030    3    0    1
 -2      3029      1616      1845      1846
 -1      6031    3    0    1
 -2      1018       332      3602      3631
 -1      6032    3    0    1
 -2      2580      3564      3659      3691
 -1      6033    3    0    1
 -2       405      2370      2458      3699
 -1      6034    3    0    1
 -2      1423      3509      3134      3413
 -1      6035    3    0    1
 -2       575       587      1286      2555
 -1      6036    3    0    1
 -2      3134      3509      3687      3413
 -1      6037    3    0    1
 -2       587       957      1286      2555
 -1      6038    3    0    1
 -2      3363      2846      3687      3413
 -1      6039    3    0    1
 -2      3503      1447      3522      3634
 -1      6040    3    0    1
 -2      1847      1858      3306      3714
 -1      6041    3    0    1
 -2       899      1142      1312      2556
 -1      6042    3    0    1
 -2       900       457      1141      2556
 -1      6043    3    0    1
 -2       458       457       900      2556
 -1      6044    3    0    1
 -2      1592      1464      3178      3292
 -1      6045    3    0    1
 -2      3113      3191      1872      1903
 -1      6046    3    0    1
 -2       924      2594      2710      3558
 -1      6047    3    0    1
 -2      1142       457       458      2556
 -1      6048    3    0    1
 -2      1457      1458      3451      3452
 -1      6049    3    0    1
 -2      1507      1506      2840      1739
 -1      6050    3    0    1
 -2       457      1142       899      2556
 -1      6051    3    0    1
 -2       458      1312      1142      2556
 -1      6052    3    0    1
 -2      1312       458       701      2556
 -1      6053    3    0    1
 -2       991      1253      1255      2559
 -1      6054    3    0    1
 -2      2908      3113      3191      3294
 -1      6055    3    0    1
 -2      1486      1485      2551      1552
 -1      6056    3    0    1
 -2      1419      3546      3557      3630
 -1      6057    3    0    1
 -2      1559      1560      1771      3227
 -1      6058    3    0    1
 -2      1248       529      1254      2559
 -1      6059    3    0    1
 -2       530       529      1248      2559
 -1      6060    3    0    1
 -2      1309      3554      3576      3594
 -1      6061    3    0    1
 -2       529      1255      1253      2559
 -1      6062    3    0    1
 -2      1255       529       530      2559
 -1      6063    3    0    1
 -2      2537      2672      3274      3654
 -1      6064    3    0    1
 -2      2734      2134      3523      3547
 -1      6065    3    0    1
 -2      1662      1524      1663      2978
 -1      6066    3    0    1
 -2      1701      1791      3154      3420
 -1      6067    3    0    1
 -2       799       808      2988      1881
 -1      6068    3    0    1
 -2      1493      1494      2821      1763
 -1      6069    3    0    1
 -2      3507      1419      3604      3713
 -1      6070    3    0    1
 -2      2786      1754      3604      1841
 -1      6071    3    0    1
 -2      1316      2214      2498      3045
 -1      6072    3    0    1
 -2      1553      1504      1554      2622
 -1      6073    3    0    1
 -2      1424      1436      3525      3078
 -1      6074    3    0    1
 -2      1060      1332      2594      2657
 -1      6075    3    0    1
 -2      2840      1506      1738      1739
 -1      6076    3    0    1
 -2      1646      1647      1784      3082
 -1      6077    3    0    1
 -2      1459      1530      3599      3270
 -1      6078    3    0    1
 -2      3515      2292      3554      3576
 -1      6079    3    0    1
 -2       748       756      1035      2721
 -1      6080    3    0    1
 -2      1522      1521      2934      3022
 -1      6081    3    0    1
 -2       808       799      1752      3239
 -1      6082    3    0    1
 -2      1512      1725      1726      2958
 -1      6083    3    0    1
 -2      2746      3140      3596      3653
 -1      6084    3    0    1
 -2      2888      3533      3025      3108
 -1      6085    3    0    1
 -2      1829      1543      3616      3635
 -1      6086    3    0    1
 -2       575       568      1286      2562
 -1      6087    3    0    1
 -2      2643      3564      3358      3695
 -1      6088    3    0    1
 -2      1164      1166      1286      2562
 -1      6089    3    0    1
 -2       568      1283      1286      2562
 -1      6090    3    0    1
 -2      1283      1164      1286      2562
 -1      6091    3    0    1
 -2       908       474      1165      2562
 -1      6092    3    0    1
 -2       474       473      1165      2562
 -1      6093    3    0    1
 -2      1435      3520      3532      3615
 -1      6094    3    0    1
 -2       473       474      1166      2562
 -1      6095    3    0    1
 -2      3565      2770      3040      3295
 -1      6096    3    0    1
 -2      3605      3519      3635      3661
 -1      6097    3    0    1
 -2      1164       473      1166      2562
 -1      6098    3    0    1
 -2      1530      3009      3597      3360
 -1      6099    3    0    1
 -2       473      1283       568      2562
 -1      6100    3    0    1
 -2      1283       473      1164      2562
 -1      6101    3    0    1
 -2      1505      1504      1589      2793
 -1      6102    3    0    1
 -2      2953      2996      3003      3591
 -1      6103    3    0    1
 -2      1044      2355      2772      3661
 -1      6104    3    0    1
 -2       468       469      1158      2566
 -1      6105    3    0    1
 -2       437       340      1604      1680
 -1      6106    3    0    1
 -2      1158       469      1160      2566
 -1      6107    3    0    1
 -2      1532      2666      1658      1659
 -1      6108    3    0    1
 -2       352        93      2255      2689
 -1      6109    3    0    1
 -2      2483      2504      2661      3529
 -1      6110    3    0    1
 -2      2905       900      3010      3018
 -1      6111    3    0    1
 -2      3533      2881      2939      3066
 -1      6112    3    0    1
 -2       969      2566      2655      2687
 -1      6113    3    0    1
 -2      3519      1675      3635      1543
 -1      6114    3    0    1
 -2       147       150      1562      1648
 -1      6115    3    0    1
 -2      2655      2828      2862      3553
 -1      6116    3    0    1
 -2      2161      2246      2502      2570
 -1      6117    3    0    1
 -2      2161      2502      2514      2570
 -1      6118    3    0    1
 -2      2838      1675      3551      2970
 -1      6119    3    0    1
 -2       720      1640      3067      3391
 -1      6120    3    0    1
 -2      2726       994      3561      2820
 -1      6121    3    0    1
 -2      1438      1901      1902      3374
 -1      6122    3    0    1
 -2      1902      1896      3378      3678
 -1      6123    3    0    1
 -2      2572       637      1537      1538
 -1      6124    3    0    1
 -2      1287       961      3512      3555
 -1      6125    3    0    1
 -2      1655       335      3484      3734
 -1      6126    3    0    1
 -2       762       743      1029      2612
 -1      6127    3    0    1
 -2      1649      2823      1778      3382
 -1      6128    3    0    1
 -2      1588      1504      2917      3194
 -1      6129    3    0    1
 -2      2798      2881      2939      3016
 -1      6130    3    0    1
 -2      1736      1445      3561      3147
 -1      6131    3    0    1
 -2      1594      1476      1595      3215
 -1      6132    3    0    1
 -2      1464      1465      2914      1745
 -1      6133    3    0    1
 -2      2863      1581      2864      3607
 -1      6134    3    0    1
 -2      2446       343      2465      2578
 -1      6135    3    0    1
 -2      3151      2835      3372      3682
 -1      6136    3    0    1
 -2       226      1634      3532      3669
 -1      6137    3    0    1
 -2      2845      2988      1881      1882
 -1      6138    3    0    1
 -2      1317      2729      3537      3052
 -1      6139    3    0    1
 -2      1301       340      1712      3685
 -1      6140    3    0    1
 -2      1305       676      2243      3536
 -1      6141    3    0    1
 -2      2843      2735      1719      1720
 -1      6142    3    0    1
 -2      1614      1615      3240      3354
 -1      6143    3    0    1
 -2      2553      1411      3407      3701
 -1      6144    3    0    1
 -2      3234      1645      3271      1880
 -1      6145    3    0    1
 -2      1596      3198      3310      1883
 -1      6146    3    0    1
 -2      1578      2676      2866      3677
 -1      6147    3    0    1
 -2      2914      1464      1744      3292
 -1      6148    3    0    1
 -2       210       333      3526      1750
 -1      6149    3    0    1
 -2      2588      2725      3531      3596
 -1      6150    3    0    1
 -2       907      2512      2569      2960
 -1      6151    3    0    1
 -2      1558      1557      3103      3354
 -1      6152    3    0    1
 -2       270      1062      2415      3508
 -1      6153    3    0    1
 -2      2666      2550      2693      3041
 -1      6154    3    0    1
 -2       754       745      1714      3241
 -1      6155    3    0    1
 -2      2703      3013      3044      3590
 -1      6156    3    0    1
 -2       460      2667      2682      2745
 -1      6157    3    0    1
 -2      1555      1704      2964      3609
 -1      6158    3    0    1
 -2       449      1489      1490      2624
 -1      6159    3    0    1
 -2       666      2571      3139      3598
 -1      6160    3    0    1
 -2       720      2949      1641      1640
 -1      6161    3    0    1
 -2      3012      3558      3168      3475
 -1      6162    3    0    1
 -2      1546      3149      3312      1933
 -1      6163    3    0    1
 -2      3175      3256      3301      3440
 -1      6164    3    0    1
 -2      2162      3534      3731      3732
 -1      6165    3    0    1
 -2       808      3153      3239      3622
 -1      6166    3    0    1
 -2      1767      2823      3336      3382
 -1      6167    3    0    1
 -2      1283      2230      2591      3541
 -1      6168    3    0    1
 -2        71        73      1837      1853
 -1      6169    3    0    1
 -2      1682      1752      1753      3239
 -1      6170    3    0    1
 -2      2655      2687      2865      3618
 -1      6171    3    0    1
 -2       237       775       248      1957
 -1      6172    3    0    1
 -2      2061      2547      3552      3039
 -1      6173    3    0    1
 -2      1474      1475      2659      2814
 -1      6174    3    0    1
 -2      2387      2514      2539      3506
 -1      6175    3    0    1
 -2      1560      1559      1771      3304
 -1      6176    3    0    1
 -2       756       748      1032      2721
 -1      6177    3    0    1
 -2      2512      2569      2637      3527
 -1      6178    3    0    1
 -2      1696      3575      3073      1786
 -1      6179    3    0    1
 -2      1798      2986      1799      3166
 -1      6180    3    0    1
 -2      1563      1562      1587      2789
 -1      6181    3    0    1
 -2      3535      2647      2893      2972
 -1      6182    3    0    1
 -2      1485      1486      2551      3049
 -1      6183    3    0    1
 -2      1721      2893      2945      2972
 -1      6184    3    0    1
 -2       347      3557      3571      3630
 -1      6185    3    0    1
 -2      1455      1454      2827      1717
 -1      6186    3    0    1
 -2      1540      1727      3013      3164
 -1      6187    3    0    1
 -2       635       979      2412      3427
 -1      6188    3    0    1
 -2       333       334      3526      1751
 -1      6189    3    0    1
 -2      1858      1847      1859      3265
 -1      6190    3    0    1
 -2      2887      1524      1721      1722
 -1      6191    3    0    1
 -2      3553      2847      3194      3607
 -1      6192    3    0    1
 -2      3580      1573      3102      3619
 -1      6193    3    0    1
 -2      3633      3706      3709      1947
 -1      6194    3    0    1
 -2      2723      2934      2951      2952
 -1      6195    3    0    1
 -2      2247      2185      2322      2777
 -1      6196    3    0    1
 -2      2700      1198      3015      3655
 -1      6197    3    0    1
 -2      1798      2986      3166      3659
 -1      6198    3    0    1
 -2      3051      2701      3651      3489
 -1      6199    3    0    1
 -2      1540      1539      1727      3164
 -1      6200    3    0    1
 -2       766      1044      1324      2644
 -1      6201    3    0    1
 -2      1690      2746      3140      3183
 -1      6202    3    0    1
 -2      2899      1280      3592      3636
 -1      6203    3    0    1
 -2      1040      1323      2273      2598
 -1      6204    3    0    1
 -2      2536      1149      2759      3493
 -1      6205    3    0    1
 -2      1708      1452      3563      3464
 -1      6206    3    0    1
 -2      1841       347      3635      1866
 -1      6207    3    0    1
 -2      1533      1532      2666      3393
 -1      6208    3    0    1
 -2      2571       666      1885      3390
 -1      6209    3    0    1
 -2      1448      1511      3505      3693
 -1      6210    3    0    1
 -2      1549      2884      2976      3019
 -1      6211    3    0    1
 -2       980       409      2158      2585
 -1      6212    3    0    1
 -2       964       115      2546      1953
 -1      6213    3    0    1
 -2      2563      2228      3546      3204
 -1      6214    3    0    1
 -2      3598      2557      3400      3483
 -1      6215    3    0    1
 -2      3085      2935      3163      3469
 -1      6216    3    0    1
 -2      1020      2442      2482      3526
 -1      6217    3    0    1
 -2       265        51      1769      1805
 -1      6218    3    0    1
 -2      1858      3293       450      3306
 -1      6219    3    0    1
 -2      1327      1052      2241      3661
 -1      6220    3    0    1
 -2      2871      1594      3215      3636
 -1      6221    3    0    1
 -2      2543      2214      3526      3045
 -1      6222    3    0    1
 -2      3522      3586      3602      3634
 -1      6223    3    0    1
 -2       712       460      2667      2682
 -1      6224    3    0    1
 -2       730       738      2540      2588
 -1      6225    3    0    1
 -2       738       730       527      2588
 -1      6226    3    0    1
 -2      2154       798      2335      2603
 -1      6227    3    0    1
 -2      1469      1704      1705      3258
 -1      6228    3    0    1
 -2       798      1055      2335      2603
 -1      6229    3    0    1
 -2      1252       527       528      2588
 -1      6230    3    0    1
 -2       527      1252      1250      2588
 -1      6231    3    0    1
 -2      2536      1147      2722      2759
 -1      6232    3    0    1
 -2      2335      1055      2483      2603
 -1      6233    3    0    1
 -2      1614      1557      1615      3354
 -1      6234    3    0    1
 -2      2247      2322      2501      3004
 -1      6235    3    0    1
 -2       738       527      2540      2588
 -1      6236    3    0    1
 -2      2862      2655      3553      3607
 -1      6237    3    0    1
 -2       346      3605      3661      3706
 -1      6238    3    0    1
 -2      3044      1657      3083      1880
 -1      6239    3    0    1
 -2      1596      3211      1883      1884
 -1      6240    3    0    1
 -2       400      1283      2458      2591
 -1      6241    3    0    1
 -2      3620      2510      3671      3702
 -1      6242    3    0    1
 -2      3386      1810      3695      3722
 -1      6243    3    0    1
 -2       772      3148      3176      3372
 -1      6244    3    0    1
 -2      3299      2549      3671      3702
 -1      6245    3    0    1
 -2       330       700      1012      1911
 -1      6246    3    0    1
 -2       330      1012      3502      1911
 -1      6247    3    0    1
 -2      1141       900      2556      2861
 -1      6248    3    0    1
 -2       952      1284      3535      3575
 -1      6249    3    0    1
 -2      3523      2406      3560      3561
 -1      6250    3    0    1
 -2      1792      1803      1804      3346
 -1      6251    3    0    1
 -2      2781      1336      2912      3627
 -1      6252    3    0    1
 -2      3083      1612      3084      3590
 -1      6253    3    0    1
 -2      1220      2554      2681      2872
 -1      6254    3    0    1
 -2      1552      1551      2775      2903
 -1      6255    3    0    1
 -2      2647      3535      2978      3182
 -1      6256    3    0    1
 -2       802      1060      1332      2594
 -1      6257    3    0    1
 -2      2900      2992      3062      3659
 -1      6258    3    0    1
 -2      2724      1591      2779      2832
 -1      6259    3    0    1
 -2      1428      1429      1542      3162
 -1      6260    3    0    1
 -2      1663      1449      2776      1450
 -1      6261    3    0    1
 -2       925      1334      1331      2594
 -1      6262    3    0    1
 -2      1334       925      1210      2594
 -1      6263    3    0    1
 -2      3543      2842      3570      3598
 -1      6264    3    0    1
 -2      2931      3608      3225      3500
 -1      6265    3    0    1
 -2      3553      2565      3607      3614
 -1      6266    3    0    1
 -2       504      1211       924      2594
 -1      6267    3    0    1
 -2      1211       504       505      2594
 -1      6268    3    0    1
 -2       505       504       925      2594
 -1      6269    3    0    1
 -2      1554      1553      2622      2702
 -1      6270    3    0    1
 -2       925       504      1210      2594
 -1      6271    3    0    1
 -2      2877      3527      3089      3606
 -1      6272    3    0    1
 -2      2483       345      3529      3530
 -1      6273    3    0    1
 -2      1576      1440      1577      2837
 -1      6274    3    0    1
 -2       793       785      1055      1807
 -1      6275    3    0    1
 -2      3501      2194      3507      3557
 -1      6276    3    0    1
 -2      2679      2798      3533      3066
 -1      6277    3    0    1
 -2      1668      3549      3618      3626
 -1      6278    3    0    1
 -2      3501      2194      3505      3507
 -1      6279    3    0    1
 -2      1719      1502      3129      3208
 -1      6280    3    0    1
 -2      1505      1504      1554      3158
 -1      6281    3    0    1
 -2      1710       114      1767      3068
 -1      6282    3    0    1
 -2      2913      1627      3618      3255
 -1      6283    3    0    1
 -2      2955      2654      3584      3674
 -1      6284    3    0    1
 -2      1496      1495      1759      3076
 -1      6285    3    0    1
 -2      1819      2639      3207      3713
 -1      6286    3    0    1
 -2      1060      2194      2258      3507
 -1      6287    3    0    1
 -2      1440      1441      3088      3155
 -1      6288    3    0    1
 -2      3505      1060      3712      3507
 -1      6289    3    0    1
 -2      1332       802      2257      3507
 -1      6290    3    0    1
 -2      2257       802      2258      3507
 -1      6291    3    0    1
 -2      1060       802      1332      3507
 -1      6292    3    0    1
 -2       810      1060      2258      3507
 -1      6293    3    0    1
 -2      1060       810       802      3507
 -1      6294    3    0    1
 -2       802       810      2258      3507
 -1      6295    3    0    1
 -2       151      1758      3259      3692
 -1      6296    3    0    1
 -2      1746      1763      3152      3185
 -1      6297    3    0    1
 -2       630       619      3298      1899
 -1      6298    3    0    1
 -2      2194      2257      2258      3507
 -1      6299    3    0    1
 -2      1415      1580      3545      3499
 -1      6300    3    0    1
 -2      1745      1744      3150      3446
 -1      6301    3    0    1
 -2      1684      2831      2946      3559
 -1      6302    3    0    1
 -2      1594      1476      3215      3329
 -1      6303    3    0    1
 -2      3572      1483      3156      3612
 -1      6304    3    0    1
 -2      1588      1589      2847      2917
 -1      6305    3    0    1
 -2      3515      1456      3554      3556
 -1      6306    3    0    1
 -2      1624      1623      1757      3046
 -1      6307    3    0    1
 -2      1568      2648      1658      1773
 -1      6308    3    0    1
 -2      3538       151      1835      3240
 -1      6309    3    0    1
 -2       513      1222      2524      2681
 -1      6310    3    0    1
 -2      2862      3553      3194      3607
 -1      6311    3    0    1
 -2      1808        13      1809      1850
 -1      6312    3    0    1
 -2      1701      1702      3077      3309
 -1      6313    3    0    1
 -2      1534      1535      2659      1741
 -1      6314    3    0    1
 -2      2512       472      2637      2960
 -1      6315    3    0    1
 -2      2365      2498      3399      3725
 -1      6316    3    0    1
 -2      1450      1449      2693      3167
 -1      6317    3    0    1
 -2      3099      3214      3641      3348
 -1      6318    3    0    1
 -2      1569       403      3512      1658
 -1      6319    3    0    1
 -2      1730      1731      2968      1822
 -1      6320    3    0    1
 -2      3074      1632      3100      3713
 -1      6321    3    0    1
 -2       154       640       649      1963
 -1      6322    3    0    1
 -2       189      1007      2390      3410
 -1      6323    3    0    1
 -2      1738      2948      3647      3391
 -1      6324    3    0    1
 -2      1324      1044      2772      3544
 -1      6325    3    0    1
 -2      1472      1471      1656      3107
 -1      6326    3    0    1
 -2      2342       756      2367      3724
 -1      6327    3    0    1
 -2      3594      3219      3270      3373
 -1      6328    3    0    1
 -2      2769      1483      3572      3612
 -1      6329    3    0    1
 -2       449       558      1638      2924
 -1      6330    3    0    1
 -2      3520      3545      3724      2511
 -1      6331    3    0    1
 -2       979       989      2412      3729
 -1      6332    3    0    1
 -2      2408      1047      2615      3698
 -1      6333    3    0    1
 -2       436       151      3240      1920
 -1      6334    3    0    1
 -2      3672       151      3689      1920
 -1      6335    3    0    1
 -2      2423      1071      2525      3508
 -1      6336    3    0    1
 -2      2415       832      2423      3508
 -1      6337    3    0    1
 -2       832      1071      2423      3508
 -1      6338    3    0    1
 -2       815       832      2415      3508
 -1      6339    3    0    1
 -2      1062       815      2415      3508
 -1      6340    3    0    1
 -2       832      1062      1071      3508
 -1      6341    3    0    1
 -2      3608      3610      3496      3500
 -1      6342    3    0    1
 -2      2415      2423      2525      3508
 -1      6343    3    0    1
 -2       832       815      1062      3508
 -1      6344    3    0    1
 -2        24        62      1554      1876
 -1      6345    3    0    1
 -2      1539      2675      1672      1673
 -1      6346    3    0    1
 -2      3095      1632      3627      3326
 -1      6347    3    0    1
 -2      2667      2682      2745      3559
 -1      6348    3    0    1
 -2      1521      2934      1725      1726
 -1      6349    3    0    1
 -2       583      2858      1719      1720
 -1      6350    3    0    1
 -2       270      1062      3508      1921
 -1      6351    3    0    1
 -2       409       414       979      2608
 -1      6352    3    0    1
 -2      2259       635      2412      2608
 -1      6353    3    0    1
 -2       409      2158      2585      2608
 -1      6354    3    0    1
 -2       414       409      2585      2608
 -1      6355    3    0    1
 -2      2189       414      2585      2608
 -1      6356    3    0    1
 -2       414      2189      2429      2608
 -1      6357    3    0    1
 -2       409       979       980      2608
 -1      6358    3    0    1
 -2       980       979      2158      2608
 -1      6359    3    0    1
 -2       409       980      2158      2608
 -1      6360    3    0    1
 -2      2026       416      2429      3729
 -1      6361    3    0    1
 -2       979      2412      3427      3729
 -1      6362    3    0    1
 -2      1300       157      2649      3540
 -1      6363    3    0    1
 -2      1520      3506      1600      3549
 -1      6364    3    0    1
 -2       341      2312      2488      3540
 -1      6365    3    0    1
 -2      1678       226      1679      2869
 -1      6366    3    0    1
 -2      2387      2205      2487      3509
 -1      6367    3    0    1
 -2      2634      2670      2817      3429
 -1      6368    3    0    1
 -2      1603      2742      2825      3652
 -1      6369    3    0    1
 -2      1528      2857      3007      3087
 -1      6370    3    0    1
 -2      1820      3183      1887      1888
 -1      6371    3    0    1
 -2      1680       340      3577      3649
 -1      6372    3    0    1
 -2      2876      1667      2981      3232
 -1      6373    3    0    1
 -2      2894      2876      2981      3232
 -1      6374    3    0    1
 -2      2704      2767      1685      1686
 -1      6375    3    0    1
 -2      2752      2396      3522      3602
 -1      6376    3    0    1
 -2      1534      2911      1836      1837
 -1      6377    3    0    1
 -2      1301       994       659      3561
 -1      6378    3    0    1
 -2      2682      2983      3644      3651
 -1      6379    3    0    1
 -2      3409      2521      3476      3478
 -1      6380    3    0    1
 -2      1331      2258      2475      2614
 -1      6381    3    0    1
 -2       802       792      2257      2614
 -1      6382    3    0    1
 -2       792      2175      2257      2614
 -1      6383    3    0    1
 -2       792      1330      2175      2614
 -1      6384    3    0    1
 -2      2361      1029      2612      3696
 -1      6385    3    0    1
 -2      1330       802      1331      2614
 -1      6386    3    0    1
 -2       792       802      1330      2614
 -1      6387    3    0    1
 -2      1040       237      2273      2615
 -1      6388    3    0    1
 -2      1046      2369      2408      2615
 -1      6389    3    0    1
 -2       242      1046      2408      2615
 -1      6390    3    0    1
 -2      1046       242      2369      2615
 -1      6391    3    0    1
 -2       242       237      1326      2615
 -1      6392    3    0    1
 -2       242      1326      2504      2615
 -1      6393    3    0    1
 -2       237      1040      1326      2615
 -1      6394    3    0    1
 -2      1326      2273      2615      1040
 -1      6395    3    0    1
 -2      1335       819      2170      2617
 -1      6396    3    0    1
 -2      2170       819      2258      2617
 -1      6397    3    0    1
 -2      1561      3126      3221      3436
 -1      6398    3    0    1
 -2      1835       151      3672      1920
 -1      6399    3    0    1
 -2      2615       237      3392      3698
 -1      6400    3    0    1
 -2      2446      1037      2465      3698
 -1      6401    3    0    1
 -2       819       810      2258      2617
 -1      6402    3    0    1
 -2       810      1334      2258      2617
 -1      6403    3    0    1
 -2       151       436      3689      1920
 -1      6404    3    0    1
 -2       151      1835      3240      1920
 -1      6405    3    0    1
 -2      2803      2801      3639      3474
 -1      6406    3    0    1
 -2       810       819      1335      2617
 -1      6407    3    0    1
 -2      1334       810      1335      2617
 -1      6408    3    0    1
 -2      3504      3515      3563      3660
 -1      6409    3    0    1
 -2       748       738      2342      2618
 -1      6410    3    0    1
 -2      3115      1509      3618      3423
 -1      6411    3    0    1
 -2      1510      1509      3115      3423
 -1      6412    3    0    1
 -2       738      1032      1319      2618
 -1      6413    3    0    1
 -2      1458      1457      3409      3417
 -1      6414    3    0    1
 -2      1509      3020      1427      1426
 -1      6415    3    0    1
 -2       738       748      1032      2618
 -1      6416    3    0    1
 -2      2555       957      3412      3699
 -1      6417    3    0    1
 -2      2836      1783      3082      3321
 -1      6418    3    0    1
 -2      2960      3057      3161      3271
 -1      6419    3    0    1
 -2       352       354      3528      1676
 -1      6420    3    0    1
 -2      1638      1639      2924      3237
 -1      6421    3    0    1
 -2      2841      2574      3243      3709
 -1      6422    3    0    1
 -2      3253      3304      3462      3730
 -1      6423    3    0    1
 -2      2194      3501      2697      3557
 -1      6424    3    0    1
 -2      2902      2924      3230      3646
 -1      6425    3    0    1
 -2      2670      2758      3543      3570
 -1      6426    3    0    1
 -2      2551      1485      1551      1552
 -1      6427    3    0    1
 -2      1836      2911      3248      1853
 -1      6428    3    0    1
 -2      3400      3409      3429      3483
 -1      6429    3    0    1
 -2      1543      3519      3389      3709
 -1      6430    3    0    1
 -2      1633      1632      3095      3326
 -1      6431    3    0    1
 -2      1512      1513      1604      2742
 -1      6432    3    0    1
 -2      2625      2790      3567      3593
 -1      6433    3    0    1
 -2      2769      1483      1713      1714
 -1      6434    3    0    1
 -2      2214       201      3526      3045
 -1      6435    3    0    1
 -2      2759      2722      3620      3320
 -1      6436    3    0    1
 -2      3265      1847      3341      3458
 -1      6437    3    0    1
 -2       344       785       793      1807
 -1      6438    3    0    1
 -2      2660      2802      2996      3591
 -1      6439    3    0    1
 -2      1747      1746      3034      1764
 -1      6440    3    0    1
 -2       826       819      1335      2623
 -1      6441    3    0    1
 -2      1332       347      3604      3630
 -1      6442    3    0    1
 -2      1023       210      2616      3582
 -1      6443    3    0    1
 -2      1541      2783      2993      3151
 -1      6444    3    0    1
 -2      3404      3012      3428      3475
 -1      6445    3    0    1
 -2       921      1338      1335      2623
 -1      6446    3    0    1
 -2      1335      1338       826      2623
 -1      6447    3    0    1
 -2      1338       921      1202      2623
 -1      6448    3    0    1
 -2      1915      1914      3451      3495
 -1      6449    3    0    1
 -2       499       498       921      2623
 -1      6450    3    0    1
 -2      1338       498       826      2623
 -1      6451    3    0    1
 -2       921       498      1202      2623
 -1      6452    3    0    1
 -2       498      1338      1202      2623
 -1      6453    3    0    1
 -2      2514      2161      2570      2626
 -1      6454    3    0    1
 -2      2592      2624      3226      3625
 -1      6455    3    0    1
 -2      2406       994      3560      3561
 -1      6456    3    0    1
 -2      1445      3523      3561      3617
 -1      6457    3    0    1
 -2      1671      2908      3113      3191
 -1      6458    3    0    1
 -2      2542      2625      3567      3584
 -1      6459    3    0    1
 -2      1456      3515      3554      3594
 -1      6460    3    0    1
 -2      1419      1536      3507      3604
 -1      6461    3    0    1
 -2      1320      1035      2342      3532
 -1      6462    3    0    1
 -2      2026       157      2507      2649
 -1      6463    3    0    1
 -2      1415      2625      3584      3593
 -1      6464    3    0    1
 -2      2594      1332      2641      2657
 -1      6465    3    0    1
 -2      2222      2407      2501      3030
 -1      6466    3    0    1
 -2      2551      2795      3533      3065
 -1      6467    3    0    1
 -2      1836        71      1837      1853
 -1      6468    3    0    1
 -2       612       601      1581      2864
 -1      6469    3    0    1
 -2      1305      3547      3560      3603
 -1      6470    3    0    1
 -2      3340      2966      1902      3678
 -1      6471    3    0    1
 -2      3588      3573      3105      3608
 -1      6472    3    0    1
 -2       641       521      2544      2630
 -1      6473    3    0    1
 -2      2525      1070      3528      1677
 -1      6474    3    0    1
 -2       802      1331      2594      2641
 -1      6475    3    0    1
 -2      1472      1471      1590      2724
 -1      6476    3    0    1
 -2      2061      2931      3573      3735
 -1      6477    3    0    1
 -2      1044       766      1324      2772
 -1      6478    3    0    1
 -2      1566      1531      2798      2881
 -1      6479    3    0    1
 -2      3010      2677      3130      3300
 -1      6480    3    0    1
 -2       900      1715      3010      3018
 -1      6481    3    0    1
 -2       206        69      1820      1887
 -1      6482    3    0    1
 -2       449      1638      1639      2924
 -1      6483    3    0    1
 -2      1282       550       940      2632
 -1      6484    3    0    1
 -2       909      1282       940      2632
 -1      6485    3    0    1
 -2      1282       909      1168      2632
 -1      6486    3    0    1
 -2      1532      1533      2648      2792
 -1      6487    3    0    1
 -2      2591      2230      2689      3541
 -1      6488    3    0    1
 -2       550      1282       557      2632
 -1      6489    3    0    1
 -2       612       601      1588      3141
 -1      6490    3    0    1
 -2       476       475       909      2632
 -1      6491    3    0    1
 -2      2952      2758      3570      3438
 -1      6492    3    0    1
 -2      1515      1514      1854      3307
 -1      6493    3    0    1
 -2       909       475      1168      2632
 -1      6494    3    0    1
 -2      2745      2946      3559      3071
 -1      6495    3    0    1
 -2       475      1282      1168      2632
 -1      6496    3    0    1
 -2      2241      2574      2686      3519
 -1      6497    3    0    1
 -2      1588      1589      2793      3141
 -1      6498    3    0    1
 -2      1282       475       557      2632
 -1      6499    3    0    1
 -2      3140      1652      3305      1887
 -1      6500    3    0    1
 -2      3113      1671      3191      1903
 -1      6501    3    0    1
 -2      2692      1526       727      2875
 -1      6502    3    0    1
 -2      2821      3152      3185      3668
 -1      6503    3    0    1
 -2       185      3554      1765      3469
 -1      6504    3    0    1
 -2      2664      2560      2814      3543
 -1      6505    3    0    1
 -2       994      1301      2559      2726
 -1      6506    3    0    1
 -2      2716      1504      2793      3707
 -1      6507    3    0    1
 -2      1494      1493      3034      1763
 -1      6508    3    0    1
 -2      1623      1687      1688      3058
 -1      6509    3    0    1
 -2      2573      3542      3569      3324
 -1      6510    3    0    1
 -2      1627      2930      1812      1813
 -1      6511    3    0    1
 -2      2809      3531      3596      3647
 -1      6512    3    0    1
 -2      2667      2745      2946      3559
 -1      6513    3    0    1
 -2      3546      2697      3557      3571
 -1      6514    3    0    1
 -2      3350      3110      3708      3465
 -1      6515    3    0    1
 -2       119      1436      1607      3628
 -1      6516    3    0    1
 -2      2831      2850      3559      3202
 -1      6517    3    0    1
 -2      2963      1594      3575      1786
 -1      6518    3    0    1
 -2      3542      2640      3569      3580
 -1      6519    3    0    1
 -2      2565      2811      3607      3614
 -1      6520    3    0    1
 -2      1464      1592      1593      3150
 -1      6521    3    0    1
 -2      1618       335      3562      1782
 -1      6522    3    0    1
 -2      1287      1532      3512      1658
 -1      6523    3    0    1
 -2       925       505      2594      2641
 -1      6524    3    0    1
 -2      1331       925      2594      2641
 -1      6525    3    0    1
 -2      2857      3007      3087      3604
 -1      6526    3    0    1
 -2      1701        27      1702      3309
 -1      6527    3    0    1
 -2       966      2201      3521      2291
 -1      6528    3    0    1
 -2      2641      2594      2882      3558
 -1      6529    3    0    1
 -2      2769      1483      1714      3572
 -1      6530    3    0    1
 -2      2544      1237      2630       521
 -1      6531    3    0    1
 -2      1786        94      1787      1840
 -1      6532    3    0    1
 -2      1612      1442      2815      3590
 -1      6533    3    0    1
 -2      2911      1836      1837      1853
 -1      6534    3    0    1
 -2       736       727      1621      3177
 -1      6535    3    0    1
 -2       346       434      2970      1889
 -1      6536    3    0    1
 -2       702       691      1692      2938
 -1      6537    3    0    1
 -2        71      1836      1838      1844
 -1      6538    3    0    1
 -2      1719      1502      1720      3129
 -1      6539    3    0    1
 -2      3198      1700      1828      3210
 -1      6540    3    0    1
 -2      1592      1692      1693      2937
 -1      6541    3    0    1
 -2      1483      2874      1714      3565
 -1      6542    3    0    1
 -2       165       183      3524      3550
 -1      6543    3    0    1
 -2       611       969      2566      2655
 -1      6544    3    0    1
 -2      1706      2920      2921      3489
 -1      6545    3    0    1
 -2       494      1197       495      2644
 -1      6546    3    0    1
 -2      1682      1833      1834      3251
 -1      6547    3    0    1
 -2      1197       494      1195      2644
 -1      6548    3    0    1
 -2      1678      3264      1894      1895
 -1      6549    3    0    1
 -2      1565      1564      2989      3260
 -1      6550    3    0    1
 -2      2646      1413      3575      3625
 -1      6551    3    0    1
 -2       285      2525      3528      1677
 -1      6552    3    0    1
 -2      2834      1768      3312      1933
 -1      6553    3    0    1
 -2      1670      1669      3113      3159
 -1      6554    3    0    1
 -2      2153       694      2243      3410
 -1      6555    3    0    1
 -2      2406      2734      3523      3547
 -1      6556    3    0    1
 -2      1443      1442      1613      2928
 -1      6557    3    0    1
 -2      3331      3398      3703      3708
 -1      6558    3    0    1
 -2       745       754      1756      3241
 -1      6559    3    0    1
 -2      2843      2735      2926      1719
 -1      6560    3    0    1
 -2      2205      1298      2584      3579
 -1      6561    3    0    1
 -2      2623      2781      2912      3047
 -1      6562    3    0    1
 -2      2561      2840      1776      3710
 -1      6563    3    0    1
 -2      1471      1590      1591      2944
 -1      6564    3    0    1
 -2       974       931      1297      2665
 -1      6565    3    0    1
 -2      3591      3262      3639      3705
 -1      6566    3    0    1
 -2      3565      1462      3159      3294
 -1      6567    3    0    1
 -2      2902      2627      2924      3646
 -1      6568    3    0    1
 -2       623       974      1297      2665
 -1      6569    3    0    1
 -2      2674      3565      3159      3294
 -1      6570    3    0    1
 -2      1032      1323       756      2721
 -1      6571    3    0    1
 -2      1593      1592      2937      3150
 -1      6572    3    0    1
 -2      2915      1598      1808      3130
 -1      6573    3    0    1
 -2       408      1651      3539      1814
 -1      6574    3    0    1
 -2      3620      3131      3374      3434
 -1      6575    3    0    1
 -2      2790      3567      3584      3674
 -1      6576    3    0    1
 -2      1658        99      1659      1660
 -1      6577    3    0    1
 -2      1600      1785      3629      3455
 -1      6578    3    0    1
 -2      1454      1616      1617      2906
 -1      6579    3    0    1
 -2      2499      2564      2592      3625
 -1      6580    3    0    1
 -2      1616      2671      1617      2906
 -1      6581    3    0    1
 -2      1549      1416      1550      3394
 -1      6582    3    0    1
 -2      1598      1599      2915      1809
 -1      6583    3    0    1
 -2      1501      1500      1563      3008
 -1      6584    3    0    1
 -2      2679      2881      3248      3643
 -1      6585    3    0    1
 -2      2637      2512      3527      3555
 -1      6586    3    0    1
 -2      2671      2906      3052      3595
 -1      6587    3    0    1
 -2      2524       513      2681      2721
 -1      6588    3    0    1
 -2      2811      2638      3607      3614
 -1      6589    3    0    1
 -2      1678      1679      3179      3264
 -1      6590    3    0    1
 -2       576       565      1635      2892
 -1      6591    3    0    1
 -2       986       340      3577      3652
 -1      6592    3    0    1
 -2      1526      1527      1590      2779
 -1      6593    3    0    1
 -2      1547      2845      1881      1882
 -1      6594    3    0    1
 -2      2288      2563      2931      3225
 -1      6595    3    0    1
 -2      1500      1501      2939      3025
 -1      6596    3    0    1
 -2      1160      1293      2566      2655
 -1      6597    3    0    1
 -2       469      1160      2566      2655
 -1      6598    3    0    1
 -2      2343       997      2488      3518
 -1      6599    3    0    1
 -2      3149      2834      3312      1933
 -1      6600    3    0    1
 -2      2848      2980      3061      3190
 -1      6601    3    0    1
 -2      1477      1476      2764      2867
 -1      6602    3    0    1
 -2      3509      3539      3134      3687
 -1      6603    3    0    1
 -2      2135       947      2255      3528
 -1      6604    3    0    1
 -2      1544       185      3085      3469
 -1      6605    3    0    1
 -2      1690      3140      1820      3183
 -1      6606    3    0    1
 -2      3503      2250      2752      2777
 -1      6607    3    0    1
 -2      3526      2543      3045      3582
 -1      6608    3    0    1
 -2      1521      1537      2952      3022
 -1      6609    3    0    1
 -2      2387      2514      3506      3687
 -1      6610    3    0    1
 -2      2626      2161      2846      3687
 -1      6611    3    0    1
 -2      1070      2500      2766      3528
 -1      6612    3    0    1
 -2      3597      3031      3408      3702
 -1      6613    3    0    1
 -2      3530       247      1806      1807
 -1      6614    3    0    1
 -2      2322      2247      2586      3004
 -1      6615    3    0    1
 -2      1716      2827      3116      3595
 -1      6616    3    0    1
 -2       966      1289      2291      3521
 -1      6617    3    0    1
 -2       977       151      3579      3689
 -1      6618    3    0    1
 -2      1194      1192      2531      2660
 -1      6619    3    0    1
 -2      2802      2984      3003      3568
 -1      6620    3    0    1
 -2       162       165      3524      3550
 -1      6621    3    0    1
 -2      2670      2817      3543      2991
 -1      6622    3    0    1
 -2      1614      2658      2768      3259
 -1      6623    3    0    1
 -2      2504      2369      2661      3529
 -1      6624    3    0    1
 -2      1046      1055      3530      1806
 -1      6625    3    0    1
 -2       773       776      1046      1806
 -1      6626    3    0    1
 -2      1194      2531      2582      2660
 -1      6627    3    0    1
 -2      1541      1542      2653      2731
 -1      6628    3    0    1
 -2      1646      1783      1784      3176
 -1      6629    3    0    1
 -2      1612      1442      1613      2815
 -1      6630    3    0    1
 -2      1301      2143      2651      3561
 -1      6631    3    0    1
 -2      1525      1524      1722      2945
 -1      6632    3    0    1
 -2      1521      1522      1538      3022
 -1      6633    3    0    1
 -2       996      1005      2558      3524
 -1      6634    3    0    1
 -2      1706      1707      2936      1940
 -1      6635    3    0    1
 -2      2674      2853      3565      3126
 -1      6636    3    0    1
 -2      1005      2242      2558      3524
 -1      6637    3    0    1
 -2      2270       996      2558      3524
 -1      6638    3    0    1
 -2      2910      3031      3597      3668
 -1      6639    3    0    1
 -2      2751      2901      3572      3241
 -1      6640    3    0    1
 -2      3244      1432      3263      3639
 -1      6641    3    0    1
 -2      1826      1497      1827      3376
 -1      6642    3    0    1
 -2       162      2270      2548      3524
 -1      6643    3    0    1
 -2        17        72      1915      1950
 -1      6644    3    0    1
 -2      1558      1557      1615      2839
 -1      6645    3    0    1
 -2      1517      1516      3072      3132
 -1      6646    3    0    1
 -2      2893      2647      2945      2972
 -1      6647    3    0    1
 -2      2220       961      2290      3512
 -1      6648    3    0    1
 -2      1287       961       587      3512
 -1      6649    3    0    1
 -2      1287       587      2220      3512
 -1      6650    3    0    1
 -2       593       961      2220      3512
 -1      6651    3    0    1
 -2       587       593      2220      3512
 -1      6652    3    0    1
 -2       593       587       961      3512
 -1      6653    3    0    1
 -2      3245      3262      3639      3490
 -1      6654    3    0    1
 -2        27      1637      1701      3160
 -1      6655    3    0    1
 -2      2285      2220      2290      3512
 -1      6656    3    0    1
 -2       931      1232      1297      2665
 -1      6657    3    0    1
 -2      2162      2734      3523      3534
 -1      6658    3    0    1
 -2      2367      1324      2772      3544
 -1      6659    3    0    1
 -2      1592      1464      3585      3150
 -1      6660    3    0    1
 -2      2247      2322      2586      2777
 -1      6661    3    0    1
 -2      3650      3573      3447      3735
 -1      6662    3    0    1
 -2       518      1232       931      2665
 -1      6663    3    0    1
 -2      1232       518       519      2665
 -1      6664    3    0    1
 -2      2809      3531      2933      3080
 -1      6665    3    0    1
 -2      2322      2777      2782      2830
 -1      6666    3    0    1
 -2      1464      1465      1593      3178
 -1      6667    3    0    1
 -2      1576      2625      2790      3567
 -1      6668    3    0    1
 -2      2527      2877      3089      3606
 -1      6669    3    0    1
 -2      1316       901      1144      2667
 -1      6670    3    0    1
 -2      1015      1316       712      2667
 -1      6671    3    0    1
 -2       901      1316      1015      2667
 -1      6672    3    0    1
 -2      2594      2641      2710      3558
 -1      6673    3    0    1
 -2      1914      1915      3461      3495
 -1      6674    3    0    1
 -2      2574      3204      3243      3709
 -1      6675    3    0    1
 -2       460       459      1144      2667
 -1      6676    3    0    1
 -2      2749      3527      3555      3606
 -1      6677    3    0    1
 -2      3395      1851      3397      1941
 -1      6678    3    0    1
 -2       901       460      1144      2667
 -1      6679    3    0    1
 -2       346      1580      2860      1947
 -1      6680    3    0    1
 -2       460      1015       712      2667
 -1      6681    3    0    1
 -2      1015       460       901      2667
 -1      6682    3    0    1
 -2       210      2479      2543      3582
 -1      6683    3    0    1
 -2      1423      3509      1651      3134
 -1      6684    3    0    1
 -2      1429      1428      1804      3144
 -1      6685    3    0    1
 -2      1636      1635      3001      3063
 -1      6686    3    0    1
 -2       403      3512      3514      3600
 -1      6687    3    0    1
 -2      3011      1519      3597      3250
 -1      6688    3    0    1
 -2      2908      2674      3113      3294
 -1      6689    3    0    1
 -2      2772      2686      3544      3661
 -1      6690    3    0    1
 -2      3274      1847      1865      3341
 -1      6691    3    0    1
 -2      2694      2826      3559      3585
 -1      6692    3    0    1
 -2      1765      1456      3594      3373
 -1      6693    3    0    1
 -2      1427      3423      1509      1510
 -1      6694    3    0    1
 -2      1618       335      1782      3196
 -1      6695    3    0    1
 -2      3187      2963      3226      3625
 -1      6696    3    0    1
 -2      2939      2798      3016      3066
 -1      6697    3    0    1
 -2      1480      1479      2704      2856
 -1      6698    3    0    1
 -2      1305      1002       676      3536
 -1      6699    3    0    1
 -2      1035      1320      2721      2873
 -1      6700    3    0    1
 -2      3527      2767      2877      3325
 -1      6701    3    0    1
 -2      3213      2889      1862      1863
 -1      6702    3    0    1
 -2      2856      1479      1862      1863
 -1      6703    3    0    1
 -2      2893      3535      2972      3069
 -1      6704    3    0    1
 -2      1833      3175      3301      3440
 -1      6705    3    0    1
 -2      1619      2834      1768      3312
 -1      6706    3    0    1
 -2      2651      3523      3534      3617
 -1      6707    3    0    1
 -2      3617      3388      3681      3731
 -1      6708    3    0    1
 -2      2812      2685      3553      3135
 -1      6709    3    0    1
 -2       944      1280      2899      3636
 -1      6710    3    0    1
 -2      1469      2953      3003      3037
 -1      6711    3    0    1
 -2       171       185      1544      3360
 -1      6712    3    0    1
 -2       766      1326       774      2708
 -1      6713    3    0    1
 -2      1448      2606      3627      3679
 -1      6714    3    0    1
 -2      2730      3568      3639      3705
 -1      6715    3    0    1
 -2      2643      2705      2989      3642
 -1      6716    3    0    1
 -2      2948      3067      3647      3391
 -1      6717    3    0    1
 -2      1583      1476      1584      2867
 -1      6718    3    0    1
 -2      2983      3033      3644      3651
 -1      6719    3    0    1
 -2      2634      2559      2670      3570
 -1      6720    3    0    1
 -2      1490      1489      2627      2868
 -1      6721    3    0    1
 -2       247       242      3530      1806
 -1      6722    3    0    1
 -2      3543      2659      1740      3249
 -1      6723    3    0    1
 -2      2827      1716      3052      3595
 -1      6724    3    0    1
 -2       781      1528      1529      2961
 -1      6725    3    0    1
 -2       601       612      1588      3212
 -1      6726    3    0    1
 -2      1018      1317      2396      3602
 -1      6727    3    0    1
 -2      2637      2753      3527      2960
 -1      6728    3    0    1
 -2      2396      3503      2752      3522
 -1      6729    3    0    1
 -2      2577      3029      3033      3644
 -1      6730    3    0    1
 -2      2496      2926      3555      2975
 -1      6731    3    0    1
 -2      1909      3395      3397      1960
 -1      6732    3    0    1
 -2      2355      1044       766       774
 -1      6733    3    0    1
 -2      3174      3564      3717      3722
 -1      6734    3    0    1
 -2      1444      2629      1585      2680
 -1      6735    3    0    1
 -2      1435      1824      3615      3734
 -1      6736    3    0    1
 -2       150      1562      1586      2680
 -1      6737    3    0    1
 -2      2879      3551      3639      3705
 -1      6738    3    0    1
 -2      1495      1496      1621      2923
 -1      6739    3    0    1
 -2      1596      1759      3157      3436
 -1      6740    3    0    1
 -2      2506      2523      3569      3619
 -1      6741    3    0    1
 -2      1460      1606      2823      2889
 -1      6742    3    0    1
 -2      2667       712      2682      2983
 -1      6743    3    0    1
 -2      1873       549      3348      3458
 -1      6744    3    0    1
 -2      2992      2900      3062      3292
 -1      6745    3    0    1
 -2      1452      3574      3631      3644
 -1      6746    3    0    1
 -2      1319       208      2479      3694
 -1      6747    3    0    1
 -2      2524      1220      2554      2681
 -1      6748    3    0    1
 -2      2914      2900      3178      3292
 -1      6749    3    0    1
 -2      1704      1469      3609      3258
 -1      6750    3    0    1
 -2      1474      2763      2814      3543
 -1      6751    3    0    1
 -2      3572      3612      3655      3682
 -1      6752    3    0    1
 -2      1541      1542      1644      2993
 -1      6753    3    0    1
 -2       201       722       718      1751
 -1      6754    3    0    1
 -2      3553      3013      3590      3614
 -1      6755    3    0    1
 -2      2965      3588      3105      3608
 -1      6756    3    0    1
 -2      2887      2805      1721      3606
 -1      6757    3    0    1
 -2      1744      2914      3292      3300
 -1      6758    3    0    1
 -2      2778      1573      1748      1749
 -1      6759    3    0    1
 -2      2697      3501      3546      3557
 -1      6760    3    0    1
 -2       147      1562      1563      1648
 -1      6761    3    0    1
 -2      2798      1566      2881      3016
 -1      6762    3    0    1
 -2      3608      3592      3719      3664
 -1      6763    3    0    1
 -2      2230        93      2689      3541
 -1      6764    3    0    1
 -2      1569      3512      2666      1658
 -1      6765    3    0    1
 -2      1504      1505      2917      3158
 -1      6766    3    0    1
 -2      2544       641      2630      3542
 -1      6767    3    0    1
 -2      1520      3506      3101      3189
 -1      6768    3    0    1
 -2      2697      2491      3546      3500
 -1      6769    3    0    1
 -2      1282        93      2230      3541
 -1      6770    3    0    1
 -2      3547      3576      3599      3658
 -1      6771    3    0    1
 -2      1222      1220      2681      2872
 -1      6772    3    0    1
 -2      1070      2500      2525      2766
 -1      6773    3    0    1
 -2      1044      2772      3544      3661
 -1      6774    3    0    1
 -2      2647      2596      3535      2893
 -1      6775    3    0    1
 -2      3559      2831      3202      3710
 -1      6776    3    0    1
 -2      2778      1573      3580      3619
 -1      6777    3    0    1
 -2      1421      1818      1819      3268
 -1      6778    3    0    1
 -2      2676      1438      1856      1857
 -1      6779    3    0    1
 -2      1588      1504      1589      2917
 -1      6780    3    0    1
 -2      1320      1035      3532      3734
 -1      6781    3    0    1
 -2      1474      3543      1740      2991
 -1      6782    3    0    1
 -2      2322      2586      2777      2830
 -1      6783    3    0    1
 -2      2551      2756      3533      3049
 -1      6784    3    0    1
 -2      1038      3696      1929      1930
 -1      6785    3    0    1
 -2      1442      1443      1613      2815
 -1      6786    3    0    1
 -2      2980      2589      3620      3737
 -1      6787    3    0    1
 -2      2670      1254      2817      2991
 -1      6788    3    0    1
 -2      2505      3124      3618      3607
 -1      6789    3    0    1
 -2      1713      2769      1714      3241
 -1      6790    3    0    1
 -2      3519      2686      3544      3545
 -1      6791    3    0    1
 -2      3527      2569      2960      3057
 -1      6792    3    0    1
 -2      1324       766      2367      2772
 -1      6793    3    0    1
 -2      1044      2355       766      2772
 -1      6794    3    0    1
 -2       766      2355      2367      2772
 -1      6795    3    0    1
 -2      1734      3166      3224      3642
 -1      6796    3    0    1
 -2      2765      3569      3065      3339
 -1      6797    3    0    1
 -2      1665       226      2869      1949
 -1      6798    3    0    1
 -2      2940      3555      3041      3606
 -1      6799    3    0    1
 -2      2490      2560      2664      3543
 -1      6800    3    0    1
 -2      1013      2390      3684      1943
 -1      6801    3    0    1
 -2      1419      1536      3546      3630
 -1      6802    3    0    1
 -2      1756      2901      3572      3674
 -1      6803    3    0    1
 -2      2659      1474      2814      3543
 -1      6804    3    0    1
 -2      2757      2669      3584      3347
 -1      6805    3    0    1
 -2      1421      1422      1818      3268
 -1      6806    3    0    1
 -2      1625      1780      1781      3342
 -1      6807    3    0    1
 -2      1867         1      3718      3496
 -1      6808    3    0    1
 -2      2704      2856      3325      3680
 -1      6809    3    0    1
 -2      1619      1620      2834      3117
 -1      6810    3    0    1
 -2      1781      1625      3624      3323
 -1      6811    3    0    1
 -2      3577      3534      3579      3611
 -1      6812    3    0    1
 -2      3130      1808      1869      3300
 -1      6813    3    0    1
 -2      1600       408      3549      3629
 -1      6814    3    0    1
 -2      2561      1776      1777      3181
 -1      6815    3    0    1
 -2      1675      3605      1889      3389
 -1      6816    3    0    1
 -2      1591      1471      2944      3289
 -1      6817    3    0    1
 -2      2771      3533      2881      2939
 -1      6818    3    0    1
 -2      2488      2507      3518      3540
 -1      6819    3    0    1
 -2      1598      2890      1744      1745
 -1      6820    3    0    1
 -2      2783      2993      3151      3372
 -1      6821    3    0    1
 -2      3563       329      1875      3645
 -1      6822    3    0    1
 -2      2786      2857      3566      3604
 -1      6823    3    0    1
 -2      3052      2729      3595      3391
 -1      6824    3    0    1
 -2      1810      3247      3695      3722
 -1      6825    3    0    1
 -2      1516      1517      1627      3133
 -1      6826    3    0    1
 -2      3612      3015      3655      3682
 -1      6827    3    0    1
 -2      1646      1647      3082      3291
 -1      6828    3    0    1
 -2      1441      1440      3088      3291
 -1      6829    3    0    1
 -2      2518      3589      3707      3730
 -1      6830    3    0    1
 -2       422       999      2242      3550
 -1      6831    3    0    1
 -2      2640      3580      3102      3619
 -1      6832    3    0    1
 -2        71      1836      3248      1853
 -1      6833    3    0    1
 -2      3536      1459      1703      3597
 -1      6834    3    0    1
 -2      1562      2939      3016      3066
 -1      6835    3    0    1
 -2      1198       495      2644      2700
 -1      6836    3    0    1
 -2       952      1287      2220      3514
 -1      6837    3    0    1
 -2      2522      2285      3511      3514
 -1      6838    3    0    1
 -2      1284       952      2282      3514
 -1      6839    3    0    1
 -2      1284      2282      2547      3514
 -1      6840    3    0    1
 -2      1297       414      2189      3704
 -1      6841    3    0    1
 -2      2220      1287      3512      3514
 -1      6842    3    0    1
 -2       952      2220      2282      3514
 -1      6843    3    0    1
 -2      2285      2220      3512      3514
 -1      6844    3    0    1
 -2      3511      2285      3512      3514
 -1      6845    3    0    1
 -2       952       403      1287      3514
 -1      6846    3    0    1
 -2      1474      1475      2898      3302
 -1      6847    3    0    1
 -2      2566      2655      2687      3553
 -1      6848    3    0    1
 -2      2285      2522      2547      3514
 -1      6849    3    0    1
 -2      2282      2220      2547      3514
 -1      6850    3    0    1
 -2      2220      2285      2547      3514
 -1      6851    3    0    1
 -2      1743      3165      3291      3337
 -1      6852    3    0    1
 -2      2504      1326      3529      3121
 -1      6853    3    0    1
 -2      1767      1710      3068      3111
 -1      6854    3    0    1
 -2       583      2735      1672      1673
 -1      6855    3    0    1
 -2      2501      2971      3269      3731
 -1      6856    3    0    1
 -2      1854      1514      1855      3307
 -1      6857    3    0    1
 -2      1426      2886      1794      1795
 -1      6858    3    0    1
 -2      1472      1471      2724      2904
 -1      6859    3    0    1
 -2      2724      1471      2832      2904
 -1      6860    3    0    1
 -2      2753      2637      3527      3555
 -1      6861    3    0    1
 -2      2822      2714      2859      3555
 -1      6862    3    0    1
 -2      3198      1596      3310      3653
 -1      6863    3    0    1
 -2      2992      1592      3178      3292
 -1      6864    3    0    1
 -2      1652      3235      3305      1936
 -1      6865    3    0    1
 -2      1431      2677      1605      3130
 -1      6866    3    0    1
 -2      3573      2927      3225      3473
 -1      6867    3    0    1
 -2      1449      1450      1663      3167
 -1      6868    3    0    1
 -2      2880      2494      3565      3637
 -1      6869    3    0    1
 -2      3505      1448      3610      3231
 -1      6870    3    0    1
 -2      1198      2700      3015      3223
 -1      6871    3    0    1
 -2      1523      1452      3631      3644
 -1      6872    3    0    1
 -2      1052      2600      3516      3557
 -1      6873    3    0    1
 -2      2864       612      3212      3607
 -1      6874    3    0    1
 -2      2292      2218      2520      3515
 -1      6875    3    0    1
 -2      1220      2554      2872      1698
 -1      6876    3    0    1
 -2      2724      2832      3537      2904
 -1      6877    3    0    1
 -2      2832      1655      3537      2904
 -1      6878    3    0    1
 -2      2699      1655      1656      2904
 -1      6879    3    0    1
 -2       700       194       704      1911
 -1      6880    3    0    1
 -2       982      1297      2609      3424
 -1      6881    3    0    1
 -2      1474      2763      3543      2991
 -1      6882    3    0    1
 -2      2574      2241      2600      3516
 -1      6883    3    0    1
 -2      2512      2749      3527      3555
 -1      6884    3    0    1
 -2      2574      2600      2697      3516
 -1      6885    3    0    1
 -2      1052      2257      2600      3557
 -1      6886    3    0    1
 -2      3536      1309      3576      3594
 -1      6887    3    0    1
 -2      3395      1906      3415      1941
 -1      6888    3    0    1
 -2      3055      3239      3622      3301
 -1      6889    3    0    1
 -2      1607      1436      3583      3628
 -1      6890    3    0    1
 -2      2736      2529      3572      3674
 -1      6891    3    0    1
 -2      1885       666      3364      3671
 -1      6892    3    0    1
 -2      1326       766      1040      2708
 -1      6893    3    0    1
 -2      1195      1040      2644      2708
 -1      6894    3    0    1
 -2      1040      1195      1326      2708
 -1      6895    3    0    1
 -2       629       977      2665      2774
 -1      6896    3    0    1
 -2      2162      2584      3534      3579
 -1      6897    3    0    1
 -2       919       494      2700      2708
 -1      6898    3    0    1
 -2       594       583      1672      2858
 -1      6899    3    0    1
 -2      2735       583      1719      1720
 -1      6900    3    0    1
 -2      1040       766      2644      2708
 -1      6901    3    0    1
 -2      1725      2712      1726      2958
 -1      6902    3    0    1
 -2      2735      1672      1673      3014
 -1      6903    3    0    1
 -2      1498      1497      1827      3465
 -1      6904    3    0    1
 -2      1675       346      3551      2970
 -1      6905    3    0    1
 -2      3561      1736      3147      1821
 -1      6906    3    0    1
 -2      1712      1301      3561      3272
 -1      6907    3    0    1
 -2       763      1643      1644      3148
 -1      6908    3    0    1
 -2      1627      1812      3618      3255
 -1      6909    3    0    1
 -2      3611      3672      3689      3700
 -1      6910    3    0    1
 -2      1504      1553      1554      3158
 -1      6911    3    0    1
 -2      3169      3070      3624      3657
 -1      6912    3    0    1
 -2      1803      1792      1804      3238
 -1      6913    3    0    1
 -2      1818      1547      1819      3268
 -1      6914    3    0    1
 -2      1581       601      1582      2864
 -1      6915    3    0    1
 -2      1669      3113      3159      3294
 -1      6916    3    0    1
 -2      2561      1776      3181      3710
 -1      6917    3    0    1
 -2      2802      2984      1802      3349
 -1      6918    3    0    1
 -2      2514      2285      2539      3517
 -1      6919    3    0    1
 -2      1509      1427      1510      2822
 -1      6920    3    0    1
 -2      1528      3263      3474      3490
 -1      6921    3    0    1
 -2      1536      3507      3604      3630
 -1      6922    3    0    1
 -2       157       646       988      1733
 -1      6923    3    0    1
 -2       422      2242      3524      3550
 -1      6924    3    0    1
 -2      1280       353      3592      3664
 -1      6925    3    0    1
 -2      1049      2504      3529      3121
 -1      6926    3    0    1
 -2       414       632       628      1962
 -1      6927    3    0    1
 -2      2548       162      3524      3550
 -1      6928    3    0    1
 -2       119      2715      1510      1607
 -1      6929    3    0    1
 -2      2143      1301      2406      3561
 -1      6930    3    0    1
 -2      2525       285      3528      3686
 -1      6931    3    0    1
 -2      1469      2964      3117      3312
 -1      6932    3    0    1
 -2       665       659       994      3561
 -1      6933    3    0    1
 -2      1701      1637      3112      3160
 -1      6934    3    0    1
 -2      3519      3605      3389      3709
 -1      6935    3    0    1
 -2       665       994      2406      3561
 -1      6936    3    0    1
 -2      2934      1725      1726      3273
 -1      6937    3    0    1
 -2      2651      2406      3523      3561
 -1      6938    3    0    1
 -2      1445      3523      1736      3561
 -1      6939    3    0    1
 -2      1301       659      2406      3561
 -1      6940    3    0    1
 -2      2893       576      3063      3069
 -1      6941    3    0    1
 -2      2282      1284      2547      3039
 -1      6942    3    0    1
 -2      3004      3599      3601      3219
 -1      6943    3    0    1
 -2      1483      1630      1631      2874
 -1      6944    3    0    1
 -2      1614      1557      2768      2839
 -1      6945    3    0    1
 -2      1032      1221      1323      2721
 -1      6946    3    0    1
 -2       513       512      1219      2721
 -1      6947    3    0    1
 -2       756      1323      2524      2721
 -1      6948    3    0    1
 -2      1035       756      2524      2721
 -1      6949    3    0    1
 -2      1221       512      2524      2721
 -1      6950    3    0    1
 -2      1219       512      1221      2721
 -1      6951    3    0    1
 -2      1323      1221      2524      2721
 -1      6952    3    0    1
 -2      1662      2776      1663      1449
 -1      6953    3    0    1
 -2       518       519      2665      2794
 -1      6954    3    0    1
 -2      3157      1596      1883      1884
 -1      6955    3    0    1
 -2      1475      1474      1486      2814
 -1      6956    3    0    1
 -2      2664      1485      2763      2814
 -1      6957    3    0    1
 -2       341       163      3518      1732
 -1      6958    3    0    1
 -2      2691      2679      2997      3643
 -1      6959    3    0    1
 -2      2494      2607      2799      3565
 -1      6960    3    0    1
 -2      3512      1424      2666      3555
 -1      6961    3    0    1
 -2      1555      1556      2631      3036
 -1      6962    3    0    1
 -2       120       118      3521      3688
 -1      6963    3    0    1
 -2      2995      3305      3647      3488
 -1      6964    3    0    1
 -2      2953      1704      2996      3036
 -1      6965    3    0    1
 -2      3002      3538      3296      3640
 -1      6966    3    0    1
 -2      3493      1914      1964      3737
 -1      6967    3    0    1
 -2      2537      2884      3636      3654
 -1      6968    3    0    1
 -2      1422      1421      1633      3326
 -1      6969    3    0    1
 -2      3590      3553      3135      3367
 -1      6970    3    0    1
 -2      2614      1331      3430      3733
 -1      6971    3    0    1
 -2      1851      3350      3387      3708
 -1      6972    3    0    1
 -2      2770      2554      2974      3565
 -1      6973    3    0    1
 -2      1761      1746      1762      3152
 -1      6974    3    0    1
 -2      1430      2583      1711      3161
 -1      6975    3    0    1
 -2       781       790      1528      2961
 -1      6976    3    0    1
 -2      2685      3083      3084      3590
 -1      6977    3    0    1
 -2      1450      1449      2776      2792
 -1      6978    3    0    1
 -2      1280      2733       557       944
 -1      6979    3    0    1
 -2      1464      1744      3071      3585
 -1      6980    3    0    1
 -2      1624      1623      2901      1757
 -1      6981    3    0    1
 -2      3585      1598      3200      3283
 -1      6982    3    0    1
 -2      1879        23      1880      1945
 -1      6983    3    0    1
 -2      1744      1598      3071      3585
 -1      6984    3    0    1
 -2      1456      3515      3594      3373
 -1      6985    3    0    1
 -2      2619      3551      3244      3639
 -1      6986    3    0    1
 -2      1694        94      3592      3721
 -1      6987    3    0    1
 -2      1792      1793      1804      3238
 -1      6988    3    0    1
 -2        15      1808      3130      1850
 -1      6989    3    0    1
 -2      1070       947      3528      1676
 -1      6990    3    0    1
 -2      2884      1549      3592      3654
 -1      6991    3    0    1
 -2      3554      3515      3576      3594
 -1      6992    3    0    1
 -2      1525      1524      1663      2887
 -1      6993    3    0    1
 -2      2731      2836      3568      3321
 -1      6994    3    0    1
 -2      1594      2963      3575      3625
 -1      6995    3    0    1
 -2      1555       781      1556      2918
 -1      6996    3    0    1
 -2      1068      2314      3679      3437
 -1      6997    3    0    1
 -2      3677      2866      3385      3442
 -1      6998    3    0    1
 -2      2292      2218      3515      3632
 -1      6999    3    0    1
 -2      1509      2714      2715      2859
 -1      7000    3    0    1
 -2      2250      3503      3338      3665
 -1      7001    3    0    1
 -2      3610      3608      3664      3437
 -1      7002    3    0    1
 -2      1485      1551      2903      3438
 -1      7003    3    0    1
 -2      1424      3517      2780      3078
 -1      7004    3    0    1
 -2      2634       994      2726      2820
 -1      7005    3    0    1
 -2       196      1706      1707      3443
 -1      7006    3    0    1
 -2      2656       952      2796      3535
 -1      7007    3    0    1
 -2      2161      2222      2626      2846
 -1      7008    3    0    1
 -2      2757      1687      3058      3347
 -1      7009    3    0    1
 -2       201      1020      3526      1751
 -1      7010    3    0    1
 -2       619       630      1748      3024
 -1      7011    3    0    1
 -2       210      2471      2479      3582
 -1      7012    3    0    1
 -2       210      2543      3526      3582
 -1      7013    3    0    1
 -2      1594      2871      3276      3636
 -1      7014    3    0    1
 -2      2897      2588      2995      3596
 -1      7015    3    0    1
 -2      2511      2250      2532      3520
 -1      7016    3    0    1
 -2      2498      2153      3399      3725
 -1      7017    3    0    1
 -2      2429      2026      2609      3704
 -1      7018    3    0    1
 -2      3640      1748      3316      3333
 -1      7019    3    0    1
 -2      1581      1582      2863      2864
 -1      7020    3    0    1
 -2      1289      2383      2403      3521
 -1      7021    3    0    1
 -2       407       406      2604      3521
 -1      7022    3    0    1
 -2       966       407      2604      3521
 -1      7023    3    0    1
 -2       406       120      2604      3521
 -1      7024    3    0    1
 -2       120       118      2604      3521
 -1      7025    3    0    1
 -2      2973      3299      3668      3702
 -1      7026    3    0    1
 -2      1289       966      2604      3521
 -1      7027    3    0    1
 -2      2201      2291      2403      3521
 -1      7028    3    0    1
 -2       118      1289      2604      3521
 -1      7029    3    0    1
 -2      2291      2290      2403      3521
 -1      7030    3    0    1
 -2      2668      3003      3568      3591
 -1      7031    3    0    1
 -2      3535      2646      3575      3625
 -1      7032    3    0    1
 -2       790       781      2918      2961
 -1      7033    3    0    1
 -2      3002      3538      1835      3240
 -1      7034    3    0    1
 -2      1612      3084      1879      1880
 -1      7035    3    0    1
 -2      2531      2660      2730      3568
 -1      7036    3    0    1
 -2       276      3693      3712      3486
 -1      7037    3    0    1
 -2       630      3619      1899      3377
 -1      7038    3    0    1
 -2      1481      1776      1777      3287
 -1      7039    3    0    1
 -2      1470      1469      1620      3037
 -1      7040    3    0    1
 -2      1614      1615      2839      3259
 -1      7041    3    0    1
 -2      2803      2660      3591      3639
 -1      7042    3    0    1
 -2      1833      1514      1834      3251
 -1      7043    3    0    1
 -2      2205       977      3579      3672
 -1      7044    3    0    1
 -2      1638      2924      3230      3237
 -1      7045    3    0    1
 -2       685       677      1005      1724
 -1      7046    3    0    1
 -2       739       210       731      1750
 -1      7047    3    0    1
 -2       731       210      1030      1750
 -1      7048    3    0    1
 -2      1553        24      1554      1876
 -1      7049    3    0    1
 -2      1537       648      2952      3022
 -1      7050    3    0    1
 -2       648       637      1551      2775
 -1      7051    3    0    1
 -2      1424      2714      3555      3628
 -1      7052    3    0    1
 -2      1537      1521      1538      3022
 -1      7053    3    0    1
 -2      1515      3256      3307      3440
 -1      7054    3    0    1
 -2      1319      2479      2618      3694
 -1      7055    3    0    1
 -2      2984      2802      3003      3349
 -1      7056    3    0    1
 -2      2621      2760      2982      3581
 -1      7057    3    0    1
 -2      2691      2795      3533      3643
 -1      7058    3    0    1
 -2      3627      3622      3318      3714
 -1      7059    3    0    1
 -2      2530      2953      3568      3591
 -1      7060    3    0    1
 -2      1752      2988       799       808
 -1      7061    3    0    1
 -2      1619      2967      1768      1769
 -1      7062    3    0    1
 -2      2619      1543      3205      3635
 -1      7063    3    0    1
 -2      2884      3592      3636      3654
 -1      7064    3    0    1
 -2      2809      3531      3080      3596
 -1      7065    3    0    1
 -2      1721      2805      3089      3606
 -1      7066    3    0    1
 -2      2506      2551      3533      3569
 -1      7067    3    0    1
 -2      2828      3553      3044      3590
 -1      7068    3    0    1
 -2      3210      3199      3211      3653
 -1      7069    3    0    1
 -2      3608      3573      3225      3473
 -1      7070    3    0    1
 -2      2510      3620      3375      3702
 -1      7071    3    0    1
 -2      1627      1516      1628      3072
 -1      7072    3    0    1
 -2      1686      1685      2956      3001
 -1      7073    3    0    1
 -2      3091      3004      3601      3219
 -1      7074    3    0    1
 -2      2593      2537      3636      3646
 -1      7075    3    0    1
 -2      1492      1491      2767      1686
 -1      7076    3    0    1
 -2       736      2809      2933      3080
 -1      7077    3    0    1
 -2      1504      1505      1589      2917
 -1      7078    3    0    1
 -2      1704      2953      2996      3003
 -1      7079    3    0    1
 -2      1577      1576      2837      2860
 -1      7080    3    0    1
 -2      1456      3554      1765      3594
 -1      7081    3    0    1
 -2      2600      2194      2697      3557
 -1      7082    3    0    1
 -2       473      1165      2562      3070
 -1      7083    3    0    1
 -2      2746      2747      3596      3647
 -1      7084    3    0    1
 -2      1703      3547      3536      3603
 -1      7085    3    0    1
 -2      1534      2659      1740      1741
 -1      7086    3    0    1
 -2      1527      1526      1590      2944
 -1      7087    3    0    1
 -2      1526      1527      2875      2944
 -1      7088    3    0    1
 -2      3070      3187      3624      3657
 -1      7089    3    0    1
 -2      1052       347      1332      3557
 -1      7090    3    0    1
 -2      1746      1761      1762      3139
 -1      7091    3    0    1
 -2      1474      2795      3017      3049
 -1      7092    3    0    1
 -2      1619      1469      1620      3117
 -1      7093    3    0    1
 -2      1027      1317      2540      3537
 -1      7094    3    0    1
 -2      2842      2670      3543      3570
 -1      7095    3    0    1
 -2       210       739       333      1750
 -1      7096    3    0    1
 -2      1429      1428      3050      1804
 -1      7097    3    0    1
 -2      2968      1730      1821      3668
 -1      7098    3    0    1
 -2      3571      3557      3616      3635
 -1      7099    3    0    1
 -2      1018      2218      2388      3644
 -1      7100    3    0    1
 -2      2870      1678      1894      1895
 -1      7101    3    0    1
 -2      3501      3712      3486      3491
 -1      7102    3    0    1
 -2      3246      3615      3676      3711
 -1      7103    3    0    1
 -2       982       416      3424      3704
 -1      7104    3    0    1
 -2      1752      1682      3023      3581
 -1      7105    3    0    1
 -2      2929      3538      3640      3673
 -1      7106    3    0    1
 -2      3573      1412      3447      3473
 -1      7107    3    0    1
 -2      2897      1729      3140      3305
 -1      7108    3    0    1
 -2       206      2981      1887      1893
 -1      7109    3    0    1
 -2        93      2689      3541      3578
 -1      7110    3    0    1
 -2      2250      3520      3615      3665
 -1      7111    3    0    1
 -2      1537      2572      2957      3065
 -1      7112    3    0    1
 -2      1424      3511      3517      3628
 -1      7113    3    0    1
 -2       408      1813      1812      1814
 -1      7114    3    0    1
 -2      1030       210      3526      1750
 -1      7115    3    0    1
 -2      1020      1030      3526      1750
 -1      7116    3    0    1
 -2      2745      3559      3000      3585
 -1      7117    3    0    1
 -2      1624      1623      1688      3058
 -1      7118    3    0    1
 -2      2584      2651      3534      3577
 -1      7119    3    0    1
 -2      2687      3553      3607      3614
 -1      7120    3    0    1
 -2      1421      1422      3100      3207
 -1      7121    3    0    1
 -2      1524      1721      2945      2972
 -1      7122    3    0    1
 -2      2674      2872      2908      3126
 -1      7123    3    0    1
 -2       434      3389      3709      1947
 -1      7124    3    0    1
 -2      2894      2876      3559      2981
 -1      7125    3    0    1
 -2      1502      2843      1719      1720
 -1      7126    3    0    1
 -2      1487      2557      3405      3483
 -1      7127    3    0    1
 -2      1145      1468      2946      3071
 -1      7128    3    0    1
 -2      1297      2609      3424      3704
 -1      7129    3    0    1
 -2      1631      1630      2799      2874
 -1      7130    3    0    1
 -2      2763      2670      3543      2991
 -1      7131    3    0    1
 -2      2731      1643      2836      3321
 -1      7132    3    0    1
 -2      3112      3169      3624      3657
 -1      7133    3    0    1
 -2      3308        24      1876      3367
 -1      7134    3    0    1
 -2      1543      1829      3205      3635
 -1      7135    3    0    1
 -2      1704      1555      2996      3036
 -1      7136    3    0    1
 -2      1564      1565      1735      3106
 -1      7137    3    0    1
 -2      2134      2247      3463      3731
 -1      7138    3    0    1
 -2       173      1736      1821      1832
 -1      7139    3    0    1
 -2      2517      3055      3622      3256
 -1      7140    3    0    1
 -2      1474      1485      1486      2814
 -1      7141    3    0    1
 -2      1569       403      1658      1660
 -1      7142    3    0    1
 -2      1483      1484      2769      1713
 -1      7143    3    0    1
 -2      2666      1569      1658      1660
 -1      7144    3    0    1
 -2       403      1569      3513      1660
 -1      7145    3    0    1
 -2      1496      1495      2907      1759
 -1      7146    3    0    1
 -2      2583      1430      3068      3161
 -1      7147    3    0    1
 -2       666      2571      3598      3390
 -1      7148    3    0    1
 -2       403        99      1658      1660
 -1      7149    3    0    1
 -2      2651      2406      2734      3523
 -1      7150    3    0    1
 -2      2981      1652      1887      3487
 -1      7151    3    0    1
 -2      1412      1689      3608      3719
 -1      7152    3    0    1
 -2      2641      2710      3558      2962
 -1      7153    3    0    1
 -2      2619      3551      3205      3244
 -1      7154    3    0    1
 -2      2185      2322      2782      2819
 -1      7155    3    0    1
 -2      2609       982      3424      3704
 -1      7156    3    0    1
 -2      2554      2872      1698      3294
 -1      7157    3    0    1
 -2      3079      3570      2842      3598
 -1      7158    3    0    1
 -2      2208      2319      2599      3684
 -1      7159    3    0    1
 -2       558      2924      2954      3230
 -1      7160    3    0    1
 -2      1476      1594      1595      2764
 -1      7161    3    0    1
 -2       947      2135      2500      3528
 -1      7162    3    0    1
 -2      2525      1070      2766      3528
 -1      7163    3    0    1
 -2      1477      1476      1595      2764
 -1      7164    3    0    1
 -2      1489      1490      1584      2868
 -1      7165    3    0    1
 -2      2489      3569      3580      3652
 -1      7166    3    0    1
 -2      1513      1512      1726      2958
 -1      7167    3    0    1
 -2      1702      1701      3112      3160
 -1      7168    3    0    1
 -2      1692       691      1693      2938
 -1      7169    3    0    1
 -2      1512      1513      2742      2958
 -1      7170    3    0    1
 -2       218        59      1828      1884
 -1      7171    3    0    1
 -2      2831      2667      2946      3559
 -1      7172    3    0    1
 -2       557      1280      2965       550
 -1      7173    3    0    1
 -2      2797      1801      3154      3309
 -1      7174    3    0    1
 -2      3566      2857      3087      3604
 -1      7175    3    0    1
 -2      1598      2915      1808      1809
 -1      7176    3    0    1
 -2      1604      1603      2742      2825
 -1      7177    3    0    1
 -2      2767      2527      2877      2892
 -1      7178    3    0    1
 -2      1635      2767      2877      2892
 -1      7179    3    0    1
 -2        17      1914      3461      1964
 -1      7180    3    0    1
 -2      1472      1471      2808      2944
 -1      7181    3    0    1
 -2       565       576      2805      2892
 -1      7182    3    0    1
 -2      3641      2538      3646      3654
 -1      7183    3    0    1
 -2      2946      3559      3071      3585
 -1      7184    3    0    1
 -2      1627      1628      2913      3072
 -1      7185    3    0    1
 -2      1440      2773      2837      3567
 -1      7186    3    0    1
 -2      2586      3574      3201      3464
 -1      7187    3    0    1
 -2        94      1840      3648      3656
 -1      7188    3    0    1
 -2       353      1689      2976      3592
 -1      7189    3    0    1
 -2      2753      2637      3555      2975
 -1      7190    3    0    1
 -2       340      1650      2825      1680
 -1      7191    3    0    1
 -2      2586      3059      3601      3660
 -1      7192    3    0    1
 -2      3205      1829      1841      3635
 -1      7193    3    0    1
 -2      2926      2753      3555      2975
 -1      7194    3    0    1
 -2      1459      3547      3599      3658
 -1      7195    3    0    1
 -2      1488      1885      1487      3405
 -1      7196    3    0    1
 -2      1715      3010      3018      3130
 -1      7197    3    0    1
 -2      1630      1462      1631      2799
 -1      7198    3    0    1
 -2      2735      2713      2843      2926
 -1      7199    3    0    1
 -2      1572      1562      2798      3066
 -1      7200    3    0    1
 -2      1517      1516      1627      3072
 -1      7201    3    0    1
 -2      1280      2632      2733      2899
 -1      7202    3    0    1
 -2       519      1232      2665      2774
 -1      7203    3    0    1
 -2      2601      2356      2689      3578
 -1      7204    3    0    1
 -2      1500      3025      1770      1771
 -1      7205    3    0    1
 -2       185       171      3613      3658
 -1      7206    3    0    1
 -2       575      1284       568      2796
 -1      7207    3    0    1
 -2      2957      2572      3569      3065
 -1      7208    3    0    1
 -2      3567      2542      3584      3674
 -1      7209    3    0    1
 -2       333      3526      1750      1751
 -1      7210    3    0    1
 -2      2249       955      2356      3578
 -1      7211    3    0    1
 -2      2356       400      3541      3578
 -1      7212    3    0    1
 -2      3566      2844      3581      3713
 -1      7213    3    0    1
 -2      1500      1501      3025      1771
 -1      7214    3    0    1
 -2      3030      3363      3402      3732
 -1      7215    3    0    1
 -2      3055      3622      3256      3301
 -1      7216    3    0    1
 -2       637      1537      1538      3022
 -1      7217    3    0    1
 -2       399       398      3541      3578
 -1      7218    3    0    1
 -2      2723      2934      2952      3022
 -1      7219    3    0    1
 -2      3236      3081      3670      3714
 -1      7220    3    0    1
 -2      3562      1618      1782      3246
 -1      7221    3    0    1
 -2      2815      1442      2854      3590
 -1      7222    3    0    1
 -2      3641      3265      3654      3458
 -1      7223    3    0    1
 -2       718       722      1020      1751
 -1      7224    3    0    1
 -2      1523      1452      3574      3631
 -1      7225    3    0    1
 -2      1020      1030      2442      3526
 -1      7226    3    0    1
 -2      2716      2518      3589      3707
 -1      7227    3    0    1
 -2      1698      2908      3191      3294
 -1      7228    3    0    1
 -2      1592      1692      3062      3659
 -1      7229    3    0    1
 -2      2705      3260      3642      3717
 -1      7230    3    0    1
 -2      2908      2872      3565      3294
 -1      7231    3    0    1
 -2      1463      1462      1670      3159
 -1      7232    3    0    1
 -2      1638       449      1639      3180
 -1      7233    3    0    1
 -2      2668      2788      2984      3349
 -1      7234    3    0    1
 -2      1462      1669      3159      3294
 -1      7235    3    0    1
 -2      2554      2974      3565      3294
 -1      7236    3    0    1
 -2      3398      3097      3703      3708
 -1      7237    3    0    1
 -2       619       630      3024      3285
 -1      7238    3    0    1
 -2      2407      2501      3463      3731
 -1      7239    3    0    1
 -2      2748      2528      3667      3675
 -1      7240    3    0    1
 -2      1652      1653      3235      1937
 -1      7241    3    0    1
 -2      1068      1336      2623      2781
 -1      7242    3    0    1
 -2      3584      2654      3655      3674
 -1      7243    3    0    1
 -2       619       630      3298      3316
 -1      7244    3    0    1
 -2      2623      2781      3047      3317
 -1      7245    3    0    1
 -2      3074      3507      1890      3713
 -1      7246    3    0    1
 -2       119       961      2859      3628
 -1      7247    3    0    1
 -2      1569      3512      3513      3628
 -1      7248    3    0    1
 -2      1424      1569      3513      3628
 -1      7249    3    0    1
 -2      3511      1424      3513      3628
 -1      7250    3    0    1
 -2        94      1284      3575      1786
 -1      7251    3    0    1
 -2      1621      1622      2950      3028
 -1      7252    3    0    1
 -2      1416      2816      1864      1865
 -1      7253    3    0    1
 -2      2751      2769      1714      3572
 -1      7254    3    0    1
 -2      1756       754      3572      3241
 -1      7255    3    0    1
 -2       736      1621      2950      3080
 -1      7256    3    0    1
 -2       433       119      1607      3583
 -1      7257    3    0    1
 -2       185       171      1544      3085
 -1      7258    3    0    1
 -2       330      1312      2690      3725
 -1      7259    3    0    1
 -2      2854      1727      1728      3164
 -1      7260    3    0    1
 -2      3003      2802      3568      3591
 -1      7261    3    0    1
 -2      3586      3574      3631      3343
 -1      7262    3    0    1
 -2      1498      1497      3371      3376
 -1      7263    3    0    1
 -2      2823      1649      3657      3382
 -1      7264    3    0    1
 -2      2906      2827      3052      3595
 -1      7265    3    0    1
 -2      1808      1598      1809      3283
 -1      7266    3    0    1
 -2      1598      1599      1809      3283
 -1      7267    3    0    1
 -2      2726      2951      3570      3290
 -1      7268    3    0    1
 -2      1433      1432      2739      3007
 -1      7269    3    0    1
 -2      2657      1332      3604      1060
 -1      7270    3    0    1
 -2       433       119      3626      1860
 -1      7271    3    0    1
 -2      2675      1672      1673      2858
 -1      7272    3    0    1
 -2      1672       583      1673      2858
 -1      7273    3    0    1
 -2      2441      2194      3505      3500
 -1      7274    3    0    1
 -2      1549      2899      3654      3341
 -1      7275    3    0    1
 -2      2680      1585      1587      2789
 -1      7276    3    0    1
 -2      2928      2583      3271      3344
 -1      7277    3    0    1
 -2      2884      1549      2976      3592
 -1      7278    3    0    1
 -2      3124      2687      3607      3614
 -1      7279    3    0    1
 -2      2967      1768      1769      1788
 -1      7280    3    0    1
 -2      3552      1696      3648      1413
 -1      7281    3    0    1
 -2      3096      3296      3640      3333
 -1      7282    3    0    1
 -2      2141       999      2497      3550
 -1      7283    3    0    1
 -2      2775      2683      2903      3438
 -1      7284    3    0    1
 -2      1685      1479      1686      2956
 -1      7285    3    0    1
 -2       648      2775      2952      3022
 -1      7286    3    0    1
 -2      2924       558      2954      3646
 -1      7287    3    0    1
 -2      1304       162      2141      3550
 -1      7288    3    0    1
 -2      2834      1619      1768      1769
 -1      7289    3    0    1
 -2      2937      1592      3000      3585
 -1      7290    3    0    1
 -2      1577      1576      2970      3155
 -1      7291    3    0    1
 -2      1607       433      3583      3284
 -1      7292    3    0    1
 -2      3608      3664      3473      3496
 -1      7293    3    0    1
 -2      2478      1032      2618      3694
 -1      7294    3    0    1
 -2      2745      3000      3071      3585
 -1      7295    3    0    1
 -2      2890      1598      1744      3585
 -1      7296    3    0    1
 -2      1803      1804      3144      3238
 -1      7297    3    0    1
 -2      1441      1440      1577      3155
 -1      7298    3    0    1
 -2      1287      2749      3555      3041
 -1      7299    3    0    1
 -2      1833      1682      1834      3301
 -1      7300    3    0    1
 -2      3304      1559      1899      1900
 -1      7301    3    0    1
 -2      1508      1419      3507      3074
 -1      7302    3    0    1
 -2       736       727      2933      2950
 -1      7303    3    0    1
 -2      1559      3285      1899      1900
 -1      7304    3    0    1
 -2       346      1576      1577      2860
 -1      7305    3    0    1
 -2      2749      2569      3527      2806
 -1      7306    3    0    1
 -2      3605       346      1889      3706
 -1      7307    3    0    1
 -2      1645      2960      3057      3161
 -1      7308    3    0    1
 -2      3514      1413      3548      3552
 -1      7309    3    0    1
 -2       398        93      3541      3578
 -1      7310    3    0    1
 -2       242      2369      2504      3529
 -1      7311    3    0    1
 -2      2255      2601      2689      3578
 -1      7312    3    0    1
 -2      2714      1509      2822      2859
 -1      7313    3    0    1
 -2      2496      2492      2527      3527
 -1      7314    3    0    1
 -2      2527      2492      2704      3527
 -1      7315    3    0    1
 -2      2583      2492      2754      3527
 -1      7316    3    0    1
 -2      3559      2745      3000      3667
 -1      7317    3    0    1
 -2      1581      2863      3132      3607
 -1      7318    3    0    1
 -2      2951      2723      2952      3570
 -1      7319    3    0    1
 -2      2527      2704      2767      3527
 -1      7320    3    0    1
 -2      1462      3092      3612      3383
 -1      7321    3    0    1
 -2      2692       736      2880      3177
 -1      7322    3    0    1
 -2      3562      3503      3615      3665
 -1      7323    3    0    1
 -2      2569      2512      2749      3527
 -1      7324    3    0    1
 -2      1623      1624      2901      3058
 -1      7325    3    0    1
 -2      1553        24      3308      3367
 -1      7326    3    0    1
 -2      2653      2740      3568      3445
 -1      7327    3    0    1
 -2      2792      2776      3535      3182
 -1      7328    3    0    1
 -2      3523      3617      3681      3731
 -1      7329    3    0    1
 -2      2590      2549      3620      3671
 -1      7330    3    0    1
 -2      3238      3701      1925      1928
 -1      7331    3    0    1
 -2       952      1284       575      2796
 -1      7332    3    0    1
 -2      3546      2610      3204      3303
 -1      7333    3    0    1
 -2      2746      1418      1690      3140
 -1      7334    3    0    1
 -2      1280       550      2314      2965
 -1      7335    3    0    1
 -2      2566      2703      2828      3553
 -1      7336    3    0    1
 -2      1725      1512      3324      3652
 -1      7337    3    0    1
 -2       952      2562      2656      2796
 -1      7338    3    0    1
 -2       952       575      2562      2796
 -1      7339    3    0    1
 -2       799      3153      1881      1882
 -1      7340    3    0    1
 -2      1483      1484      1631      3383
 -1      7341    3    0    1
 -2      2817      2818      3543      2991
 -1      7342    3    0    1
 -2      1284       952      3514      3575
 -1      7343    3    0    1
 -2      2590      3448      3451      3737
 -1      7344    3    0    1
 -2      2734      2651      3523      3534
 -1      7345    3    0    1
 -2      2711      1635      3001      3069
 -1      7346    3    0    1
 -2      1562       150      1572      2798
 -1      7347    3    0    1
 -2      2551      2572      1551      3065
 -1      7348    3    0    1
 -2       415       414      3729      1962
 -1      7349    3    0    1
 -2      3515      1456      3556      3114
 -1      7350    3    0    1
 -2      2735       594      2926      1719
 -1      7351    3    0    1
 -2       727      1526      1527      2875
 -1      7352    3    0    1
 -2      1549       353      2976      3592
 -1      7353    3    0    1
 -2      2633      2769      3572      3612
 -1      7354    3    0    1
 -2       347      1332      3604      1841
 -1      7355    3    0    1
 -2      1802      3003      3349      1948
 -1      7356    3    0    1
 -2      2694      2826      3585      3446
 -1      7357    3    0    1
 -2      2522      3511      3638      3662
 -1      7358    3    0    1
 -2      1746      1763      1764      3152
 -1      7359    3    0    1
 -2      3554       185      1765      3613
 -1      7360    3    0    1
 -2      3044      1612      3083      3590
 -1      7361    3    0    1
 -2      3533      2630      3064      3102
 -1      7362    3    0    1
 -2       345       344      3530      1807
 -1      7363    3    0    1
 -2      2768      2640      3542      3580
 -1      7364    3    0    1
 -2       792      2531      2660      2801
 -1      7365    3    0    1
 -2      1447      3522      3370      3711
 -1      7366    3    0    1
 -2       345       344      3529      3530
 -1      7367    3    0    1
 -2      2483      2175      2504      3529
 -1      7368    3    0    1
 -2      2369      2603      2661      3530
 -1      7369    3    0    1
 -2      2685      1414      3083      3367
 -1      7370    3    0    1
 -2      1423      1651      3538      2929
 -1      7371    3    0    1
 -2      3573      2931      3608      3225
 -1      7372    3    0    1
 -2      3310      3198      2897      1817
 -1      7373    3    0    1
 -2      1454      2827      1716      3052
 -1      7374    3    0    1
 -2      2703      3553      3013      3590
 -1      7375    3    0    1
 -2      2905      2728      3564      3145
 -1      7376    3    0    1
 -2       612       601      3141      3366
 -1      7377    3    0    1
 -2      1729       206      3140      1887
 -1      7378    3    0    1
 -2      2668      2953      3003      3591
 -1      7379    3    0    1
 -2      1620      1619      2967      3037
 -1      7380    3    0    1
 -2      2936      3260      1939      1940
 -1      7381    3    0    1
 -2      1836      3146      1838      3249
 -1      7382    3    0    1
 -2      1141       900      2861      3018
 -1      7383    3    0    1
 -2      3266      1885      1488      3364
 -1      7384    3    0    1
 -2      2658      1614      2839      3259
 -1      7385    3    0    1
 -2      3135      3158      3308      3367
 -1      7386    3    0    1
 -2       756       766      2367      3724
 -1      7387    3    0    1
 -2       408      3255      1813      1785
 -1      7388    3    0    1
 -2      2679      1238      2691      2997
 -1      7389    3    0    1
 -2      2634      2670      2842      3570
 -1      7390    3    0    1
 -2      2603      2483      2661      3530
 -1      7391    3    0    1
 -2      2369      2377      2603      3530
 -1      7392    3    0    1
 -2      3031      3597      3668      3702
 -1      7393    3    0    1
 -2      2489      2712      3569      3652
 -1      7394    3    0    1
 -2      2562      2656      3535      2969
 -1      7395    3    0    1
 -2      2988       799      1881      1882
 -1      7396    3    0    1
 -2      1327      3605      3635      3661
 -1      7397    3    0    1
 -2      2630      2640      3533      3569
 -1      7398    3    0    1
 -2       666      3136      3254      3364
 -1      7399    3    0    1
 -2      2801      3551      1754      3635
 -1      7400    3    0    1
 -2      2586      2520      2777      3574
 -1      7401    3    0    1
 -2       188       189       695      1943
 -1      7402    3    0    1
 -2      1294       977      2205      3538
 -1      7403    3    0    1
 -2       157       156      3518      3540
 -1      7404    3    0    1
 -2      1536      1419      3507      3630
 -1      7405    3    0    1
 -2       519      2774      2794      2878
 -1      7406    3    0    1
 -2      2835      3567      3176      3372
 -1      7407    3    0    1
 -2      1747      1746      1764      3152
 -1      7408    3    0    1
 -2      2522      3514      3548      3552
 -1      7409    3    0    1
 -2      1503      1502      2886      1795
 -1      7410    3    0    1
 -2      2825       340      1604      1603
 -1      7411    3    0    1
 -2      1526      2692       727       736
 -1      7412    3    0    1
 -2      2666      1658      1659      1660
 -1      7413    3    0    1
 -2      3131      1896      3374      3434
 -1      7414    3    0    1
 -2      2247      2520      2586      3601
 -1      7415    3    0    1
 -2       601       612      2909      3366
 -1      7416    3    0    1
 -2      2921      1706      1939      1940
 -1      7417    3    0    1
 -2      3531      2725      3080      3596
 -1      7418    3    0    1
 -2      2356       400      2591      3541
 -1      7419    3    0    1
 -2       400      1283      2591      3541
 -1      7420    3    0    1
 -2      3596      2747      2787      3647
 -1      7421    3    0    1
 -2      1605      2677      2915      3130
 -1      7422    3    0    1
 -2       655      1761      1762      3254
 -1      7423    3    0    1
 -2      2826      3559      2916      2528
 -1      7424    3    0    1
 -2      1313      1018      2388      3644
 -1      7425    3    0    1
 -2       285       828       825      1677
 -1      7426    3    0    1
 -2       559       352       551      1676
 -1      7427    3    0    1
 -2       285       825      1070      1677
 -1      7428    3    0    1
 -2      2819      2185      3243      3715
 -1      7429    3    0    1
 -2      1651      3539      1814      3134
 -1      7430    3    0    1
 -2        59      1883      1884      1904
 -1      7431    3    0    1
 -2       709       720      1738      3060
 -1      7432    3    0    1
 -2      1474      2898      3017      3302
 -1      7433    3    0    1
 -2      1305       676      2510      2910
 -1      7434    3    0    1
 -2      2640      2630      3542      3569
 -1      7435    3    0    1
 -2      1798      3166      3186      3659
 -1      7436    3    0    1
 -2      3214      3265      3641      3458
 -1      7437    3    0    1
 -2        27        28      1774      3160
 -1      7438    3    0    1
 -2      2602      2706      2809      3531
 -1      7439    3    0    1
 -2      2706      2602      2761      3531
 -1      7440    3    0    1
 -2      1730      2968      3297      3668
 -1      7441    3    0    1
 -2      1703      3547      3603      3352
 -1      7442    3    0    1
 -2      1746      3005      1761      3139
 -1      7443    3    0    1
 -2       799       808      3153      3239
 -1      7444    3    0    1
 -2      2134      2734      3523      3731
 -1      7445    3    0    1
 -2      1553      3158      3194      3367
 -1      7446    3    0    1
 -2       630       619      1748      3316
 -1      7447    3    0    1
 -2      1491      1685      1686      3001
 -1      7448    3    0    1
 -2      2492      2754      3527      3014
 -1      7449    3    0    1
 -2      2557      1487      3417      3483
 -1      7450    3    0    1
 -2      1002       185      1309      3613
 -1      7451    3    0    1
 -2      1248      2634      2670      2817
 -1      7452    3    0    1
 -2      1562      1500      2939      3066
 -1      7453    3    0    1
 -2       341       991      2312      3540
 -1      7454    3    0    1
 -2      3203       264      1841      1842
 -1      7455    3    0    1
 -2      1534      2911      3302      3643
 -1      7456    3    0    1
 -2      1254      2559      2670      2817
 -1      7457    3    0    1
 -2       257      1054      3697      1956
 -1      7458    3    0    1
 -2      3597      1519      3314      3408
 -1      7459    3    0    1
 -2      1336      2623      2781      2912
 -1      7460    3    0    1
 -2      1535      1534      2659      3146
 -1      7461    3    0    1
 -2      2773      1440      1743      3567
 -1      7462    3    0    1
 -2       346       434      1889      3706
 -1      7463    3    0    1
 -2      2642      1712      3561      3272
 -1      7464    3    0    1
 -2      2562      2656      2796      3535
 -1      7465    3    0    1
 -2      3587      3683      3715      3468
 -1      7466    3    0    1
 -2      3683      3587      3720      3468
 -1      7467    3    0    1
 -2      2640      2630      3533      3102
 -1      7468    3    0    1
 -2       416      2026      2429      3704
 -1      7469    3    0    1
 -2       340      2825      1604      1680
 -1      7470    3    0    1
 -2      1336      1632      3627      1890
 -1      7471    3    0    1
 -2      1679      1678      2870      1895
 -1      7472    3    0    1
 -2      2685      3083      3590      3367
 -1      7473    3    0    1
 -2      3402      3363      3687      3700
 -1      7474    3    0    1
 -2        47      1854      1855      1934
 -1      7475    3    0    1
 -2      1502      1503      2843      1720
 -1      7476    3    0    1
 -2      1470      1469      2953      3036
 -1      7477    3    0    1
 -2      1465      1464      1593      3150
 -1      7478    3    0    1
 -2      2631      1555      3036      3591
 -1      7479    3    0    1
 -2      3025      1500      1770      3108
 -1      7480    3    0    1
 -2      1316       201      2214      3045
 -1      7481    3    0    1
 -2      1623      2901      1756      3674
 -1      7482    3    0    1
 -2      1442      1443      2854      1728
 -1      7483    3    0    1
 -2      2714      1509      2715      2822
 -1      7484    3    0    1
 -2      1509      1510      2715      2822
 -1      7485    3    0    1
 -2      1485      2551      1551      3065
 -1      7486    3    0    1
 -2      1489       558      2627      3646
 -1      7487    3    0    1
 -2      1237      1238      2544      3533
 -1      7488    3    0    1
 -2      3265      2672      3641      3654
 -1      7489    3    0    1
 -2       119      1668      3626      1860
 -1      7490    3    0    1
 -2      2872      2674      3565      3126
 -1      7491    3    0    1
 -2      2818      3543      2991      3249
 -1      7492    3    0    1
 -2      3145       702      3186      3659
 -1      7493    3    0    1
 -2      1756      2891      1757      3046
 -1      7494    3    0    1
 -2      3509      1651      3538      1423
 -1      7495    3    0    1
 -2      2822      1426      2886      3123
 -1      7496    3    0    1
 -2      2891       745      1756      1757
 -1      7497    3    0    1
 -2      1670      1669      3242      1871
 -1      7498    3    0    1
 -2      3210      1828      1883      1884
 -1      7499    3    0    1
 -2      2506      2756      2771      3533
 -1      7500    3    0    1
 -2      2544      1238      2691      3533
 -1      7501    3    0    1
 -2      1238      1237      2679      3533
 -1      7502    3    0    1
 -2      3558      2710      3149      3312
 -1      7503    3    0    1
 -2      2755      1500      1770      1771
 -1      7504    3    0    1
 -2      2765      2691      2795      3533
 -1      7505    3    0    1
 -2      2573      2691      2765      3533
 -1      7506    3    0    1
 -2      2551      1485      2795      3065
 -1      7507    3    0    1
 -2      3537      2671      3052      3595
 -1      7508    3    0    1
 -2      2573      2544      2691      3533
 -1      7509    3    0    1
 -2      2506      2551      2756      3533
 -1      7510    3    0    1
 -2      1237      2544      2630      3533
 -1      7511    3    0    1
 -2      3358      2580      3362      3678
 -1      7512    3    0    1
 -2      2551      3533      3569      3065
 -1      7513    3    0    1
 -2        27      1701      1702      3160
 -1      7514    3    0    1
 -2      1417      1416      1550      3019
 -1      7515    3    0    1
 -2      2784      2700      3282      3682
 -1      7516    3    0    1
 -2      1547      2845      1818      1819
 -1      7517    3    0    1
 -2      2608       979      3729      1962
 -1      7518    3    0    1
 -2      2162      2584      2651      3534
 -1      7519    3    0    1
 -2      1484      1483      1631      2874
 -1      7520    3    0    1
 -2       416       982      2026      3704
 -1      7521    3    0    1
 -2      2162      2651      2734      3534
 -1      7522    3    0    1
 -2      1727      2854      3590      3164
 -1      7523    3    0    1
 -2       772       763      2836      1783
 -1      7524    3    0    1
 -2      3001      1491      3048      3069
 -1      7525    3    0    1
 -2       745       754      2891      1756
 -1      7526    3    0    1
 -2      1159      2566      2703      2828
 -1      7527    3    0    1
 -2      1159       468      2566      2828
 -1      7528    3    0    1
 -2       469      1157      2655      2828
 -1      7529    3    0    1
 -2      1474      1475      1486      3049
 -1      7530    3    0    1
 -2       437       340      1712      3272
 -1      7531    3    0    1
 -2      2755      2629      3589      3369
 -1      7532    3    0    1
 -2      1432      1528      1529      3263
 -1      7533    3    0    1
 -2       171      1544      1545      3360
 -1      7534    3    0    1
 -2       828       285       356      1677
 -1      7535    3    0    1
 -2       722       201       334      1751
 -1      7536    3    0    1
 -2      2522      2061      2547      3552
 -1      7537    3    0    1
 -2      1536      1419      3546      3311
 -1      7538    3    0    1
 -2       924      3558      3149      3475
 -1      7539    3    0    1
 -2      1495      1496      2907      3028
 -1      7540    3    0    1
 -2      2911      1836      3248      3643
 -1      7541    3    0    1
 -2      1192      2802      2984      1802
 -1      7542    3    0    1
 -2      1506      1507      2840      1777
 -1      7543    3    0    1
 -2      1672      1539      1673      3014
 -1      7544    3    0    1
 -2      3504      2218      2752      3574
 -1      7545    3    0    1
 -2      2845      1818      1819      3207
 -1      7546    3    0    1
 -2      1526      2698      2779      2832
 -1      7547    3    0    1
 -2      1591      1526      2779      2832
 -1      7548    3    0    1
 -2      1873      1789      1874      3471
 -1      7549    3    0    1
 -2      1648      1562      2798       150
 -1      7550    3    0    1
 -2      2563      2931      3225      3500
 -1      7551    3    0    1
 -2      1562      1563      1648      3016
 -1      7552    3    0    1
 -2       226      1634      3179      1905
 -1      7553    3    0    1
 -2      3299      2611      3668      3671
 -1      7554    3    0    1
 -2      2812      2565      3553      3590
 -1      7555    3    0    1
 -2      1851      3395      3397      3415
 -1      7556    3    0    1
 -2      2677      3010      3292      3300
 -1      7557    3    0    1
 -2      2568      3568      3050      3445
 -1      7558    3    0    1
 -2      2907      1496      1759      3653
 -1      7559    3    0    1
 -2      1565      1564      2921      3051
 -1      7560    3    0    1
 -2      2984      2668      3003      3568
 -1      7561    3    0    1
 -2      2741      3558      3012      3149
 -1      7562    3    0    1
 -2      1443      1442      2928      3267
 -1      7563    3    0    1
 -2      2628      1413      2646      3625
 -1      7564    3    0    1
 -2      3050      1428      1803      1804
 -1      7565    3    0    1
 -2      1789      1790      1874      3471
 -1      7566    3    0    1
 -2      1508      1892      3712      3491
 -1      7567    3    0    1
 -2      2827      1454      2906      3052
 -1      7568    3    0    1
 -2      3553      2862      3194      3367
 -1      7569    3    0    1
 -2      1428      3162      3328      3701
 -1      7570    3    0    1
 -2      3558      2710      2964      3119
 -1      7571    3    0    1
 -2      1471      1655      1656      3107
 -1      7572    3    0    1
 -2      1316      2471      2616      3582
 -1      7573    3    0    1
 -2      3137      1438      3355      3374
 -1      7574    3    0    1
 -2      2823      1460      2824      3657
 -1      7575    3    0    1
 -2      2826      2937      3585      3150
 -1      7576    3    0    1
 -2      1576       346      1577      2970
 -1      7577    3    0    1
 -2      2835      3655      3372      3682
 -1      7578    3    0    1
 -2       346      1576      3551      2970
 -1      7579    3    0    1
 -2      2776      1449      1662      3182
 -1      7580    3    0    1
 -2      2648      1568      1658      3575
 -1      7581    3    0    1
 -2      2648      1532      2792      3535
 -1      7582    3    0    1
 -2      2574      3516      3204      3709
 -1      7583    3    0    1
 -2      2750      1494      1763      3193
 -1      7584    3    0    1
 -2      1532      2648      1658      3535
 -1      7585    3    0    1
 -2      3549      1290      3618      3626
 -1      7586    3    0    1
 -2      3525      3517      3101      3626
 -1      7587    3    0    1
 -2      2564      2499      2596      3535
 -1      7588    3    0    1
 -2      2596      2499      2647      3535
 -1      7589    3    0    1
 -2      1664      2967      1788      3349
 -1      7590    3    0    1
 -2      1721       565      1722      3063
 -1      7591    3    0    1
 -2      2499      2646      2776      3535
 -1      7592    3    0    1
 -2       151      3538      1835      3672
 -1      7593    3    0    1
 -2      2647      2499      2776      3535
 -1      7594    3    0    1
 -2      1444      2629      2680      3589
 -1      7595    3    0    1
 -2      2776      2646      2792      3535
 -1      7596    3    0    1
 -2      2729      3531      3537      3595
 -1      7597    3    0    1
 -2      1597      1596      3157      1884
 -1      7598    3    0    1
 -2      2523      2489      3569      3580
 -1      7599    3    0    1
 -2      1808        15      3130      1869
 -1      7600    3    0    1
 -2      2646      2648      2792      3535
 -1      7601    3    0    1
 -2      2927      2931      3225      2288
 -1      7602    3    0    1
 -2       952      2656      1658      3535
 -1      7603    3    0    1
 -2      3232      1772      1887      1888
 -1      7604    3    0    1
 -2      2912      3171      3627      3278
 -1      7605    3    0    1
 -2      3552      1413      3662      3735
 -1      7606    3    0    1
 -2      2900      2695      2992      3659
 -1      7607    3    0    1
 -2       156       163      3518      3540
 -1      7608    3    0    1
 -2       341      2488      3518      3540
 -1      7609    3    0    1
 -2      1480      1479      2856      1863
 -1      7610    3    0    1
 -2      1435      1634      3532      3587
 -1      7611    3    0    1
 -2        14      1578      3061      3190
 -1      7612    3    0    1
 -2      1578        14      1579      3190
 -1      7613    3    0    1
 -2       944      3588      3592      3721
 -1      7614    3    0    1
 -2       285      1070      2525      1677
 -1      7615    3    0    1
 -2      1516      1627      1628      3133
 -1      7616    3    0    1
 -2      2862      2828      1877      3367
 -1      7617    3    0    1
 -2      1481      3181      1936      1937
 -1      7618    3    0    1
 -2      2342      1320      3532      3665
 -1      7619    3    0    1
 -2      3071      1468      3143      3200
 -1      7620    3    0    1
 -2      2806      3527      2877      3325
 -1      7621    3    0    1
 -2      1305      1002      3536      3597
 -1      7622    3    0    1
 -2      1655      2699      1656      3196
 -1      7623    3    0    1
 -2      1454      1455      2827      2906
 -1      7624    3    0    1
 -2      1783       763      1784      3176
 -1      7625    3    0    1
 -2      2948       709      1738      1739
 -1      7626    3    0    1
 -2      1522      1521      1538      2957
 -1      7627    3    0    1
 -2      3041      2550      3606      3555
 -1      7628    3    0    1
 -2      1501      1500      2755      1771
 -1      7629    3    0    1
 -2       691       702      1692      2986
 -1      7630    3    0    1
 -2      3533      2771      2888      3025
 -1      7631    3    0    1
 -2      2820      3570      3079      3193
 -1      7632    3    0    1
 -2       683      1002      2243      3536
 -1      7633    3    0    1
 -2       676       683      2243      3536
 -1      7634    3    0    1
 -2       683       676      1002      3536
 -1      7635    3    0    1
 -2      1002      1309      2243      3536
 -1      7636    3    0    1
 -2      2999       558      3187      3195
 -1      7637    3    0    1
 -2      1706       329      3644      3489
 -1      7638    3    0    1
 -2      3615      3562      3665      3676
 -1      7639    3    0    1
 -2      1596      1759      1760      3157
 -1      7640    3    0    1
 -2      2630      1237      3533      3066
 -1      7641    3    0    1
 -2      1504      2716      3589      3707
 -1      7642    3    0    1
 -2      2243      2292      2673      3536
 -1      7643    3    0    1
 -2      2406      2243      2673      3536
 -1      7644    3    0    1
 -2        27      1701      3154      3309
 -1      7645    3    0    1
 -2      3522      2777      3574      3201
 -1      7646    3    0    1
 -2      2162      2584      3579      3611
 -1      7647    3    0    1
 -2      1543      1829      3616      3303
 -1      7648    3    0    1
 -2      1548      1547      2845      1818
 -1      7649    3    0    1
 -2       169      1821      1822      1832
 -1      7650    3    0    1
 -2      2588      2729      3531      3537
 -1      7651    3    0    1
 -2      2805       576      1721      3089
 -1      7652    3    0    1
 -2        15      1808      1816      3200
 -1      7653    3    0    1
 -2      1495      2907      1759      1760
 -1      7654    3    0    1
 -2      3296      1573      3640      3333
 -1      7655    3    0    1
 -2      2897      1418      3198      3653
 -1      7656    3    0    1
 -2      1642      3522      3634      3586
 -1      7657    3    0    1
 -2      1531      2911      3248      3643
 -1      7658    3    0    1
 -2       745      1713      1714      3241
 -1      7659    3    0    1
 -2      1252      1250      2588      2897
 -1      7660    3    0    1
 -2      2588      1250      2725      2897
 -1      7661    3    0    1
 -2      1502      2843      2886      3123
 -1      7662    3    0    1
 -2      1590      1526      1591      2944
 -1      7663    3    0    1
 -2      1540      1539      2675      1672
 -1      7664    3    0    1
 -2      2807      1426      3359      3020
 -1      7665    3    0    1
 -2      1489      2592      2624      3226
 -1      7666    3    0    1
 -2      1519      3379      3470      3722
 -1      7667    3    0    1
 -2      1563      1562      2789      3008
 -1      7668    3    0    1
 -2      2491      2574      3546      3204
 -1      7669    3    0    1
 -2      1816      1609      3200      3283
 -1      7670    3    0    1
 -2      2228      2491      3546      3204
 -1      7671    3    0    1
 -2      1332      1060      3507      3604
 -1      7672    3    0    1
 -2      2854      1442      1727      3590
 -1      7673    3    0    1
 -2      3641      3230      3646      3703
 -1      7674    3    0    1
 -2      1432      1528      2857      3007
 -1      7675    3    0    1
 -2      2706      2535      3537      3595
 -1      7676    3    0    1
 -2      2783      1541      2993      3162
 -1      7677    3    0    1
 -2      3642      2705      3717      3722
 -1      7678    3    0    1
 -2      1864      1416      1865      3459
 -1      7679    3    0    1
 -2       709       720      2948      1738
 -1      7680    3    0    1
 -2      3346      1792      1925      1926
 -1      7681    3    0    1
 -2      2943      1687      3104      3353
 -1      7682    3    0    1
 -2       165       162      3524      1723
 -1      7683    3    0    1
 -2      3461      3422      1964      3737
 -1      7684    3    0    1
 -2      1548      1547      1818      3268
 -1      7685    3    0    1
 -2      1564      3260      1939      3457
 -1      7686    3    0    1
 -2      3547      3603      3352      3681
 -1      7687    3    0    1
 -2      1718      1766      1767      3336
 -1      7688    3    0    1
 -2      2288      2502      2570      3638
 -1      7689    3    0    1
 -2      3553      2812      3158      3194
 -1      7690    3    0    1
 -2      3256      1833      3301      3440
 -1      7691    3    0    1
 -2      1765       185      3085      1830
 -1      7692    3    0    1
 -2      2506      3533      2888      3619
 -1      7693    3    0    1
 -2       612       601      2864      3212
 -1      7694    3    0    1
 -2      1596      1597      1760      3211
 -1      7695    3    0    1
 -2      2892      2527      3089      3606
 -1      7696    3    0    1
 -2      2805      2892      3089      3606
 -1      7697    3    0    1
 -2      2749      3555      2940      3606
 -1      7698    3    0    1
 -2      1436       119      2715      3628
 -1      7699    3    0    1
 -2       558      2999      3180      3195
 -1      7700    3    0    1
 -2      1493      1494      2750      3042
 -1      7701    3    0    1
 -2      3527      2749      2806      3606
 -1      7702    3    0    1
 -2      3575      1594      3073      1786
 -1      7703    3    0    1
 -2      1638       558      3180      3195
 -1      7704    3    0    1
 -2      1532      3512      3555      3041
 -1      7705    3    0    1
 -2      1651      3509      3539      3134
 -1      7706    3    0    1
 -2       345      1049      3529      3121
 -1      7707    3    0    1
 -2       612      1588      3212      3607
 -1      7708    3    0    1
 -2      1426      1427      2822      2886
 -1      7709    3    0    1
 -2      1517      1516      2804      3133
 -1      7710    3    0    1
 -2      3504      1452      3574      3464
 -1      7711    3    0    1
 -2      2666      1532      3555      3041
 -1      7712    3    0    1
 -2      2635      2621      2709      3609
 -1      7713    3    0    1
 -2      3005      1761      3139      3598
 -1      7714    3    0    1
 -2      3527      2806      3089      3606
 -1      7715    3    0    1
 -2      1490      1489      1584      2867
 -1      7716    3    0    1
 -2      1489      1490      2624      2867
 -1      7717    3    0    1
 -2      1489      1583      1584      2867
 -1      7718    3    0    1
 -2      1583      1489      1584      2868
 -1      7719    3    0    1
 -2      2593      1583      1584      2868
 -1      7720    3    0    1
 -2       226       435      1679      2869
 -1      7721    3    0    1
 -2      3502      2365      3399      3725
 -1      7722    3    0    1
 -2      1789      1790      3277      3348
 -1      7723    3    0    1
 -2      2747      3287      3647      3488
 -1      7724    3    0    1
 -2      1679      1678      2869      2870
 -1      7725    3    0    1
 -2      3559      2826      2916      3585
 -1      7726    3    0    1
 -2      2773      2662      3567      3216
 -1      7727    3    0    1
 -2      3034      2750      1763      3193
 -1      7728    3    0    1
 -2      1647      1646      3176      3216
 -1      7729    3    0    1
 -2      1743      2773      3567      3216
 -1      7730    3    0    1
 -2      2726      2820      3561      3570
 -1      7731    3    0    1
 -2        27        28      1702      3309
 -1      7732    3    0    1
 -2      3509      1423      3538      3672
 -1      7733    3    0    1
 -2      1499      2674      2908      3127
 -1      7734    3    0    1
 -2       335       438      1782      3196
 -1      7735    3    0    1
 -2      2540      2588      3531      3537
 -1      7736    3    0    1
 -2      2524      2681      2770      2873
 -1      7737    3    0    1
 -2      2681      2524      2721      2873
 -1      7738    3    0    1
 -2      3505      3610      3679      3437
 -1      7739    3    0    1
 -2      3555      2749      2940      3041
 -1      7740    3    0    1
 -2      2828      3553      3590      3367
 -1      7741    3    0    1
 -2      2779      2724      2832      3537
 -1      7742    3    0    1
 -2      2813      2642      3570      3290
 -1      7743    3    0    1
 -2      1647      1646      1742      3291
 -1      7744    3    0    1
 -2      2706      2698      3531      3537
 -1      7745    3    0    1
 -2      2540      1317      2588      3537
 -1      7746    3    0    1
 -2      2932      2813      3273      3290
 -1      7747    3    0    1
 -2      3073      1786      1787      1840
 -1      7748    3    0    1
 -2        44       217      1871      1903
 -1      7749    3    0    1
 -2      1630      1462      3565      3294
 -1      7750    3    0    1
 -2      3140      1652      3235      3305
 -1      7751    3    0    1
 -2      1231       518      2794      2878
 -1      7752    3    0    1
 -2      2522      2547      3514      3552
 -1      7753    3    0    1
 -2      2785      2815      2854      3590
 -1      7754    3    0    1
 -2       519       932      2774      2878
 -1      7755    3    0    1
 -2      1616      1454      1617      3228
 -1      7756    3    0    1
 -2      1463      1462      3092      3275
 -1      7757    3    0    1
 -2      3565      2872      3126      3221
 -1      7758    3    0    1
 -2      2753      3527      2960      3327
 -1      7759    3    0    1
 -2      1792      3238      1925      1926
 -1      7760    3    0    1
 -2      1534      1535      2911      1837
 -1      7761    3    0    1
 -2      1873      3348      3356      3458
 -1      7762    3    0    1
 -2      2569      2637      3527      2960
 -1      7763    3    0    1
 -2      1301       340      1603      3272
 -1      7764    3    0    1
 -2      1742      1646      1743      3291
 -1      7765    3    0    1
 -2      1439      1438      1901      3472
 -1      7766    3    0    1
 -2      2686      2241      3519      3661
 -1      7767    3    0    1
 -2      1027      2540      2698      3537
 -1      7768    3    0    1
 -2      2535      2671      2699      3537
 -1      7769    3    0    1
 -2      1027      2698      2832      3537
 -1      7770    3    0    1
 -2      2706      2535      2724      3537
 -1      7771    3    0    1
 -2      1735      1734      3166      3224
 -1      7772    3    0    1
 -2       329       196      1875      3645
 -1      7773    3    0    1
 -2      3549      1290      3626      3663
 -1      7774    3    0    1
 -2      2588      1317      2729      3537
 -1      7775    3    0    1
 -2      2671      1447      2699      3537
 -1      7776    3    0    1
 -2       346      1327      3605      3635
 -1      7777    3    0    1
 -2      2535      2699      2724      3537
 -1      7778    3    0    1
 -2      1655      1027      2832      3537
 -1      7779    3    0    1
 -2      2706      2724      2779      3537
 -1      7780    3    0    1
 -2      1600      3629      3687      3455
 -1      7781    3    0    1
 -2      1327       346      3551      3635
 -1      7782    3    0    1
 -2      1543      3516      3616      3635
 -1      7783    3    0    1
 -2      2505      3124      3607      3614
 -1      7784    3    0    1
 -2      1594      3575      3073      3625
 -1      7785    3    0    1
 -2      1284      2796      3575      3625
 -1      7786    3    0    1
 -2      1529      1528      3007      3087
 -1      7787    3    0    1
 -2      2735       594      1672      2926
 -1      7788    3    0    1
 -2      2518      2755      3589      3730
 -1      7789    3    0    1
 -2      2454      3697      3477      3733
 -1      7790    3    0    1
 -2      1147      2722      2759      3320
 -1      7791    3    0    1
 -2      2550      2666      3555      3041
 -1      7792    3    0    1
 -2      2312      1300      2649      3540
 -1      7793    3    0    1
 -2       163       341      3518      3540
 -1      7794    3    0    1
 -2      3506      2387      3509      3621
 -1      7795    3    0    1
 -2      1517      1627      3133      3184
 -1      7796    3    0    1
 -2      1651      3538      2929      2930
 -1      7797    3    0    1
 -2      2930      1651      1812      1814
 -1      7798    3    0    1
 -2      1651       408      1812      1814
 -1      7799    3    0    1
 -2      1516      1581      1582      3132
 -1      7800    3    0    1
 -2      3126      1699      3157      1904
 -1      7801    3    0    1
 -2      2865      2687      3607      3618
 -1      7802    3    0    1
 -2      1582      1581      2863      3132
 -1      7803    3    0    1
 -2      1300      2312      2503      3540
 -1      7804    3    0    1
 -2      2930      1812      1813      1814
 -1      7805    3    0    1
 -2      2781      2912      3047      3622
 -1      7806    3    0    1
 -2       408       125      3539      3629
 -1      7807    3    0    1
 -2      3536      1002      3594      3658
 -1      7808    3    0    1
 -2      2725      2540      3531      3080
 -1      7809    3    0    1
 -2      1470      1469      1705      3258
 -1      7810    3    0    1
 -2       157      2507      2649      3540
 -1      7811    3    0    1
 -2       163       156      2503      3540
 -1      7812    3    0    1
 -2      2488      2312      2649      3540
 -1      7813    3    0    1
 -2       341       163      2503      3540
 -1      7814    3    0    1
 -2       156       157      2503      3540
 -1      7815    3    0    1
 -2      2507      2488      2649      3540
 -1      7816    3    0    1
 -2       157      1300      2503      3540
 -1      7817    3    0    1
 -2       991       341      2503      3540
 -1      7818    3    0    1
 -2       185       171      1530      3360
 -1      7819    3    0    1
 -2      1734      1564      1735      3106
 -1      7820    3    0    1
 -2      3034      1746      1763      1764
 -1      7821    3    0    1
 -2      2356      2591      2689      3541
 -1      7822    3    0    1
 -2      3598      2842      3390      3483
 -1      7823    3    0    1
 -2       340      1603      2825      3652
 -1      7824    3    0    1
 -2      1845      3029      1846      1878
 -1      7825    3    0    1
 -2      2577      2800      3122      3228
 -1      7826    3    0    1
 -2        14      1578      1579      3385
 -1      7827    3    0    1
 -2      2711      3001      3048      3069
 -1      7828    3    0    1
 -2      1640      2949      3122      3675
 -1      7829    3    0    1
 -2      1416      1417      2816      3019
 -1      7830    3    0    1
 -2      1635      2711      3063      3069
 -1      7831    3    0    1
 -2      3575      2628      3073      3625
 -1      7832    3    0    1
 -2      2640      1298      2768      3542
 -1      7833    3    0    1
 -2       986      2544      2573      3542
 -1      7834    3    0    1
 -2      1603      1512      2742      3652
 -1      7835    3    0    1
 -2       986       647      2544      3542
 -1      7836    3    0    1
 -2       641      1298      2640      3542
 -1      7837    3    0    1
 -2      2532      3520      3532      3724
 -1      7838    3    0    1
 -2      1496      2907      3028      3653
 -1      7839    3    0    1
 -2      1496      3028      3596      3653
 -1      7840    3    0    1
 -2      1523      3029      1845      1878
 -1      7841    3    0    1
 -2      2630       641      2640      3542
 -1      7842    3    0    1
 -2      2846      3189      3687      3455
 -1      7843    3    0    1
 -2      3569      3542      3580      3652
 -1      7844    3    0    1
 -2       332       439      3631      1878
 -1      7845    3    0    1
 -2      2800      1454      3122      3228
 -1      7846    3    0    1
 -2      1413      2628      3575      3625
 -1      7847    3    0    1
 -2      3397      3371      3454      3736
 -1      7848    3    0    1
 -2      3533      2506      3569      3619
 -1      7849    3    0    1
 -2      2523      2778      3580      3619
 -1      7850    3    0    1
 -2      1636      1491      2767      1492
 -1      7851    3    0    1
 -2      2767      1635      1636      2892
 -1      7852    3    0    1
 -2       576      1635      2877      2892
 -1      7853    3    0    1
 -2      2805      2887      1721      1722
 -1      7854    3    0    1
 -2      2852      2134      3547      3599
 -1      7855    3    0    1
 -2      1613      1612      2815      3084
 -1      7856    3    0    1
 -2      3596      2746      3647      3488
 -1      7857    3    0    1
 -2      1783      1646      1784      3082
 -1      7858    3    0    1
 -2       612      3365      3673      3707
 -1      7859    3    0    1
 -2      1731      1730      3042      3147
 -1      7860    3    0    1
 -2      3235      2895      1936      1937
 -1      7861    3    0    1
 -2      3697      2261      3477      3733
 -1      7862    3    0    1
 -2      1534      1535      1741      3302
 -1      7863    3    0    1
 -2      2763      2664      2814      3543
 -1      7864    3    0    1
 -2      2335      2453      2613      3697
 -1      7865    3    0    1
 -2      2924      2902      3230      3237
 -1      7866    3    0    1
 -2      2560      2521      2818      3543
 -1      7867    3    0    1
 -2      3641      3230      2947      2954
 -1      7868    3    0    1
 -2      1626      1625      3077      3342
 -1      7869    3    0    1
 -2      1632      1633      3095      1891
 -1      7870    3    0    1
 -2       242      1046      2369      1806
 -1      7871    3    0    1
 -2      2511      3520      3545      3715
 -1      7872    3    0    1
 -2      1754      3203      3604      1841
 -1      7873    3    0    1
 -2      1308       427      2208      3726
 -1      7874    3    0    1
 -2      3409      2521      3429      3476
 -1      7875    3    0    1
 -2      1576      1327      3551      3165
 -1      7876    3    0    1
 -2      2632       475      2733      2947
 -1      7877    3    0    1
 -2      3583       433      3626      3284
 -1      7878    3    0    1
 -2        13        15      1808      1816
 -1      7879    3    0    1
 -2      3636      3641      3646      3654
 -1      7880    3    0    1
 -2      2537      2816      2884      3654
 -1      7881    3    0    1
 -2      3448      3422      3461      3737
 -1      7882    3    0    1
 -2        24      1553      1877      3367
 -1      7883    3    0    1
 -2      2993      2835      3148      3372
 -1      7884    3    0    1
 -2      3067      1640      3595      3391
 -1      7885    3    0    1
 -2      2560      2659      2814      3543
 -1      7886    3    0    1
 -2      2670      2758      2763      3543
 -1      7887    3    0    1
 -2      3076      2853      3221      3401
 -1      7888    3    0    1
 -2      2911      1534      1836      3643
 -1      7889    3    0    1
 -2       173       169      3603      3623
 -1      7890    3    0    1
 -2      2728      2556      2905      3564
 -1      7891    3    0    1
 -2      2659      1474      1740      1741
 -1      7892    3    0    1
 -2      1469      1704      2953      3036
 -1      7893    3    0    1
 -2       435      3683      3468      1949
 -1      7894    3    0    1
 -2      2658      2768      3542      3580
 -1      7895    3    0    1
 -2      1416      3654      1549      3019
 -1      7896    3    0    1
 -2      1725      2712      3652      3339
 -1      7897    3    0    1
 -2      3324      1725      3652      3339
 -1      7898    3    0    1
 -2      2686      2367      2772      3544
 -1      7899    3    0    1
 -2      1521      2712      1725      3339
 -1      7900    3    0    1
 -2      3569      2957      3065      3339
 -1      7901    3    0    1
 -2      3610      3505      3679      3693
 -1      7902    3    0    1
 -2      2406      1305      3536      3547
 -1      7903    3    0    1
 -2      1519      1810      3386      3470
 -1      7904    3    0    1
 -2      1870      1854      3313      3440
 -1      7905    3    0    1
 -2      1332      2786      3604      1841
 -1      7906    3    0    1
 -2      1567      3313      1934      3453
 -1      7907    3    0    1
 -2      2686      2511      3544      3545
 -1      7908    3    0    1
 -2      1754      1755      3205      3244
 -1      7909    3    0    1
 -2      3362      3378      3678      3472
 -1      7910    3    0    1
 -2      3533      2640      3102      3619
 -1      7911    3    0    1
 -2      1301      1712      3561      3685
 -1      7912    3    0    1
 -2      3298      3304      1899      1900
 -1      7913    3    0    1
 -2      1457      1487      1488      3452
 -1      7914    3    0    1
 -2      3402      3363      3700      3732
 -1      7915    3    0    1
 -2      1437      2797      3154      3398
 -1      7916    3    0    1
 -2      2511      2686      2841      3545
 -1      7917    3    0    1
 -2      2686      2574      2841      3545
 -1      7918    3    0    1
 -2      3395        29      1941      1960
 -1      7919    3    0    1
 -2      1461      3493      1964      3737
 -1      7920    3    0    1
 -2      3516      2574      3519      3709
 -1      7921    3    0    1
 -2      1635      2711      3001      3063
 -1      7922    3    0    1
 -2       565       576      1635      3063
 -1      7923    3    0    1
 -2      1555      1704      1705      3036
 -1      7924    3    0    1
 -2      1486      1485      1552      2903
 -1      7925    3    0    1
 -2       154       415      3424      3704
 -1      7926    3    0    1
 -2       415       414      3424      3704
 -1      7927    3    0    1
 -2       790      2996      3591      3492
 -1      7928    3    0    1
 -2      3566      2657      3604      3713
 -1      7929    3    0    1
 -2      3189      1520      3687      3455
 -1      7930    3    0    1
 -2      1544       185      3597      3360
 -1      7931    3    0    1
 -2      2781      3627      3318      3714
 -1      7932    3    0    1
 -2      3254      3668      3671      3449
 -1      7933    3    0    1
 -2      2491      2574      2697      3546
 -1      7934    3    0    1
 -2      2491      2228      2574      3204
 -1      7935    3    0    1
 -2      2710      3558      2964      3312
 -1      7936    3    0    1
 -2      1305      3536      3547      3603
 -1      7937    3    0    1
 -2      3205      1754      1841      1842
 -1      7938    3    0    1
 -2      1471      1655      2832      2904
 -1      7939    3    0    1
 -2      2646      2648      3535      3575
 -1      7940    3    0    1
 -2      2770      2873      3637      3669
 -1      7941    3    0    1
 -2      1818      1421      1819      3207
 -1      7942    3    0    1
 -2      2872      2674      2908      3565
 -1      7943    3    0    1
 -2      2607      2891      1714      3565
 -1      7944    3    0    1
 -2       900      2556      2861      2905
 -1      7945    3    0    1
 -2      1630      1462      2799      3565
 -1      7946    3    0    1
 -2      2850      3559      3202      3675
 -1      7947    3    0    1
 -2      2648      1658      3535      3575
 -1      7948    3    0    1
 -2      2674      2494      2799      3565
 -1      7949    3    0    1
 -2      2679      1737      2997      3248
 -1      7950    3    0    1
 -2      1593      1592      1693      2937
 -1      7951    3    0    1
 -2      1654      2818      2991      3249
 -1      7952    3    0    1
 -2      2659      1474      3543      1740
 -1      7953    3    0    1
 -2      2726      2634      2820      3570
 -1      7954    3    0    1
 -2      2642      3561      3570      3290
 -1      7955    3    0    1
 -2      3581      2982      3168      3251
 -1      7956    3    0    1
 -2      2406      2673      2734      3547
 -1      7957    3    0    1
 -2       438       335      1656      3196
 -1      7958    3    0    1
 -2      2583      1711      3161      3344
 -1      7959    3    0    1
 -2      1885       655      1886      3364
 -1      7960    3    0    1
 -2       329      3556      1779      3645
 -1      7961    3    0    1
 -2      2974      2770      3565      3295
 -1      7962    3    0    1
 -2      2859      3555      2975      3123
 -1      7963    3    0    1
 -2      3534      2584      3577      3579
 -1      7964    3    0    1
 -2      1598      1808      3130      3300
 -1      7965    3    0    1
 -2      3504      2520      3515      3601
 -1      7966    3    0    1
 -2      1068      3664      3679      3718
 -1      7967    3    0    1
 -2      1598      3071      3585      3200
 -1      7968    3    0    1
 -2      3622      2781      3627      3318
 -1      7969    3    0    1
 -2      1456      3515      3091      3114
 -1      7970    3    0    1
 -2      1658      2648      1659      1773
 -1      7971    3    0    1
 -2      3553      2812      3135      3158
 -1      7972    3    0    1
 -2      1499      2908      3126      3127
 -1      7973    3    0    1
 -2      1462      1669      1670      3159
 -1      7974    3    0    1
 -2      2890      3585      3143      3200
 -1      7975    3    0    1
 -2      2583      3161      3271      3344
 -1      7976    3    0    1
 -2       601       612      1581      2909
 -1      7977    3    0    1
 -2      2901      1756      3572      3241
 -1      7978    3    0    1
 -2      1494      2821      1763      3185
 -1      7979    3    0    1
 -2      1612      2815      3084      3590
 -1      7980    3    0    1
 -2      2915      2914      1744      3300
 -1      7981    3    0    1
 -2       354       352      3686      3479
 -1      7982    3    0    1
 -2       763       772      1643      3148
 -1      7983    3    0    1
 -2      1836      3146      1837      1838
 -1      7984    3    0    1
 -2       676       462      2510      2910
 -1      7985    3    0    1
 -2      2510       462      2536      2910
 -1      7986    3    0    1
 -2      3142        44      1872      1938
 -1      7987    3    0    1
 -2      2895      1482      3287      3488
 -1      7988    3    0    1
 -2      1423      3509      3413      3700
 -1      7989    3    0    1
 -2       994      2726      3561      1301
 -1      7990    3    0    1
 -2      1002      1305      2510      2910
 -1      7991    3    0    1
 -2       403      3514      1658      3575
 -1      7992    3    0    1
 -2      2732      2989      3224      3642
 -1      7993    3    0    1
 -2      1694      1786      3276      3636
 -1      7994    3    0    1
 -2      1836      1838      1844      3249
 -1      7995    3    0    1
 -2      1692      1592      1693      2992
 -1      7996    3    0    1
 -2      2776      2647      3535      2978
 -1      7997    3    0    1
 -2      2682      2667      2983      3675
 -1      7998    3    0    1
 -2      2715      2859      3555      3628
 -1      7999    3    0    1
 -2      1424      1436      2714      3628
 -1      8000    3    0    1
 -2       119      1607      3583      3628
 -1      8001    3    0    1
 -2      1509       119      2859      3628
 -1      8002    3    0    1
 -2      1765      3554      3717      3469
 -1      8003    3    0    1
 -2      1756      2901      1757      3241
 -1      8004    3    0    1
 -2      2677      1431      3018      3130
 -1      8005    3    0    1
 -2      2761      2706      3531      3595
 -1      8006    3    0    1
 -2      1522      1521      2712      1726
 -1      8007    3    0    1
 -2      1500      1501      1563      2939
 -1      8008    3    0    1
 -2      3516      1543      3616      3303
 -1      8009    3    0    1
 -2      3140      2897      3596      3653
 -1      8010    3    0    1
 -2      3533      2771      2881      3643
 -1      8011    3    0    1
 -2      2738      3566      3087      3604
 -1      8012    3    0    1
 -2      2934      1521      2952      3022
 -1      8013    3    0    1
 -2      1600      2913      3618      3255
 -1      8014    3    0    1
 -2      1479      2704      2856      3325
 -1      8015    3    0    1
 -2      1559      1770      1771      3304
 -1      8016    3    0    1
 -2      3099      3277      3641      3708
 -1      8017    3    0    1
 -2      1330      2614      3430      3733
 -1      8018    3    0    1
 -2      1569      1424      3512      3628
 -1      8019    3    0    1
 -2      1330       257      2454      3733
 -1      8020    3    0    1
 -2      1555      1556      1705      3258
 -1      8021    3    0    1
 -2      2740      2717      3568      3445
 -1      8022    3    0    1
 -2       745      1756      1757      3241
 -1      8023    3    0    1
 -2      3509      2205      3538      3621
 -1      8024    3    0    1
 -2      2788      1453      3173      3349
 -1      8025    3    0    1
 -2      3573      1412      3608      3650
 -1      8026    3    0    1
 -2      1436      1424      3525      3628
 -1      8027    3    0    1
 -2      2859      3512      3555      3628
 -1      8028    3    0    1
 -2      2899      3288      3641      3654
 -1      8029    3    0    1
 -2      1740      1534      1741      3302
 -1      8030    3    0    1
 -2      1496      1495      1621      3028
 -1      8031    3    0    1
 -2      2984      2788      3173      3349
 -1      8032    3    0    1
 -2      1469      2919      3609      3258
 -1      8033    3    0    1
 -2      1627      1628      2930      1813
 -1      8034    3    0    1
 -2      1469      1470      2919      3258
 -1      8035    3    0    1
 -2       183       165      2497      3550
 -1      8036    3    0    1
 -2       162      1304      2497      3550
 -1      8037    3    0    1
 -2       165       162      2497      3550
 -1      8038    3    0    1
 -2      1549      2606      3394      3460
 -1      8039    3    0    1
 -2      3556       329      3632      3645
 -1      8040    3    0    1
 -2      2914      2915      1744      1745
 -1      8041    3    0    1
 -2      2881      1531      3248      3643
 -1      8042    3    0    1
 -2        51       265      1769      1788
 -1      8043    3    0    1
 -2       333       334      2616      3582
 -1      8044    3    0    1
 -2      1562      2680      2789      3369
 -1      8045    3    0    1
 -2        14      3061      1815      3190
 -1      8046    3    0    1
 -2      2981      1667      1772      3232
 -1      8047    3    0    1
 -2      2520      2752      2777      3574
 -1      8048    3    0    1
 -2      2479      2471      2543      3582
 -1      8049    3    0    1
 -2      1419      3501      3507      3557
 -1      8050    3    0    1
 -2      1652      1653      3232      1888
 -1      8051    3    0    1
 -2      1454      1616      2906      3052
 -1      8052    3    0    1
 -2      2934      1521      1725      3290
 -1      8053    3    0    1
 -2      2681      2524      2770      3565
 -1      8054    3    0    1
 -2      3260      1564      1939      1940
 -1      8055    3    0    1
 -2      3387      1935      1941      1961
 -1      8056    3    0    1
 -2      1707      1706      2920      2921
 -1      8057    3    0    1
 -2       335       438      1656      1932
 -1      8058    3    0    1
 -2      1514      1515      1854      3261
 -1      8059    3    0    1
 -2      3527      2806      2877      3089
 -1      8060    3    0    1
 -2      1573      2778      1748      3619
 -1      8061    3    0    1
 -2      2877       576      2892      3089
 -1      8062    3    0    1
 -2      3649       437      3685      3466
 -1      8063    3    0    1
 -2      1507      1506      1739      2990
 -1      8064    3    0    1
 -2      3146      2818      1838      3249
 -1      8065    3    0    1
 -2      2660      2531      2730      3551
 -1      8066    3    0    1
 -2       792      2531      2801      3551
 -1      8067    3    0    1
 -2       792      1052      1327      3551
 -1      8068    3    0    1
 -2       549       450      3214      1858
 -1      8069    3    0    1
 -2      2388      1316      2498      3045
 -1      8070    3    0    1
 -2      2679      1572      2798      3066
 -1      8071    3    0    1
 -2      1464      1465      1745      3150
 -1      8072    3    0    1
 -2      1789      3670      3376      3471
 -1      8073    3    0    1
 -2      2640      3533      3569      3619
 -1      8074    3    0    1
 -2      1574      1573      3316      3334
 -1      8075    3    0    1
 -2      1583      1476      2867      3226
 -1      8076    3    0    1
 -2        94       432      1840      3656
 -1      8077    3    0    1
 -2       792       784      2531      3551
 -1      8078    3    0    1
 -2       784       792      1327      3551
 -1      8079    3    0    1
 -2       332      1642      3586      1861
 -1      8080    3    0    1
 -2      2838      2619      2879      3551
 -1      8081    3    0    1
 -2      1449      1662      3041      3167
 -1      8082    3    0    1
 -2      2531      1327      2730      3551
 -1      8083    3    0    1
 -2      1543      2619      2838      3551
 -1      8084    3    0    1
 -2      1432      1433      2739      1755
 -1      8085    3    0    1
 -2       808       799      3153      1881
 -1      8086    3    0    1
 -2      1327       346      1576      3551
 -1      8087    3    0    1
 -2      1052       792      2801      3551
 -1      8088    3    0    1
 -2       242       247      3529      3121
 -1      8089    3    0    1
 -2      2680      2629      2789      3008
 -1      8090    3    0    1
 -2       784      1327      2531      3551
 -1      8091    3    0    1
 -2      1643       772      2836      3321
 -1      8092    3    0    1
 -2      2494      2587      3565      3637
 -1      8093    3    0    1
 -2      2567      2530      3568      3591
 -1      8094    3    0    1
 -2      1487      1457      3671      3452
 -1      8095    3    0    1
 -2      1476      1477      1595      3215
 -1      8096    3    0    1
 -2       702      1692      2986      3659
 -1      8097    3    0    1
 -2      2564      3535      3187      3625
 -1      8098    3    0    1
 -2      3517      3506      3101      3626
 -1      8099    3    0    1
 -2      1540      1539      1672      3014
 -1      8100    3    0    1
 -2      2657      2786      3566      3604
 -1      8101    3    0    1
 -2      2877      2767      1685      3325
 -1      8102    3    0    1
 -2      2715      1509      2859      3628
 -1      8103    3    0    1
 -2      3351      1909      3395      3397
 -1      8104    3    0    1
 -2      2812      2565      2847      3553
 -1      8105    3    0    1
 -2       702      2986      1798      3659
 -1      8106    3    0    1
 -2      1812      1627      1813      3255
 -1      8107    3    0    1
 -2      3576      3594      3599      3658
 -1      8108    3    0    1
 -2      2566      2687      2703      3553
 -1      8109    3    0    1
 -2       790      1555      2631      3591
 -1      8110    3    0    1
 -2      3185      1730      3297      3668
 -1      8111    3    0    1
 -2      2841      2511      3545      3715
 -1      8112    3    0    1
 -2      1776      1482      3181      3710
 -1      8113    3    0    1
 -2      1935      3387      1941      1942
 -1      8114    3    0    1
 -2      2953      2668      3568      3591
 -1      8115    3    0    1
 -2      2285      3511      3512      3628
 -1      8116    3    0    1
 -2      2734      2162      3523      3731
 -1      8117    3    0    1
 -2      3535      2796      3187      3625
 -1      8118    3    0    1
 -2      2573       986      3542      3324
 -1      8119    3    0    1
 -2      2538      2537      3646      3654
 -1      8120    3    0    1
 -2      2633      2855      3612      3716
 -1      8121    3    0    1
 -2      2890      2694      3585      3446
 -1      8122    3    0    1
 -2      1617      1616      3029      1846
 -1      8123    3    0    1
 -2      3558      2621      3581      3609
 -1      8124    3    0    1
 -2      2717      2788      3568      3050
 -1      8125    3    0    1
 -2      2671      1616      1617      3118
 -1      8126    3    0    1
 -2      3551      1754      3244      3639
 -1      8127    3    0    1
 -2      1513      1512      2932      3273
 -1      8128    3    0    1
 -2      2706      2698      2779      2933
 -1      8129    3    0    1
 -2      1526       727      1527      2933
 -1      8130    3    0    1
 -2      1526      1527      2779      2933
 -1      8131    3    0    1
 -2      2698      1526      2779      2933
 -1      8132    3    0    1
 -2      2698      2706      3531      2933
 -1      8133    3    0    1
 -2       119      3583      3626      3663
 -1      8134    3    0    1
 -2       736      1526      2698      2933
 -1      8135    3    0    1
 -2      1752      1682      1753      3023
 -1      8136    3    0    1
 -2      1847      1848      3265      3274
 -1      8137    3    0    1
 -2      1934      1854      3313       268
 -1      8138    3    0    1
 -2      1482      1481      2895      3287
 -1      8139    3    0    1
 -2       342       343      2598      3723
 -1      8140    3    0    1
 -2      1483      2874      1713      1714
 -1      8141    3    0    1
 -2      2607      2891      1713      1714
 -1      8142    3    0    1
 -2      2891       745      1713      1714
 -1      8143    3    0    1
 -2      2874      2607      1713      1714
 -1      8144    3    0    1
 -2       185       171      3085      1830
 -1      8145    3    0    1
 -2      2697      3516      3557      3571
 -1      8146    3    0    1
 -2      3525      3517      3626      3663
 -1      8147    3    0    1
 -2      1487      1457      3417      3483
 -1      8148    3    0    1
 -2      3539       125      3455      3629
 -1      8149    3    0    1
 -2       276       279      3095      1890
 -1      8150    3    0    1
 -2      3079      3570      3598      3193
 -1      8151    3    0    1
 -2      2714      2715      2859      3555
 -1      8152    3    0    1
 -2      3512       961      2859      3555
 -1      8153    3    0    1
 -2      1744      1464      3150      3446
 -1      8154    3    0    1
 -2      1517      1516      1581      3032
 -1      8155    3    0    1
 -2      2788      1453      1681      3173
 -1      8156    3    0    1
 -2      3583      3525      3626      3663
 -1      8157    3    0    1
 -2      1692      1693      2937      2938
 -1      8158    3    0    1
 -2      1492      1491      1686      3001
 -1      8159    3    0    1
 -2      2710      1546      3149      3312
 -1      8160    3    0    1
 -2      1635      1491      1636      3001
 -1      8161    3    0    1
 -2      2857      2961      3566      3087
 -1      8162    3    0    1
 -2      1562      1500      1563      2939
 -1      8163    3    0    1
 -2       576      2805      2892      3089
 -1      8164    3    0    1
 -2      2572       648      1551      3065
 -1      8165    3    0    1
 -2      2194      2257      3507      3557
 -1      8166    3    0    1
 -2      2731      1541      1643      3321
 -1      8167    3    0    1
 -2      1578      1579      1857      3281
 -1      8168    3    0    1
 -2      1454      2800      1716      1717
 -1      8169    3    0    1
 -2      1454      1455      2800      1717
 -1      8170    3    0    1
 -2      1641      1640      2800      1717
 -1      8171    3    0    1
 -2      2800      1640      1716      1717
 -1      8172    3    0    1
 -2      1439      1438      1857      3281
 -1      8173    3    0    1
 -2      1451      2876      2981      3143
 -1      8174    3    0    1
 -2      3545      2841      3243      3709
 -1      8175    3    0    1
 -2      1458      1457      1915      3409
 -1      8176    3    0    1
 -2      2257      1332      3507      3557
 -1      8177    3    0    1
 -2      1856      1578      1857      3281
 -1      8178    3    0    1
 -2      3516      3519      3381      3709
 -1      8179    3    0    1
 -2      2695      1692      2992      3659
 -1      8180    3    0    1
 -2      2740      3568      3172      3321
 -1      8181    3    0    1
 -2      1313      2388      3280      3632
 -1      8182    3    0    1
 -2       185      1309      3554      3469
 -1      8183    3    0    1
 -2      3641      3654      3341      3458
 -1      8184    3    0    1
 -2        17        72      1927      3461
 -1      8185    3    0    1
 -2      3455      1814      3539      3134
 -1      8186    3    0    1
 -2      3565      2681      3221      3279
 -1      8187    3    0    1
 -2      3260      1939      3457      3717
 -1      8188    3    0    1
 -2      2643      3564      3642      3659
 -1      8189    3    0    1
 -2       961      1287      2512      3555
 -1      8190    3    0    1
 -2       961      2512      2637      3555
 -1      8191    3    0    1
 -2      3220      3093      3627      3326
 -1      8192    3    0    1
 -2      1489      3286      3646      3329
 -1      8193    3    0    1
 -2      1594      3215      3636      3329
 -1      8194    3    0    1
 -2      1697       329      3554      3556
 -1      8195    3    0    1
 -2      3563       329      3632      3644
 -1      8196    3    0    1
 -2      2550      2714      2762      3555
 -1      8197    3    0    1
 -2      2495      2550      2762      3555
 -1      8198    3    0    1
 -2      2762      2714      2822      3555
 -1      8199    3    0    1
 -2      2713      2495      2762      3555
 -1      8200    3    0    1
 -2      3194      2847      3212      3607
 -1      8201    3    0    1
 -2      2550      1424      2714      3555
 -1      8202    3    0    1
 -2      1852      1851      3397      1918
 -1      8203    3    0    1
 -2      1424      2550      2666      3555
 -1      8204    3    0    1
 -2      3516      2697      3546      3571
 -1      8205    3    0    1
 -2      2687      2655      2865      3607
 -1      8206    3    0    1
 -2      3138      3220      3627      3268
 -1      8207    3    0    1
 -2      2565      2847      3553      3607
 -1      8208    3    0    1
 -2       961      2637      2859      3555
 -1      8209    3    0    1
 -2      1517      1581      3132      3607
 -1      8210    3    0    1
 -2      1528      1529      2961      3087
 -1      8211    3    0    1
 -2      2512      1287      2749      3555
 -1      8212    3    0    1
 -2      1456      1697      3554      3556
 -1      8213    3    0    1
 -2      1549      2606      3315      3394
 -1      8214    3    0    1
 -2      1428      1803      1804      3144
 -1      8215    3    0    1
 -2      2861      1141      3018      3090
 -1      8216    3    0    1
 -2      1416      2816      1865      3341
 -1      8217    3    0    1
 -2      2914      2677      3292      3300
 -1      8218    3    0    1
 -2       996      1005      3524      1723
 -1      8219    3    0    1
 -2      2270       996      3524      1723
 -1      8220    3    0    1
 -2       162      2270      3524      1723
 -1      8221    3    0    1
 -2       664       668       996      1723
 -1      8222    3    0    1
 -2       162       664       996      1723
 -1      8223    3    0    1
 -2       668       162       165      1723
 -1      8224    3    0    1
 -2       162       668       664      1723
 -1      8225    3    0    1
 -2      3524       165      1723      1724
 -1      8226    3    0    1
 -2      1005       422      2242      1724
 -1      8227    3    0    1
 -2      2242       422      3524      1724
 -1      8228    3    0    1
 -2      1005      2242      3524      1724
 -1      8229    3    0    1
 -2       183       422       677      1724
 -1      8230    3    0    1
 -2       183       677       685      1724
 -1      8231    3    0    1
 -2      2755      1770      3253      3304
 -1      8232    3    0    1
 -2      1721      2893      1722      2945
 -1      8233    3    0    1
 -2      1524      1721      1722      2945
 -1      8234    3    0    1
 -2      1706      2936      3443      3717
 -1      8235    3    0    1
 -2      1410      2589      2980      3737
 -1      8236    3    0    1
 -2      1672      2735      2926      3014
 -1      8237    3    0    1
 -2      2880      3565      3279      3456
 -1      8238    3    0    1
 -2       460      2667      2745      2946
 -1      8239    3    0    1
 -2       460       459      2667      2946
 -1      8240    3    0    1
 -2      2831      1143      1684      2946
 -1      8241    3    0    1
 -2      2667      1143      2831      2946
 -1      8242    3    0    1
 -2       459      1143      2667      2946
 -1      8243    3    0    1
 -2      2662      2835      3567      3176
 -1      8244    3    0    1
 -2      1506      2840      1738      3710
 -1      8245    3    0    1
 -2      1145       460      2745      2946
 -1      8246    3    0    1
 -2      2893      1721      1722      3063
 -1      8247    3    0    1
 -2      2621      2741      2919      3558
 -1      8248    3    0    1
 -2       335      3562      1782      3676
 -1      8249    3    0    1
 -2      2594       924      2882      3558
 -1      8250    3    0    1
 -2       201      1316      2616      3582
 -1      8251    3    0    1
 -2      3197      1413      3439      3735
 -1      8252    3    0    1
 -2      1761       666      3598      3390
 -1      8253    3    0    1
 -2      1446      3090      3677      3442
 -1      8254    3    0    1
 -2      1744      1464      1745      3150
 -1      8255    3    0    1
 -2      2890      3585      3200      3283
 -1      8256    3    0    1
 -2      2878      2680      3094      3589
 -1      8257    3    0    1
 -2      2635      3566      3581      3609
 -1      8258    3    0    1
 -2      2937      1592      3585      3150
 -1      8259    3    0    1
 -2      1668       119      3115      1860
 -1      8260    3    0    1
 -2      1520      3506      3549      3626
 -1      8261    3    0    1
 -2       170        14      1815      3190
 -1      8262    3    0    1
 -2      1770      3025      3108      3227
 -1      8263    3    0    1
 -2      1619      1469      3003      3037
 -1      8264    3    0    1
 -2      3088      1440      3165      3291
 -1      8265    3    0    1
 -2       944      2282      2965      3039
 -1      8266    3    0    1
 -2      2967      1619      3003      3037
 -1      8267    3    0    1
 -2       173      1736      3561      1821
 -1      8268    3    0    1
 -2      3516      3557      3571      3635
 -1      8269    3    0    1
 -2      3551      1543      1675      2838
 -1      8270    3    0    1
 -2      1415      1665      3545      3683
 -1      8271    3    0    1
 -2        94      1694      3592      3636
 -1      8272    3    0    1
 -2      3181      3232      1936      1937
 -1      8273    3    0    1
 -2       673       684      3361      3426
 -1      8274    3    0    1
 -2      1280       944      3592      3636
 -1      8275    3    0    1
 -2      3581      2844      3384      3713
 -1      8276    3    0    1
 -2      1652      3232      1936      3487
 -1      8277    3    0    1
 -2      1580      1415      3545      3633
 -1      8278    3    0    1
 -2      3603      3560      3623      3681
 -1      8279    3    0    1
 -2      3140       206      1820      1887
 -1      8280    3    0    1
 -2      1464      2914      1744      1745
 -1      8281    3    0    1
 -2       691       702      1798      3209
 -1      8282    3    0    1
 -2      1309       185      3554      3613
 -1      8283    3    0    1
 -2      2879      2838      3551      3088
 -1      8284    3    0    1
 -2      1471      1655      3107      3289
 -1      8285    3    0    1
 -2      2988      1752       799      3023
 -1      8286    3    0    1
 -2       637       648      1537      3022
 -1      8287    3    0    1
 -2      2621      2635      3581      3609
 -1      8288    3    0    1
 -2      3298       630      1899      3462
 -1      8289    3    0    1
 -2      2528      2561      2694      3559
 -1      8290    3    0    1
 -2      2528      2694      2826      3559
 -1      8291    3    0    1
 -2      2667      2831      2850      3559
 -1      8292    3    0    1
 -2      3522      3503      2777      3711
 -1      8293    3    0    1
 -2      2694      2561      2894      3559
 -1      8294    3    0    1
 -2      3525      1436      3583      3078
 -1      8295    3    0    1
 -2      3520      1435      3532      3587
 -1      8296    3    0    1
 -2      2876      2694      2894      3559
 -1      8297    3    0    1
 -2      2902      3230      3237      3703
 -1      8298    3    0    1
 -2      2931      2927      3225      3573
 -1      8299    3    0    1
 -2      3531      2706      3537      3595
 -1      8300    3    0    1
 -2      1491      1492      1636      3001
 -1      8301    3    0    1
 -2      2729      3537      3052      3595
 -1      8302    3    0    1
 -2      1506      2840      1776      1777
 -1      8303    3    0    1
 -2      3230      2902      3646      3703
 -1      8304    3    0    1
 -2      2777      2586      3574      3201
 -1      8305    3    0    1
 -2      2627       558      2924      3646
 -1      8306    3    0    1
 -2      2723      2775      2952      3570
 -1      8307    3    0    1
 -2      3422      1927      3448      3461
 -1      8308    3    0    1
 -2      1770      1559      3253      3304
 -1      8309    3    0    1
 -2      2681      2770      2873      3637
 -1      8310    3    0    1
 -2      2522      3552      3638      3735
 -1      8311    3    0    1
 -2      2587      2526      3565      3637
 -1      8312    3    0    1
 -2      2934      2813      3570      3290
 -1      8313    3    0    1
 -2      2660      2801      3551      3639
 -1      8314    3    0    1
 -2      1414      2685      3135      3367
 -1      8315    3    0    1
 -2      3533      3064      3066      3108
 -1      8316    3    0    1
 -2      3533      2888      3064      3108
 -1      8317    3    0    1
 -2      3664      3610      3718      3496
 -1      8318    3    0    1
 -2      2681      2883      3565      3637
 -1      8319    3    0    1
 -2      3083      2828      3590      3367
 -1      8320    3    0    1
 -2      2900      2992      3178      3292
 -1      8321    3    0    1
 -2      1571      3308      1876      3367
 -1      8322    3    0    1
 -2      2642      1301      3561      3290
 -1      8323    3    0    1
 -2      2895      2746      3235      3488
 -1      8324    3    0    1
 -2      1301      2642      3561      3272
 -1      8325    3    0    1
 -2      3025      2888      3108      3227
 -1      8326    3    0    1
 -2      2912      3171      3622      3627
 -1      8327    3    0    1
 -2      1528       790      2857      2961
 -1      8328    3    0    1
 -2       994      1305      2406      3560
 -1      8329    3    0    1
 -2      2406      1305      3547      3560
 -1      8330    3    0    1
 -2      3523      2406      3547      3560
 -1      8331    3    0    1
 -2      1555      2964      3119      3609
 -1      8332    3    0    1
 -2      2501      3004      3599      3731
 -1      8333    3    0    1
 -2      1581      1516      1582      3032
 -1      8334    3    0    1
 -2      2205      2487      3509      3672
 -1      8335    3    0    1
 -2      3626      3101      3284      1860
 -1      8336    3    0    1
 -2      1432      1433      1529      3007
 -1      8337    3    0    1
 -2      1755      1754      3205      1842
 -1      8338    3    0    1
 -2      3547      1703      3536      1459
 -1      8339    3    0    1
 -2      3067      1640      3116      3595
 -1      8340    3    0    1
 -2      3025      1770      1771      3227
 -1      8341    3    0    1
 -2      1896      1897      1901      3378
 -1      8342    3    0    1
 -2      1770      1559      1771      3227
 -1      8343    3    0    1
 -2      2823      1767      1778      3382
 -1      8344    3    0    1
 -2       119      1668      3618      3626
 -1      8345    3    0    1
 -2      2314       550      2440      2965
 -1      8346    3    0    1
 -2       557      2282      2440      2965
 -1      8347    3    0    1
 -2       557       944      2282      2965
 -1      8348    3    0    1
 -2       450       549      3214      3348
 -1      8349    3    0    1
 -2       977      1614      3240      3296
 -1      8350    3    0    1
 -2       550       557      2440      2965
 -1      8351    3    0    1
 -2       557      1280       944      2965
 -1      8352    3    0    1
 -2      1420      2560      2818      3146
 -1      8353    3    0    1
 -2      2744      2807      3124      3618
 -1      8354    3    0    1
 -2      2218      1018      3602      3644
 -1      8355    3    0    1
 -2      2891      1714      3565      3295
 -1      8356    3    0    1
 -2      2494      2674      2853      3565
 -1      8357    3    0    1
 -2      2799      2607      2874      3565
 -1      8358    3    0    1
 -2       691      1692      1693      2986
 -1      8359    3    0    1
 -2      2788      2568      3568      3050
 -1      8360    3    0    1
 -2      1469      1470      2953      3037
 -1      8361    3    0    1
 -2      2674      2853      3126      3127
 -1      8362    3    0    1
 -2      1735      1734      3038      1799
 -1      8363    3    0    1
 -2      1620      1619      2834      1769
 -1      8364    3    0    1
 -2      1668      3101      3626      1860
 -1      8365    3    0    1
 -2      2752      3522      2777      3574
 -1      8366    3    0    1
 -2      3511      3517      3638      3662
 -1      8367    3    0    1
 -2      3506      3549      3626      3663
 -1      8368    3    0    1
 -2      2730      2660      3551      3639
 -1      8369    3    0    1
 -2      3371      3376      3454      3736
 -1      8370    3    0    1
 -2      1730      2968      1821      1822
 -1      8371    3    0    1
 -2      1547      1548      1882      3330
 -1      8372    3    0    1
 -2      1412      2884      3592      3636
 -1      8373    3    0    1
 -2      2866      1578      3677      3385
 -1      8374    3    0    1
 -2       695       189      1013      1943
 -1      8375    3    0    1
 -2      3517      2626      2780      3078
 -1      8376    3    0    1
 -2      1509      1427      2822      1426
 -1      8377    3    0    1
 -2      1485      2551      2795      3049
 -1      8378    3    0    1
 -2      1474      1485      2795      3049
 -1      8379    3    0    1
 -2      1619      1469      3117      3312
 -1      8380    3    0    1
 -2      3527      2583      3057      3271
 -1      8381    3    0    1
 -2      3331      1169      1898      3435
 -1      8382    3    0    1
 -2      2656      1658      3535      3182
 -1      8383    3    0    1
 -2      3298      3640      3316      3333
 -1      8384    3    0    1
 -2      2510      1002      2910      3031
 -1      8385    3    0    1
 -2      1447      3503      3562      3634
 -1      8386    3    0    1
 -2       648       637      2775      3022
 -1      8387    3    0    1
 -2      2775      2723      2952      3022
 -1      8388    3    0    1
 -2      1687      2955      3584      3674
 -1      8389    3    0    1
 -2       940      1338      2440      3686
 -1      8390    3    0    1
 -2       569       400       955      1797
 -1      8391    3    0    1
 -2      1840      1696      3648      3656
 -1      8392    3    0    1
 -2      3198      3199      3210      3653
 -1      8393    3    0    1
 -2      1621      1622      2923      3177
 -1      8394    3    0    1
 -2      1644      1643      2993      3148
 -1      8395    3    0    1
 -2      1469      1470      1705      3036
 -1      8396    3    0    1
 -2      1445      2642      1712      3561
 -1      8397    3    0    1
 -2      2642      1445      2718      3561
 -1      8398    3    0    1
 -2      2143      2406      2651      3561
 -1      8399    3    0    1
 -2      1643      1541      1644      2993
 -1      8400    3    0    1
 -2      1621       727      1622      3177
 -1      8401    3    0    1
 -2      1714      1483      3565      3295
 -1      8402    3    0    1
 -2      2695      1692      1693      2992
 -1      8403    3    0    1
 -2      3260      2936      1939      3717
 -1      8404    3    0    1
 -2      3588      1280      3437      2965
 -1      8405    3    0    1
 -2      1549         1      1550      2976
 -1      8406    3    0    1
 -2      3188      3026      3651      3667
 -1      8407    3    0    1
 -2         1       353      1689      2976
 -1      8408    3    0    1
 -2       353         1      1549      2976
 -1      8409    3    0    1
 -2      1479      3213      1862      1863
 -1      8410    3    0    1
 -2      2807      1426      3020      3124
 -1      8411    3    0    1
 -2      1426      2807      1794      3124
 -1      8412    3    0    1
 -2      1530      3599      3270      3658
 -1      8413    3    0    1
 -2      2561      2894      3559      3710
 -1      8414    3    0    1
 -2      3552      2522      3638      3662
 -1      8415    3    0    1
 -2      1632      3095      3627      1890
 -1      8416    3    0    1
 -2      1324      1044      3544      3593
 -1      8417    3    0    1
 -2      1525      1524      2945      2978
 -1      8418    3    0    1
 -2      1524      1525      1663      2978
 -1      8419    3    0    1
 -2      2945      1524      2972      2978
 -1      8420    3    0    1
 -2      2647      2945      2972      2978
 -1      8421    3    0    1
 -2      1854      1855      1934      3453
 -1      8422    3    0    1
 -2      2554      2524      2681      3565
 -1      8423    3    0    1
 -2      1483      1630      2874      3565
 -1      8424    3    0    1
 -2      2861       900      2905      3018
 -1      8425    3    0    1
 -2      2526      2891      3565      3295
 -1      8426    3    0    1
 -2      1630      2799      2874      3565
 -1      8427    3    0    1
 -2      2874      2607      1714      3565
 -1      8428    3    0    1
 -2      1564      2921      1939      1940
 -1      8429    3    0    1
 -2       403      3514      3548      3600
 -1      8430    3    0    1
 -2      3142      1839      3242      1872
 -1      8431    3    0    1
 -2      2554      2681      2872      3565
 -1      8432    3    0    1
 -2      1608      1410      2848      2980
 -1      8433    3    0    1
 -2      1829      1841      3635      1866
 -1      8434    3    0    1
 -2      2511      2185      2777      3715
 -1      8435    3    0    1
 -2      1410      2589      2848      2980
 -1      8436    3    0    1
 -2      2857      1528      2961      3087
 -1      8437    3    0    1
 -2      1667      1451      2876      2981
 -1      8438    3    0    1
 -2      2682      2983      3651      3675
 -1      8439    3    0    1
 -2      1873       450      1874      3348
 -1      8440    3    0    1
 -2       115      2383      2546      3433
 -1      8441    3    0    1
 -2       961       119      1290      3583
 -1      8442    3    0    1
 -2      2625      3567      3584      3593
 -1      8443    3    0    1
 -2      3183      1652      1887      1888
 -1      8444    3    0    1
 -2      1851      1852      3350      1918
 -1      8445    3    0    1
 -2      2529      2633      3572      3612
 -1      8446    3    0    1
 -2      1555      2996      3036      3591
 -1      8447    3    0    1
 -2       719       712      2667      2983
 -1      8448    3    0    1
 -2       712       719      1313      2983
 -1      8449    3    0    1
 -2       712      1313      2682      2983
 -1      8450    3    0    1
 -2      1772        69      1887      1888
 -1      8451    3    0    1
 -2      2728      2556      3564      3174
 -1      8452    3    0    1
 -2      1473      1194      2717      2984
 -1      8453    3    0    1
 -2      2175      1330      2454      3733
 -1      8454    3    0    1
 -2      2905      3564      3062      3145
 -1      8455    3    0    1
 -2      3371      3397      1917      1918
 -1      8456    3    0    1
 -2      1194      2582      2717      2984
 -1      8457    3    0    1
 -2      1457      1914      1915      3409
 -1      8458    3    0    1
 -2      2660      1192      2802      2984
 -1      8459    3    0    1
 -2      3006      2829      3673      3730
 -1      8460    3    0    1
 -2      2218      1313      2388      3644
 -1      8461    3    0    1
 -2      3557       347      3571      3616
 -1      8462    3    0    1
 -2      3158      3553      3194      3367
 -1      8463    3    0    1
 -2      2143       986      3577      3579
 -1      8464    3    0    1
 -2      2895      2747      3647      3488
 -1      8465    3    0    1
 -2      1858       450      1859      3306
 -1      8466    3    0    1
 -2      3235      2746      3305      3488
 -1      8467    3    0    1
 -2       208      1029      3696      1929
 -1      8468    3    0    1
 -2      3286      3636      3646      3329
 -1      8469    3    0    1
 -2       709      1738      1739      3060
 -1      8470    3    0    1
 -2      2809      2602      3531      3647
 -1      8471    3    0    1
 -2      1482      1776      3287      3488
 -1      8472    3    0    1
 -2      2990      1506      1776      1777
 -1      8473    3    0    1
 -2      2693      1449      3041      3167
 -1      8474    3    0    1
 -2       558      1489      2624      3187
 -1      8475    3    0    1
 -2      3080      1496      3596      3310
 -1      8476    3    0    1
 -2      3033      2577      3644      3651
 -1      8477    3    0    1
 -2       720      1641       709      3067
 -1      8478    3    0    1
 -2      1801        27      3154      3309
 -1      8479    3    0    1
 -2      1596      1597      3211      1884
 -1      8480    3    0    1
 -2      1738      2948      1739      2990
 -1      8481    3    0    1
 -2      1506      1738      1739      2990
 -1      8482    3    0    1
 -2      2852      3547      3576      3599
 -1      8483    3    0    1
 -2      1507      1506      2990      1777
 -1      8484    3    0    1
 -2      2840      2561      1776      1777
 -1      8485    3    0    1
 -2      1614       151      1615      3259
 -1      8486    3    0    1
 -2      1535      1534      3146      1837
 -1      8487    3    0    1
 -2      2817      1254      1654      2991
 -1      8488    3    0    1
 -2      2817      1654      2818      2991
 -1      8489    3    0    1
 -2      1740      1474      3017      3302
 -1      8490    3    0    1
 -2      3038      1734      1798      1799
 -1      8491    3    0    1
 -2      2818      2560      3543      3146
 -1      8492    3    0    1
 -2      1002      1305      2910      3597
 -1      8493    3    0    1
 -2      1775      2700      3223      3716
 -1      8494    3    0    1
 -2      3575        94      1840      3648
 -1      8495    3    0    1
 -2       340       437      1712      3685
 -1      8496    3    0    1
 -2      1780      1625      1781      3323
 -1      8497    3    0    1
 -2      3011      2973      3597      3314
 -1      8498    3    0    1
 -2      1568       403      3548      1773
 -1      8499    3    0    1
 -2       346      1675      3605      1889
 -1      8500    3    0    1
 -2      2492      2704      3527      3680
 -1      8501    3    0    1
 -2      2046      2396      3634      3338
 -1      8502    3    0    1
 -2      1290       961      3583      3663
 -1      8503    3    0    1
 -2       403      1568      3514      3575
 -1      8504    3    0    1
 -2      2524      2554      2770      3565
 -1      8505    3    0    1
 -2      2607      2526      2891      3565
 -1      8506    3    0    1
 -2       754      2891      1756      3295
 -1      8507    3    0    1
 -2      3198      1418      3199      3653
 -1      8508    3    0    1
 -2      2526      2494      2587      3565
 -1      8509    3    0    1
 -2      1630      1483      2974      3565
 -1      8510    3    0    1
 -2      2642      1603      1301      3290
 -1      8511    3    0    1
 -2      1639      1638      1780      3237
 -1      8512    3    0    1
 -2       344       345      3529      3121
 -1      8513    3    0    1
 -2      1438      1439      1901      3374
 -1      8514    3    0    1
 -2      1657      2828      3044      3083
 -1      8515    3    0    1
 -2      2660      2582      2802      3568
 -1      8516    3    0    1
 -2      2582      2717      2984      3568
 -1      8517    3    0    1
 -2       344       247      3530      1807
 -1      8518    3    0    1
 -2      2710      1211      3558      3149
 -1      8519    3    0    1
 -2      1541      2653      2740      3568
 -1      8520    3    0    1
 -2      1858       549      3293      3322
 -1      8521    3    0    1
 -2      2802      2582      2984      3568
 -1      8522    3    0    1
 -2      1601      1602      1766      3111
 -1      8523    3    0    1
 -2      2722      2536      2759      3620
 -1      8524    3    0    1
 -2      1250      2725      2897      3310
 -1      8525    3    0    1
 -2      1647      1646      1784      3176
 -1      8526    3    0    1
 -2      2569      3527      2806      3325
 -1      8527    3    0    1
 -2      1768        51      1788      1948
 -1      8528    3    0    1
 -2      2897      1252      1729      2995
 -1      8529    3    0    1
 -2      3146      1534      1836      1837
 -1      8530    3    0    1
 -2      2659      3543      3146      3249
 -1      8531    3    0    1
 -2      1238      2679      1737      2997
 -1      8532    3    0    1
 -2      1694        94      1786      3636
 -1      8533    3    0    1
 -2      1610      1573      3580      3419
 -1      8534    3    0    1
 -2      1426      1509      3020      3124
 -1      8535    3    0    1
 -2       196       329      1779      3645
 -1      8536    3    0    1
 -2      3567      2662      3176      3216
 -1      8537    3    0    1
 -2      2733       944      2899      3636
 -1      8538    3    0    1
 -2      2895      3235      1936      3488
 -1      8539    3    0    1
 -2      1515      3054      3168      1833
 -1      8540    3    0    1
 -2      1559      1560      3227      3285
 -1      8541    3    0    1
 -2      2739      2541      1754      3203
 -1      8542    3    0    1
 -2        69      1820      1887      1888
 -1      8543    3    0    1
 -2      3535      2776      2978      3182
 -1      8544    3    0    1
 -2      1532      2792      3535      3182
 -1      8545    3    0    1
 -2      3622      3256      3440      3736
 -1      8546    3    0    1
 -2      1641      3060       720       709
 -1      8547    3    0    1
 -2      3157      3126      1883      3436
 -1      8548    3    0    1
 -2      1532      1449      2792      3182
 -1      8549    3    0    1
 -2       955       400      2356      3578
 -1      8550    3    0    1
 -2       171      1530      3270      3658
 -1      8551    3    0    1
 -2      1730      1494      3185      3297
 -1      8552    3    0    1
 -2      2853      3126      3127      3221
 -1      8553    3    0    1
 -2      2651      1301      3561      3617
 -1      8554    3    0    1
 -2       977      1298      2205      3579
 -1      8555    3    0    1
 -2      2651      3534      3577      3617
 -1      8556    3    0    1
 -2      2700      1478      3282      3407
 -1      8557    3    0    1
 -2      2249      2356      2601      3578
 -1      8558    3    0    1
 -2      1616      1617      3029      3228
 -1      8559    3    0    1
 -2       201      3526      3045      3582
 -1      8560    3    0    1
 -2       201       334      3526      3582
 -1      8561    3    0    1
 -2      2543      2471      3045      3582
 -1      8562    3    0    1
 -2      3551      2801      1754      3639
 -1      8563    3    0    1
 -2      3532      3520      3587      3724
 -1      8564    3    0    1
 -2      1640      3052      3595      3391
 -1      8565    3    0    1
 -2      2594      2641      2882      3566
 -1      8566    3    0    1
 -2      2641      2594      2657      3566
 -1      8567    3    0    1
 -2      2882      2641      3558      3566
 -1      8568    3    0    1
 -2      3558      2641      2962      3566
 -1      8569    3    0    1
 -2      1675      3519      3635      3605
 -1      8570    3    0    1
 -2      2774      2878      3094      3589
 -1      8571    3    0    1
 -2      2786      2857      2962      3566
 -1      8572    3    0    1
 -2      2641      2786      2962      3566
 -1      8573    3    0    1
 -2      1316       201      3045      3582
 -1      8574    3    0    1
 -2      2635      2508      2760      3566
 -1      8575    3    0    1
 -2      2760      2508      2844      3566
 -1      8576    3    0    1
 -2      2508      2635      2738      3566
 -1      8577    3    0    1
 -2      2774      2794      2878      3589
 -1      8578    3    0    1
 -2      2977      3622      3627      3714
 -1      8579    3    0    1
 -2      2657      2594      2882      3566
 -1      8580    3    0    1
 -2      2738      2635      2961      3566
 -1      8581    3    0    1
 -2      3551      1754      3205      3244
 -1      8582    3    0    1
 -2        99      1658      1659      1773
 -1      8583    3    0    1
 -2      2657      1060      3604      3713
 -1      8584    3    0    1
 -2      1451      1609      2890      3200
 -1      8585    3    0    1
 -2      3058      1687      3584      3674
 -1      8586    3    0    1
 -2      1518      1519      1544      3163
 -1      8587    3    0    1
 -2        71      1836      1837      1838
 -1      8588    3    0    1
 -2        99       403      1658      1773
 -1      8589    3    0    1
 -2       403      1568      1658      1773
 -1      8590    3    0    1
 -2      1721      2893      2972      3069
 -1      8591    3    0    1
 -2      2660      3568      3591      3639
 -1      8592    3    0    1
 -2       264      1841      1842      1866
 -1      8593    3    0    1
 -2      1332      2657      3604      2786
 -1      8594    3    0    1
 -2       576      2893      1721      3069
 -1      8595    3    0    1
 -2      1635      1491      3001      3069
 -1      8596    3    0    1
 -2      1576      1440      2837      3567
 -1      8597    3    0    1
 -2      2542      2662      2736      3567
 -1      8598    3    0    1
 -2      2662      2542      2773      3567
 -1      8599    3    0    1
 -2      1448      3610      1867      3679
 -1      8600    3    0    1
 -2       727       736      2692      3177
 -1      8601    3    0    1
 -2      2529      2662      2835      3567
 -1      8602    3    0    1
 -2      3285       619      1899      1900
 -1      8603    3    0    1
 -2      2542      2625      2773      3567
 -1      8604    3    0    1
 -2      1646      1743      2994      3567
 -1      8605    3    0    1
 -2      2581      2583      3068      3680
 -1      8606    3    0    1
 -2      2773      2625      2837      3567
 -1      8607    3    0    1
 -2      1743      1440      2994      3567
 -1      8608    3    0    1
 -2      1576      2790      2994      3567
 -1      8609    3    0    1
 -2      1440      1576      2994      3567
 -1      8610    3    0    1
 -2      2653      1541      2731      3568
 -1      8611    3    0    1
 -2      2788      2668      2984      3568
 -1      8612    3    0    1
 -2      3136      2549      3266      3671
 -1      8613    3    0    1
 -2       344       345       785      1807
 -1      8614    3    0    1
 -2      2567      2530      2568      3568
 -1      8615    3    0    1
 -2      2717      2582      2740      3568
 -1      8616    3    0    1
 -2       242       776       773      1806
 -1      8617    3    0    1
 -2       776       242       247      1806
 -1      8618    3    0    1
 -2       242      2369      3530      1806
 -1      8619    3    0    1
 -2      2567      2568      2731      3568
 -1      8620    3    0    1
 -2      2582      2531      2730      3568
 -1      8621    3    0    1
 -2      3588      2061      3105      3650
 -1      8622    3    0    1
 -2      2668      2530      2953      3568
 -1      8623    3    0    1
 -2      2567      2731      2836      3568
 -1      8624    3    0    1
 -2      3523      3534      3617      3731
 -1      8625    3    0    1
 -2      2568      2530      2668      3568
 -1      8626    3    0    1
 -2      2568      2653      2731      3568
 -1      8627    3    0    1
 -2      3513      3511      3548      3662
 -1      8628    3    0    1
 -2      3538      3096      3296      3640
 -1      8629    3    0    1
 -2      2568      2668      2788      3568
 -1      8630    3    0    1
 -2      1776      1481      1777      3181
 -1      8631    3    0    1
 -2      2847      2812      3553      3194
 -1      8632    3    0    1
 -2      2559      2634      2726      3570
 -1      8633    3    0    1
 -2      3605      3633      3661      3706
 -1      8634    3    0    1
 -2      3564      3145      3642      3659
 -1      8635    3    0    1
 -2      3057      2583      3068      3161
 -1      8636    3    0    1
 -2      2247      2407      3463      3731
 -1      8637    3    0    1
 -2      3366       612      3673      3707
 -1      8638    3    0    1
 -2       115      2546      3690      3433
 -1      8639    3    0    1
 -2      2134      3599      3601      3731
 -1      8640    3    0    1
 -2       971       980      3510      1923
 -1      8641    3    0    1
 -2      3692       340      3652      3577
 -1      8642    3    0    1
 -2      2689      2356      3541      3578
 -1      8643    3    0    1
 -2      1626      1625      1780      3323
 -1      8644    3    0    1
 -2      3564      2580      3358      3678
 -1      8645    3    0    1
 -2      1280       944      2965      3588
 -1      8646    3    0    1
 -2      2965       944      3039      3588
 -1      8647    3    0    1
 -2      2769      2751      1714      3241
 -1      8648    3    0    1
 -2      2255       946      2601      3578
 -1      8649    3    0    1
 -2        93      2255      2689      3578
 -1      8650    3    0    1
 -2       946       955      2601      3578
 -1      8651    3    0    1
 -2       955      2249      2601      3578
 -1      8652    3    0    1
 -2       400       399      3541      3578
 -1      8653    3    0    1
 -2      1748      2778      1749      3024
 -1      8654    3    0    1
 -2       619      1748      1749      3024
 -1      8655    3    0    1
 -2      3533      2765      3569      3065
 -1      8656    3    0    1
 -2      3542      3569      3324      3652
 -1      8657    3    0    1
 -2      1682      2982      3023      3581
 -1      8658    3    0    1
 -2      2988      1752      3023      3581
 -1      8659    3    0    1
 -2      1428      1803      3144      3701
 -1      8660    3    0    1
 -2      2935      1765      3717      3469
 -1      8661    3    0    1
 -2      2572      2551      3569      3065
 -1      8662    3    0    1
 -2      3558      2882      3566      3581
 -1      8663    3    0    1
 -2      2882      3558      3054      3581
 -1      8664    3    0    1
 -2      2621      2635      2760      3581
 -1      8665    3    0    1
 -2      2988       808      1752      3581
 -1      8666    3    0    1
 -2      2844      2760      3566      3581
 -1      8667    3    0    1
 -2       986      3542      3324      3652
 -1      8668    3    0    1
 -2      2684      2489      3580      3652
 -1      8669    3    0    1
 -2      1725      2712      2958      3652
 -1      8670    3    0    1
 -2      3616      3571      3303      3311
 -1      8671    3    0    1
 -2      2982      2760      2988      3581
 -1      8672    3    0    1
 -2      2658      2684      3580      3652
 -1      8673    3    0    1
 -2      1512      1725      2958      3652
 -1      8674    3    0    1
 -2      2489      2513      2523      3569
 -1      8675    3    0    1
 -2      2513      2506      2523      3569
 -1      8676    3    0    1
 -2      2513      2489      2712      3569
 -1      8677    3    0    1
 -2      2506      2513      2551      3569
 -1      8678    3    0    1
 -2      2513      2712      2957      3569
 -1      8679    3    0    1
 -2      3028      2907      3596      3653
 -1      8680    3    0    1
 -2      2572      2513      2957      3569
 -1      8681    3    0    1
 -2      2742      1512      2958      3652
 -1      8682    3    0    1
 -2      2551      2513      2572      3569
 -1      8683    3    0    1
 -2      2657      2896      3566      3581
 -1      8684    3    0    1
 -2      1759      1596      3211      3653
 -1      8685    3    0    1
 -2      2669      2870      3584      3347
 -1      8686    3    0    1
 -2      2882      2657      3566      3581
 -1      8687    3    0    1
 -2      3542      2658      3580      3652
 -1      8688    3    0    1
 -2      2746      1418      3140      3653
 -1      8689    3    0    1
 -2      3304      3233      3462      3730
 -1      8690    3    0    1
 -2      3542       986      3577      3652
 -1      8691    3    0    1
 -2      2732      2643      2989      3642
 -1      8692    3    0    1
 -2      1601      2856      1862      1863
 -1      8693    3    0    1
 -2      3575        94      1786      1840
 -1      8694    3    0    1
 -2      1747      1746      3005      3034
 -1      8695    3    0    1
 -2      1657        26      3083      1880
 -1      8696    3    0    1
 -2      3527      2569      3057      3229
 -1      8697    3    0    1
 -2      1616      1617      3118      1846
 -1      8698    3    0    1
 -2      1481      1482      2895      1936
 -1      8699    3    0    1
 -2      2569      1162      3057      3229
 -1      8700    3    0    1
 -2      3093      3095      3627      3326
 -1      8701    3    0    1
 -2      1494      1493      2750      3034
 -1      8702    3    0    1
 -2      1890      3074      1891      1892
 -1      8703    3    0    1
 -2      2273      1323      2578      3723
 -1      8704    3    0    1
 -2      2754      2583      3527      3271
 -1      8705    3    0    1
 -2      2783      3151      3162      3328
 -1      8706    3    0    1
 -2      2960      3527      3057      3271
 -1      8707    3    0    1
 -2      2971      1459      3599      3270
 -1      8708    3    0    1
 -2      2441      3105      3608      3437
 -1      8709    3    0    1
 -2       332      3586      3602      3631
 -1      8710    3    0    1
 -2      1479      1480      2956      3213
 -1      8711    3    0    1
 -2      2754      1442      3271      3327
 -1      8712    3    0    1
 -2      2588      3109      3647      3391
 -1      8713    3    0    1
 -2      1283      2230      3541      3403
 -1      8714    3    0    1
 -2      1312       330      3399      3725
 -1      8715    3    0    1
 -2      1502      2886      1794      3123
 -1      8716    3    0    1
 -2      3574      3522      3586      3602
 -1      8717    3    0    1
 -2      1652      3235      1936      1937
 -1      8718    3    0    1
 -2      3522      1642      3634      1447
 -1      8719    3    0    1
 -2      1616      3118      1845      1846
 -1      8720    3    0    1
 -2      2746      3140      3235      3305
 -1      8721    3    0    1
 -2       558      1489      3286      3646
 -1      8722    3    0    1
 -2       170        14      1579      3385
 -1      8723    3    0    1
 -2      2742      2663      2825      3652
 -1      8724    3    0    1
 -2      2926      2843      1719      3123
 -1      8725    3    0    1
 -2      1512      1603      3324      3652
 -1      8726    3    0    1
 -2      2886      1426      1794      3123
 -1      8727    3    0    1
 -2      3140      2746      3596      3305
 -1      8728    3    0    1
 -2       173       169      1821      1868
 -1      8729    3    0    1
 -2      2971      2501      3599      3731
 -1      8730    3    0    1
 -2      1237      2679      3533      3066
 -1      8731    3    0    1
 -2      1237      1572      2679      3066
 -1      8732    3    0    1
 -2      1159      1657      2828      3044
 -1      8733    3    0    1
 -2      2683      2490      3543      3570
 -1      8734    3    0    1
 -2      2842      3598      3429      3483
 -1      8735    3    0    1
 -2      2718      2642      3561      3570
 -1      8736    3    0    1
 -2      2820      2718      3561      3570
 -1      8737    3    0    1
 -2      1297      2189      2609      3704
 -1      8738    3    0    1
 -2      2026       982      2609      3704
 -1      8739    3    0    1
 -2      3543      2758      3438      3570
 -1      8740    3    0    1
 -2      2557      3598      3405      3483
 -1      8741    3    0    1
 -2      2758      2726      2951      3570
 -1      8742    3    0    1
 -2      2670      2726      2758      3570
 -1      8743    3    0    1
 -2      2758      2951      2952      3570
 -1      8744    3    0    1
 -2      2509      2723      2813      3570
 -1      8745    3    0    1
 -2      2509      2534      2723      3570
 -1      8746    3    0    1
 -2      1447      1618      3562      3711
 -1      8747    3    0    1
 -2       449       558      2999      3180
 -1      8748    3    0    1
 -2      2820      2634      2842      3570
 -1      8749    3    0    1
 -2      2813      2723      2934      3570
 -1      8750    3    0    1
 -2      2642      2509      2813      3570
 -1      8751    3    0    1
 -2      2534      2683      2723      3570
 -1      8752    3    0    1
 -2      2509      2642      2718      3570
 -1      8753    3    0    1
 -2      2138      1294      2205      3621
 -1      8754    3    0    1
 -2      2509      2718      2750      3570
 -1      8755    3    0    1
 -2      2670      2559      2726      3570
 -1      8756    3    0    1
 -2      2723      2683      2775      3570
 -1      8757    3    0    1
 -2      2680      1586      3094      3369
 -1      8758    3    0    1
 -2      3409      1457      3429      3483
 -1      8759    3    0    1
 -2      1540      1539      3014      3267
 -1      8760    3    0    1
 -2      1429      1428      2653      3050
 -1      8761    3    0    1
 -2      3561      2726      3570      3290
 -1      8762    3    0    1
 -2      3616      1829      3635      1866
 -1      8763    3    0    1
 -2      1710      2581      3068      3111
 -1      8764    3    0    1
 -2      2911      1695      3248      1853
 -1      8765    3    0    1
 -2      3020      1509      1427      3423
 -1      8766    3    0    1
 -2      2709      2621      2919      3609
 -1      8767    3    0    1
 -2      2931      2061      3573      3105
 -1      8768    3    0    1
 -2      3039      2965      3588      3105
 -1      8769    3    0    1
 -2      2951      2934      3570      3290
 -1      8770    3    0    1
 -2      3084      1879      1880      1945
 -1      8771    3    0    1
 -2      2750      1494      3034      1763
 -1      8772    3    0    1
 -2       969      1294      2138      3621
 -1      8773    3    0    1
 -2      3506      3509      3539      3621
 -1      8774    3    0    1
 -2      3358      3564      3678      3695
 -1      8775    3    0    1
 -2      1692      1592      2992      3659
 -1      8776    3    0    1
 -2      1625      1701      1702      3077
 -1      8777    3    0    1
 -2      3574      2586      3660      3464
 -1      8778    3    0    1
 -2      2764      2592      2867      3625
 -1      8779    3    0    1
 -2      2977      3138      3622      3330
 -1      8780    3    0    1
 -2      1626      1625      1702      3077
 -1      8781    3    0    1
 -2      2897      2725      3596      3310
 -1      8782    3    0    1
 -2      3015      3572      3612      3655
 -1      8783    3    0    1
 -2      3605      1889      3389      3706
 -1      8784    3    0    1
 -2      3616      1829      1866      3303
 -1      8785    3    0    1
 -2      1027      1320      3338      3665
 -1      8786    3    0    1
 -2      1812       408      3618      3255
 -1      8787    3    0    1
 -2      1763      2821      1764      3152
 -1      8788    3    0    1
 -2      2736      2529      2751      3572
 -1      8789    3    0    1
 -2      2751      2529      2769      3572
 -1      8790    3    0    1
 -2      2736      2751      2901      3572
 -1      8791    3    0    1
 -2      2529      2633      2769      3572
 -1      8792    3    0    1
 -2      3211      3210      1883      1884
 -1      8793    3    0    1
 -2       754      1714      3035      3572
 -1      8794    3    0    1
 -2      2981      1652      3232      1887
 -1      8795    3    0    1
 -2      3015      3035      3572      3655
 -1      8796    3    0    1
 -2      2273      1040      2598      3723
 -1      8797    3    0    1
 -2      2796      1284      2963      3625
 -1      8798    3    0    1
 -2      2963      1594      3226      3625
 -1      8799    3    0    1
 -2       206      2981      1772      1887
 -1      8800    3    0    1
 -2      3610      3231      3496      3500
 -1      8801    3    0    1
 -2      1565      1564      1735      3224
 -1      8802    3    0    1
 -2       264       347      1536      3203
 -1      8803    3    0    1
 -2      2718      2750      3570      3193
 -1      8804    3    0    1
 -2      3112      1637      3169      3657
 -1      8805    3    0    1
 -2      1646      3567      1783      3176
 -1      8806    3    0    1
 -2      1469      1470      1620      3117
 -1      8807    3    0    1
 -2      1766      1601      1767      3336
 -1      8808    3    0    1
 -2      2820      2718      3570      3193
 -1      8809    3    0    1
 -2       114      2823      1718      1767
 -1      8810    3    0    1
 -2        98      1718      1766      1767
 -1      8811    3    0    1
 -2        98       114      1718      1767
 -1      8812    3    0    1
 -2      2922      1646      3291      3337
 -1      8813    3    0    1
 -2      3523      2162      3534      3731
 -1      8814    3    0    1
 -2      3021      2743      3640      3334
 -1      8815    3    0    1
 -2      2582      2740      3568      3172
 -1      8816    3    0    1
 -2      3389      3381      3709      3499
 -1      8817    3    0    1
 -2       433      3626      3284      1860
 -1      8818    3    0    1
 -2      2770      2524      2873      3669
 -1      8819    3    0    1
 -2       473      2562      2796      3070
 -1      8820    3    0    1
 -2      3166      2732      3642      3659
 -1      8821    3    0    1
 -2      2396      2250      3503      3338
 -1      8822    3    0    1
 -2      3536      1530      3597      3658
 -1      8823    3    0    1
 -2      1539      1727      1728      3267
 -1      8824    3    0    1
 -2      1714      2751      3572      3241
 -1      8825    3    0    1
 -2      2851      3112      3624      3657
 -1      8826    3    0    1
 -2      1309      3554      3594      3613
 -1      8827    3    0    1
 -2      1201      3317      3494      3736
 -1      8828    3    0    1
 -2       439       332      1846      1878
 -1      8829    3    0    1
 -2      2823      1606      1718      3336
 -1      8830    3    0    1
 -2      1734      1735      3038      3106
 -1      8831    3    0    1
 -2      2785      2565      3590      3614
 -1      8832    3    0    1
 -2      2766      2525      3528      3686
 -1      8833    3    0    1
 -2      3566      3558      3581      3609
 -1      8834    3    0    1
 -2      1002      1309      3594      3613
 -1      8835    3    0    1
 -2       754      1714      3572      3241
 -1      8836    3    0    1
 -2      1744      2890      3585      3446
 -1      8837    3    0    1
 -2      3158      1553      3308      3367
 -1      8838    3    0    1
 -2      2890      1744      1745      3446
 -1      8839    3    0    1
 -2      3533      2888      3619      3377
 -1      8840    3    0    1
 -2      1653      1652      3183      1888
 -1      8841    3    0    1
 -2      2218      2752      3574      3602
 -1      8842    3    0    1
 -2      1483      1714      3572      3156
 -1      8843    3    0    1
 -2      1616      2671      2906      3052
 -1      8844    3    0    1
 -2      2712      3569      3652      3339
 -1      8845    3    0    1
 -2      2510      3031      3668      3702
 -1      8846    3    0    1
 -2      3682      2700      3407      3716
 -1      8847    3    0    1
 -2      1613      1612      1879      3344
 -1      8848    3    0    1
 -2      3519      1543      3381      3709
 -1      8849    3    0    1
 -2      1852      1851      3387      1942
 -1      8850    3    0    1
 -2      2981      1887      1893      3487
 -1      8851    3    0    1
 -2      2712      2957      3569      3339
 -1      8852    3    0    1
 -2      1596      1759      3310      3653
 -1      8853    3    0    1
 -2      1418      2636      3199      3653
 -1      8854    3    0    1
 -2      2658      2489      2684      3652
 -1      8855    3    0    1
 -2      1603       986      3324      3652
 -1      8856    3    0    1
 -2      2201       407      3521      3688
 -1      8857    3    0    1
 -2      1811      1810      3247      1908
 -1      8858    3    0    1
 -2      2907      1759      3211      3653
 -1      8859    3    0    1
 -2      3692      2825       340      1650
 -1      8860    3    0    1
 -2        24      1553      2702      1800
 -1      8861    3    0    1
 -2      1768      1788      3349      1948
 -1      8862    3    0    1
 -2       210      1023      2471      3582
 -1      8863    3    0    1
 -2       334       333      3526      3582
 -1      8864    3    0    1
 -2       334       201      2616      3582
 -1      8865    3    0    1
 -2      2471      1023      2616      3582
 -1      8866    3    0    1
 -2      2671      1616      3118      1845
 -1      8867    3    0    1
 -2       337       336      3694      3481
 -1      8868    3    0    1
 -2      1665      2669      3584      3593
 -1      8869    3    0    1
 -2      2625      1576      2790      3593
 -1      8870    3    0    1
 -2      3608      3610      3664      3496
 -1      8871    3    0    1
 -2       907      1645      2960      3057
 -1      8872    3    0    1
 -2        44       217      1839      1871
 -1      8873    3    0    1
 -2      1541      1542      2993      3162
 -1      8874    3    0    1
 -2      2998      1594      3636      3329
 -1      8875    3    0    1
 -2       986      1301      2143      3577
 -1      8876    3    0    1
 -2      3243      2819      3715      3468
 -1      8877    3    0    1
 -2      1627      1294      3538      3184
 -1      8878    3    0    1
 -2       332       439      1846      1861
 -1      8879    3    0    1
 -2      1468      2946      3071      3143
 -1      8880    3    0    1
 -2      3071      2946      3585      3143
 -1      8881    3    0    1
 -2      1760      1759      3076      3157
 -1      8882    3    0    1
 -2      2727      2840      1738      3060
 -1      8883    3    0    1
 -2      1738      2840      1739      3060
 -1      8884    3    0    1
 -2      2730      2582      3568      3172
 -1      8885    3    0    1
 -2      2889      2823      3657      3382
 -1      8886    3    0    1
 -2      1544      1518      1545      3250
 -1      8887    3    0    1
 -2      2654      3035      3655      3674
 -1      8888    3    0    1
 -2      2396      3503      3634      3338
 -1      8889    3    0    1
 -2      3238      1825      3407      3701
 -1      8890    3    0    1
 -2      2576      2977      3627      3714
 -1      8891    3    0    1
 -2      3422      1461      1964      3737
 -1      8892    3    0    1
 -2      2777      2185      2782      3715
 -1      8893    3    0    1
 -2      1491      3001      3048      3319
 -1      8894    3    0    1
 -2      3279      3565      3637      3456
 -1      8895    3    0    1
 -2      3095       276      1890      1891
 -1      8896    3    0    1
 -2      1284      2796      3535      3575
 -1      8897    3    0    1
 -2      2547      1284      3514      3575
 -1      8898    3    0    1
 -2      3505      1336      3679      3693
 -1      8899    3    0    1
 -2      3389      3709      1947      3499
 -1      8900    3    0    1
 -2      1413      1568      2648      3575
 -1      8901    3    0    1
 -2      1413      2628      1696      3575
 -1      8902    3    0    1
 -2      2646      1413      2648      3575
 -1      8903    3    0    1
 -2      3506      1520      3101      3626
 -1      8904    3    0    1
 -2      3549      3506      3621      3663
 -1      8905    3    0    1
 -2      1683      1682      3239      3301
 -1      8906    3    0    1
 -2      2781      1068      3627      3315
 -1      8907    3    0    1
 -2      1518      1519      3011      3250
 -1      8908    3    0    1
 -2      1627      3538      2930      3184
 -1      8909    3    0    1
 -2       673      1896      1897      3361
 -1      8910    3    0    1
 -2      1305      3536      1703      3597
 -1      8911    3    0    1
 -2      2292      1309      3554      3576
 -1      8912    3    0    1
 -2      3536      2852      3547      3576
 -1      8913    3    0    1
 -2      1524      2972      2978      3182
 -1      8914    3    0    1
 -2      2243      2292      3536      3576
 -1      8915    3    0    1
 -2      1309      2243      3536      3576
 -1      8916    3    0    1
 -2      2243      1309      2292      3576
 -1      8917    3    0    1
 -2      2673      2292      2852      3576
 -1      8918    3    0    1
 -2        44      1698      3191      1872
 -1      8919    3    0    1
 -2       114      2823      1767      1778
 -1      8920    3    0    1
 -2       720       709      2948      3067
 -1      8921    3    0    1
 -2      2553      3612      3682      3716
 -1      8922    3    0    1
 -2      1470      1469      2919      3117
 -1      8923    3    0    1
 -2      2727      2528      3675      3710
 -1      8924    3    0    1
 -2      1564      1565      2989      3224
 -1      8925    3    0    1
 -2       248       237      3698      3723
 -1      8926    3    0    1
 -2      3519      2574      3545      3709
 -1      8927    3    0    1
 -2      2574      2841      3545      3709
 -1      8928    3    0    1
 -2       347      3203      3604      1536
 -1      8929    3    0    1
 -2       343      2465      2578      3698
 -1      8930    3    0    1
 -2      1730      1494      3042      3193
 -1      8931    3    0    1
 -2      3126      3157      1883      1904
 -1      8932    3    0    1
 -2      2980      1608      3061      3190
 -1      8933    3    0    1
 -2      3053      2682      3644      3651
 -1      8934    3    0    1
 -2      1594      3073      1786      1787
 -1      8935    3    0    1
 -2      1494      2750      3042      3193
 -1      8936    3    0    1
 -2      2745      1145      2946      3071
 -1      8937    3    0    1
 -2      3517      1424      3525      3078
 -1      8938    3    0    1
 -2       399       400      3541      3403
 -1      8939    3    0    1
 -2      1633      1632      3074      1891
 -1      8940    3    0    1
 -2      3322      1789      3670      3380
 -1      8941    3    0    1
 -2      2764      1594      3073      3625
 -1      8942    3    0    1
 -2       264       347      3203      1841
 -1      8943    3    0    1
 -2      2581      1430      1710      3068
 -1      8944    3    0    1
 -2       114      1709      1767      3068
 -1      8945    3    0    1
 -2      1430      2581      2583      3068
 -1      8946    3    0    1
 -2       994       173      3561      1821
 -1      8947    3    0    1
 -2      1685      1479      2956      3319
 -1      8948    3    0    1
 -2       340      1650      1680      3577
 -1      8949    3    0    1
 -2      3009      3011      3597      3250
 -1      8950    3    0    1
 -2      1523       332      3631      1878
 -1      8951    3    0    1
 -2      3559      2831      3086      3487
 -1      8952    3    0    1
 -2      1632      1421      3627      3326
 -1      8953    3    0    1
 -2      3230      2954      3641      3646
 -1      8954    3    0    1
 -2        23      3234      1879      1880
 -1      8955    3    0    1
 -2      2584      2143      2651      3577
 -1      8956    3    0    1
 -2       986       340      1301      3577
 -1      8957    3    0    1
 -2      2711      2893      3063      3069
 -1      8958    3    0    1
 -2      2711      2596      2893      3069
 -1      8959    3    0    1
 -2      3594      3613      3270      3658
 -1      8960    3    0    1
 -2      1734      1798      3166      3186
 -1      8961    3    0    1
 -2      1422      1421      1818      3207
 -1      8962    3    0    1
 -2      2489      2658      2663      3652
 -1      8963    3    0    1
 -2      1459      1530      3536      3658
 -1      8964    3    0    1
 -2      3613       171      3270      3658
 -1      8965    3    0    1
 -2      2562       908      2720      3070
 -1      8966    3    0    1
 -2       237      1040      2273      3723
 -1      8967    3    0    1
 -2       173      1703      3603      1868
 -1      8968    3    0    1
 -2      3603       169      3352      3623
 -1      8969    3    0    1
 -2      1440      1576      3155      3165
 -1      8970    3    0    1
 -2      2815      2685      3084      3590
 -1      8971    3    0    1
 -2       961       119      3583      3628
 -1      8972    3    0    1
 -2      1493      1730      1731      3297
 -1      8973    3    0    1
 -2      1576      3551      2970      3155
 -1      8974    3    0    1
 -2      2915      1808      1809      1850
 -1      8975    3    0    1
 -2      3558      3566      3119      3609
 -1      8976    3    0    1
 -2      1491      1685      3001      3319
 -1      8977    3    0    1
 -2      1439      1438      3137      3374
 -1      8978    3    0    1
 -2      1290       969      3549      3618
 -1      8979    3    0    1
 -2      2968      1821      1822      1868
 -1      8980    3    0    1
 -2       151      1614      1615      3240
 -1      8981    3    0    1
 -2      2818      1575      3146      1838
 -1      8982    3    0    1
 -2      2541      1754      3203      3604
 -1      8983    3    0    1
 -2      2960      3527      3271      3327
 -1      8984    3    0    1
 -2       977       151      1298      3579
 -1      8985    3    0    1
 -2      2487      2205      2584      3579
 -1      8986    3    0    1
 -2      2853      3565      3126      3221
 -1      8987    3    0    1
 -2      2823      2889      3336      3382
 -1      8988    3    0    1
 -2      3559      3202      3675      3710
 -1      8989    3    0    1
 -2      2768      2658      2839      3580
 -1      8990    3    0    1
 -2      1557      2768      2839      3580
 -1      8991    3    0    1
 -2      2684      1557      2839      3580
 -1      8992    3    0    1
 -2      1660      3513      3600      3662
 -1      8993    3    0    1
 -2      1675       346      2970      1889
 -1      8994    3    0    1
 -2       738      2342      2618      3338
 -1      8995    3    0    1
 -2      2684      2489      2778      3580
 -1      8996    3    0    1
 -2      2489      2523      2778      3580
 -1      8997    3    0    1
 -2      2232       352      2440      3686
 -1      8998    3    0    1
 -2      1413      1568      3548      3662
 -1      8999    3    0    1
 -2      1557      1610      2768      3580
 -1      9000    3    0    1
 -2      1610      1573      2768      3580
 -1      9001    3    0    1
 -2       684      3361      3426      3702
 -1      9002    3    0    1
 -2      3234      1711      1879      3344
 -1      9003    3    0    1
 -2      2658      2684      2839      3580
 -1      9004    3    0    1
 -2      2896      2882      3054      3581
 -1      9005    3    0    1
 -2      2982      2988      3023      3581
 -1      9006    3    0    1
 -2      2760      2844      2988      3581
 -1      9007    3    0    1
 -2      1752      2896      3054      3581
 -1      9008    3    0    1
 -2      2844      2845      2988      3581
 -1      9009    3    0    1
 -2      2657      2882      2896      3581
 -1      9010    3    0    1
 -2      1682      1752      3054      3581
 -1      9011    3    0    1
 -2       808      2896      1752      3581
 -1      9012    3    0    1
 -2       549       450      1873      3348
 -1      9013    3    0    1
 -2      1678      2869      2870      3584
 -1      9014    3    0    1
 -2      1678       226      2869      3584
 -1      9015    3    0    1
 -2       673       684      1896      3361
 -1      9016    3    0    1
 -2      1662      1524      2978      3182
 -1      9017    3    0    1
 -2      1772      2981      3232      1887
 -1      9018    3    0    1
 -2      1652      3140      3183      1887
 -1      9019    3    0    1
 -2      2746      3596      3305      3488
 -1      9020    3    0    1
 -2      1789      1873      1874      3348
 -1      9021    3    0    1
 -2      2747      2895      3287      3488
 -1      9022    3    0    1
 -2      1687      2757      3058      3584
 -1      9023    3    0    1
 -2      2654      1324      2955      3584
 -1      9024    3    0    1
 -2      2669      2542      2757      3584
 -1      9025    3    0    1
 -2      2625      2542      2669      3584
 -1      9026    3    0    1
 -2      1665      2669      2869      3584
 -1      9027    3    0    1
 -2      1324      1678      2955      3584
 -1      9028    3    0    1
 -2      1002      1309      3536      3594
 -1      9029    3    0    1
 -2      1415      2625      2669      3584
 -1      9030    3    0    1
 -2      2869      2669      2870      3584
 -1      9031    3    0    1
 -2      2565      3553      3590      3614
 -1      9032    3    0    1
 -2      1678      1679      3264      1895
 -1      9033    3    0    1
 -2      1466      1687      2955      3584
 -1      9034    3    0    1
 -2      1790      1789      1874      3348
 -1      9035    3    0    1
 -2      1068      1336      3627      3679
 -1      9036    3    0    1
 -2      1592      1464      3000      3585
 -1      9037    3    0    1
 -2      3523      1445      1736      3681
 -1      9038    3    0    1
 -2       558       449      1638      3180
 -1      9039    3    0    1
 -2      2809       736      2950      3080
 -1      9040    3    0    1
 -2      1462      1463      2799      3159
 -1      9041    3    0    1
 -2      2891       754      1714      3295
 -1      9042    3    0    1
 -2      1462      2799      3565      3159
 -1      9043    3    0    1
 -2      2799      2674      3565      3159
 -1      9044    3    0    1
 -2      3512      3511      3513      3628
 -1      9045    3    0    1
 -2      3506      1600      3549      3629
 -1      9046    3    0    1
 -2      1761      3152      3449      1746
 -1      9047    3    0    1
 -2      1826      1789      1827      3277
 -1      9048    3    0    1
 -2      1681      2788      3173      3346
 -1      9049    3    0    1
 -2      3006      3298      3640      3316
 -1      9050    3    0    1
 -2      2232      2766      3528      3686
 -1      9051    3    0    1
 -2      3266      1487      1885      3671
 -1      9052    3    0    1
 -2      3532      1435      3615      3734
 -1      9053    3    0    1
 -2      3191        44      1872      1903
 -1      9054    3    0    1
 -2      1421      1422      3220      3326
 -1      9055    3    0    1
 -2      1730      3561      3147      1821
 -1      9056    3    0    1
 -2      1540      1727      3267      3327
 -1      9057    3    0    1
 -2      1810      1811      3247      3470
 -1      9058    3    0    1
 -2      1612      3234      3271      1880
 -1      9059    3    0    1
 -2      1661      1414      3083      3084
 -1      9060    3    0    1
 -2       276       279      1890      1892
 -1      9061    3    0    1
 -2      1612      3044      3083      1880
 -1      9062    3    0    1
 -2      1612      3083      3084      1880
 -1      9063    3    0    1
 -2      3235      3305      1936      3488
 -1      9064    3    0    1
 -2      3109      2995      3647      3488
 -1      9065    3    0    1
 -2      3522      2777      3201      3711
 -1      9066    3    0    1
 -2      3047      3357      3494      3736
 -1      9067    3    0    1
 -2       702       691      2938      3209
 -1      9068    3    0    1
 -2      2916      3559      3585      3667
 -1      9069    3    0    1
 -2       691      1798      1799      3209
 -1      9070    3    0    1
 -2      2931      2927      3573      3735
 -1      9071    3    0    1
 -2      3124      2505      3618      2807
 -1      9072    3    0    1
 -2      3064      3533      3102      3619
 -1      9073    3    0    1
 -2      2527      2877      2892      3089
 -1      9074    3    0    1
 -2      1696      3575      1786      1840
 -1      9075    3    0    1
 -2      1141      1446      3018      3090
 -1      9076    3    0    1
 -2      2292      3554      3280      3632
 -1      9077    3    0    1
 -2      2966       684      1896      3678
 -1      9078    3    0    1
 -2      3006      2743      3640      3673
 -1      9079    3    0    1
 -2      1449      2776      2792      3182
 -1      9080    3    0    1
 -2      1917      1851      3435      3708
 -1      9081    3    0    1
 -2      3538      3096      3640      3673
 -1      9082    3    0    1
 -2      1483      2974      3565      3295
 -1      9083    3    0    1
 -2      1792      1803      3282      3701
 -1      9084    3    0    1
 -2      2645      2748      3667      3675
 -1      9085    3    0    1
 -2      2241      2600      3516      3635
 -1      9086    3    0    1
 -2      2153       712      2388      3280
 -1      9087    3    0    1
 -2       347      1052      1841      3635
 -1      9088    3    0    1
 -2      2681      2872      3565      3221
 -1      9089    3    0    1
 -2      1761       655      1762      3139
 -1      9090    3    0    1
 -2       340       986      1603      3652
 -1      9091    3    0    1
 -2      1643      1541      2993      3372
 -1      9092    3    0    1
 -2      2714      1436      2715      3628
 -1      9093    3    0    1
 -2       961      2290      3512      3628
 -1      9094    3    0    1
 -2      3511      2285      3517      3628
 -1      9095    3    0    1
 -2      2714      2715      3555      3628
 -1      9096    3    0    1
 -2       119      1509      2715      3628
 -1      9097    3    0    1
 -2      2967      2668      3003      3349
 -1      9098    3    0    1
 -2       961      3512      2859      3628
 -1      9099    3    0    1
 -2      2967      1619      1768      3349
 -1      9100    3    0    1
 -2      2485      2201      3510      3411
 -1      9101    3    0    1
 -2      1280      3588      3437      3592
 -1      9102    3    0    1
 -2      2685      2565      2812      3590
 -1      9103    3    0    1
 -2      3013      1442      3044      3590
 -1      9104    3    0    1
 -2      1727      1442      3013      3590
 -1      9105    3    0    1
 -2      2565      2685      2785      3590
 -1      9106    3    0    1
 -2      2680      1586      2878      3094
 -1      9107    3    0    1
 -2      1586       932      2878      3094
 -1      9108    3    0    1
 -2      1511      1448      3627      3679
 -1      9109    3    0    1
 -2      2785      2685      2815      3590
 -1      9110    3    0    1
 -2      2665      2707      2774      3096
 -1      9111    3    0    1
 -2       977      1294      2665      3096
 -1      9112    3    0    1
 -2       977      2665      2774      3096
 -1      9113    3    0    1
 -2      1294       977      3538      3096
 -1      9114    3    0    1
 -2       666       655      1885      3364
 -1      9115    3    0    1
 -2      1821       169      1822      1868
 -1      9116    3    0    1
 -2      2955      1466      3584      1894
 -1      9117    3    0    1
 -2      2665      1294      2707      3096
 -1      9118    3    0    1
 -2      1703       173      1821      1868
 -1      9119    3    0    1
 -2      2964      1469      3117      3609
 -1      9120    3    0    1
 -2      3002      3021      3640      3354
 -1      9121    3    0    1
 -2      3098      1466      1894      1895
 -1      9122    3    0    1
 -2      2750      2509      3570      3598
 -1      9123    3    0    1
 -2      1704      1469      2964      3609
 -1      9124    3    0    1
 -2      1767      1710        98       114
 -1      9125    3    0    1
 -2      2918      1555      3119      3609
 -1      9126    3    0    1
 -2      3566      2635      3119      3609
 -1      9127    3    0    1
 -2      2061      3573      3650      3735
 -1      9128    3    0    1
 -2      1564      1734      3224      3642
 -1      9129    3    0    1
 -2       748      1320      2342      3338
 -1      9130    3    0    1
 -2      1417      1416      2816      1864
 -1      9131    3    0    1
 -2      1766        98      1767      3111
 -1      9132    3    0    1
 -2      1413      3197      3662      3735
 -1      9133    3    0    1
 -2       969      1290      2687      3618
 -1      9134    3    0    1
 -2      3538      2929      3184      3673
 -1      9135    3    0    1
 -2        14       170      1579      3190
 -1      9136    3    0    1
 -2      2781      2912      3622      3627
 -1      9137    3    0    1
 -2      1068      1336      2781      3627
 -1      9138    3    0    1
 -2      3061      1608      1815      3190
 -1      9139    3    0    1
 -2      2848      1608      2980      3190
 -1      9140    3    0    1
 -2      1010      1313      3280      3632
 -1      9141    3    0    1
 -2      3554      1010      3280      3632
 -1      9142    3    0    1
 -2       434       346      2860      1947
 -1      9143    3    0    1
 -2      2638      2505      3607      3614
 -1      9144    3    0    1
 -2       346       434      3706      1947
 -1      9145    3    0    1
 -2      1551      2775      2903      3438
 -1      9146    3    0    1
 -2      2185      2228      2819      3243
 -1      9147    3    0    1
 -2      2528      3559      3675      3710
 -1      9148    3    0    1
 -2      1601      1767      3336      3382
 -1      9149    3    0    1
 -2      1573      2768      3580      3102
 -1      9150    3    0    1
 -2      3266      1487      3671      3452
 -1      9151    3    0    1
 -2      3314      3597      3408      3702
 -1      9152    3    0    1
 -2      3127      3126      3157      3436
 -1      9153    3    0    1
 -2      1652      1653      3183      3235
 -1      9154    3    0    1
 -2       946       955      3578      1796
 -1      9155    3    0    1
 -2        93       946      2255      1796
 -1      9156    3    0    1
 -2      1557      1610      1611      3103
 -1      9157    3    0    1
 -2      3439      1413      3485      3735
 -1      9158    3    0    1
 -2      2886      1502      1794      1795
 -1      9159    3    0    1
 -2      3064      3533      3619      3377
 -1      9160    3    0    1
 -2      3026      2682      3651      3667
 -1      9161    3    0    1
 -2        93      2255      3578      1796
 -1      9162    3    0    1
 -2       556       560       946      1796
 -1      9163    3    0    1
 -2        93       556       946      1796
 -1      9164    3    0    1
 -2       560        93       398      1796
 -1      9165    3    0    1
 -2        93       560       556      1796
 -1      9166    3    0    1
 -2       399       398      3578      1797
 -1      9167    3    0    1
 -2      3578       398      1796      1797
 -1      9168    3    0    1
 -2       399       569       577      1797
 -1      9169    3    0    1
 -2       399       400       569      1797
 -1      9170    3    0    1
 -2      2968      1703      1821      1868
 -1      9171    3    0    1
 -2      3288      2941      3641      3356
 -1      9172    3    0    1
 -2      3620      2848      3320      3355
 -1      9173    3    0    1
 -2      3620      3137      3281      3355
 -1      9174    3    0    1
 -2      3547      1459      3599      3352
 -1      9175    3    0    1
 -2      2553      3144      3238      3701
 -1      9176    3    0    1
 -2      3137      1438      3281      3355
 -1      9177    3    0    1
 -2      1438      1856      3281      3355
 -1      9178    3    0    1
 -2       237      3392      2273      2615
 -1      9179    3    0    1
 -2      1518      1810      1811      3314
 -1      9180    3    0    1
 -2      2942      3180      3624      3323
 -1      9181    3    0    1
 -2       332      1523      1845      1878
 -1      9182    3    0    1
 -2      1553      1554      3308      1876
 -1      9183    3    0    1
 -2      2479      2361      2612      3696
 -1      9184    3    0    1
 -2      3079      1761      3598      3390
 -1      9185    3    0    1
 -2      3527      2704      3325      3680
 -1      9186    3    0    1
 -2      2682      3651      3667      3675
 -1      9187    3    0    1
 -2      1565      1564      3051      3106
 -1      9188    3    0    1
 -2      3170      3120      3668      3449
 -1      9189    3    0    1
 -2      3002      1614      3240      3354
 -1      9190    3    0    1
 -2      2813      2934      3273      3290
 -1      9191    3    0    1
 -2       619      3298      1899      1900
 -1      9192    3    0    1
 -2       354       352      3528      3686
 -1      9193    3    0    1
 -2      1687      1623      2943      3104
 -1      9194    3    0    1
 -2      2943      1623      3040      3104
 -1      9195    3    0    1
 -2      2685      3590      3135      3367
 -1      9196    3    0    1
 -2      3672      1423      3431      3700
 -1      9197    3    0    1
 -2      2816      3274      1864      1865
 -1      9198    3    0    1
 -2      1570        24      2702      1800
 -1      9199    3    0    1
 -2      1914      3461      1964      3737
 -1      9200    3    0    1
 -2      1935        29      1941      1961
 -1      9201    3    0    1
 -2      1603      1604      2932      3272
 -1      9202    3    0    1
 -2       450      3214      1858      1859
 -1      9203    3    0    1
 -2      1471      1472      2808      3107
 -1      9204    3    0    1
 -2      3565      2883      3279      3637
 -1      9205    3    0    1
 -2      2589      1410      3448      3737
 -1      9206    3    0    1
 -2      2771      3533      2939      3108
 -1      9207    3    0    1
 -2      2939      3533      3066      3108
 -1      9208    3    0    1
 -2      1455      1454      2800      3228
 -1      9209    3    0    1
 -2      2771      2939      3025      3108
 -1      9210    3    0    1
 -2      1669      1670      3113      1871
 -1      9211    3    0    1
 -2      1506      2990      1776      3109
 -1      9212    3    0    1
 -2      1489      2627      2868      3646
 -1      9213    3    0    1
 -2      1706      2921      1939      3489
 -1      9214    3    0    1
 -2      2989      1564      3224      3642
 -1      9215    3    0    1
 -2      2733      3286      3636      3646
 -1      9216    3    0    1
 -2      1602      1601      2856      3111
 -1      9217    3    0    1
 -2      1710      1767        98      3111
 -1      9218    3    0    1
 -2      1519      1544      3163      3469
 -1      9219    3    0    1
 -2      1697      1456      3554      3717
 -1      9220    3    0    1
 -2      1460      1637      1774      3112
 -1      9221    3    0    1
 -2      1600       408      3255      3618
 -1      9222    3    0    1
 -2      1323       343      2578      3723
 -1      9223    3    0    1
 -2      1459      3536      3547      3658
 -1      9224    3    0    1
 -2      1637      1774      3112      3160
 -1      9225    3    0    1
 -2        28        27      1702      3160
 -1      9226    3    0    1
 -2      1499      1671      2908      3113
 -1      9227    3    0    1
 -2      2510      2536      2722      3620
 -1      9228    3    0    1
 -2      1839        44      1871      1872
 -1      9229    3    0    1
 -2      1452      3504      3574      3644
 -1      9230    3    0    1
 -2      3504      1452      3563      3644
 -1      9231    3    0    1
 -2      2580      2695      3659      3358
 -1      9232    3    0    1
 -2      1336       279      3679      3693
 -1      9233    3    0    1
 -2      2948       720      3067      3391
 -1      9234    3    0    1
 -2      1641      1640      1717      3116
 -1      9235    3    0    1
 -2      1716      2827      1717      3116
 -1      9236    3    0    1
 -2      1640      1716      1717      3116
 -1      9237    3    0    1
 -2      1714      3035      3572      3156
 -1      9238    3    0    1
 -2      2741      2919      3558      3117
 -1      9239    3    0    1
 -2      3591      2597      3396      3450
 -1      9240    3    0    1
 -2      2611      3254      3668      3671
 -1      9241    3    0    1
 -2      1567      2620      3313      3453
 -1      9242    3    0    1
 -2      1431      2677      3018      3442
 -1      9243    3    0    1
 -2       329       196      1779      3443
 -1      9244    3    0    1
 -2      1599      1598      2890      3283
 -1      9245    3    0    1
 -2      1555       790      2918      3119
 -1      9246    3    0    1
 -2      2710      3558      2962      3119
 -1      9247    3    0    1
 -2       738      2046      3634      3338
 -1      9248    3    0    1
 -2      2962      3558      3566      3119
 -1      9249    3    0    1
 -2      3503      3562      3634      3665
 -1      9250    3    0    1
 -2      1765       185      1830      3613
 -1      9251    3    0    1
 -2       185       171      1830      3613
 -1      9252    3    0    1
 -2      2857      2962      3566      3119
 -1      9253    3    0    1
 -2      3503      3634      3338      3665
 -1      9254    3    0    1
 -2      2918       790      2961      3119
 -1      9255    3    0    1
 -2       790      2857      2961      3119
 -1      9256    3    0    1
 -2      2961      2857      3566      3119
 -1      9257    3    0    1
 -2      2635      2961      3566      3119
 -1      9258    3    0    1
 -2      2205      3509      3538      3672
 -1      9259    3    0    1
 -2      2635      2918      2961      3119
 -1      9260    3    0    1
 -2      2702      1570      1800      3589
 -1      9261    3    0    1
 -2      1553      1504      2622      3589
 -1      9262    3    0    1
 -2      3252      2941      3641      3708
 -1      9263    3    0    1
 -2      3387      3097      3398      3708
 -1      9264    3    0    1
 -2      3350      1851      1917      3708
 -1      9265    3    0    1
 -2      1553      2702      1800      3589
 -1      9266    3    0    1
 -2      1553      2622      2702      3589
 -1      9267    3    0    1
 -2      2794      2925      1800      3589
 -1      9268    3    0    1
 -2      2629      2518      2755      3589
 -1      9269    3    0    1
 -2      2595      2518      2629      3589
 -1      9270    3    0    1
 -2      3641      3277      3356      3708
 -1      9271    3    0    1
 -2      2518      2595      2716      3589
 -1      9272    3    0    1
 -2      2878      1231      1800      3589
 -1      9273    3    0    1
 -2      1231      2794      1800      3589
 -1      9274    3    0    1
 -2      1301      2651      3577      3617
 -1      9275    3    0    1
 -2      2791      3097      3110      3708
 -1      9276    3    0    1
 -2      2595      2622      2716      3589
 -1      9277    3    0    1
 -2      1570      2878      1800      3589
 -1      9278    3    0    1
 -2      2925      1553      1800      3589
 -1      9279    3    0    1
 -2      1444      2595      2629      3589
 -1      9280    3    0    1
 -2      1444      2680      2878      3589
 -1      9281    3    0    1
 -2      2595      1570      2702      3589
 -1      9282    3    0    1
 -2      1570      1444      2878      3589
 -1      9283    3    0    1
 -2      2595      1444      1570      3589
 -1      9284    3    0    1
 -2      1504      1553      2925      3589
 -1      9285    3    0    1
 -2      2622      2595      2702      3589
 -1      9286    3    0    1
 -2      2743      3002      3021      3640
 -1      9287    3    0    1
 -2      2996      2802      3003      3591
 -1      9288    3    0    1
 -2      2530      2597      2987      3591
 -1      9289    3    0    1
 -2      2530      2567      2597      3591
 -1      9290    3    0    1
 -2      3102      3064      3619      3377
 -1      9291    3    0    1
 -2      1035      2342      3532      3724
 -1      9292    3    0    1
 -2      1555       790      2996      3591
 -1      9293    3    0    1
 -2      2953      2530      2987      3591
 -1      9294    3    0    1
 -2      2953      2987      3036      3591
 -1      9295    3    0    1
 -2      2987      2631      3036      3591
 -1      9296    3    0    1
 -2      1616      3029      3033      3122
 -1      9297    3    0    1
 -2      2800      1640      2949      3122
 -1      9298    3    0    1
 -2       438      1782      3246      3676
 -1      9299    3    0    1
 -2      2888      3108      3227      3377
 -1      9300    3    0    1
 -2      2762      2713      3555      3123
 -1      9301    3    0    1
 -2      3555      2713      2975      3123
 -1      9302    3    0    1
 -2      1426      2822      2859      3123
 -1      9303    3    0    1
 -2      2859      2822      3555      3123
 -1      9304    3    0    1
 -2      2822      2762      3555      3123
 -1      9305    3    0    1
 -2      2843      2713      2886      3123
 -1      9306    3    0    1
 -2      2713      2762      2886      3123
 -1      9307    3    0    1
 -2      2762      2822      2886      3123
 -1      9308    3    0    1
 -2      1412      2884      1689      3592
 -1      9309    3    0    1
 -2      1689      2884      2976      3592
 -1      9310    3    0    1
 -2      2808      1471      3107      3289
 -1      9311    3    0    1
 -2      2990      1776      3109      3287
 -1      9312    3    0    1
 -2      2185      2841      3243      3715
 -1      9313    3    0    1
 -2      1280       353      1549      3592
 -1      9314    3    0    1
 -2      2701      2920      3644      3489
 -1      9315    3    0    1
 -2      1280      1549      2899      3592
 -1      9316    3    0    1
 -2      2782      3217      3711      3467
 -1      9317    3    0    1
 -2      2744      2807      3020      3124
 -1      9318    3    0    1
 -2      2505      2810      3607      3618
 -1      9319    3    0    1
 -2       682       686      1004      1944
 -1      9320    3    0    1
 -2      1727      1539      1728      3164
 -1      9321    3    0    1
 -2      1600      3687      1520      3455
 -1      9322    3    0    1
 -2      1687      1466      1688      3347
 -1      9323    3    0    1
 -2      2917      1504      3158      3194
 -1      9324    3    0    1
 -2      1638      1639      1780      3323
 -1      9325    3    0    1
 -2      1519      1518      1544      3250
 -1      9326    3    0    1
 -2      1598      2915      1744      3300
 -1      9327    3    0    1
 -2      3534      2162      3579      3611
 -1      9328    3    0    1
 -2      1798      3038      1799      3209
 -1      9329    3    0    1
 -2      2937      2916      3585      3667
 -1      9330    3    0    1
 -2      1810      3386      3470      3722
 -1      9331    3    0    1
 -2      3000      2937      3585      3667
 -1      9332    3    0    1
 -2      2745      3559      3026      3667
 -1      9333    3    0    1
 -2      1545      1544      3250      3360
 -1      9334    3    0    1
 -2      1762      1761      3152      3254
 -1      9335    3    0    1
 -2      1588       601      1589      3141
 -1      9336    3    0    1
 -2      2686      3519      3544      3661
 -1      9337    3    0    1
 -2      1560      1559      3304      1900
 -1      9338    3    0    1
 -2      2820       994      3561      1821
 -1      9339    3    0    1
 -2       961      3525      3583      3663
 -1      9340    3    0    1
 -2      1438      1439      2676      3472
 -1      9341    3    0    1
 -2      1519      1544      3597      3250
 -1      9342    3    0    1
 -2      1896      3131      1897      3361
 -1      9343    3    0    1
 -2      1416      3345      3714      3459
 -1      9344    3    0    1
 -2      1500      1562      3008      3369
 -1      9345    3    0    1
 -2      3610      1448      1867      3496
 -1      9346    3    0    1
 -2        94       432      1787      1840
 -1      9347    3    0    1
 -2      1651      3538      2930      1812
 -1      9348    3    0    1
 -2      1651       408      3538      1812
 -1      9349    3    0    1
 -2      3565      2880      3637      3456
 -1      9350    3    0    1
 -2      2823      2824      2889      3657
 -1      9351    3    0    1
 -2        24      1553      3308      1876
 -1      9352    3    0    1
 -2       411       410      3510      3727
 -1      9353    3    0    1
 -2       408       969      3549      3621
 -1      9354    3    0    1
 -2      1610      1557      1611      3419
 -1      9355    3    0    1
 -2      3567      2994      1783      3372
 -1      9356    3    0    1
 -2      1790      1789      1827      3376
 -1      9357    3    0    1
 -2      3531      2588      3596      3647
 -1      9358    3    0    1
 -2       720      1641      3067      1640
 -1      9359    3    0    1
 -2      1634       226      3179      3669
 -1      9360    3    0    1
 -2       285      2525      2575      3686
 -1      9361    3    0    1
 -2      1763      2821      3152      3185
 -1      9362    3    0    1
 -2      3018      2861      3090      3677
 -1      9363    3    0    1
 -2      1632      2912      3627      3278
 -1      9364    3    0    1
 -2      3171      3622      3627      3278
 -1      9365    3    0    1
 -2      1578      2848      3061      3190
 -1      9366    3    0    1
 -2      3709      1580      1947      3499
 -1      9367    3    0    1
 -2      2833      3567      3655      3372
 -1      9368    3    0    1
 -2      2162      2734      3463      3731
 -1      9369    3    0    1
 -2       279      1508      1890      1892
 -1      9370    3    0    1
 -2      2669      1415      3584      3593
 -1      9371    3    0    1
 -2      2654      1324      3584      3593
 -1      9372    3    0    1
 -2      2538      2593      2868      3646
 -1      9373    3    0    1
 -2      2314      2194      3505      3437
 -1      9374    3    0    1
 -2      1068      1280      2314      3437
 -1      9375    3    0    1
 -2       666       655      1761      3139
 -1      9376    3    0    1
 -2       655       666      2571      3139
 -1      9377    3    0    1
 -2      1747      1746      1762      3139
 -1      9378    3    0    1
 -2      1746      1747      3005      3139
 -1      9379    3    0    1
 -2      2924      2954      3230      3646
 -1      9380    3    0    1
 -2       808      3153      3622      1881
 -1      9381    3    0    1
 -2      1518      1544      1545      3163
 -1      9382    3    0    1
 -2      3525       961      3583      3628
 -1      9383    3    0    1
 -2      3398      3331      3435      3708
 -1      9384    3    0    1
 -2      3252      3641      3356      3708
 -1      9385    3    0    1
 -2      1871      3113      1872      1903
 -1      9386    3    0    1
 -2      2487      3402      3687      3700
 -1      9387    3    0    1
 -2      1828        59      1883      1884
 -1      9388    3    0    1
 -2      1597      1596      1760      3157
 -1      9389    3    0    1
 -2      3397      1851      3415      3454
 -1      9390    3    0    1
 -2      3214      3641      3348      3458
 -1      9391    3    0    1
 -2      2782      2185      2819      3715
 -1      9392    3    0    1
 -2      1573      1610      3640      3334
 -1      9393    3    0    1
 -2      3126      1699      3127      3157
 -1      9394    3    0    1
 -2      2586      2777      2830      3201
 -1      9395    3    0    1
 -2      2694      2890      3585      3143
 -1      9396    3    0    1
 -2      2946      3559      3585      3143
 -1      9397    3    0    1
 -2      3559      2946      2981      3143
 -1      9398    3    0    1
 -2      2876      3559      2981      3143
 -1      9399    3    0    1
 -2      2876      2694      3559      3143
 -1      9400    3    0    1
 -2      3559      2694      3585      3143
 -1      9401    3    0    1
 -2      1496      3596      3310      3653
 -1      9402    3    0    1
 -2      1642      3522      3586      3201
 -1      9403    3    0    1
 -2      3522      3574      3586      3201
 -1      9404    3    0    1
 -2      2694      1451      2890      3143
 -1      9405    3    0    1
 -2      3572      2529      3655      3674
 -1      9406    3    0    1
 -2      1758      3611      3700      3732
 -1      9407    3    0    1
 -2      1451      2694      2876      3143
 -1      9408    3    0    1
 -2       403        99      1660      3600
 -1      9409    3    0    1
 -2      1290       119      3618      3626
 -1      9410    3    0    1
 -2      3512      3513      3514      3600
 -1      9411    3    0    1
 -2       558      2624      2999      3187
 -1      9412    3    0    1
 -2      1662      1449      1663      3167
 -1      9413    3    0    1
 -2      3636      2733      3641      3654
 -1      9414    3    0    1
 -2      3147      1730      1821      1822
 -1      9415    3    0    1
 -2      3599      3601      3219      3373
 -1      9416    3    0    1
 -2      1725      1512      3273      3290
 -1      9417    3    0    1
 -2      1592      1593      2992      3178
 -1      9418    3    0    1
 -2      1746      1747      1762      3152
 -1      9419    3    0    1
 -2      3552      2061      3039      3650
 -1      9420    3    0    1
 -2      1312      2153      2690      3725
 -1      9421    3    0    1
 -2      1546      1211      2710      3149
 -1      9422    3    0    1
 -2      1409      1629      2834      3149
 -1      9423    3    0    1
 -2      1409      2741      3012      3149
 -1      9424    3    0    1
 -2      3397      1941      1942      1960
 -1      9425    3    0    1
 -2      2741      1409      2834      3149
 -1      9426    3    0    1
 -2      2620      1434      1567      3313
 -1      9427    3    0    1
 -2      3223      2700      3682      3716
 -1      9428    3    0    1
 -2      3612      3223      3682      3716
 -1      9429    3    0    1
 -2       435       226      1679      1905
 -1      9430    3    0    1
 -2      3595      3531      3647      3391
 -1      9431    3    0    1
 -2      1694      1412      3573      3721
 -1      9432    3    0    1
 -2      3286      2998      3636      3329
 -1      9433    3    0    1
 -2      1696      3656      3485      3735
 -1      9434    3    0    1
 -2      1596      3157      1883      3436
 -1      9435    3    0    1
 -2      1580       346      2860      3593
 -1      9436    3    0    1
 -2       226      1665      2869      3593
 -1      9437    3    0    1
 -2      2869      1665      3584      3593
 -1      9438    3    0    1
 -2       226      2869      3584      3593
 -1      9439    3    0    1
 -2      3584       226      1324      1678
 -1      9440    3    0    1
 -2       279      1508      1892      3712
 -1      9441    3    0    1
 -2      3120      1885      3671      3449
 -1      9442    3    0    1
 -2      1792      3238      3701      1925
 -1      9443    3    0    1
 -2      1576      2625      2860      3593
 -1      9444    3    0    1
 -2       346      1576      2860      3593
 -1      9445    3    0    1
 -2      2758      3543      3438      2763
 -1      9446    3    0    1
 -2      3501      1508      3507      3712
 -1      9447    3    0    1
 -2      1665       226      3683      3593
 -1      9448    3    0    1
 -2      2625      1415      1580      3593
 -1      9449    3    0    1
 -2      1415      2669      1665      3593
 -1      9450    3    0    1
 -2      1576      1044      2790      3593
 -1      9451    3    0    1
 -2      2625      1580      2860      3593
 -1      9452    3    0    1
 -2       226      3584      1324      3593
 -1      9453    3    0    1
 -2       346      1044      1576      3593
 -1      9454    3    0    1
 -2      3567      1783      3176      3372
 -1      9455    3    0    1
 -2      1437      2797      1801      3154
 -1      9456    3    0    1
 -2      1013      2216      2319      3684
 -1      9457    3    0    1
 -2        27      1701      1791      3154
 -1      9458    3    0    1
 -2      2672      2538      3641      3654
 -1      9459    3    0    1
 -2      2884      2816      3019      3654
 -1      9460    3    0    1
 -2      1511      1448      3505      3231
 -1      9461    3    0    1
 -2      1640      1716      3116      3595
 -1      9462    3    0    1
 -2      3083      3084      1880      1945
 -1      9463    3    0    1
 -2      2827      2761      3116      3595
 -1      9464    3    0    1
 -2      2761      3067      3116      3595
 -1      9465    3    0    1
 -2      2535      2706      2761      3595
 -1      9466    3    0    1
 -2      2535      2761      2827      3595
 -1      9467    3    0    1
 -2      2761      2948      3067      3595
 -1      9468    3    0    1
 -2      2671      2535      2827      3595
 -1      9469    3    0    1
 -2      2671      2827      2906      3595
 -1      9470    3    0    1
 -2      1716      1640      3052      3595
 -1      9471    3    0    1
 -2      1553      1554      3158      3308
 -1      9472    3    0    1
 -2      1808      1809      1816      3283
 -1      9473    3    0    1
 -2       285       356      3686      3479
 -1      9474    3    0    1
 -2      3015      3572      3156      3612
 -1      9475    3    0    1
 -2      2971      3599      3219      3270
 -1      9476    3    0    1
 -2      2950      2809      3080      3596
 -1      9477    3    0    1
 -2      2787      1621      3028      3596
 -1      9478    3    0    1
 -2      3527      2569      3229      3325
 -1      9479    3    0    1
 -2      1621      2950      3080      3596
 -1      9480    3    0    1
 -2      1621      2787      2950      3596
 -1      9481    3    0    1
 -2      1621      1496      3028      3596
 -1      9482    3    0    1
 -2      2636      2787      2907      3596
 -1      9483    3    0    1
 -2       335      3615      3665      3676
 -1      9484    3    0    1
 -2      2636      2746      2747      3596
 -1      9485    3    0    1
 -2      1866      3616      3303      3311
 -1      9486    3    0    1
 -2      3546      3571      3630      3311
 -1      9487    3    0    1
 -2       264      3616      1866      3311
 -1      9488    3    0    1
 -2      2725      3080      3596      3310
 -1      9489    3    0    1
 -2      2704      2767      3527      3325
 -1      9490    3    0    1
 -2      2907      2787      3028      3596
 -1      9491    3    0    1
 -2      1536      3546      3630      3311
 -1      9492    3    0    1
 -2      3293      1873      1874      3471
 -1      9493    3    0    1
 -2      2787      2809      2950      3596
 -1      9494    3    0    1
 -2      1451      2890      3143      3200
 -1      9495    3    0    1
 -2      1601      1602      2889      3336
 -1      9496    3    0    1
 -2      1496      1621      3080      3596
 -1      9497    3    0    1
 -2       185      1765      3085      3469
 -1      9498    3    0    1
 -2      2719      1459      3009      3597
 -1      9499    3    0    1
 -2      1459      2719      2968      3597
 -1      9500    3    0    1
 -2      2973      2719      3009      3597
 -1      9501    3    0    1
 -2      1703      1459      2968      3597
 -1      9502    3    0    1
 -2      1459      1530      3009      3597
 -1      9503    3    0    1
 -2      1544      1002      3031      3597
 -1      9504    3    0    1
 -2      2973      3009      3011      3597
 -1      9505    3    0    1
 -2       655       666      3254      3364
 -1      9506    3    0    1
 -2      3567      2790      3655      3674
 -1      9507    3    0    1
 -2       226      1678      3179      3669
 -1      9508    3    0    1
 -2      1715      3010      3130      3300
 -1      9509    3    0    1
 -2       185      1002      1544      3597
 -1      9510    3    0    1
 -2      1519      1544      3031      3597
 -1      9511    3    0    1
 -2      2599      2208      3684      3726
 -1      9512    3    0    1
 -2      3088      1440      3155      3165
 -1      9513    3    0    1
 -2      3551      3088      3155      3165
 -1      9514    3    0    1
 -2      3222      2849      3638      3662
 -1      9515    3    0    1
 -2      2992      1592      3062      3659
 -1      9516    3    0    1
 -2      3039      2061      3588      3650
 -1      9517    3    0    1
 -2      2619      2879      3551      3639
 -1      9518    3    0    1
 -2      2788      2717      2984      3173
 -1      9519    3    0    1
 -2       437       340      1680      3649
 -1      9520    3    0    1
 -2      3175      3622      3440      3736
 -1      9521    3    0    1
 -2       986      3577      3579      3692
 -1      9522    3    0    1
 -2      2717      1473      2984      3173
 -1      9523    3    0    1
 -2      2162      2487      3611      3700
 -1      9524    3    0    1
 -2      3175      3622      3256      3440
 -1      9525    3    0    1
 -2       340      3577      3649      3685
 -1      9526    3    0    1
 -2      1573      1574      2778      3419
 -1      9527    3    0    1
 -2      1459      2971      3599      3352
 -1      9528    3    0    1
 -2      2982      2621      3581      3168
 -1      9529    3    0    1
 -2      2621      3558      3581      3168
 -1      9530    3    0    1
 -2      3558      3054      3581      3168
 -1      9531    3    0    1
 -2       414       979      2608      1962
 -1      9532    3    0    1
 -2      3198      3310      2897      3653
 -1      9533    3    0    1
 -2      1727      1442      1728      3267
 -1      9534    3    0    1
 -2      2796      2963      3187      3625
 -1      9535    3    0    1
 -2      1482      1481      1776      3181
 -1      9536    3    0    1
 -2      2663      2742      2958      3652
 -1      9537    3    0    1
 -2      2867      2592      3226      3625
 -1      9538    3    0    1
 -2      2628      2592      2764      3625
 -1      9539    3    0    1
 -2      2764      2867      3226      3625
 -1      9540    3    0    1
 -2      2489      2663      2712      3652
 -1      9541    3    0    1
 -2      2736      2542      3567      3674
 -1      9542    3    0    1
 -2        15      1468      1808      3200
 -1      9543    3    0    1
 -2      2499      2592      2628      3625
 -1      9544    3    0    1
 -2      2541      2739      1754      3604
 -1      9545    3    0    1
 -2      2781      3047      3317      3318
 -1      9546    3    0    1
 -2      2606      1549      3315      3679
 -1      9547    3    0    1
 -2      3610      1068      3664      3679
 -1      9548    3    0    1
 -2      3627      2606      3315      3679
 -1      9549    3    0    1
 -2      3186      3166      3642      3659
 -1      9550    3    0    1
 -2      3145      3186      3642      3659
 -1      9551    3    0    1
 -2      3579      3577      3611      3692
 -1      9552    3    0    1
 -2      1010      1309      2728      3174
 -1      9553    3    0    1
 -2      3505      3501      3507      3712
 -1      9554    3    0    1
 -2      3213      2956      3319      3657
 -1      9555    3    0    1
 -2       549      3214      3348      3458
 -1      9556    3    0    1
 -2      3670      3257      3376      3471
 -1      9557    3    0    1
 -2      1518      1519      3379      3470
 -1      9558    3    0    1
 -2      3640      3006      3673      3730
 -1      9559    3    0    1
 -2       427      1004      2319      3684
 -1      9560    3    0    1
 -2      3682      2708      2833      2784
 -1      9561    3    0    1
 -2       436       151      1615      3240
 -1      9562    3    0    1
 -2      1625      1626      1780      3342
 -1      9563    3    0    1
 -2      3236      2517      3622      3670
 -1      9564    3    0    1
 -2       763       772      3148      3176
 -1      9565    3    0    1
 -2       772       763      1783      3176
 -1      9566    3    0    1
 -2      1770      2755      1771      3304
 -1      9567    3    0    1
 -2      1592      1464      1593      3178
 -1      9568    3    0    1
 -2      1841      3205      1842      1866
 -1      9569    3    0    1
 -2       347       264      3616      1866
 -1      9570    3    0    1
 -2       264       347      1841      1866
 -1      9571    3    0    1
 -2      1018      1313      2983      3644
 -1      9572    3    0    1
 -2      2620      1434      3313      3736
 -1      9573    3    0    1
 -2      3331      3154      3420      3703
 -1      9574    3    0    1
 -2      1781      1625      3342      3703
 -1      9575    3    0    1
 -2      2941      2947      3641      3703
 -1      9576    3    0    1
 -2      1320      2342      3338      3665
 -1      9577    3    0    1
 -2      2902      2791      3641      3703
 -1      9578    3    0    1
 -2      2947      3331      3420      3703
 -1      9579    3    0    1
 -2      2288      2502      3638      3735
 -1      9580    3    0    1
 -2      3318      3317      3670      3736
 -1      9581    3    0    1
 -2      3357      3313      3494      3736
 -1      9582    3    0    1
 -2      2683      2490      3570      3598
 -1      9583    3    0    1
 -2      2534      2683      3570      3598
 -1      9584    3    0    1
 -2      1746      3034      3079      3598
 -1      9585    3    0    1
 -2      1746      3005      3034      3598
 -1      9586    3    0    1
 -2      1761       666      3139      3598
 -1      9587    3    0    1
 -2      3005      1746      1761      3598
 -1      9588    3    0    1
 -2      2971      3599      3352      3681
 -1      9589    3    0    1
 -2      3560      3523      1736      3681
 -1      9590    3    0    1
 -2      2534      3005      3139      3598
 -1      9591    3    0    1
 -2      2534      2509      3005      3598
 -1      9592    3    0    1
 -2      2571      2534      3139      3598
 -1      9593    3    0    1
 -2      2557      2534      2571      3598
 -1      9594    3    0    1
 -2      3547      3523      3560      3681
 -1      9595    3    0    1
 -2      2490      2534      2557      3598
 -1      9596    3    0    1
 -2      3005      2750      3034      3598
 -1      9597    3    0    1
 -2      2509      2750      3005      3598
 -1      9598    3    0    1
 -2      2534      2490      2683      3598
 -1      9599    3    0    1
 -2       353         1      1689      3719
 -1      9600    3    0    1
 -2      1761      1746      3079      3598
 -1      9601    3    0    1
 -2      3599      3547      3352      3681
 -1      9602    3    0    1
 -2      2574      3516      3546      3204
 -1      9603    3    0    1
 -2      3715      3587      3468      3497
 -1      9604    3    0    1
 -2       549       450      3293      1873
 -1      9605    3    0    1
 -2      2674      2908      3565      3294
 -1      9606    3    0    1
 -2      3388      3269      3681      3731
 -1      9607    3    0    1
 -2      3252      1497      1917      3708
 -1      9608    3    0    1
 -2      2971      2501      3004      3599
 -1      9609    3    0    1
 -2      3642      3260      3457      3717
 -1      9610    3    0    1
 -2      1502      1794      1795      3359
 -1      9611    3    0    1
 -2      1889       434      3389      3706
 -1      9612    3    0    1
 -2      3538      1294      3096      3673
 -1      9613    3    0    1
 -2       986      3542      3577      3692
 -1      9614    3    0    1
 -2      1627      2930      3133      3184
 -1      9615    3    0    1
 -2      1519      1518      3011      3314
 -1      9616    3    0    1
 -2      2787      2809      3596      3647
 -1      9617    3    0    1
 -2        44      1871      1872      1903
 -1      9618    3    0    1
 -2      3097      2791      3703      3708
 -1      9619    3    0    1
 -2      1789      1826      1827      3376
 -1      9620    3    0    1
 -2      3331      2941      3435      3708
 -1      9621    3    0    1
 -2      1331       348      3430      3733
 -1      9622    3    0    1
 -2      2930      2929      3133      3184
 -1      9623    3    0    1
 -2      3131      1896      1897      3374
 -1      9624    3    0    1
 -2      3620      3137      3355      3374
 -1      9625    3    0    1
 -2      1901      1896      1902      3374
 -1      9626    3    0    1
 -2      3689      3672      1920      3700
 -1      9627    3    0    1
 -2      1548      1547      3268      3330
 -1      9628    3    0    1
 -2      3576      3536      3594      3658
 -1      9629    3    0    1
 -2       403      3548      1773      3600
 -1      9630    3    0    1
 -2      3512       403      3513      3600
 -1      9631    3    0    1
 -2      1442      2754      2928      3267
 -1      9632    3    0    1
 -2      2624      3187      3226      3625
 -1      9633    3    0    1
 -2      2624      2564      2999      3187
 -1      9634    3    0    1
 -2      3514      3513      3548      3600
 -1      9635    3    0    1
 -2      3513       403      1660      3600
 -1      9636    3    0    1
 -2        99       403      1773      3600
 -1      9637    3    0    1
 -2      3531      2588      3647      3391
 -1      9638    3    0    1
 -2      1752       799      1753      3239
 -1      9639    3    0    1
 -2      1514      1833      1834      3256
 -1      9640    3    0    1
 -2       227      2478      3416      3694
 -1      9641    3    0    1
 -2      3552      3039      3648      3650
 -1      9642    3    0    1
 -2      2709      1555      3609      3258
 -1      9643    3    0    1
 -2      2701      3644      3651      3489
 -1      9644    3    0    1
 -2      1514      1515      1833      3256
 -1      9645    3    0    1
 -2      2828      1157      2862      1877
 -1      9646    3    0    1
 -2      1625      1626      1702      3192
 -1      9647    3    0    1
 -2      3539      3506      3621      3629
 -1      9648    3    0    1
 -2      1701      1702      3112      3192
 -1      9649    3    0    1
 -2      1701      1625      1702      3192
 -1      9650    3    0    1
 -2      1442      1443      1728      3267
 -1      9651    3    0    1
 -2      1701      3112      3169      3192
 -1      9652    3    0    1
 -2      1594      2764      3226      3625
 -1      9653    3    0    1
 -2      1625      1701      3169      3192
 -1      9654    3    0    1
 -2      1539      1540      1727      3267
 -1      9655    3    0    1
 -2      3570      2750      3598      3193
 -1      9656    3    0    1
 -2      3034      1746      3079      3193
 -1      9657    3    0    1
 -2      1746      3034      1763      3193
 -1      9658    3    0    1
 -2      3034      3079      3598      3193
 -1      9659    3    0    1
 -2      2750      3034      3598      3193
 -1      9660    3    0    1
 -2      1730      3042      3147      3193
 -1      9661    3    0    1
 -2      3561      2820      1821      3193
 -1      9662    3    0    1
 -2      1730      3561      1821      3193
 -1      9663    3    0    1
 -2      3561      1730      3147      3193
 -1      9664    3    0    1
 -2      2718      2820      3561      3193
 -1      9665    3    0    1
 -2      2718      3561      3147      3193
 -1      9666    3    0    1
 -2      2750      2718      3042      3193
 -1      9667    3    0    1
 -2      3042      2718      3147      3193
 -1      9668    3    0    1
 -2      2812      2847      2917      3194
 -1      9669    3    0    1
 -2      2812      2917      3158      3194
 -1      9670    3    0    1
 -2      2699      1655      3537      3196
 -1      9671    3    0    1
 -2      1618      2699      3537      3196
 -1      9672    3    0    1
 -2      3516      1543      3519      3635
 -1      9673    3    0    1
 -2      3599      3547      3681      3731
 -1      9674    3    0    1
 -2      1052       347      3616      3635
 -1      9675    3    0    1
 -2      2600      1052      3516      3635
 -1      9676    3    0    1
 -2       346      1044      3633      3661
 -1      9677    3    0    1
 -2      2520      2292      3515      3601
 -1      9678    3    0    1
 -2      3515      2292      3576      3601
 -1      9679    3    0    1
 -2      3515      3576      3594      3601
 -1      9680    3    0    1
 -2      1327       346      3605      3661
 -1      9681    3    0    1
 -2       774       784      2355      3661
 -1      9682    3    0    1
 -2      1052      1327      3635      3661
 -1      9683    3    0    1
 -2      1044      3544      3633      3661
 -1      9684    3    0    1
 -2      3422        17      3461      1964
 -1      9685    3    0    1
 -2      2852      2134      3599      3601
 -1      9686    3    0    1
 -2      2292      2852      3576      3601
 -1      9687    3    0    1
 -2      2586      2520      3574      3601
 -1      9688    3    0    1
 -2      2241      1052      3635      3661
 -1      9689    3    0    1
 -2      2520      3504      3574      3601
 -1      9690    3    0    1
 -2      3538      1423      1835      3672
 -1      9691    3    0    1
 -2      3091      3515      3373      3601
 -1      9692    3    0    1
 -2       414      2608      3729      1962
 -1      9693    3    0    1
 -2      3004      3059      3091      3601
 -1      9694    3    0    1
 -2      3091      3059      3114      3601
 -1      9695    3    0    1
 -2      3004      2586      3059      3601
 -1      9696    3    0    1
 -2      2247      2134      2520      3601
 -1      9697    3    0    1
 -2      2520      2134      2852      3601
 -1      9698    3    0    1
 -2      2292      2520      2852      3601
 -1      9699    3    0    1
 -2      3113      2674      3159      3294
 -1      9700    3    0    1
 -2       601      1588      1589      3212
 -1      9701    3    0    1
 -2      1418      1700      3198      3199
 -1      9702    3    0    1
 -2      3599      3594      3219      3270
 -1      9703    3    0    1
 -2       169       173      1821      1832
 -1      9704    3    0    1
 -2      2767      2704      1685      3325
 -1      9705    3    0    1
 -2      3071      1598      1808      3200
 -1      9706    3    0    1
 -2      1665      3545      3683      3468
 -1      9707    3    0    1
 -2       328      2365      3502      3725
 -1      9708    3    0    1
 -2      3243      3545      3709      3499
 -1      9709    3    0    1
 -2      1052      2801      1841      3635
 -1      9710    3    0    1
 -2      2801      1754      1841      3635
 -1      9711    3    0    1
 -2      1543      3551      1675      3635
 -1      9712    3    0    1
 -2      1754      3205      1841      3635
 -1      9713    3    0    1
 -2      3557      1052      3616      3635
 -1      9714    3    0    1
 -2      2801      1052      3551      3635
 -1      9715    3    0    1
 -2      2218      2396      2752      3602
 -1      9716    3    0    1
 -2      2218      2388      2396      3602
 -1      9717    3    0    1
 -2      1018       332      1317      3602
 -1      9718    3    0    1
 -2      3562      3246      3676      3711
 -1      9719    3    0    1
 -2      3615      3562      3676      3711
 -1      9720    3    0    1
 -2       438       335      1782      3676
 -1      9721    3    0    1
 -2      2888      3064      3108      3377
 -1      9722    3    0    1
 -2      1782      3562      3246      3676
 -1      9723    3    0    1
 -2      3717      2935      3469      3722
 -1      9724    3    0    1
 -2      1508       279      3507      3712
 -1      9725    3    0    1
 -2      3227      1559      3285      3377
 -1      9726    3    0    1
 -2      3320      3620      3355      3434
 -1      9727    3    0    1
 -2       781       790      2631      3396
 -1      9728    3    0    1
 -2      3617      1712      3388      3685
 -1      9729    3    0    1
 -2      1680       437      3649      3466
 -1      9730    3    0    1
 -2      1650      1680      3649      3466
 -1      9731    3    0    1
 -2      2592      1583      2867      3226
 -1      9732    3    0    1
 -2      2610      2563      3546      3204
 -1      9733    3    0    1
 -2      1018       332      3631      3644
 -1      9734    3    0    1
 -2       329      1313      3632      3644
 -1      9735    3    0    1
 -2      3348      3641      3356      3458
 -1      9736    3    0    1
 -2       151       436      1758      3666
 -1      9737    3    0    1
 -2      2902      3641      3646      3703
 -1      9738    3    0    1
 -2      2947      2941      3331      3703
 -1      9739    3    0    1
 -2      3687      1600      1520      3506
 -1      9740    3    0    1
 -2      1601      2889      1862      3382
 -1      9741    3    0    1
 -2      1476      2764      2867      3226
 -1      9742    3    0    1
 -2      3602      1018      3631      3644
 -1      9743    3    0    1
 -2       332      1523      3631      3644
 -1      9744    3    0    1
 -2      1557      1610      3580      3419
 -1      9745    3    0    1
 -2      2743      2929      3002      3640
 -1      9746    3    0    1
 -2      3236      3257      3670      3471
 -1      9747    3    0    1
 -2      3520      2511      3711      3715
 -1      9748    3    0    1
 -2      1754      1432      1755      3244
 -1      9749    3    0    1
 -2      1432      1433      1755      3244
 -1      9750    3    0    1
 -2      2228      2185      2574      3204
 -1      9751    3    0    1
 -2      3315      1416      3394      3714
 -1      9752    3    0    1
 -2      2738      2508      3566      3604
 -1      9753    3    0    1
 -2      1754      3203      1841      1842
 -1      9754    3    0    1
 -2      2883      2681      3565      3279
 -1      9755    3    0    1
 -2      2793      1588      3141      3707
 -1      9756    3    0    1
 -2      2857      1432      3007      3604
 -1      9757    3    0    1
 -2      1432      2739      3007      3604
 -1      9758    3    0    1
 -2      2857      2786      1754      3604
 -1      9759    3    0    1
 -2      2541      2519      2737      3604
 -1      9760    3    0    1
 -2      1419      2519      2541      3604
 -1      9761    3    0    1
 -2      1536      2541      3203      3604
 -1      9762    3    0    1
 -2      2541      2737      2739      3604
 -1      9763    3    0    1
 -2      2519      2508      2737      3604
 -1      9764    3    0    1
 -2      1419      2541      1536      3604
 -1      9765    3    0    1
 -2      2606      3315      3394      3714
 -1      9766    3    0    1
 -2      1754      1755      3203      1842
 -1      9767    3    0    1
 -2      1432      2857      1754      3604
 -1      9768    3    0    1
 -2      2739      2737      3007      3604
 -1      9769    3    0    1
 -2      2737      2738      3087      3604
 -1      9770    3    0    1
 -2      3007      2737      3087      3604
 -1      9771    3    0    1
 -2      3151      1541      3162      3328
 -1      9772    3    0    1
 -2      1442      1612      2928      3271
 -1      9773    3    0    1
 -2      2606      1549      3679      3460
 -1      9774    3    0    1
 -2      2737      2508      2738      3604
 -1      9775    3    0    1
 -2      3153      2977      3622      3330
 -1      9776    3    0    1
 -2      3608      3592      3664      3437
 -1      9777    3    0    1
 -2       173      1736      3623      3561
 -1      9778    3    0    1
 -2      2678      1634      3669      3734
 -1      9779    3    0    1
 -2      1736      3147      1821      1832
 -1      9780    3    0    1
 -2      1821      3147      1822      1832
 -1      9781    3    0    1
 -2      3092      2633      3612      3383
 -1      9782    3    0    1
 -2      3546      2610      3303      3311
 -1      9783    3    0    1
 -2      3571      3546      3303      3311
 -1      9784    3    0    1
 -2      1419      2610      3546      3311
 -1      9785    3    0    1
 -2      2396      3503      3522      3634
 -1      9786    3    0    1
 -2      2840      1506      1776      3710
 -1      9787    3    0    1
 -2      3029      1616      3033      1845
 -1      9788    3    0    1
 -2      2527      2496      3527      3606
 -1      9789    3    0    1
 -2      2495      2550      3555      3606
 -1      9790    3    0    1
 -2      2713      2495      3555      3606
 -1      9791    3    0    1
 -2      2496      2713      3555      3606
 -1      9792    3    0    1
 -2      3527      2496      2926      3606
 -1      9793    3    0    1
 -2      2926      2496      3555      3606
 -1      9794    3    0    1
 -2      1524      2887      1721      3606
 -1      9795    3    0    1
 -2      2550      3041      3606      2693
 -1      9796    3    0    1
 -2      2753      2926      3555      3606
 -1      9797    3    0    1
 -2      3527      2753      3555      3606
 -1      9798    3    0    1
 -2      2753      3527      2926      3606
 -1      9799    3    0    1
 -2      3041      2693      3167      3606
 -1      9800    3    0    1
 -2      1524      1662      2887      3606
 -1      9801    3    0    1
 -2      1662      3041      3167      3606
 -1      9802    3    0    1
 -2      2887      1662      3167      3606
 -1      9803    3    0    1
 -2      2806      2940      3089      3606
 -1      9804    3    0    1
 -2      2495      2527      2805      3606
 -1      9805    3    0    1
 -2      2805      2527      2892      3606
 -1      9806    3    0    1
 -2      2579      2495      2805      3606
 -1      9807    3    0    1
 -2      2579      2805      2887      3606
 -1      9808    3    0    1
 -2      2940      1524      3089      3606
 -1      9809    3    0    1
 -2      2806      2749      2940      3606
 -1      9810    3    0    1
 -2      2495      2496      2527      3606
 -1      9811    3    0    1
 -2      2550      2495      2579      3606
 -1      9812    3    0    1
 -2      2496      2495      2713      3606
 -1      9813    3    0    1
 -2      1524      1721      3089      3606
 -1      9814    3    0    1
 -2      1524      2940      3041      3606
 -1      9815    3    0    1
 -2      2550      2579      2693      3606
 -1      9816    3    0    1
 -2      2579      2887      3167      3606
 -1      9817    3    0    1
 -2      2693      2579      3167      3606
 -1      9818    3    0    1
 -2      1662      1524      3041      3606
 -1      9819    3    0    1
 -2      2638      2505      2811      3607
 -1      9820    3    0    1
 -2      1479      1480      3213      1863
 -1      9821    3    0    1
 -2      2811      2505      2863      3607
 -1      9822    3    0    1
 -2      1435      1824      3217      3615
 -1      9823    3    0    1
 -2      1668      1520      3549      3626
 -1      9824    3    0    1
 -2      2655      2862      2865      3607
 -1      9825    3    0    1
 -2      2865      2862      3194      3607
 -1      9826    3    0    1
 -2      2863      2505      3132      3607
 -1      9827    3    0    1
 -2      2811      2863      2864      3607
 -1      9828    3    0    1
 -2      2565      2811      2847      3607
 -1      9829    3    0    1
 -2      2847      2811      3212      3607
 -1      9830    3    0    1
 -2       612      2865      3194      3607
 -1      9831    3    0    1
 -2      2811      2864      3212      3607
 -1      9832    3    0    1
 -2      2505      2810      3132      3607
 -1      9833    3    0    1
 -2      1588       612      3194      3607
 -1      9834    3    0    1
 -2      1581      1517      2865      3607
 -1      9835    3    0    1
 -2       612      1581      2865      3607
 -1      9836    3    0    1
 -2      2842      3079      3598      3390
 -1      9837    3    0    1
 -2      1825      3407      3701      1928
 -1      9838    3    0    1
 -2      2931      2441      3105      3608
 -1      9839    3    0    1
 -2       740       208       337      1929
 -1      9840    3    0    1
 -2       208       740       737      1929
 -1      9841    3    0    1
 -2      2754      1442      2928      3271
 -1      9842    3    0    1
 -2      3520      3532      3615      3665
 -1      9843    3    0    1
 -2       630      3102      3619      3377
 -1      9844    3    0    1
 -2      3520      2532      3532      3665
 -1      9845    3    0    1
 -2      3634      1027      3338      3665
 -1      9846    3    0    1
 -2      2525      2232      2575      3686
 -1      9847    3    0    1
 -2      1646      1647      1742      3216
 -1      9848    3    0    1
 -2      1440      2773      1743      3216
 -1      9849    3    0    1
 -2      1742      1440      1743      3216
 -1      9850    3    0    1
 -2      1646      1743      3567      3216
 -1      9851    3    0    1
 -2      1646      1742      1743      3216
 -1      9852    3    0    1
 -2      1441      1440      1742      3216
 -1      9853    3    0    1
 -2      1440      1441      2773      3216
 -1      9854    3    0    1
 -2      1412      1694      3573      3447
 -1      9855    3    0    1
 -2      2407      2247      2501      3731
 -1      9856    3    0    1
 -2      1502      1503      3129      3359
 -1      9857    3    0    1
 -2      1574      1573      1611      3419
 -1      9858    3    0    1
 -2      2790      3584      3655      3674
 -1      9859    3    0    1
 -2      1776      2990      1777      3287
 -1      9860    3    0    1
 -2      3573      1412      3650      3721
 -1      9861    3    0    1
 -2      3554      3174      3717      3469
 -1      9862    3    0    1
 -2      1416      3345      3394      3714
 -1      9863    3    0    1
 -2      2977      3236      3670      3714
 -1      9864    3    0    1
 -2      2606      3627      3315      3714
 -1      9865    3    0    1
 -2        14       170      1831      3385
 -1      9866    3    0    1
 -2      3030      2501      3388      3731
 -1      9867    3    0    1
 -2        14      1831      1843      3385
 -1      9868    3    0    1
 -2      1759      3076      3157      3436
 -1      9869    3    0    1
 -2      1578        14      1843      3385
 -1      9870    3    0    1
 -2      3670      3322      3444      3714
 -1      9871    3    0    1
 -2      2606      2576      3627      3714
 -1      9872    3    0    1
 -2      1867      2606      3679      3460
 -1      9873    3    0    1
 -2      1578      1843      3677      3385
 -1      9874    3    0    1
 -2      2973      2719      3597      3668
 -1      9875    3    0    1
 -2      1294      3538      3184      3673
 -1      9876    3    0    1
 -2      3252      1917      3435      3708
 -1      9877    3    0    1
 -2      2719      2968      3597      3668
 -1      9878    3    0    1
 -2      2910      2510      3031      3668
 -1      9879    3    0    1
 -2      2162      2487      2584      3611
 -1      9880    3    0    1
 -2      2968      1703      3597      3668
 -1      9881    3    0    1
 -2      1703      2968      1821      3668
 -1      9882    3    0    1
 -2      3576      3594      3601      3373
 -1      9883    3    0    1
 -2      2821      3185      3297      3668
 -1      9884    3    0    1
 -2      1703      1305      3597      3668
 -1      9885    3    0    1
 -2      2441      3608      3610      3437
 -1      9886    3    0    1
 -2      3586      3574      3602      3631
 -1      9887    3    0    1
 -2       332       439      3586      3631
 -1      9888    3    0    1
 -2      2538      2627      2902      3646
 -1      9889    3    0    1
 -2      2627      2538      2868      3646
 -1      9890    3    0    1
 -2      2872      1561      3126      3221
 -1      9891    3    0    1
 -2      2194      2441      3505      3437
 -1      9892    3    0    1
 -2      3397      1851      1917      1918
 -1      9893    3    0    1
 -2      1222      1561      2872      3221
 -1      9894    3    0    1
 -2      3162      2783      3328      3701
 -1      9895    3    0    1
 -2      2314      1280      2965      3437
 -1      9896    3    0    1
 -2      3511      1424      3517      3222
 -1      9897    3    0    1
 -2      3517      1424      2780      3222
 -1      9898    3    0    1
 -2      1698      2872      2908      3294
 -1      9899    3    0    1
 -2      2250      2532      3520      3665
 -1      9900    3    0    1
 -2      1497      3371      3376      3454
 -1      9901    3    0    1
 -2      2700      1198      1775      3223
 -1      9902    3    0    1
 -2      3503      2250      3615      3665
 -1      9903    3    0    1
 -2      1573      1748      3640      3333
 -1      9904    3    0    1
 -2      3293      3322      3670      3714
 -1      9905    3    0    1
 -2      2845      1547      1881      3384
 -1      9906    3    0    1
 -2      3015      3156      3223      3612
 -1      9907    3    0    1
 -2      2633      2855      3092      3612
 -1      9908    3    0    1
 -2      3156      1462      3223      3612
 -1      9909    3    0    1
 -2      3067      3595      3647      3391
 -1      9910    3    0    1
 -2      1630      1462      3156      3612
 -1      9911    3    0    1
 -2      1776      3109      3287      3488
 -1      9912    3    0    1
 -2      2536      3620      3671      3737
 -1      9913    3    0    1
 -2      1483      1630      3156      3612
 -1      9914    3    0    1
 -2      2644      2700      2708      3655
 -1      9915    3    0    1
 -2      2675      1672      2858      3614
 -1      9916    3    0    1
 -2      2505      2807      3124      3614
 -1      9917    3    0    1
 -2      3590      3013      3164      3614
 -1      9918    3    0    1
 -2      2675      1540      1672      3614
 -1      9919    3    0    1
 -2      2785      3590      3164      3614
 -1      9920    3    0    1
 -2      1672       594      2858      3614
 -1      9921    3    0    1
 -2      2858       594      3208      3614
 -1      9922    3    0    1
 -2      3124      2807      3129      3614
 -1      9923    3    0    1
 -2      3124      3129      3208      3614
 -1      9924    3    0    1
 -2      1540      2675      3164      3614
 -1      9925    3    0    1
 -2      3013      1540      3164      3614
 -1      9926    3    0    1
 -2      2565      2638      2811      3614
 -1      9927    3    0    1
 -2      2638      2565      2675      3614
 -1      9928    3    0    1
 -2      2885      2687      3124      3614
 -1      9929    3    0    1
 -2      2703      2687      2885      3614
 -1      9930    3    0    1
 -2      2885      3124      3208      3614
 -1      9931    3    0    1
 -2      2638      2675      2858      3614
 -1      9932    3    0    1
 -2      2703      2885      3013      3614
 -1      9933    3    0    1
 -2      2638      2858      3129      3614
 -1      9934    3    0    1
 -2      2505      2638      3129      3614
 -1      9935    3    0    1
 -2      2885      1672      3013      3614
 -1      9936    3    0    1
 -2      2675      2565      2785      3614
 -1      9937    3    0    1
 -2      1672      2885      3208      3614
 -1      9938    3    0    1
 -2      2807      2505      3129      3614
 -1      9939    3    0    1
 -2      1672      1540      3013      3614
 -1      9940    3    0    1
 -2      2675      2785      3164      3614
 -1      9941    3    0    1
 -2       594      1672      3208      3614
 -1      9942    3    0    1
 -2      1489      2624      3187      3226
 -1      9943    3    0    1
 -2      1453      2668      2967      3349
 -1      9944    3    0    1
 -2      1559      1770      3108      3227
 -1      9945    3    0    1
 -2      1896      1901      1902      3378
 -1      9946    3    0    1
 -2      1616      3029      3122      3228
 -1      9947    3    0    1
 -2      3029      2577      3033      3228
 -1      9948    3    0    1
 -2      3033      2577      3122      3228
 -1      9949    3    0    1
 -2      3029      3033      3122      3228
 -1      9950    3    0    1
 -2      1454      1616      3122      3228
 -1      9951    3    0    1
 -2      1711        23      3234      1879
 -1      9952    3    0    1
 -2      1421      1632      1633      3326
 -1      9953    3    0    1
 -2      1462      1463      3092      3383
 -1      9954    3    0    1
 -2      2633      2769      3612      3383
 -1      9955    3    0    1
 -2      2446       227      2478      3416
 -1      9956    3    0    1
 -2      1613      1612      3084      1879
 -1      9957    3    0    1
 -2      1419      3507      3074      3713
 -1      9958    3    0    1
 -2      1484      1483      2769      3383
 -1      9959    3    0    1
 -2      1630      1483      1631      3383
 -1      9960    3    0    1
 -2      3081      3293      3670      3714
 -1      9961    3    0    1
 -2      1630      1462      3612      3383
 -1      9962    3    0    1
 -2      3057      1709      3068      3229
 -1      9963    3    0    1
 -2      1162      1709      3057      3229
 -1      9964    3    0    1
 -2      2769      1483      3612      3383
 -1      9965    3    0    1
 -2      1803      1792      3238      3701
 -1      9966    3    0    1
 -2       343      2446      2465      3698
 -1      9967    3    0    1
 -2       237       248      2598      3723
 -1      9968    3    0    1
 -2      2759      2980      3620      3737
 -1      9969    3    0    1
 -2      2567      2597      3591      3705
 -1      9970    3    0    1
 -2      3364      1885      1488      1886
 -1      9971    3    0    1
 -2      1696      3552      3648      3656
 -1      9972    3    0    1
 -2      2216      2390      2599      3684
 -1      9973    3    0    1
 -2       151       977      3538      3672
 -1      9974    3    0    1
 -2      3057      2583      3161      3271
 -1      9975    3    0    1
 -2      1685      2956      3001      3319
 -1      9976    3    0    1
 -2      3140      1652      3183      3235
 -1      9977    3    0    1
 -2      2746      3140      3183      3235
 -1      9978    3    0    1
 -2      2895      1481      1936      1937
 -1      9979    3    0    1
 -2      2538      2902      3641      3646
 -1      9980    3    0    1
 -2       263       269      3697      3733
 -1      9981    3    0    1
 -2      1556      1555      2918      3258
 -1      9982    3    0    1
 -2       436       151      1758      3259
 -1      9983    3    0    1
 -2      3610      3505      3231      3500
 -1      9984    3    0    1
 -2      1851      3395      3415      1941
 -1      9985    3    0    1
 -2      2835      2529      3655      3682
 -1      9986    3    0    1
 -2      2620      3313      3440      3736
 -1      9987    3    0    1
 -2       666      3136      3364      3671
 -1      9988    3    0    1
 -2      1459      3547      1703      3352
 -1      9989    3    0    1
 -2      3047      2781      3622      3318
 -1      9990    3    0    1
 -2      1875      1708      3660      3464
 -1      9991    3    0    1
 -2      3239      1682      3622      3301
 -1      9992    3    0    1
 -2       720      2948      1738      3391
 -1      9993    3    0    1
 -2       666      1761      3254      3449
 -1      9994    3    0    1
 -2       989       416      2412      3729
 -1      9995    3    0    1
 -2      1609      2890      3200      3283
 -1      9996    3    0    1
 -2      2589      2590      3620      3737
 -1      9997    3    0    1
 -2       977       151      3538      3240
 -1      9998    3    0    1
 -2       151       977      1614      3240
 -1      9999    3    0    1
 -2       169       173      3603      1868
 -1     10000    3    0    1
 -2      1517      2865      3607      3618
 -1     10001    3    0    1
 -2      2913      1627      3072      3618
 -1     10002    3    0    1
 -2      1627      1517      3072      3618
 -1     10003    3    0    1
 -2      3132      1517      3607      3618
 -1     10004    3    0    1
 -2      2810      3132      3607      3618
 -1     10005    3    0    1
 -2      3072      1517      3132      3618
 -1     10006    3    0    1
 -2      1600      1520      3549      3618
 -1     10007    3    0    1
 -2      1520      1668      3549      3618
 -1     10008    3    0    1
 -2      3020      2744      3124      3618
 -1     10009    3    0    1
 -2       119      1668      3115      3618
 -1     10010    3    0    1
 -2       257       263      3697      3733
 -1     10011    3    0    1
 -2      2387      2205      3509      3621
 -1     10012    3    0    1
 -2      1509       119      3115      3618
 -1     10013    3    0    1
 -2       969       408      3549      3618
 -1     10014    3    0    1
 -2       408      1600      3549      3618
 -1     10015    3    0    1
 -2       408      1600      3255      1785
 -1     10016    3    0    1
 -2       969      2138      3549      3621
 -1     10017    3    0    1
 -2      2967      1768      1788      3349
 -1     10018    3    0    1
 -2      2505      2744      2810      3618
 -1     10019    3    0    1
 -2      2810      2744      3027      3618
 -1     10020    3    0    1
 -2       969      2655      2865      3618
 -1     10021    3    0    1
 -2      2744      2505      2807      3618
 -1     10022    3    0    1
 -2      2913      2810      3027      3618
 -1     10023    3    0    1
 -2      3027      2744      3115      3618
 -1     10024    3    0    1
 -2      2687      1290      3124      3618
 -1     10025    3    0    1
 -2      2810      2913      3072      3618
 -1     10026    3    0    1
 -2      1520      2913      3027      3618
 -1     10027    3    0    1
 -2      1668      3027      3115      3618
 -1     10028    3    0    1
 -2      1627       969      2865      3618
 -1     10029    3    0    1
 -2      1517      1627      2865      3618
 -1     10030    3    0    1
 -2      2810      3072      3132      3618
 -1     10031    3    0    1
 -2      1520      1600      2913      3618
 -1     10032    3    0    1
 -2      1668      1520      3027      3618
 -1     10033    3    0    1
 -2      1290      1509      3124      3618
 -1     10034    3    0    1
 -2       969      1627      1812      3618
 -1     10035    3    0    1
 -2      1290       119      1509      3618
 -1     10036    3    0    1
 -2       408       969      1812      3618
 -1     10037    3    0    1
 -2      2778      2523      3024      3619
 -1     10038    3    0    1
 -2      2523      2506      3024      3619
 -1     10039    3    0    1
 -2      1544      3597      3250      3360
 -1     10040    3    0    1
 -2      1748       630      3102      3619
 -1     10041    3    0    1
 -2      2506      2888      3024      3619
 -1     10042    3    0    1
 -2      1573      1748      3102      3619
 -1     10043    3    0    1
 -2      1559      1560      3285      1900
 -1     10044    3    0    1
 -2      1649      3125      3657      3382
 -1     10045    3    0    1
 -2      2185      2574      3204      3243
 -1     10046    3    0    1
 -2      2574      2185      2841      3243
 -1     10047    3    0    1
 -2      3355      1438      1902      3374
 -1     10048    3    0    1
 -2      1068      3627      3315      3679
 -1     10049    3    0    1
 -2      1433      1432      1529      3263
 -1     10050    3    0    1
 -2      2816      1416      3654      3341
 -1     10051    3    0    1
 -2       154       416       640      1963
 -1     10052    3    0    1
 -2      2208       427      2319      3684
 -1     10053    3    0    1
 -2      3015      2700      3655      3682
 -1     10054    3    0    1
 -2      1632      1421      3100      3713
 -1     10055    3    0    1
 -2       329      1708      2920      3644
 -1     10056    3    0    1
 -2      1708       329      3563      3644
 -1     10057    3    0    1
 -2      2798      2679      2881      3248
 -1     10058    3    0    1
 -2      1531      2798      2881      3248
 -1     10059    3    0    1
 -2      2997      1737      1836      3248
 -1     10060    3    0    1
 -2      1737        71      1836      3248
 -1     10061    3    0    1
 -2      1695      1531      2911      3248
 -1     10062    3    0    1
 -2      3516      3546      3204      3303
 -1     10063    3    0    1
 -2      2218      3504      3632      3644
 -1     10064    3    0    1
 -2      3213      3125      1862      3382
 -1     10065    3    0    1
 -2      2818      1654      1844      3249
 -1     10066    3    0    1
 -2      1838      2818      1844      3249
 -1     10067    3    0    1
 -2      1833      3168      1514      3251
 -1     10068    3    0    1
 -2      1683      1682      1834      3251
 -1     10069    3    0    1
 -2      3054      1682      3581      3251
 -1     10070    3    0    1
 -2      1682      2982      3581      3251
 -1     10071    3    0    1
 -2      2982      1682      3023      3251
 -1     10072    3    0    1
 -2      1682      1683      3023      3251
 -1     10073    3    0    1
 -2      1682      3054      1833      3251
 -1     10074    3    0    1
 -2      2241      3516      3519      3635
 -1     10075    3    0    1
 -2      1616      2671      3052      1845
 -1     10076    3    0    1
 -2      3569      2573      3324      3339
 -1     10077    3    0    1
 -2       784      1327      2241      3661
 -1     10078    3    0    1
 -2      3519      2241      3635      3661
 -1     10079    3    0    1
 -2      3592      2899      3636      3654
 -1     10080    3    0    1
 -2      1052      1327      3551      3635
 -1     10081    3    0    1
 -2      2828      2862      3553      3367
 -1     10082    3    0    1
 -2      3242      1839      1871      1872
 -1     10083    3    0    1
 -2      3166      1734      3186      3642
 -1     10084    3    0    1
 -2      3549       408      3621      3629
 -1     10085    3    0    1
 -2      3389      3605      3706      3709
 -1     10086    3    0    1
 -2       263       257      3430      3733
 -1     10087    3    0    1
 -2      1541      2731      3568      3321
 -1     10088    3    0    1
 -2      2589      2848      2980      3620
 -1     10089    3    0    1
 -2      1643      2993      3148      3372
 -1     10090    3    0    1
 -2      2722      2510      3620      3375
 -1     10091    3    0    1
 -2      3648      3552      3650      3656
 -1     10092    3    0    1
 -2      2218      3504      3515      3632
 -1     10093    3    0    1
 -2      1578      1579      2676      1857
 -1     10094    3    0    1
 -2      2549      2589      2590      3620
 -1     10095    3    0    1
 -2      2589      2549      3131      3620
 -1     10096    3    0    1
 -2      2589      3131      3137      3620
 -1     10097    3    0    1
 -2      2836       772      1783      3321
 -1     10098    3    0    1
 -2       407       406      3521      3688
 -1     10099    3    0    1
 -2       151      1298      3579      3692
 -1     10100    3    0    1
 -2      2848      2589      3137      3620
 -1     10101    3    0    1
 -2      1756      3572      3332      3674
 -1     10102    3    0    1
 -2      2901      1623      3058      3674
 -1     10103    3    0    1
 -2      1578      2676      1856      1857
 -1     10104    3    0    1
 -2      1549      2899      3592      3654
 -1     10105    3    0    1
 -2      2915      1605      3130      1850
 -1     10106    3    0    1
 -2       655       666      1761      3254
 -1     10107    3    0    1
 -2      3152      1761      3449      3254
 -1     10108    3    0    1
 -2      3622      3047      3317      3736
 -1     10109    3    0    1
 -2      2925      1504      3589      3707
 -1     10110    3    0    1
 -2      1849      3387      3398      1961
 -1     10111    3    0    1
 -2      1627      1628      1813      3255
 -1     10112    3    0    1
 -2      1628      1627      2913      3255
 -1     10113    3    0    1
 -2      2205      1294      3538      3621
 -1     10114    3    0    1
 -2      3509      3538      3539      3621
 -1     10115    3    0    1
 -2      1547      1819      3268      3278
 -1     10116    3    0    1
 -2      1421      1632      3627      3278
 -1     10117    3    0    1
 -2      1294       408      3538      3621
 -1     10118    3    0    1
 -2      3538       408      3539      3621
 -1     10119    3    0    1
 -2      2668      2984      3003      3349
 -1     10120    3    0    1
 -2       969       408      1294      3621
 -1     10121    3    0    1
 -2      2138      2205      2387      3621
 -1     10122    3    0    1
 -2      1752       808      3239      3622
 -1     10123    3    0    1
 -2      3055      2977      3236      3622
 -1     10124    3    0    1
 -2      3047      3171      3175      3622
 -1     10125    3    0    1
 -2      2517      3055      3236      3622
 -1     10126    3    0    1
 -2      3266      1885      3364      3671
 -1     10127    3    0    1
 -2      2977      3055      3153      3622
 -1     10128    3    0    1
 -2      3047      2912      3171      3622
 -1     10129    3    0    1
 -2      3171      1752      3175      3622
 -1     10130    3    0    1
 -2      3512      1424      3555      3628
 -1     10131    3    0    1
 -2       666       655      2571      1885
 -1     10132    3    0    1
 -2      3153      3055      3239      3622
 -1     10133    3    0    1
 -2      1752      1682      3175      3622
 -1     10134    3    0    1
 -2       808      1752      3171      3622
 -1     10135    3    0    1
 -2      1619      2967      3003      3349
 -1     10136    3    0    1
 -2      2919      2709      3609      3258
 -1     10137    3    0    1
 -2      1474      1740      1741      3302
 -1     10138    3    0    1
 -2       347       264      1536      3630
 -1     10139    3    0    1
 -2      2708      3682      2833      3655
 -1     10140    3    0    1
 -2      3039      3588      3648      3650
 -1     10141    3    0    1
 -2      1452      3504      3563      3464
 -1     10142    3    0    1
 -2      2549      2590      3266      3671
 -1     10143    3    0    1
 -2       151       436      1615      3259
 -1     10144    3    0    1
 -2      1565      1564      3260      1940
 -1     10145    3    0    1
 -2      2610      3546      3486      3491
 -1     10146    3    0    1
 -2        17      1914      1915      3461
 -1     10147    3    0    1
 -2       173       994      3561      3623
 -1     10148    3    0    1
 -2       169       173      1832      3623
 -1     10149    3    0    1
 -2      2632      2733      2899      3641
 -1     10150    3    0    1
 -2      2632      2941      2947      3641
 -1     10151    3    0    1
 -2      3262      3591      3639      3450
 -1     10152    3    0    1
 -2      3592      1280      3664      3437
 -1     10153    3    0    1
 -2      1416      1417      1550      3394
 -1     10154    3    0    1
 -2      1514      1854      1855      3261
 -1     10155    3    0    1
 -2      3461      1914      3495      3737
 -1     10156    3    0    1
 -2      1416      1549      3315      3394
 -1     10157    3    0    1
 -2      1305       173      3603      3623
 -1     10158    3    0    1
 -2      3560      1305      3603      3623
 -1     10159    3    0    1
 -2       994      1305      3560      3623
 -1     10160    3    0    1
 -2      3523      1736      3561      3623
 -1     10161    3    0    1
 -2      3560      3523      3561      3623
 -1     10162    3    0    1
 -2      3523      3560      1736      3623
 -1     10163    3    0    1
 -2       994       173      1305      3623
 -1     10164    3    0    1
 -2      3131      3137      3620      3374
 -1     10165    3    0    1
 -2      1557      1610      3103      3640
 -1     10166    3    0    1
 -2      3640      3006      3316      3334
 -1     10167    3    0    1
 -2      1573      1574      1611      3334
 -1     10168    3    0    1
 -2      2931      2441      3608      3500
 -1     10169    3    0    1
 -2      3307      1854      3313      3453
 -1     10170    3    0    1
 -2      1573      1748      1749      3316
 -1     10171    3    0    1
 -2      1687      1688      3058      3347
 -1     10172    3    0    1
 -2      2292      3515      3554      3632
 -1     10173    3    0    1
 -2       329      1010      3554      3632
 -1     10174    3    0    1
 -2      3564      3062      3145      3659
 -1     10175    3    0    1
 -2      3380      3317      3415      3736
 -1     10176    3    0    1
 -2      1748      1573      3640      3316
 -1     10177    3    0    1
 -2       329      3554      3556      3632
 -1     10178    3    0    1
 -2      1512      1603      2932      3290
 -1     10179    3    0    1
 -2       957      1286      2555      3412
 -1     10180    3    0    1
 -2      1301      2726      3561      3290
 -1     10181    3    0    1
 -2      1467      1466      3098      1895
 -1     10182    3    0    1
 -2      3264      3098      1894      1895
 -1     10183    3    0    1
 -2      1669      1462      1670      3275
 -1     10184    3    0    1
 -2      1669      1670      3242      3275
 -1     10185    3    0    1
 -2      3214      1858      1859      3265
 -1     10186    3    0    1
 -2       630      3298      3316      3333
 -1     10187    3    0    1
 -2      2597      2631      3591      3396
 -1     10188    3    0    1
 -2      1855      1854      3307      3453
 -1     10189    3    0    1
 -2      2620      3307      3313      3453
 -1     10190    3    0    1
 -2      3594      3576      3599      3373
 -1     10191    3    0    1
 -2      3313      1870      3357      3494
 -1     10192    3    0    1
 -2      3509      1423      3672      3700
 -1     10193    3    0    1
 -2      3552      3650      3656      3735
 -1     10194    3    0    1
 -2      1830      1765      3613      3373
 -1     10195    3    0    1
 -2      1765      3594      3613      3373
 -1     10196    3    0    1
 -2      3599      3576      3601      3373
 -1     10197    3    0    1
 -2      3318      3322      3670      3380
 -1     10198    3    0    1
 -2      3112      3169      3192      3624
 -1     10199    3    0    1
 -2       171       185      1530      3658
 -1     10200    3    0    1
 -2      3594      1002      3613      3658
 -1     10201    3    0    1
 -2      2580      2695      2900      3659
 -1     10202    3    0    1
 -2       185      1002      3597      3658
 -1     10203    3    0    1
 -2      1002       185      3613      3658
 -1     10204    3    0    1
 -2      3062      1692      3145      3659
 -1     10205    3    0    1
 -2       738       748      2342      3338
 -1     10206    3    0    1
 -2      3601      3114      3515      3660
 -1     10207    3    0    1
 -2      2695      2643      3659      3358
 -1     10208    3    0    1
 -2       748       738      1027      3338
 -1     10209    3    0    1
 -2       702      1798      3186      3659
 -1     10210    3    0    1
 -2      1027       738      3634      3338
 -1     10211    3    0    1
 -2      3169      3070      3195      3624
 -1     10212    3    0    1
 -2      1781      3169      3195      3624
 -1     10213    3    0    1
 -2      2564      2533      2942      3624
 -1     10214    3    0    1
 -2      2533      2851      2942      3624
 -1     10215    3    0    1
 -2      3070      3187      3195      3624
 -1     10216    3    0    1
 -2      1638      1781      3195      3624
 -1     10217    3    0    1
 -2      2564      2942      2999      3624
 -1     10218    3    0    1
 -2      1781      1625      3169      3624
 -1     10219    3    0    1
 -2      2999      2942      3180      3624
 -1     10220    3    0    1
 -2      3547      3536      3576      3658
 -1     10221    3    0    1
 -2      3307      2620      3313      3440
 -1     10222    3    0    1
 -2      2986      2732      3166      3659
 -1     10223    3    0    1
 -2        59      3126      1883      1904
 -1     10224    3    0    1
 -2      3247      2643      3695      3722
 -1     10225    3    0    1
 -2      2851      3112      3192      3624
 -1     10226    3    0    1
 -2      2517      3257      3351      3736
 -1     10227    3    0    1
 -2      2695      2732      2986      3659
 -1     10228    3    0    1
 -2       748      1027      1320      3338
 -1     10229    3    0    1
 -2      3557      3546      3571      3630
 -1     10230    3    0    1
 -2       347      3571       264      3630
 -1     10231    3    0    1
 -2      1632      3095      1890      1891
 -1     10232    3    0    1
 -2      2606      2576      3093      3627
 -1     10233    3    0    1
 -2      3093      2576      3220      3627
 -1     10234    3    0    1
 -2      1448      2606      3093      3627
 -1     10235    3    0    1
 -2      2743      3006      3640      3334
 -1     10236    3    0    1
 -2      2576      3138      3220      3627
 -1     10237    3    0    1
 -2      1336      1632      2912      3627
 -1     10238    3    0    1
 -2      3552      2061      3650      3735
 -1     10239    3    0    1
 -2      3507      1419      3557      3630
 -1     10240    3    0    1
 -2      3571       347       264      3616
 -1     10241    3    0    1
 -2      1511      1448      3093      3627
 -1     10242    3    0    1
 -2      2576      2977      3138      3627
 -1     10243    3    0    1
 -2      1471      2808      2944      3289
 -1     10244    3    0    1
 -2       347      1332      3557      3630
 -1     10245    3    0    1
 -2      1511      3093      3095      3627
 -1     10246    3    0    1
 -2      1332      3507      3557      3630
 -1     10247    3    0    1
 -2      3664         1      3719      3473
 -1     10248    3    0    1
 -2      1493      1494      1730      3297
 -1     10249    3    0    1
 -2      1466      1467      3098      3353
 -1     10250    3    0    1
 -2      1494      2821      3185      3297
 -1     10251    3    0    1
 -2      1494      1493      2821      3297
 -1     10252    3    0    1
 -2      1687      1623      1688      3353
 -1     10253    3    0    1
 -2      3584      1466      3347      1894
 -1     10254    3    0    1
 -2      1467      1466      1688      3353
 -1     10255    3    0    1
 -2      1541      1428      3162      3328
 -1     10256    3    0    1
 -2      2583      2754      2928      3271
 -1     10257    3    0    1
 -2      1645      3161      3234      3271
 -1     10258    3    0    1
 -2      1462      1463      1670      3275
 -1     10259    3    0    1
 -2      3371      1497      1917      3454
 -1     10260    3    0    1
 -2      3451      3448      3495      3737
 -1     10261    3    0    1
 -2      2441      3505      3610      3500
 -1     10262    3    0    1
 -2      1914      1457      3451      3737
 -1     10263    3    0    1
 -2      3451      1457      3452      3737
 -1     10264    3    0    1
 -2      1826      1497      3376      3454
 -1     10265    3    0    1
 -2      1594      1595      1787      3276
 -1     10266    3    0    1
 -2      1787        94      1694       432
 -1     10267    3    0    1
 -2      1694      1786      1787      3276
 -1     10268    3    0    1
 -2      1594      2871      3215      3276
 -1     10269    3    0    1
 -2      1595      1594      3215      3276
 -1     10270    3    0    1
 -2      3175      1682      1833      3301
 -1     10271    3    0    1
 -2      3517      3506      3626      3663
 -1     10272    3    0    1
 -2      1535      1534      2911      3302
 -1     10273    3    0    1
 -2      2788      3173      3346      3498
 -1     10274    3    0    1
 -2      1448      3505      3610      3693
 -1     10275    3    0    1
 -2      1448      3610      3679      3693
 -1     10276    3    0    1
 -2      3134      2846      3687      3455
 -1     10277    3    0    1
 -2      3587      1634      3720      3497
 -1     10278    3    0    1
 -2      3627      3138      3268      3278
 -1     10279    3    0    1
 -2      3220      3627      3268      3278
 -1     10280    3    0    1
 -2      3547      3560      3603      3681
 -1     10281    3    0    1
 -2      3622      3138      3627      3278
 -1     10282    3    0    1
 -2      1421      3220      3268      3278
 -1     10283    3    0    1
 -2      1819      1421      3268      3278
 -1     10284    3    0    1
 -2      3507      1332      3604      3630
 -1     10285    3    0    1
 -2      3565      2880      2923      2494
 -1     10286    3    0    1
 -2       972      2201      2421      3688
 -1     10287    3    0    1
 -2      1037      1047      2465      3698
 -1     10288    3    0    1
 -2      1650      1425      3577      3692
 -1     10289    3    0    1
 -2      3186      2979      3642      3457
 -1     10290    3    0    1
 -2      2880      3565      2923      3279
 -1     10291    3    0    1
 -2      1612      1613      2928      3344
 -1     10292    3    0    1
 -2      2907      2636      3596      3653
 -1     10293    3    0    1
 -2      2700       919      2784      3282
 -1     10294    3    0    1
 -2      3298      3006      3640      3730
 -1     10295    3    0    1
 -2      1309      2292      3554      3280
 -1     10296    3    0    1
 -2      1309      2243      2292      3280
 -1     10297    3    0    1
 -2       712      1313      2388      3280
 -1     10298    3    0    1
 -2       701       694      1010      3280
 -1     10299    3    0    1
 -2       701       712      2153      3280
 -1     10300    3    0    1
 -2      2521      3543      3429      3476
 -1     10301    3    0    1
 -2      1309       694      2243      3280
 -1     10302    3    0    1
 -2       694      2153      2243      3280
 -1     10303    3    0    1
 -2       694       701      2153      3280
 -1     10304    3    0    1
 -2      1010      1309      3554      3280
 -1     10305    3    0    1
 -2      1309      1010       694      3280
 -1     10306    3    0    1
 -2       712      1010      1313      3280
 -1     10307    3    0    1
 -2       712       701      1010      3280
 -1     10308    3    0    1
 -2        28        27      1801      3309
 -1     10309    3    0    1
 -2       329      1313      3644      3489
 -1     10310    3    0    1
 -2      2218      2292      3280      3632
 -1     10311    3    0    1
 -2      2388      2218      3280      3632
 -1     10312    3    0    1
 -2      1010       329      1313      3632
 -1     10313    3    0    1
 -2      1478       919      2700      3282
 -1     10314    3    0    1
 -2      3525      3583      3626      3284
 -1     10315    3    0    1
 -2      3101      3525      3626      3284
 -1     10316    3    0    1
 -2      1436      3583      3078      3284
 -1     10317    3    0    1
 -2      1436      1607      3583      3284
 -1     10318    3    0    1
 -2      3517      3525      3101      3284
 -1     10319    3    0    1
 -2      3525      3517      3078      3284
 -1     10320    3    0    1
 -2      3078      3517      3101      3284
 -1     10321    3    0    1
 -2      3024       630      3619      3285
 -1     10322    3    0    1
 -2      3597      3009      3250      3360
 -1     10323    3    0    1
 -2      1515      1833      3256      3440
 -1     10324    3    0    1
 -2      1580       346      3593      3633
 -1     10325    3    0    1
 -2      3544      1415      3593      3633
 -1     10326    3    0    1
 -2      1415      1580      3593      3633
 -1     10327    3    0    1
 -2      1044      3544      3593      3633
 -1     10328    3    0    1
 -2       346      1044      3593      3633
 -1     10329    3    0    1
 -2      2765      2573      3569      3339
 -1     10330    3    0    1
 -2      2957      1537      3065      3339
 -1     10331    3    0    1
 -2       119       433      1510      1860
 -1     10332    3    0    1
 -2      3115       119      1510      1860
 -1     10333    3    0    1
 -2       119      3115      1510      1509
 -1     10334    3    0    1
 -2      3118      1642      1845      1861
 -1     10335    3    0    1
 -2      1642       332      1845      1861
 -1     10336    3    0    1
 -2      1845       332      1846      1861
 -1     10337    3    0    1
 -2      3118      1845      1846      1861
 -1     10338    3    0    1
 -2      1027      1317      3537      3634
 -1     10339    3    0    1
 -2      1618      1447      3562      3634
 -1     10340    3    0    1
 -2      1027       730      1317      3634
 -1     10341    3    0    1
 -2      1317       730      2396      3634
 -1     10342    3    0    1
 -2      3574      2586      3601      3660
 -1     10343    3    0    1
 -2      1708      3563      1875      3660
 -1     10344    3    0    1
 -2       196      1875      3645      3660
 -1     10345    3    0    1
 -2       335      1618      3562      3634
 -1     10346    3    0    1
 -2       738       730      1027      3634
 -1     10347    3    0    1
 -2      3537      1618      3196      3634
 -1     10348    3    0    1
 -2      3537      1618      1447      2699
 -1     10349    3    0    1
 -2      2671      1447      3537      3634
 -1     10350    3    0    1
 -2      1642       332      3586      3634
 -1     10351    3    0    1
 -2       332      1317      3602      3634
 -1     10352    3    0    1
 -2      3586       332      3602      3634
 -1     10353    3    0    1
 -2      1618       335      3196      3634
 -1     10354    3    0    1
 -2      3515      3504      3601      3660
 -1     10355    3    0    1
 -2      1875      3563      3645      3660
 -1     10356    3    0    1
 -2       730       738      2046      3634
 -1     10357    3    0    1
 -2       730      2046      2396      3634
 -1     10358    3    0    1
 -2      3537      1317      3052      3634
 -1     10359    3    0    1
 -2      2671      3537      3052      3634
 -1     10360    3    0    1
 -2       332      1642      1845      3634
 -1     10361    3    0    1
 -2      1655      3537      3196      3634
 -1     10362    3    0    1
 -2       335      1655      3196      3634
 -1     10363    3    0    1
 -2      1655      1027      3537      3634
 -1     10364    3    0    1
 -2      2671      3052      1845      3634
 -1     10365    3    0    1
 -2      3118      2671      1845      3634
 -1     10366    3    0    1
 -2      1642      3118      1845      3634
 -1     10367    3    0    1
 -2      3556      3515      3114      3660
 -1     10368    3    0    1
 -2      1618      3537      1447      3634
 -1     10369    3    0    1
 -2      1447      2671      1642      3634
 -1     10370    3    0    1
 -2      1317       332      1845      3634
 -1     10371    3    0    1
 -2       335      1027      1655      3634
 -1     10372    3    0    1
 -2      1642      2671      3118      3634
 -1     10373    3    0    1
 -2      3052      1317      1845      3634
 -1     10374    3    0    1
 -2      2841      3545      3243      3715
 -1     10375    3    0    1
 -2      3611      2487      3672      3700
 -1     10376    3    0    1
 -2      1848      1847      1859      3306
 -1     10377    3    0    1
 -2      3274      1847      1864      1865
 -1     10378    3    0    1
 -2      2871      2537      2884      3636
 -1     10379    3    0    1
 -2      2537      2871      3215      3636
 -1     10380    3    0    1
 -2        94       944      2998      3636
 -1     10381    3    0    1
 -2       944      2733      2998      3636
 -1     10382    3    0    1
 -2       754      1756      3572      3332
 -1     10383    3    0    1
 -2      2998      2733      3286      3636
 -1     10384    3    0    1
 -2      1412      2871      2884      3636
 -1     10385    3    0    1
 -2      2593      2537      3215      3636
 -1     10386    3    0    1
 -2      2871      1694      3276      3636
 -1     10387    3    0    1
 -2        94      2998      1786      3636
 -1     10388    3    0    1
 -2      3520      2250      3615      3711
 -1     10389    3    0    1
 -2       200       194      3502      1912
 -1     10390    3    0    1
 -2      1767      1601      3111      3680
 -1     10391    3    0    1
 -2      2871      1412      1694      3636
 -1     10392    3    0    1
 -2      2998      1594      1786      3636
 -1     10393    3    0    1
 -2      3171      3622      3278      1881
 -1     10394    3    0    1
 -2      3293      1858       450       549
 -1     10395    3    0    1
 -2      1847      1864      1865      3459
 -1     10396    3    0    1
 -2       279       276      3693      3712
 -1     10397    3    0    1
 -2      1682      3175      3622      3301
 -1     10398    3    0    1
 -2      1603      2642      2932      3290
 -1     10399    3    0    1
 -2      3638      3552      3662      3735
 -1     10400    3    0    1
 -2      1512      2932      3273      3290
 -1     10401    3    0    1
 -2      2934      1725      3273      3290
 -1     10402    3    0    1
 -2      1521      2934      2951      3290
 -1     10403    3    0    1
 -2      3306      1847      3714      3459
 -1     10404    3    0    1
 -2      3565      2526      3040      3637
 -1     10405    3    0    1
 -2      2770      3565      3040      3637
 -1     10406    3    0    1
 -2       356       354      3528      3686
 -1     10407    3    0    1
 -2      2941      3331      3703      3708
 -1     10408    3    0    1
 -2      2692      1526      2875      3637
 -1     10409    3    0    1
 -2      3214      1858      3265      3458
 -1     10410    3    0    1
 -2      2390       189      3684      1943
 -1     10411    3    0    1
 -2      2808      2944      3289      3637
 -1     10412    3    0    1
 -2      2875      1526      2944      3637
 -1     10413    3    0    1
 -2      1526      1591      2944      3637
 -1     10414    3    0    1
 -2      2944      1591      3289      3637
 -1     10415    3    0    1
 -2      2883      2873      2959      3637
 -1     10416    3    0    1
 -2      2681      2873      2883      3637
 -1     10417    3    0    1
 -2      2493      2587      2688      3637
 -1     10418    3    0    1
 -2       736      2883      2959      3637
 -1     10419    3    0    1
 -2      1897      1896      1901      3374
 -1     10420    3    0    1
 -2      2688      2587      2692      3637
 -1     10421    3    0    1
 -2      2692      2587      2880      3637
 -1     10422    3    0    1
 -2       336       337      3696      1930
 -1     10423    3    0    1
 -2      1571      3135      3308      3367
 -1     10424    3    0    1
 -2      2493      2526      2587      3637
 -1     10425    3    0    1
 -2      1526       736      2959      3637
 -1     10426    3    0    1
 -2      1526      2959      3289      3637
 -1     10427    3    0    1
 -2      2688      2692      2875      3637
 -1     10428    3    0    1
 -2      2493      2688      2808      3637
 -1     10429    3    0    1
 -2      2652      2493      2808      3637
 -1     10430    3    0    1
 -2      2587      2494      2880      3637
 -1     10431    3    0    1
 -2      2791      3110      3641      3708
 -1     10432    3    0    1
 -2      1591      1526      3289      3637
 -1     10433    3    0    1
 -2      2808      2688      2944      3637
 -1     10434    3    0    1
 -2      2688      2875      2944      3637
 -1     10435    3    0    1
 -2      1682      1683      1834      3301
 -1     10436    3    0    1
 -2      2676      3368      3677      3472
 -1     10437    3    0    1
 -2      1438      2676      3677      3472
 -1     10438    3    0    1
 -2      2502      2514      2570      3638
 -1     10439    3    0    1
 -2      3633       346      3661      3706
 -1     10440    3    0    1
 -2      3256      2620      3440      3736
 -1     10441    3    0    1
 -2      2285      3511      3517      3638
 -1     10442    3    0    1
 -2      2514      2285      3517      3638
 -1     10443    3    0    1
 -2      2626      3517      2780      3638
 -1     10444    3    0    1
 -2      2626      2514      3517      3638
 -1     10445    3    0    1
 -2      3257      2517      3670      3736
 -1     10446    3    0    1
 -2      2570      2514      2626      3638
 -1     10447    3    0    1
 -2      3313      3357      3440      3736
 -1     10448    3    0    1
 -2      3175      3047      3622      3736
 -1     10449    3    0    1
 -2      3376      3670      3454      3736
 -1     10450    3    0    1
 -2      3622      3317      3318      3736
 -1     10451    3    0    1
 -2      3415      3397      3454      3736
 -1     10452    3    0    1
 -2      3622      3318      3670      3736
 -1     10453    3    0    1
 -2      1466      1467      1688      3347
 -1     10454    3    0    1
 -2      2849      2780      3222      3638
 -1     10455    3    0    1
 -2      2514      2502      2522      3638
 -1     10456    3    0    1
 -2      2570      2780      2849      3638
 -1     10457    3    0    1
 -2      2285      2514      2522      3638
 -1     10458    3    0    1
 -2      2288      2570      2849      3638
 -1     10459    3    0    1
 -2      2502      2061      2522      3638
 -1     10460    3    0    1
 -2      2570      2626      2780      3638
 -1     10461    3    0    1
 -2      3317      3047      3494      3736
 -1     10462    3    0    1
 -2      2816      1416      3019      3654
 -1     10463    3    0    1
 -2      1044      2644      2708      3655
 -1     10464    3    0    1
 -2      1518      1519      1810      3314
 -1     10465    3    0    1
 -2      3002      3538      3240      3296
 -1     10466    3    0    1
 -2      3538       977      3240      3296
 -1     10467    3    0    1
 -2       977      3538      3096      3296
 -1     10468    3    0    1
 -2      1848      1847      3306      3459
 -1     10469    3    0    1
 -2      3035       754      3572      3332
 -1     10470    3    0    1
 -2      2949      2800      3122      3675
 -1     10471    3    0    1
 -2      3551      3088      3165      3705
 -1     10472    3    0    1
 -2      1653      1652      3232      1937
 -1     10473    3    0    1
 -2      3671      2590      3452      3737
 -1     10474    3    0    1
 -2      3596      2995      3305      3647
 -1     10475    3    0    1
 -2      3103      3021      3640      3334
 -1     10476    3    0    1
 -2      2831      3559      3086      3710
 -1     10477    3    0    1
 -2      3192      2851      3624      3323
 -1     10478    3    0    1
 -2      2851      2942      3624      3323
 -1     10479    3    0    1
 -2      2547      3552      3039      3648
 -1     10480    3    0    1
 -2      1854      1515      3307      3440
 -1     10481    3    0    1
 -2      1696      3575      1840      3648
 -1     10482    3    0    1
 -2      1715      3130      1869      3300
 -1     10483    3    0    1
 -2      2677      2914      2915      3300
 -1     10484    3    0    1
 -2      3003      1619      3349      1948
 -1     10485    3    0    1
 -2      1457      1458      1915      3451
 -1     10486    3    0    1
 -2      3532      3587      3720      3724
 -1     10487    3    0    1
 -2      2620      2517      3351      3736
 -1     10488    3    0    1
 -2      1941         2      1942      1960
 -1     10489    3    0    1
 -2      1425      1758      3611      3666
 -1     10490    3    0    1
 -2        29         2      1941      1960
 -1     10491    3    0    1
 -2      3395      3397      3415      3736
 -1     10492    3    0    1
 -2       631       622       980      1923
 -1     10493    3    0    1
 -2      1692      2695      2986      3659
 -1     10494    3    0    1
 -2      3505      3501      3546      3500
 -1     10495    3    0    1
 -2      1854      3307      3313      3440
 -1     10496    3    0    1
 -2      2515      3245      3262      3639
 -1     10497    3    0    1
 -2      3544      3593      3683      3724
 -1     10498    3    0    1
 -2      2801      2660      2803      3639
 -1     10499    3    0    1
 -2      3245      3244      3263      3639
 -1     10500    3    0    1
 -2      2619      3244      3245      3639
 -1     10501    3    0    1
 -2      2515      2879      3245      3639
 -1     10502    3    0    1
 -2      2532      2511      3520      3724
 -1     10503    3    0    1
 -2      2879      2619      3245      3639
 -1     10504    3    0    1
 -2      1035       756      2342      3724
 -1     10505    3    0    1
 -2      3395      3351      3397      3736
 -1     10506    3    0    1
 -2      3608      2441      3610      3500
 -1     10507    3    0    1
 -2      1870      3313      3357      3440
 -1     10508    3    0    1
 -2      1610      1557      3296      3640
 -1     10509    3    0    1
 -2       961      1290      2290      3663
 -1     10510    3    0    1
 -2       450      3293      1873      1874
 -1     10511    3    0    1
 -2      2261      2614      3477      3733
 -1     10512    3    0    1
 -2      2672      2538      3099      3641
 -1     10513    3    0    1
 -2      2538      2902      3099      3641
 -1     10514    3    0    1
 -2      2941      2632      3288      3641
 -1     10515    3    0    1
 -2      2733      2947      2954      3641
 -1     10516    3    0    1
 -2      2902      2791      3099      3641
 -1     10517    3    0    1
 -2      2672      3099      3214      3641
 -1     10518    3    0    1
 -2      2632      2899      3288      3641
 -1     10519    3    0    1
 -2      3165      3088      3291      3705
 -1     10520    3    0    1
 -2      1847      1865      3714      3459
 -1     10521    3    0    1
 -2      3099      2791      3110      3641
 -1     10522    3    0    1
 -2      2672      3214      3265      3641
 -1     10523    3    0    1
 -2      1573      2778      3580      3419
 -1     10524    3    0    1
 -2      3505      3546      3486      3500
 -1     10525    3    0    1
 -2       248       342      2598      3723
 -1     10526    3    0    1
 -2      1013       189      2390      1943
 -1     10527    3    0    1
 -2      2979      3145      3186      3642
 -1     10528    3    0    1
 -2      3288      3641      3341      3458
 -1     10529    3    0    1
 -2      2979      2728      3145      3642
 -1     10530    3    0    1
 -2      1564      1565      2921      1940
 -1     10531    3    0    1
 -2      3213      2889      3657      3382
 -1     10532    3    0    1
 -2      3166      2732      3224      3642
 -1     10533    3    0    1
 -2      3269      2971      3681      3731
 -1     10534    3    0    1
 -2      1734      1564      3186      3642
 -1     10535    3    0    1
 -2      2679      2881      3533      2798
 -1     10536    3    0    1
 -2      2898      3017      3302      3643
 -1     10537    3    0    1
 -2      2756      2771      3533      3643
 -1     10538    3    0    1
 -2      3017      2898      3049      3643
 -1     10539    3    0    1
 -2      2795      3017      3049      3643
 -1     10540    3    0    1
 -2      1740      1534      3302      3643
 -1     10541    3    0    1
 -2      3017      1740      3302      3643
 -1     10542    3    0    1
 -2      3533      2795      3049      3643
 -1     10543    3    0    1
 -2      2756      3533      3049      3643
 -1     10544    3    0    1
 -2      1531      2696      2911      3643
 -1     10545    3    0    1
 -2      2795      2997      3017      3643
 -1     10546    3    0    1
 -2      2795      2691      2997      3643
 -1     10547    3    0    1
 -2      1534      2997      1836      3643
 -1     10548    3    0    1
 -2      2696      1531      2881      3643
 -1     10549    3    0    1
 -2      2911      2696      3302      3643
 -1     10550    3    0    1
 -2      2771      2696      2881      3643
 -1     10551    3    0    1
 -2      2696      2756      2898      3643
 -1     10552    3    0    1
 -2      2696      2898      3302      3643
 -1     10553    3    0    1
 -2      2997      1534      3017      3643
 -1     10554    3    0    1
 -2      2756      2696      2771      3643
 -1     10555    3    0    1
 -2      1534      1740      3017      3643
 -1     10556    3    0    1
 -2      2898      2756      3049      3643
 -1     10557    3    0    1
 -2      3198      3211      3210      1883
 -1     10558    3    0    1
 -2       329      1708      3563      1875
 -1     10559    3    0    1
 -2      3504      2218      3574      3644
 -1     10560    3    0    1
 -2      3574      2218      3602      3644
 -1     10561    3    0    1
 -2      1523       332      1845      3644
 -1     10562    3    0    1
 -2      3033      3029      1845      3644
 -1     10563    3    0    1
 -2      3029      1523      1845      3644
 -1     10564    3    0    1
 -2      3199      2907      3211      3653
 -1     10565    3    0    1
 -2      2636      2907      3199      3653
 -1     10566    3    0    1
 -2      2794      2925      3589      3730
 -1     10567    3    0    1
 -2      1313      2682      2983      3644
 -1     10568    3    0    1
 -2      1706       329      2920      3644
 -1     10569    3    0    1
 -2      3501      1419      1508      3491
 -1     10570    3    0    1
 -2      1018      2983      3033      3644
 -1     10571    3    0    1
 -2      1452      2701      1708      3644
 -1     10572    3    0    1
 -2      1452      1523      3029      3644
 -1     10573    3    0    1
 -2      2577      1452      3029      3644
 -1     10574    3    0    1
 -2      1452      2577      2701      3644
 -1     10575    3    0    1
 -2      1708      2701      2920      3644
 -1     10576    3    0    1
 -2       332      1018      1845      3644
 -1     10577    3    0    1
 -2      1018      3033      1845      3644
 -1     10578    3    0    1
 -2      2682      1313      3053      3644
 -1     10579    3    0    1
 -2      1419      3501      3546      3491
 -1     10580    3    0    1
 -2      3501      1508      3712      3491
 -1     10581    3    0    1
 -2      3378      3362      3678      3432
 -1     10582    3    0    1
 -2      2602      2761      3531      3647
 -1     10583    3    0    1
 -2      1506      2990      3109      3647
 -1     10584    3    0    1
 -2      1506      1738      2990      3647
 -1     10585    3    0    1
 -2      3678      3358      3695      3432
 -1     10586    3    0    1
 -2      2761      2948      3595      3647
 -1     10587    3    0    1
 -2      3531      2761      3595      3647
 -1     10588    3    0    1
 -2      1457      1487      3671      3493
 -1     10589    3    0    1
 -2      2948      3067      3595      3647
 -1     10590    3    0    1
 -2      2920      1706      3644      3489
 -1     10591    3    0    1
 -2      2995      2588      3109      3647
 -1     10592    3    0    1
 -2      2747      2602      2787      3647
 -1     10593    3    0    1
 -2      2602      2747      2990      3647
 -1     10594    3    0    1
 -2      2990      2747      3287      3647
 -1     10595    3    0    1
 -2      2747      2746      2895      3647
 -1     10596    3    0    1
 -2      1313      3053      3644      3489
 -1     10597    3    0    1
 -2      1896      1897      3378      3432
 -1     10598    3    0    1
 -2      2787      2602      2809      3647
 -1     10599    3    0    1
 -2      2747      3596      2787      2636
 -1     10600    3    0    1
 -2      2948      2602      2990      3647
 -1     10601    3    0    1
 -2      2761      2602      2948      3647
 -1     10602    3    0    1
 -2      1738      1506      3109      3647
 -1     10603    3    0    1
 -2      1432      3263      3639      3474
 -1     10604    3    0    1
 -2      2704      1479      1685      3325
 -1     10605    3    0    1
 -2        47       268      1854      1934
 -1     10606    3    0    1
 -2      2741      3558      3149      3312
 -1     10607    3    0    1
 -2      2834      2741      3149      3312
 -1     10608    3    0    1
 -2      2834      1619      3117      3312
 -1     10609    3    0    1
 -2      3117      2964      3609      3312
 -1     10610    3    0    1
 -2      3558      3117      3609      3312
 -1     10611    3    0    1
 -2      2964      3558      3609      3312
 -1     10612    3    0    1
 -2      3558      2741      3117      3312
 -1     10613    3    0    1
 -2      2741      2834      3117      3312
 -1     10614    3    0    1
 -2      1854       268      1870      3313
 -1     10615    3    0    1
 -2       435       226      1905      3720
 -1     10616    3    0    1
 -2      2717      1473      3173      3498
 -1     10617    3    0    1
 -2      3233      3298      3462      3730
 -1     10618    3    0    1
 -2      1068       353      1280      3664
 -1     10619    3    0    1
 -2        43       250      1926      1928
 -1     10620    3    0    1
 -2      2547      1284      3575      3648
 -1     10621    3    0    1
 -2      1284      2547      3039      3648
 -1     10622    3    0    1
 -2      3514      2547      3575      3648
 -1     10623    3    0    1
 -2      2547      3514      3552      3648
 -1     10624    3    0    1
 -2       944      3039      3588      3648
 -1     10625    3    0    1
 -2       944      1284      3039      3648
 -1     10626    3    0    1
 -2      1625      3192      3624      3323
 -1     10627    3    0    1
 -2      1638      1780      1781      3323
 -1     10628    3    0    1
 -2      1696      1413      3575      3648
 -1     10629    3    0    1
 -2      3125      3213      3319      3657
 -1     10630    3    0    1
 -2      1413      3514      3575      3648
 -1     10631    3    0    1
 -2      3514      1413      3552      3648
 -1     10632    3    0    1
 -2       944        94      1284      3648
 -1     10633    3    0    1
 -2      3585      2826      3150      3446
 -1     10634    3    0    1
 -2      2980      2759      3620      3320
 -1     10635    3    0    1
 -2      3670      3380      3454      3736
 -1     10636    3    0    1
 -2      2612      2446      3416      3696
 -1     10637    3    0    1
 -2      1650      1680      3577      3649
 -1     10638    3    0    1
 -2      2653      1541      2740      3445
 -1     10639    3    0    1
 -2      2528      2561      3559      3710
 -1     10640    3    0    1
 -2      2956      1479      3213      3319
 -1     10641    3    0    1
 -2      3179      1678      3264      3669
 -1     10642    3    0    1
 -2      2454       257      3697      3733
 -1     10643    3    0    1
 -2      1578      1666      3061      3320
 -1     10644    3    0    1
 -2      2757      3058      3584      3674
 -1     10645    3    0    1
 -2      1479      3125      3213      3319
 -1     10646    3    0    1
 -2      3253      2755      3304      3730
 -1     10647    3    0    1
 -2      2848      2980      3620      3320
 -1     10648    3    0    1
 -2      3610      1867      3718      3496
 -1     10649    3    0    1
 -2      3238      1925      1926      1928
 -1     10650    3    0    1
 -2      1703      3603      1868      3352
 -1     10651    3    0    1
 -2      3534      3577      3617      3649
 -1     10652    3    0    1
 -2      2783      3151      3328      3682
 -1     10653    3    0    1
 -2      1708      3563      3660      3464
 -1     10654    3    0    1
 -2      3136      3266      3364      3671
 -1     10655    3    0    1
 -2      2848      1578      3061      3320
 -1     10656    3    0    1
 -2      2980      2848      3061      3320
 -1     10657    3    0    1
 -2      1147      2759      1666      3320
 -1     10658    3    0    1
 -2      1666      2759      2980      3320
 -1     10659    3    0    1
 -2      1666      2980      3061      3320
 -1     10660    3    0    1
 -2      1434      3351      3395      3736
 -1     10661    3    0    1
 -2      2568      2653      3568      3445
 -1     10662    3    0    1
 -2      3381      3243      3709      3499
 -1     10663    3    0    1
 -2      3136       666      3254      3671
 -1     10664    3    0    1
 -2      3368      3362      3691      3472
 -1     10665    3    0    1
 -2      2653      2568      3050      3445
 -1     10666    3    0    1
 -2      1428      1541      2653      3445
 -1     10667    3    0    1
 -2      2536      2510      2910      3671
 -1     10668    3    0    1
 -2      3573      3588      3105      3650
 -1     10669    3    0    1
 -2      2061      3573      3105      3650
 -1     10670    3    0    1
 -2      2720      2562      3070      3657
 -1     10671    3    0    1
 -2      2956      3001      3319      3657
 -1     10672    3    0    1
 -2      3001      3048      3319      3657
 -1     10673    3    0    1
 -2      2533      2851      3624      3657
 -1     10674    3    0    1
 -2      1638      1781      3624      3323
 -1     10675    3    0    1
 -2      3180      1638      3624      3323
 -1     10676    3    0    1
 -2       218        59      1884      1904
 -1     10677    3    0    1
 -2      1883      3157      1884      1904
 -1     10678    3    0    1
 -2      1770      2755      3253      3369
 -1     10679    3    0    1
 -2      1562      1586      2680      3369
 -1     10680    3    0    1
 -2      3247      1810      3470      3722
 -1     10681    3    0    1
 -2      1734      3038      1798      3651
 -1     10682    3    0    1
 -2      3435      3387      1941      1961
 -1     10683    3    0    1
 -2      3564      3642      3717      3722
 -1     10684    3    0    1
 -2      3379      1519      3469      3722
 -1     10685    3    0    1
 -2      3501      2194      2697      3500
 -1     10686    3    0    1
 -2       619       630      3285      1899
 -1     10687    3    0    1
 -2        23        26      1880      1945
 -1     10688    3    0    1
 -2      1734      1564      3106      3651
 -1     10689    3    0    1
 -2      1707      1706      2921      1940
 -1     10690    3    0    1
 -2      3501      2697      3546      3500
 -1     10691    3    0    1
 -2      2966      2861      3564      3678
 -1     10692    3    0    1
 -2      3687      3363      3413      3700
 -1     10693    3    0    1
 -2      2800      2645      2985      3651
 -1     10694    3    0    1
 -2      3026      2682      3053      3651
 -1     10695    3    0    1
 -2      3285      1559      1899      3377
 -1     10696    3    0    1
 -2      3026      3053      3188      3651
 -1     10697    3    0    1
 -2      2645      2748      2985      3651
 -1     10698    3    0    1
 -2      2577      2800      2985      3651
 -1     10699    3    0    1
 -2      2577      2985      3051      3651
 -1     10700    3    0    1
 -2      2985      2748      3038      3651
 -1     10701    3    0    1
 -2      2985      3038      3106      3651
 -1     10702    3    0    1
 -2      3053      1734      3188      3651
 -1     10703    3    0    1
 -2      3051      2985      3106      3651
 -1     10704    3    0    1
 -2      2701      2577      3051      3651
 -1     10705    3    0    1
 -2      1734      1798      3188      3651
 -1     10706    3    0    1
 -2      3174      3717      3469      3722
 -1     10707    3    0    1
 -2      1898      3398      3435      1961
 -1     10708    3    0    1
 -2      1759      1496      3310      3653
 -1     10709    3    0    1
 -2      2636      1418      2746      3653
 -1     10710    3    0    1
 -2      1418      2897      3140      3653
 -1     10711    3    0    1
 -2        26      1645      3234      1880
 -1     10712    3    0    1
 -2       226      1634      1905      3720
 -1     10713    3    0    1
 -2        23        26      3234      1880
 -1     10714    3    0    1
 -2      2134      3523      3547      3731
 -1     10715    3    0    1
 -2      3610      1867      3679      3718
 -1     10716    3    0    1
 -2         1       353      1867      3718
 -1     10717    3    0    1
 -2      1442      2754      3267      3327
 -1     10718    3    0    1
 -2      1727      1442      3267      3327
 -1     10719    3    0    1
 -2      3527      2754      3271      3327
 -1     10720    3    0    1
 -2      2926      1540      3014      3327
 -1     10721    3    0    1
 -2      3014      1540      3267      3327
 -1     10722    3    0    1
 -2      2754      3527      3014      3327
 -1     10723    3    0    1
 -2      3527      2926      3014      3327
 -1     10724    3    0    1
 -2      3527      2753      2926      3327
 -1     10725    3    0    1
 -2      2754      3014      3267      3327
 -1     10726    3    0    1
 -2      1583      1489      3646      3329
 -1     10727    3    0    1
 -2      2593      1476      1583      3329
 -1     10728    3    0    1
 -2      1476      2593      3215      3329
 -1     10729    3    0    1
 -2      3215      2593      3636      3329
 -1     10730    3    0    1
 -2      2593      1583      2868      3329
 -1     10731    3    0    1
 -2      2868      1583      3646      3329
 -1     10732    3    0    1
 -2      2593      2868      3646      3329
 -1     10733    3    0    1
 -2      3171       808      3622      1881
 -1     10734    3    0    1
 -2      3567      2835      3655      3372
 -1     10735    3    0    1
 -2      1810      3247      1907      3695
 -1     10736    3    0    1
 -2      2988       808      3581      1881
 -1     10737    3    0    1
 -2      1579      1578      2866      3385
 -1     10738    3    0    1
 -2      3505      2441      3610      3437
 -1     10739    3    0    1
 -2      3198      1817      3310      1883
 -1     10740    3    0    1
 -2      1596      3198      3211      3653
 -1     10741    3    0    1
 -2      3198      1596      3211      1883
 -1     10742    3    0    1
 -2        59      1817      3198      1883
 -1     10743    3    0    1
 -2        59      3198      1828      1883
 -1     10744    3    0    1
 -2      1881      1547      1882      3330
 -1     10745    3    0    1
 -2      3153      1881      1882      3330
 -1     10746    3    0    1
 -2      3268      1547      3278      3330
 -1     10747    3    0    1
 -2      3138      3268      3278      3330
 -1     10748    3    0    1
 -2      3278      1547      1881      3330
 -1     10749    3    0    1
 -2       353      3592      3664      3719
 -1     10750    3    0    1
 -2      2556      3564      3174      3406
 -1     10751    3    0    1
 -2      2941      2632      2947      3331
 -1     10752    3    0    1
 -2      2216      1013      2390      3684
 -1     10753    3    0    1
 -2      2632       475      2947      3331
 -1     10754    3    0    1
 -2       476       475      2632      3331
 -1     10755    3    0    1
 -2      2585      2485      3510      3411
 -1     10756    3    0    1
 -2      1803      1428      3328      3701
 -1     10757    3    0    1
 -2      1485      2664      2763      3438
 -1     10758    3    0    1
 -2      1551       648      2775      3438
 -1     10759    3    0    1
 -2      2407      2501      3030      3463
 -1     10760    3    0    1
 -2      2730      3551      3165      3705
 -1     10761    3    0    1
 -2       475      1167      2947      3331
 -1     10762    3    0    1
 -2      1169      2632      2941      3331
 -1     10763    3    0    1
 -2      1415      3544      3593      3683
 -1     10764    3    0    1
 -2      2319      2216      2599      3684
 -1     10765    3    0    1
 -2      1519      3163      3379      3469
 -1     10766    3    0    1
 -2      1169       476      2632      3331
 -1     10767    3    0    1
 -2      1004      1013      2319      3684
 -1     10768    3    0    1
 -2      2683      2775      3570      3438
 -1     10769    3    0    1
 -2      1781      1780      3237      3342
 -1     10770    3    0    1
 -2      2672      3265      3274      3654
 -1     10771    3    0    1
 -2      3543      2664      2903      3438
 -1     10772    3    0    1
 -2      2537      2538      2672      3654
 -1     10773    3    0    1
 -2      2896      3581      3384      3713
 -1     10774    3    0    1
 -2      2994      2833      3567      3655
 -1     10775    3    0    1
 -2      2790      2994      3567      3655
 -1     10776    3    0    1
 -2      2983      3033      3651      3675
 -1     10777    3    0    1
 -2      2835      2529      3567      3655
 -1     10778    3    0    1
 -2      3588      1412      3592      3721
 -1     10779    3    0    1
 -2      1640       720      2949      3675
 -1     10780    3    0    1
 -2      2777      2782      2830      3711
 -1     10781    3    0    1
 -2      1447      3503      3522      3711
 -1     10782    3    0    1
 -2      2949       720      3060      3675
 -1     10783    3    0    1
 -2      1324      2790      3593      3655
 -1     10784    3    0    1
 -2      2654      1324      3593      3655
 -1     10785    3    0    1
 -2      1324      1044      2790      3655
 -1     10786    3    0    1
 -2      1044      1324      2644      3655
 -1     10787    3    0    1
 -2      3589      2755      3369      3730
 -1     10788    3    0    1
 -2      3094      2774      3589      3730
 -1     10789    3    0    1
 -2      3298      3640      3333      3730
 -1     10790    3    0    1
 -2      3392       237      2273      3723
 -1     10791    3    0    1
 -2      2729      3531      3595      3391
 -1     10792    3    0    1
 -2      3584      2654      3593      3655
 -1     10793    3    0    1
 -2      2790      3584      3593      3655
 -1     10794    3    0    1
 -2      2670      2842      3543      3429
 -1     10795    3    0    1
 -2      1248      2634      2817      3429
 -1     10796    3    0    1
 -2      2644      2654      3015      3655
 -1     10797    3    0    1
 -2      3015      2654      3035      3655
 -1     10798    3    0    1
 -2      1198      2644      3015      3655
 -1     10799    3    0    1
 -2      2644      1324      2654      3655
 -1     10800    3    0    1
 -2      2790      2708      2833      3655
 -1     10801    3    0    1
 -2       767       237      1047      1957
 -1     10802    3    0    1
 -2      1044      2708      2790      3655
 -1     10803    3    0    1
 -2      2790      2833      2994      3655
 -1     10804    3    0    1
 -2       908      2720      3070      3657
 -1     10805    3    0    1
 -2      1165       908      3070      3657
 -1     10806    3    0    1
 -2      1460      1637      3112      3657
 -1     10807    3    0    1
 -2      3048      2711      3069      3657
 -1     10808    3    0    1
 -2      3001      2711      3048      3657
 -1     10809    3    0    1
 -2      3535      2969      3069      3657
 -1     10810    3    0    1
 -2      2562      2796      3070      3657
 -1     10811    3    0    1
 -2      2796      2562      2969      3657
 -1     10812    3    0    1
 -2      2711      2596      3069      3657
 -1     10813    3    0    1
 -2      2564      2533      3624      3657
 -1     10814    3    0    1
 -2      2596      3535      3069      3657
 -1     10815    3    0    1
 -2      2796      3535      3187      3657
 -1     10816    3    0    1
 -2      3535      2796      2969      3657
 -1     10817    3    0    1
 -2      3187      2564      3624      3657
 -1     10818    3    0    1
 -2      2596      2564      3535      3657
 -1     10819    3    0    1
 -2      3535      2564      3187      3657
 -1     10820    3    0    1
 -2      3048      2720      3125      3657
 -1     10821    3    0    1
 -2      2720      1649      3125      3657
 -1     10822    3    0    1
 -2      2969      2720      3048      3657
 -1     10823    3    0    1
 -2      1649       908      2823      3657
 -1     10824    3    0    1
 -2      2720       908      1649      3657
 -1     10825    3    0    1
 -2      2889      2824      3213      3657
 -1     10826    3    0    1
 -2      2824      2533      2956      3657
 -1     10827    3    0    1
 -2      2824      2956      3213      3657
 -1     10828    3    0    1
 -2      3048      3125      3319      3657
 -1     10829    3    0    1
 -2      1637      3070      3169      3657
 -1     10830    3    0    1
 -2       908      1165      2823      3657
 -1     10831    3    0    1
 -2      2824      1460      3112      3657
 -1     10832    3    0    1
 -2      2851      2824      3112      3657
 -1     10833    3    0    1
 -2      2533      2824      2851      3657
 -1     10834    3    0    1
 -2      2533      2711      2956      3657
 -1     10835    3    0    1
 -2      2969      3048      3069      3657
 -1     10836    3    0    1
 -2      2562      2720      2969      3657
 -1     10837    3    0    1
 -2      1637      1165      3070      3657
 -1     10838    3    0    1
 -2      1165      1637      2823      3657
 -1     10839    3    0    1
 -2      1637      1460      2823      3657
 -1     10840    3    0    1
 -2      2956      2711      3001      3657
 -1     10841    3    0    1
 -2      3070      2796      3187      3657
 -1     10842    3    0    1
 -2      2533      2596      2711      3657
 -1     10843    3    0    1
 -2      2533      2564      2596      3657
 -1     10844    3    0    1
 -2      1779       196      3645      3660
 -1     10845    3    0    1
 -2      3173        43      1925      1946
 -1     10846    3    0    1
 -2      3633       346      3706      1947
 -1     10847    3    0    1
 -2      1580       346      3633      1947
 -1     10848    3    0    1
 -2      1415      3545      3468      3499
 -1     10849    3    0    1
 -2       196      3114      1875      3660
 -1     10850    3    0    1
 -2       196      1779      3114      3660
 -1     10851    3    0    1
 -2      1044       774      2355      3661
 -1     10852    3    0    1
 -2      2241      2686      2772      3661
 -1     10853    3    0    1
 -2      2355      2241      2772      3661
 -1     10854    3    0    1
 -2      1044       346      1327      3661
 -1     10855    3    0    1
 -2       784      1044      1327      3661
 -1     10856    3    0    1
 -2       784       774      1044      3661
 -1     10857    3    0    1
 -2      3654      1416      1549      3341
 -1     10858    3    0    1
 -2      3274      2816      3654      3341
 -1     10859    3    0    1
 -2      2816      3274      1865      3341
 -1     10860    3    0    1
 -2      3265      3274      3654      3341
 -1     10861    3    0    1
 -2      3265      1847      3274      3341
 -1     10862    3    0    1
 -2      3288      3641      3654      3341
 -1     10863    3    0    1
 -2      1847      1848      1864      3459
 -1     10864    3    0    1
 -2      3081      3306      3714      3459
 -1     10865    3    0    1
 -2      1417      1416      1864      3459
 -1     10866    3    0    1
 -2       279      3095      3627      1511
 -1     10867    3    0    1
 -2      3095       279      3627      1890
 -1     10868    3    0    1
 -2      1642      3586      1861      3343
 -1     10869    3    0    1
 -2       353      1867      3679      3460
 -1     10870    3    0    1
 -2       279      1508      3507      1890
 -1     10871    3    0    1
 -2      3507      1508      3074      1890
 -1     10872    3    0    1
 -2       439      3586      3631      3343
 -1     10873    3    0    1
 -2      3631      1523      1878      3343
 -1     10874    3    0    1
 -2      3574      1523      3631      3343
 -1     10875    3    0    1
 -2      1523      3574      3201      3343
 -1     10876    3    0    1
 -2      3161      3234      3271      3344
 -1     10877    3    0    1
 -2      1879      1612      1880      3344
 -1     10878    3    0    1
 -2      3234      1879      1880      3344
 -1     10879    3    0    1
 -2      1612      3234      1880      3344
 -1     10880    3    0    1
 -2      3234      1612      3271      3344
 -1     10881    3    0    1
 -2      1612      2928      3271      3344
 -1     10882    3    0    1
 -2      3161      1711      3234      3344
 -1     10883    3    0    1
 -2      3100      1421      3207      3713
 -1     10884    3    0    1
 -2      2896      3566      3581      3713
 -1     10885    3    0    1
 -2      1060      3507      3604      3713
 -1     10886    3    0    1
 -2      3683      3545      3715      3468
 -1     10887    3    0    1
 -2      3611      2162      3700      3732
 -1     10888    3    0    1
 -2      2777      2782      3711      3715
 -1     10889    3    0    1
 -2      1792      1793      3238      1926
 -1     10890    3    0    1
 -2       432      3656      3447      3485
 -1     10891    3    0    1
 -2      1029      1038      3696      1929
 -1     10892    3    0    1
 -2      3517      3511      3222      3662
 -1     10893    3    0    1
 -2      3222      3511      3513      3662
 -1     10894    3    0    1
 -2      3511      3222      3513      1424
 -1     10895    3    0    1
 -2      3548      1568      1773      3662
 -1     10896    3    0    1
 -2      1773        99      3600      3662
 -1     10897    3    0    1
 -2        99      1660      3600      3662
 -1     10898    3    0    1
 -2      3222      3513      1660      3662
 -1     10899    3    0    1
 -2      3513      3222      1660      1569
 -1     10900    3    0    1
 -2      3197      2849      3222      3662
 -1     10901    3    0    1
 -2      1568      1413      3197      3662
 -1     10902    3    0    1
 -2      1660      3197      3222      3662
 -1     10903    3    0    1
 -2      1773      1568      3197      3662
 -1     10904    3    0    1
 -2        99      1773      3197      3662
 -1     10905    3    0    1
 -2      1660        99      3197      3662
 -1     10906    3    0    1
 -2      2261      1331      2614      3733
 -1     10907    3    0    1
 -2      1290       119      3626      3663
 -1     10908    3    0    1
 -2       119      1290      3583      3663
 -1     10909    3    0    1
 -2       961      2290      3628      3663
 -1     10910    3    0    1
 -2      2138      3549      3621      3663
 -1     10911    3    0    1
 -2      2539      2387      3506      3663
 -1     10912    3    0    1
 -2      3506      2387      3621      3663
 -1     10913    3    0    1
 -2      2285      2539      3517      3663
 -1     10914    3    0    1
 -2      2290      2285      3628      3663
 -1     10915    3    0    1
 -2      2387      2138      3621      3663
 -1     10916    3    0    1
 -2      3517      3525      3628      3663
 -1     10917    3    0    1
 -2      2285      3517      3628      3663
 -1     10918    3    0    1
 -2      2290      2138      2539      3663
 -1     10919    3    0    1
 -2      2285      2290      2539      3663
 -1     10920    3    0    1
 -2      2138      2387      2539      3663
 -1     10921    3    0    1
 -2      2668      1453      2788      3349
 -1     10922    3    0    1
 -2      3651      2645      3667      3675
 -1     10923    3    0    1
 -2      1336      2314      3505      3679
 -1     10924    3    0    1
 -2      1712      1445      3617      3388
 -1     10925    3    0    1
 -2      1689      1412      3592      3719
 -1     10926    3    0    1
 -2      2850      2667      3559      3675
 -1     10927    3    0    1
 -2      2528      3559      3667      3675
 -1     10928    3    0    1
 -2      3559      3026      3667      3675
 -1     10929    3    0    1
 -2      2667      2682      3559      3675
 -1     10930    3    0    1
 -2      2692       736      3637      3456
 -1     10931    3    0    1
 -2      1466      1687      1688      3353
 -1     10932    3    0    1
 -2      1623      1687      2943      3353
 -1     10933    3    0    1
 -2      1466      3347      1894      1895
 -1     10934    3    0    1
 -2      1466      1467      3347      1895
 -1     10935    3    0    1
 -2      1623      1624      1688      3353
 -1     10936    3    0    1
 -2      1466      3098      3104      3353
 -1     10937    3    0    1
 -2      1623      2943      3046      3353
 -1     10938    3    0    1
 -2      1624      1623      3046      3353
 -1     10939    3    0    1
 -2      1687      1466      3104      3353
 -1     10940    3    0    1
 -2      3103      1557      3640      3354
 -1     10941    3    0    1
 -2      3021      3103      3640      3354
 -1     10942    3    0    1
 -2      1614      3002      3296      3354
 -1     10943    3    0    1
 -2      3296      3002      3640      3354
 -1     10944    3    0    1
 -2      1557      3296      3640      3354
 -1     10945    3    0    1
 -2      1557      1614      3296      3354
 -1     10946    3    0    1
 -2      2848      3620      3281      3355
 -1     10947    3    0    1
 -2      1856      1578      3281      3355
 -1     10948    3    0    1
 -2      2848      1578      3320      3355
 -1     10949    3    0    1
 -2      1578      2848      3281      3355
 -1     10950    3    0    1
 -2      2676      1578      1856      3677
 -1     10951    3    0    1
 -2      1497      1498      1827      3376
 -1     10952    3    0    1
 -2      2542      2757      3584      3674
 -1     10953    3    0    1
 -2      1416      1417      3345      3459
 -1     10954    3    0    1
 -2      1865      1416      3714      3459
 -1     10955    3    0    1
 -2      3345      3081      3714      3459
 -1     10956    3    0    1
 -2      1826      1789      3277      3356
 -1     10957    3    0    1
 -2      3277      1789      3348      3356
 -1     10958    3    0    1
 -2      3641      3288      3356      3458
 -1     10959    3    0    1
 -2       196       329      1706      3443
 -1     10960    3    0    1
 -2      1858      1847      3265      3458
 -1     10961    3    0    1
 -2      3277      3099      3641      3356
 -1     10962    3    0    1
 -2      3641      3099      3348      3356
 -1     10963    3    0    1
 -2      3099      3277      3348      3356
 -1     10964    3    0    1
 -2      3020      2744      3618      3423
 -1     10965    3    0    1
 -2      1336      1068      2314      3679
 -1     10966    3    0    1
 -2      2782      3711      3715      3467
 -1     10967    3    0    1
 -2      2774      2794      3589      3730
 -1     10968    3    0    1
 -2      1528       781      1529      3396
 -1     10969    3    0    1
 -2      2563      3225      3231      3500
 -1     10970    3    0    1
 -2      2927      3573      3447      3473
 -1     10971    3    0    1
 -2      1320       335      3615      3665
 -1     10972    3    0    1
 -2       335      1027      3634      3665
 -1     10973    3    0    1
 -2      3562       335      3634      3665
 -1     10974    3    0    1
 -2      2532      2250      3338      3665
 -1     10975    3    0    1
 -2      2342      2532      3338      3665
 -1     10976    3    0    1
 -2      1027       335      1320      3665
 -1     10977    3    0    1
 -2      1789      1826      3670      3380
 -1     10978    3    0    1
 -2      1503      1502      1795      3359
 -1     10979    3    0    1
 -2      2807      3124      3129      3359
 -1     10980    3    0    1
 -2      2807      1794      3124      3359
 -1     10981    3    0    1
 -2      1426      2807      3359      1794
 -1     10982    3    0    1
 -2      1794      1426      1795      3359
 -1     10983    3    0    1
 -2      1426      1427      1795      3359
 -1     10984    3    0    1
 -2      1427      1426      3020      3359
 -1     10985    3    0    1
 -2      3129      3124      3208      3359
 -1     10986    3    0    1
 -2      1502      3129      3208      3359
 -1     10987    3    0    1
 -2      1794      1502      3124      3359
 -1     10988    3    0    1
 -2      3124      1502      3208      3359
 -1     10989    3    0    1
 -2      1789      1873      3670      3471
 -1     10990    3    0    1
 -2      1798      3188      3651      3667
 -1     10991    3    0    1
 -2      2748      3038      3651      3667
 -1     10992    3    0    1
 -2      2937      1692      2938      3667
 -1     10993    3    0    1
 -2      2645      2748      3651      3667
 -1     10994    3    0    1
 -2      2705      2935      3717      3722
 -1     10995    3    0    1
 -2      1810      1518      1811      3470
 -1     10996    3    0    1
 -2       702      1798      3209      3667
 -1     10997    3    0    1
 -2      3038      1798      3651      3667
 -1     10998    3    0    1
 -2      1798      3038      3209      3667
 -1     10999    3    0    1
 -2      2938       702      3209      3667
 -1     11000    3    0    1
 -2      1592      2937      3206      3667
 -1     11001    3    0    1
 -2      1592      1692      2937      3667
 -1     11002    3    0    1
 -2      1692       702      2938      3667
 -1     11003    3    0    1
 -2      3000      3026      3206      3667
 -1     11004    3    0    1
 -2      3026      3188      3206      3667
 -1     11005    3    0    1
 -2      2748      2916      2938      3667
 -1     11006    3    0    1
 -2      2748      2528      2916      3667
 -1     11007    3    0    1
 -2      3000      2745      3026      3667
 -1     11008    3    0    1
 -2      2916      2937      2938      3667
 -1     11009    3    0    1
 -2      2748      2938      3209      3667
 -1     11010    3    0    1
 -2      3619      2888      3285      3377
 -1     11011    3    0    1
 -2      3188       702      3206      3667
 -1     11012    3    0    1
 -2      3038      2748      3209      3667
 -1     11013    3    0    1
 -2       702      1692      3206      3667
 -1     11014    3    0    1
 -2      1798       702      3188      3667
 -1     11015    3    0    1
 -2      1692      1592      3206      3667
 -1     11016    3    0    1
 -2      3622      2517      3256      3736
 -1     11017    3    0    1
 -2      1294      2707      3096      3673
 -1     11018    3    0    1
 -2      3579      3611      3666      3692
 -1     11019    3    0    1
 -2       666      3254      3671      3449
 -1     11020    3    0    1
 -2      3350      3097      3387      3708
 -1     11021    3    0    1
 -2      1283      1282      2230      3403
 -1     11022    3    0    1
 -2       986      1298      3542      3692
 -1     11023    3    0    1
 -2      3577      3542      3652      3692
 -1     11024    3    0    1
 -2      3277      1826      3356      3708
 -1     11025    3    0    1
 -2      1419      2519      3604      3713
 -1     11026    3    0    1
 -2      3387      3398      3435      3708
 -1     11027    3    0    1
 -2      3532      1035      3669      3734
 -1     11028    3    0    1
 -2        93       398      3541      3403
 -1     11029    3    0    1
 -2       398       399      3541      3403
 -1     11030    3    0    1
 -2      1282        93      3541      3403
 -1     11031    3    0    1
 -2      1305      1703      1821      3668
 -1     11032    3    0    1
 -2      3120      2910      3170      3668
 -1     11033    3    0    1
 -2      2719      2611      2821      3668
 -1     11034    3    0    1
 -2      3170      2910      3185      3668
 -1     11035    3    0    1
 -2      3152      2611      3254      3668
 -1     11036    3    0    1
 -2      2611      2973      3299      3668
 -1     11037    3    0    1
 -2       772      1643      3148      3372
 -1     11038    3    0    1
 -2      2821      2611      3152      3668
 -1     11039    3    0    1
 -2      2611      2719      2973      3668
 -1     11040    3    0    1
 -2      2910      1305      3185      3668
 -1     11041    3    0    1
 -2      2833      2994      3567      3372
 -1     11042    3    0    1
 -2      2719      2821      3297      3668
 -1     11043    3    0    1
 -2      2968      2719      3297      3668
 -1     11044    3    0    1
 -2      1305      1730      3185      3668
 -1     11045    3    0    1
 -2      1730      1305      1821      3668
 -1     11046    3    0    1
 -2      1035       226      3532      3669
 -1     11047    3    0    1
 -2      2526      3040      3637      3669
 -1     11048    3    0    1
 -2      2526      2943      3040      3669
 -1     11049    3    0    1
 -2      2493      2526      3637      3669
 -1     11050    3    0    1
 -2      3098      3264      1894      3669
 -1     11051    3    0    1
 -2      3104      2943      3353      3669
 -1     11052    3    0    1
 -2      3098      3104      3353      3669
 -1     11053    3    0    1
 -2      3264      1678      1894      3669
 -1     11054    3    0    1
 -2      2524      1035      2721      3669
 -1     11055    3    0    1
 -2      2721      1035      2873      3669
 -1     11056    3    0    1
 -2      2524      2721      2873      3669
 -1     11057    3    0    1
 -2      1466      3098      1894      3669
 -1     11058    3    0    1
 -2      3098      1466      3104      3669
 -1     11059    3    0    1
 -2      2493      2652      2678      3669
 -1     11060    3    0    1
 -2      2493      2678      3098      3669
 -1     11061    3    0    1
 -2      2849      2288      3638      3735
 -1     11062    3    0    1
 -2      2678      3179      3264      3669
 -1     11063    3    0    1
 -2      2678      1634      3179      3669
 -1     11064    3    0    1
 -2      1035      2770      3104      3669
 -1     11065    3    0    1
 -2      1678      1035      3104      3669
 -1     11066    3    0    1
 -2      2770      3040      3104      3669
 -1     11067    3    0    1
 -2      3098      2678      3264      3669
 -1     11068    3    0    1
 -2      2943      2493      3098      3669
 -1     11069    3    0    1
 -2       432      1840      3656      3485
 -1     11070    3    0    1
 -2      3573      2927      3447      3735
 -1     11071    3    0    1
 -2      2502      2288      2931      3735
 -1     11072    3    0    1
 -2      3656      3447      3485      3735
 -1     11073    3    0    1
 -2      1035      2524      2770      3669
 -1     11074    3    0    1
 -2       226      1035      1678      3669
 -1     11075    3    0    1
 -2      2526      2493      2943      3669
 -1     11076    3    0    1
 -2      2943      3098      3353      3669
 -1     11077    3    0    1
 -2      1678      3104      1894      3669
 -1     11078    3    0    1
 -2      3104      1466      1894      3669
 -1     11079    3    0    1
 -2      3194      2862      1877      3367
 -1     11080    3    0    1
 -2      2789      2680      3008      3369
 -1     11081    3    0    1
 -2      1562      2789      3008      3369
 -1     11082    3    0    1
 -2      2680      2629      3008      3369
 -1     11083    3    0    1
 -2      2680      3094      3589      3369
 -1     11084    3    0    1
 -2      2629      2680      3589      3369
 -1     11085    3    0    1
 -2      2629      2755      3008      3369
 -1     11086    3    0    1
 -2      1447      3522      1642      3370
 -1     11087    3    0    1
 -2      1642      3522      3201      3370
 -1     11088    3    0    1
 -2      1464      1744      3585      3446
 -1     11089    3    0    1
 -2      1464      3585      3150      3446
 -1     11090    3    0    1
 -2      2977      3236      3622      3670
 -1     11091    3    0    1
 -2      3035      3572      3655      3674
 -1     11092    3    0    1
 -2      1901      1438      1902      3472
 -1     11093    3    0    1
 -2       549      3293      3322      3670
 -1     11094    3    0    1
 -2      3293       549      1873      3670
 -1     11095    3    0    1
 -2       279      1511      3627      3679
 -1     11096    3    0    1
 -2      2529      3567      3655      3674
 -1     11097    3    0    1
 -2      3572      3035      3332      3674
 -1     11098    3    0    1
 -2      2517      3236      3257      3670
 -1     11099    3    0    1
 -2      2744      3115      3618      3423
 -1     11100    3    0    1
 -2      2759      1461      3422      3737
 -1     11101    3    0    1
 -2      1336       279      3627      3679
 -1     11102    3    0    1
 -2      3236      3081      3293      3670
 -1     11103    3    0    1
 -2      1789      1873      3322      3670
 -1     11104    3    0    1
 -2      1914      3451      3495      3737
 -1     11105    3    0    1
 -2      3340      1438      3677      3472
 -1     11106    3    0    1
 -2      3493      2759      1461      1149
 -1     11107    3    0    1
 -2      1873       549      3322      3670
 -1     11108    3    0    1
 -2      1487      3120      1885      3671
 -1     11109    3    0    1
 -2      2549      3136      3299      3671
 -1     11110    3    0    1
 -2      3671      1457      3493      3737
 -1     11111    3    0    1
 -2      2536      2910      3120      3671
 -1     11112    3    0    1
 -2      2611      3136      3254      3671
 -1     11113    3    0    1
 -2      3136      2611      3299      3671
 -1     11114    3    0    1
 -2      2979      3642      3457      3717
 -1     11115    3    0    1
 -2      3613      3594      3270      3373
 -1     11116    3    0    1
 -2      1830      3613      3270      3373
 -1     11117    3    0    1
 -2       977      2205      3538      3672
 -1     11118    3    0    1
 -2      2487      3579      3611      3672
 -1     11119    3    0    1
 -2      2487      2205      3579      3672
 -1     11120    3    0    1
 -2      1007      2153      2390      3410
 -1     11121    3    0    1
 -2      3090      3018      3677      3442
 -1     11122    3    0    1
 -2      2791      3641      3703      3708
 -1     11123    3    0    1
 -2       612      2909      3366      3673
 -1     11124    3    0    1
 -2      3641      2941      3703      3708
 -1     11125    3    0    1
 -2       612      1581      2909      3673
 -1     11126    3    0    1
 -2      2909      1581      3032      3673
 -1     11127    3    0    1
 -2      2804      1517      3133      3673
 -1     11128    3    0    1
 -2      3133      1517      3184      3673
 -1     11129    3    0    1
 -2      1581      1517      3032      3673
 -1     11130    3    0    1
 -2      1517      2804      3032      3673
 -1     11131    3    0    1
 -2      2707      3184      3365      3673
 -1     11132    3    0    1
 -2      2829      2743      3006      3673
 -1     11133    3    0    1
 -2      2743      2829      2909      3673
 -1     11134    3    0    1
 -2      2929      2743      3133      3673
 -1     11135    3    0    1
 -2      3110      3099      3641      3708
 -1     11136    3    0    1
 -2      3184      1581      3365      3673
 -1     11137    3    0    1
 -2      2707      1294      3184      3673
 -1     11138    3    0    1
 -2      1851      3387      3435      3708
 -1     11139    3    0    1
 -2      2804      2743      2909      3673
 -1     11140    3    0    1
 -2      2909      2829      3366      3673
 -1     11141    3    0    1
 -2      2743      2804      3133      3673
 -1     11142    3    0    1
 -2      1581       612      3365      3673
 -1     11143    3    0    1
 -2      1517      1581      3184      3673
 -1     11144    3    0    1
 -2      1448      3610      3231      3496
 -1     11145    3    0    1
 -2      2941      3252      3435      3708
 -1     11146    3    0    1
 -2      2804      2909      3032      3673
 -1     11147    3    0    1
 -2      1623      1687      3058      3674
 -1     11148    3    0    1
 -2      3035      2654      3332      3674
 -1     11149    3    0    1
 -2      2654      2955      3332      3674
 -1     11150    3    0    1
 -2      2736      3567      2529      3674
 -1     11151    3    0    1
 -2      2542      2736      2757      3674
 -1     11152    3    0    1
 -2      2757      2736      2901      3674
 -1     11153    3    0    1
 -2      2757      2901      3058      3674
 -1     11154    3    0    1
 -2      1623      1756      3332      3674
 -1     11155    3    0    1
 -2      2955      1687      3332      3674
 -1     11156    3    0    1
 -2      1687      1623      3332      3674
 -1     11157    3    0    1
 -2      3522      3201      3370      3711
 -1     11158    3    0    1
 -2      3562      1618      3246      3711
 -1     11159    3    0    1
 -2      3503      3562      3615      3711
 -1     11160    3    0    1
 -2       720      1738      3060      3675
 -1     11161    3    0    1
 -2      2800      2645      3651      3675
 -1     11162    3    0    1
 -2      3033      2577      3651      3675
 -1     11163    3    0    1
 -2      2577      3033      3122      3675
 -1     11164    3    0    1
 -2      2577      2800      3651      3675
 -1     11165    3    0    1
 -2      2800      2577      3122      3675
 -1     11166    3    0    1
 -2      2645      2727      2748      3675
 -1     11167    3    0    1
 -2      2727      2645      3060      3675
 -1     11168    3    0    1
 -2      1640      2850      3202      3675
 -1     11169    3    0    1
 -2      2645      2949      3060      3675
 -1     11170    3    0    1
 -2      2727      2528      2748      3675
 -1     11171    3    0    1
 -2      3033      2850      3122      3675
 -1     11172    3    0    1
 -2      2983      2850      3033      3675
 -1     11173    3    0    1
 -2      2645      2800      2949      3675
 -1     11174    3    0    1
 -2      2850      1640      3122      3675
 -1     11175    3    0    1
 -2       720      1640      3202      3675
 -1     11176    3    0    1
 -2      2667      2850      2983      3675
 -1     11177    3    0    1
 -2      3503      1447      3562      3711
 -1     11178    3    0    1
 -2      1738       720      3202      3675
 -1     11179    3    0    1
 -2      2643      2705      3642      3722
 -1     11180    3    0    1
 -2      3564      3174      3406      3722
 -1     11181    3    0    1
 -2      3317      3318      3670      3380
 -1     11182    3    0    1
 -2      1438      2676      1856      3677
 -1     11183    3    0    1
 -2      2676      2650      2866      3677
 -1     11184    3    0    1
 -2      3365      2707      3673      3707
 -1     11185    3    0    1
 -2      3090      1578      1843      3677
 -1     11186    3    0    1
 -2      1446      3090      1843      3677
 -1     11187    3    0    1
 -2      3664         1      3473      3496
 -1     11188    3    0    1
 -2      2650      2676      3368      3677
 -1     11189    3    0    1
 -2      3355      3620      3374      3434
 -1     11190    3    0    1
 -2      1518      1519      3163      3379
 -1     11191    3    0    1
 -2      3561      1445      3617      3685
 -1     11192    3    0    1
 -2      1519      1518      1810      3470
 -1     11193    3    0    1
 -2      1578      3090      1856      3677
 -1     11194    3    0    1
 -2      3378      1902      3678      3472
 -1     11195    3    0    1
 -2      1856      3090      3340      3677
 -1     11196    3    0    1
 -2      1438      1856      3340      3677
 -1     11197    3    0    1
 -2      2966      1896      1902      3678
 -1     11198    3    0    1
 -2       409       146      3510      1923
 -1     11199    3    0    1
 -2      1032      1319      3694      3481
 -1     11200    3    0    1
 -2      3247      1810      1907      1908
 -1     11201    3    0    1
 -2       622       409       980      1923
 -1     11202    3    0    1
 -2      3225      3608      3496      3500
 -1     11203    3    0    1
 -2       790       781      1528      3396
 -1     11204    3    0    1
 -2      1854      1934      3313      3453
 -1     11205    3    0    1
 -2      1914      1457      1915      3451
 -1     11206    3    0    1
 -2       353      1068      1549      3679
 -1     11207    3    0    1
 -2      2606      1448      1867      3679
 -1     11208    3    0    1
 -2      1549      1068      3315      3679
 -1     11209    3    0    1
 -2         1      1689      3719      3473
 -1     11210    3    0    1
 -2      3204      3516      3303      3381
 -1     11211    3    0    1
 -2      3516      1543      3303      3381
 -1     11212    3    0    1
 -2      1543      3516      3519      3381
 -1     11213    3    0    1
 -2      2440      1338      2575      3686
 -1     11214    3    0    1
 -2      1338       285      2575      3686
 -1     11215    3    0    1
 -2      2232      2440      2575      3686
 -1     11216    3    0    1
 -2       285       356      3528      3686
 -1     11217    3    0    1
 -2      2583      3057      3068      3680
 -1     11218    3    0    1
 -2      3057      3527      3229      3680
 -1     11219    3    0    1
 -2      2583      3527      3057      3680
 -1     11220    3    0    1
 -2       352       940      2440      3686
 -1     11221    3    0    1
 -2      2583      2492      3527      3680
 -1     11222    3    0    1
 -2      1709      3068      3229      3680
 -1     11223    3    0    1
 -2      1709      1767      3068      3680
 -1     11224    3    0    1
 -2      2856      1601      1862      3680
 -1     11225    3    0    1
 -2      2856      1479      3325      3680
 -1     11226    3    0    1
 -2      1479      2856      1862      3680
 -1     11227    3    0    1
 -2      2856      2581      3111      3680
 -1     11228    3    0    1
 -2      2704      2581      2856      3680
 -1     11229    3    0    1
 -2      1601      1767      3229      3680
 -1     11230    3    0    1
 -2      2492      2581      2704      3680
 -1     11231    3    0    1
 -2      1862      3229      3325      3680
 -1     11232    3    0    1
 -2      2581      2492      2583      3680
 -1     11233    3    0    1
 -2      1767      1709      3229      3680
 -1     11234    3    0    1
 -2      1601      3229      1862      3680
 -1     11235    3    0    1
 -2      1479      1862      3325      3680
 -1     11236    3    0    1
 -2      3627      2781      3315      3714
 -1     11237    3    0    1
 -2      2988      2845      1881      3384
 -1     11238    3    0    1
 -2      2845      2988      3581      3384
 -1     11239    3    0    1
 -2      3581      2988      1881      3384
 -1     11240    3    0    1
 -2       808      3581      1881      3384
 -1     11241    3    0    1
 -2       808      2896      3581      3384
 -1     11242    3    0    1
 -2      3318      3670      3444      3714
 -1     11243    3    0    1
 -2      1712      1445      3561      3685
 -1     11244    3    0    1
 -2      1445      1712      3617      3685
 -1     11245    3    0    1
 -2      1843      1446      3677      3442
 -1     11246    3    0    1
 -2       340      1301      3577      3685
 -1     11247    3    0    1
 -2      3577      3617      3649      3685
 -1     11248    3    0    1
 -2      1040       237      2598      3723
 -1     11249    3    0    1
 -2      3577      1301      3617      3685
 -1     11250    3    0    1
 -2      1301      3561      3617      3685
 -1     11251    3    0    1
 -2      2971      3599      3681      3731
 -1     11252    3    0    1
 -2       343      1323      2598      3723
 -1     11253    3    0    1
 -2      1873      3293      3670      3471
 -1     11254    3    0    1
 -2      1790      1789      3376      3471
 -1     11255    3    0    1
 -2       684       673      1907      3426
 -1     11256    3    0    1
 -2      3611      1425      3666      3692
 -1     11257    3    0    1
 -2      3577      1425      3611      3692
 -1     11258    3    0    1
 -2      2529      3572      3655      3682
 -1     11259    3    0    1
 -2      1785       125      3629      3455
 -1     11260    3    0    1
 -2      3588      1412      3608      3719
 -1     11261    3    0    1
 -2      2708      2700      2784      3682
 -1     11262    3    0    1
 -2      1425      1758      3666      3692
 -1     11263    3    0    1
 -2      1736      1832      3623      3681
 -1     11264    3    0    1
 -2      1832       169      3623      3681
 -1     11265    3    0    1
 -2      1445      3523      3617      3681
 -1     11266    3    0    1
 -2      1445      3617      3388      3681
 -1     11267    3    0    1
 -2         1      3664       353      3718
 -1     11268    3    0    1
 -2      3592      3608      3719      3588
 -1     11269    3    0    1
 -2      3664         1       353      3719
 -1     11270    3    0    1
 -2      1412      3588      3592      3719
 -1     11271    3    0    1
 -2      2819      3715      3468      3497
 -1     11272    3    0    1
 -2      1435      3587      3467      3497
 -1     11273    3    0    1
 -2       169      3603      3352      1868
 -1     11274    3    0    1
 -2      3352      3623       169      3681
 -1     11275    3    0    1
 -2      3269      2971      3352      3681
 -1     11276    3    0    1
 -2      1736      1445      3269      3681
 -1     11277    3    0    1
 -2      1832      3269      3352      3681
 -1     11278    3    0    1
 -2      3269      1445      3388      3681
 -1     11279    3    0    1
 -2      1832      1736      3269      3681
 -1     11280    3    0    1
 -2       169      1832      3352      3681
 -1     11281    3    0    1
 -2      1410      2980      3422      3737
 -1     11282    3    0    1
 -2      1915      1914      1950      3478
 -1     11283    3    0    1
 -2      2633      2553      3612      3682
 -1     11284    3    0    1
 -2      2529      2633      3612      3682
 -1     11285    3    0    1
 -2      3387      1851      1941      1942
 -1     11286    3    0    1
 -2      2833      2784      3151      3682
 -1     11287    3    0    1
 -2      3151      2784      3328      3682
 -1     11288    3    0    1
 -2      2833      3151      3372      3682
 -1     11289    3    0    1
 -2      2784      3282      3328      3682
 -1     11290    3    0    1
 -2      2553      2529      2783      3682
 -1     11291    3    0    1
 -2      2783      2529      2835      3682
 -1     11292    3    0    1
 -2      3031      1519      3597      3408
 -1     11293    3    0    1
 -2      2941      1169      3331      3435
 -1     11294    3    0    1
 -2       352       940      3686      3479
 -1     11295    3    0    1
 -2      2529      2553      2633      3682
 -1     11296    3    0    1
 -2      2597      3591      3262      3450
 -1     11297    3    0    1
 -2      3414      3421      3700      3732
 -1     11298    3    0    1
 -2      1434      3351      1909      3395
 -1     11299    3    0    1
 -2      3505      1511      3231      3693
 -1     11300    3    0    1
 -2      1632      3074      1890      3713
 -1     11301    3    0    1
 -2      2519      2508      3604      3713
 -1     11302    3    0    1
 -2       279       276      1511      3693
 -1     11303    3    0    1
 -2      3094      3589      3369      3730
 -1     11304    3    0    1
 -2      1851      1852      3397      1942
 -1     11305    3    0    1
 -2      2610      1419      3546      3491
 -1     11306    3    0    1
 -2      1665      1415      3593      3683
 -1     11307    3    0    1
 -2      3588      3648      3650      3721
 -1     11308    3    0    1
 -2       200       328      3502      3725
 -1     11309    3    0    1
 -2      2586      3059      3660      3464
 -1     11310    3    0    1
 -2      1906      3395      3415      3736
 -1     11311    3    0    1
 -2       194       330      2690      3725
 -1     11312    3    0    1
 -2      1015       328      2690      3725
 -1     11313    3    0    1
 -2      3683      1665      3468      1949
 -1     11314    3    0    1
 -2      2365       328      2498      3725
 -1     11315    3    0    1
 -2       330       194      3502      3725
 -1     11316    3    0    1
 -2       944        94      3648      3721
 -1     11317    3    0    1
 -2      1412      3588      3650      3721
 -1     11318    3    0    1
 -2       343      1037      3698      1958
 -1     11319    3    0    1
 -2      1437      1849      3387      3398
 -1     11320    3    0    1
 -2      3097      1437      3387      3398
 -1     11321    3    0    1
 -2      2536      2759      3620      3737
 -1     11322    3    0    1
 -2      2797      1437      3097      3398
 -1     11323    3    0    1
 -2      3502       194      1911      1912
 -1     11324    3    0    1
 -2       200       713       721      1912
 -1     11325    3    0    1
 -2       200       328       713      1912
 -1     11326    3    0    1
 -2      3558      2882      3054      3475
 -1     11327    3    0    1
 -2      3558      3012      3404      3475
 -1     11328    3    0    1
 -2      3054      1515      3168      3475
 -1     11329    3    0    1
 -2      1854      3404      3428      3475
 -1     11330    3    0    1
 -2       924      2882      3558      3475
 -1     11331    3    0    1
 -2      3558      3054      3168      3475
 -1     11332    3    0    1
 -2      3149      3558      3404      3475
 -1     11333    3    0    1
 -2      3168      1515      3261      3475
 -1     11334    3    0    1
 -2       427       178      3684      3726
 -1     11335    3    0    1
 -2      1331      1330      2614      3430
 -1     11336    3    0    1
 -2      2670      2634      2842      3429
 -1     11337    3    0    1
 -2      3565      2923      3279      3401
 -1     11338    3    0    1
 -2      2853      3565      3221      3401
 -1     11339    3    0    1
 -2      3221      3565      3279      3401
 -1     11340    3    0    1
 -2      3214       549      1858      3458
 -1     11341    3    0    1
 -2      2923      2853      3076      3401
 -1     11342    3    0    1
 -2      2161      2222      2846      3402
 -1     11343    3    0    1
 -2      1323      2273      2598      3723
 -1     11344    3    0    1
 -2      2222      2161      2407      3402
 -1     11345    3    0    1
 -2      2222      3030      3363      3402
 -1     11346    3    0    1
 -2      2846      2222      3363      3402
 -1     11347    3    0    1
 -2      2817      2670      3543      3429
 -1     11348    3    0    1
 -2      2818      2817      3543      3476
 -1     11349    3    0    1
 -2      2521      1420      2818      3476
 -1     11350    3    0    1
 -2      1409      3012      1823      3404
 -1     11351    3    0    1
 -2      2613      2454      3697      3477
 -1     11352    3    0    1
 -2      2521      2818      3543      3476
 -1     11353    3    0    1
 -2      2571      1885      1886      3405
 -1     11354    3    0    1
 -2      1885      2571      3390      3405
 -1     11355    3    0    1
 -2      2615       237      3698      1957
 -1     11356    3    0    1
 -2      2571      2557      3598      3405
 -1     11357    3    0    1
 -2      2571      3598      3390      3405
 -1     11358    3    0    1
 -2      1487      1885      3390      3405
 -1     11359    3    0    1
 -2      2861      2966      3564      3406
 -1     11360    3    0    1
 -2      2556      2861      3564      3406
 -1     11361    3    0    1
 -2      3610      1068      3679      3437
 -1     11362    3    0    1
 -2      3568      3591      3639      3705
 -1     11363    3    0    1
 -2      2853      3076      3221      3436
 -1     11364    3    0    1
 -2      3076      2853      3127      3436
 -1     11365    3    0    1
 -2      1843      3677      3385      3442
 -1     11366    3    0    1
 -2      2700      3282      3682      3407
 -1     11367    3    0    1
 -2      3670      1826      3376      3454
 -1     11368    3    0    1
 -2      3331      1898      3398      3435
 -1     11369    3    0    1
 -2      1826      3670      3380      3454
 -1     11370    3    0    1
 -2      1825      1411      3238      3407
 -1     11371    3    0    1
 -2      3554      1456      1765      3717
 -1     11372    3    0    1
 -2      1656      1655      1932      3484
 -1     11373    3    0    1
 -2      3204      3516      3381      3709
 -1     11374    3    0    1
 -2      3545      1580      3633      3709
 -1     11375    3    0    1
 -2      1851      3397      1917      3454
 -1     11376    3    0    1
 -2      3076      3127      3157      3436
 -1     11377    3    0    1
 -2      2314      3505      3679      3437
 -1     11378    3    0    1
 -2       208      2479      3694      3696
 -1     11379    3    0    1
 -2       406       120      3521      3688
 -1     11380    3    0    1
 -2      1561        59      3126      3436
 -1     11381    3    0    1
 -2       940      1338      3686      3479
 -1     11382    3    0    1
 -2      2778      2684      3580      3419
 -1     11383    3    0    1
 -2      1068      3610      3664      3437
 -1     11384    3    0    1
 -2      1573      1610      1611      3419
 -1     11385    3    0    1
 -2      3696       337      1929      1930
 -1     11386    3    0    1
 -2       757       227       749      1930
 -1     11387    3    0    1
 -2       227       757       336      1930
 -1     11388    3    0    1
 -2      1557      1558      1611      3419
 -1     11389    3    0    1
 -2      2684      1557      3580      3419
 -1     11390    3    0    1
 -2       257      1330      3430      3733
 -1     11391    3    0    1
 -2      3506      1600      3629      3687
 -1     11392    3    0    1
 -2      2514      2626      3517      3687
 -1     11393    3    0    1
 -2      3506      3517      3101      3687
 -1     11394    3    0    1
 -2      3506      3101      3189      3687
 -1     11395    3    0    1
 -2      1621       736      3177      3456
 -1     11396    3    0    1
 -2      1520      3506      3189      3687
 -1     11397    3    0    1
 -2       736      2883      3637      3456
 -1     11398    3    0    1
 -2      3517      2626      3101      3687
 -1     11399    3    0    1
 -2      3144      1803      3238      3701
 -1     11400    3    0    1
 -2      2923      1621      3177      3456
 -1     11401    3    0    1
 -2      2161      2487      3402      3687
 -1     11402    3    0    1
 -2      2626      2846      3189      3687
 -1     11403    3    0    1
 -2      2161      2387      2487      3687
 -1     11404    3    0    1
 -2      2387      2161      2514      3687
 -1     11405    3    0    1
 -2      1428      3144      3162      3701
 -1     11406    3    0    1
 -2      2923      2880      3279      3456
 -1     11407    3    0    1
 -2      3101      2626      3189      3687
 -1     11408    3    0    1
 -2      1621      2923      3401      3456
 -1     11409    3    0    1
 -2       736      2880      3177      3456
 -1     11410    3    0    1
 -2       118      2403      3521      3688
 -1     11411    3    0    1
 -2      2403      2201      3521      3688
 -1     11412    3    0    1
 -2       118      2105      2403      3688
 -1     11413    3    0    1
 -2       972      3688      1951      1952
 -1     11414    3    0    1
 -2       613       604       972      1952
 -1     11415    3    0    1
 -2      2421      2201      2605      3688
 -1     11416    3    0    1
 -2      2201      2403      2605      3688
 -1     11417    3    0    1
 -2      2403      2105      2605      3688
 -1     11418    3    0    1
 -2       409      2189      2585      3727
 -1     11419    3    0    1
 -2       411      3510      3411      3727
 -1     11420    3    0    1
 -2       146       410      2545      3727
 -1     11421    3    0    1
 -2       683      1308      2243      3410
 -1     11422    3    0    1
 -2       694       683      2243      3410
 -1     11423    3    0    1
 -2      2201       411      3411      3727
 -1     11424    3    0    1
 -2       410       146      3510      3727
 -1     11425    3    0    1
 -2      1293      2204      2545      3727
 -1     11426    3    0    1
 -2      1293      2201      2204      3727
 -1     11427    3    0    1
 -2      2189       974      2204      3727
 -1     11428    3    0    1
 -2      3510      2585      3411      3727
 -1     11429    3    0    1
 -2       409      2585      3510      3727
 -1     11430    3    0    1
 -2       694      1007      1308      3410
 -1     11431    3    0    1
 -2      1293       411      2201      3727
 -1     11432    3    0    1
 -2       409       974      2189      3727
 -1     11433    3    0    1
 -2       683       694      1308      3410
 -1     11434    3    0    1
 -2       581       954       964      3690
 -1     11435    3    0    1
 -2       980       409      2585      1923
 -1     11436    3    0    1
 -2      2370      2447      2546      3690
 -1     11437    3    0    1
 -2       600       581       964      3690
 -1     11438    3    0    1
 -2       146       409       622      1923
 -1     11439    3    0    1
 -2      2370      2417      2447      3690
 -1     11440    3    0    1
 -2      2905      2861      3018      3691
 -1     11441    3    0    1
 -2      2861      2905      3564      3691
 -1     11442    3    0    1
 -2      2966      2861      3678      3691
 -1     11443    3    0    1
 -2      3340      2966      3678      3691
 -1     11444    3    0    1
 -2      3692       340      3577      1650
 -1     11445    3    0    1
 -2      3677      2861      3340      3691
 -1     11446    3    0    1
 -2      2643      3564      3695      3722
 -1     11447    3    0    1
 -2      3564      3406      3695      3722
 -1     11448    3    0    1
 -2      2580      3362      3678      3691
 -1     11449    3    0    1
 -2      2914      2900      3292      3691
 -1     11450    3    0    1
 -2      2677      2914      3292      3691
 -1     11451    3    0    1
 -2      2650      2580      2900      3691
 -1     11452    3    0    1
 -2      2580      2650      3368      3691
 -1     11453    3    0    1
 -2      2677      2650      2900      3691
 -1     11454    3    0    1
 -2      3062      3010      3292      3691
 -1     11455    3    0    1
 -2      2905      3010      3062      3691
 -1     11456    3    0    1
 -2      2861      2966      3340      3691
 -1     11457    3    0    1
 -2      2861      3677      3340      3090
 -1     11458    3    0    1
 -2      3362      2580      3368      3691
 -1     11459    3    0    1
 -2      2677      2900      2914      3691
 -1     11460    3    0    1
 -2      2650      2866      3677      3442
 -1     11461    3    0    1
 -2      3677      3018      3691      3442
 -1     11462    3    0    1
 -2      3018      2677      3691      3442
 -1     11463    3    0    1
 -2      1831      1843      3385      3442
 -1     11464    3    0    1
 -2      2677      2650      3691      3442
 -1     11465    3    0    1
 -2      2658      2768      3259      3692
 -1     11466    3    0    1
 -2      2768      2658      3542      3692
 -1     11467    3    0    1
 -2      2658      2663      3652      3692
 -1     11468    3    0    1
 -2      1614       151      3259      3692
 -1     11469    3    0    1
 -2      2825      3692       340      3652
 -1     11470    3    0    1
 -2      2768      1614      3259      3692
 -1     11471    3    0    1
 -2      2663      2825      3652      3692
 -1     11472    3    0    1
 -2      1298      2768      3542      3692
 -1     11473    3    0    1
 -2      1425      2658      1758      3692
 -1     11474    3    0    1
 -2      1758      2658      3259      3692
 -1     11475    3    0    1
 -2      2658      1425      2663      3692
 -1     11476    3    0    1
 -2      1298       151      1614      3692
 -1     11477    3    0    1
 -2      1425      1650      2825      3692
 -1     11478    3    0    1
 -2      2663      1425      2825      3692
 -1     11479    3    0    1
 -2      1298      1614      2768      3692
 -1     11480    3    0    1
 -2      2844      2845      3384      3713
 -1     11481    3    0    1
 -2      2896      2657      3566      3713
 -1     11482    3    0    1
 -2      1914      3409      3476      3478
 -1     11483    3    0    1
 -2       257      2335      2454      3697
 -1     11484    3    0    1
 -2      1487      1457      1488      3417
 -1     11485    3    0    1
 -2      1487      1488      3405      3417
 -1     11486    3    0    1
 -2       628       632       979      1962
 -1     11487    3    0    1
 -2       356       354      3686      3479
 -1     11488    3    0    1
 -2      3076      1759      3401      3436
 -1     11489    3    0    1
 -2       979       635      2608      3427
 -1     11490    3    0    1
 -2       635      2412      2608      3427
 -1     11491    3    0    1
 -2       227      1032      3694      3481
 -1     11492    3    0    1
 -2       336       227      3694      3481
 -1     11493    3    0    1
 -2      3598      3390      3405      3483
 -1     11494    3    0    1
 -2      3082      2836      3321      3705
 -1     11495    3    0    1
 -2      1557      2684      2839      3419
 -1     11496    3    0    1
 -2      1558      1557      2839      3419
 -1     11497    3    0    1
 -2      2922      2567      3082      3705
 -1     11498    3    0    1
 -2      3591      2597      3262      3705
 -1     11499    3    0    1
 -2      3551      2879      3088      3705
 -1     11500    3    0    1
 -2      3551      2730      3639      3705
 -1     11501    3    0    1
 -2      2189      2429      2609      3704
 -1     11502    3    0    1
 -2      3154      1791      3331      3420
 -1     11503    3    0    1
 -2      1791      1167      3331      3420
 -1     11504    3    0    1
 -2       414      1297      3424      3704
 -1     11505    3    0    1
 -2      2683      3543      2903      3438
 -1     11506    3    0    1
 -2      3262      2515      3639      3705
 -1     11507    3    0    1
 -2      1203      3047      3357      3494
 -1     11508    3    0    1
 -2      2980      2759      3422      3737
 -1     11509    3    0    1
 -2      3375      3620      3434      3702
 -1     11510    3    0    1
 -2      2549      3620      3671      3702
 -1     11511    3    0    1
 -2      3020      1509      3618      3124
 -1     11512    3    0    1
 -2      1509      3020      3618      3423
 -1     11513    3    0    1
 -2      3165      3291      3337      3705
 -1     11514    3    0    1
 -2      3568      2567      3591      3705
 -1     11515    3    0    1
 -2      3082      1783      3337      3705
 -1     11516    3    0    1
 -2      2836      3568      3321      3705
 -1     11517    3    0    1
 -2      2515      2879      3639      3705
 -1     11518    3    0    1
 -2       154       415      3704      3729
 -1     11519    3    0    1
 -2       415       414      3704      3729
 -1     11520    3    0    1
 -2      1334      2475      2617      3728
 -1     11521    3    0    1
 -2      1334      2617      3482      3728
 -1     11522    3    0    1
 -2      2429       416      3704      3729
 -1     11523    3    0    1
 -2       416      2026      2412      3729
 -1     11524    3    0    1
 -2       416       154      3704      3729
 -1     11525    3    0    1
 -2      2415       270      3508      3728
 -1     11526    3    0    1
 -2      2170      1335      2617      3728
 -1     11527    3    0    1
 -2      3508       280      3425      3728
 -1     11528    3    0    1
 -2       270      2415      2475      3728
 -1     11529    3    0    1
 -2       673       684      1907      3695
 -1     11530    3    0    1
 -2      1907      3247      1908      3695
 -1     11531    3    0    1
 -2       673      1907      1908      3695
 -1     11532    3    0    1
 -2      1907       684      3406      3695
 -1     11533    3    0    1
 -2      1810      1907      3406      3695
 -1     11534    3    0    1
 -2      3386      1810      3406      3695
 -1     11535    3    0    1
 -2      3247      2643      3358      3695
 -1     11536    3    0    1
 -2      2546      2370      3690      3433
 -1     11537    3    0    1
 -2      1457      3409      3417      3483
 -1     11538    3    0    1
 -2      3543      3400      3429      3483
 -1     11539    3    0    1
 -2       809       812      1062      1921
 -1     11540    3    0    1
 -2       270       809      1062      1921
 -1     11541    3    0    1
 -2       812       270       350      1921
 -1     11542    3    0    1
 -2       270       812       809      1921
 -1     11543    3    0    1
 -2      3508       350      1921      1922
 -1     11544    3    0    1
 -2       820       280      1071      1922
 -1     11545    3    0    1
 -2       827       820      1071      1922
 -1     11546    3    0    1
 -2       280       827       349      1922
 -1     11547    3    0    1
 -2       827       280       820      1922
 -1     11548    3    0    1
 -2      1854        47      1855      3428
 -1     11549    3    0    1
 -2       268        47      1854      3428
 -1     11550    3    0    1
 -2      3404      1823      1919      3428
 -1     11551    3    0    1
 -2       268      3404      1919      3428
 -1     11552    3    0    1
 -2        47       268      1919      3428
 -1     11553    3    0    1
 -2      1457      1914      3409      3429
 -1     11554    3    0    1
 -2      3543      2842      3598      3429
 -1     11555    3    0    1
 -2      2521      3543      3400      3429
 -1     11556    3    0    1
 -2      1914        17      1915      1950
 -1     11557    3    0    1
 -2      1037      1047      3698      1957
 -1     11558    3    0    1
 -2      1047      2615      3698      1957
 -1     11559    3    0    1
 -2       237       248      3698      1957
 -1     11560    3    0    1
 -2      1047       237      2615      1957
 -1     11561    3    0    1
 -2      1248      2817      1916      3429
 -1     11562    3    0    1
 -2       775       767      1047      1957
 -1     11563    3    0    1
 -2      2521      3400      3409      3429
 -1     11564    3    0    1
 -2      3577      3534      3611      3732
 -1     11565    3    0    1
 -2      3120      2536      3671      3493
 -1     11566    3    0    1
 -2      3698      1037      1957      1958
 -1     11567    3    0    1
 -2       343       755      1037      1958
 -1     11568    3    0    1
 -2      2465      2615      3392      3698
 -1     11569    3    0    1
 -2      2465      2408      2615      3698
 -1     11570    3    0    1
 -2      2578      2465      3392      3698
 -1     11571    3    0    1
 -2      3358      3247      3695      3432
 -1     11572    3    0    1
 -2      1896      3378      3678      3432
 -1     11573    3    0    1
 -2       684      1896      3678      3432
 -1     11574    3    0    1
 -2       684      3678      3695      3432
 -1     11575    3    0    1
 -2       673       684      3695      3432
 -1     11576    3    0    1
 -2       684       673      1896      3432
 -1     11577    3    0    1
 -2      1908       673      3695      3432
 -1     11578    3    0    1
 -2      3247      1908      3695      3432
 -1     11579    3    0    1
 -2      3620      2722      3375      3434
 -1     11580    3    0    1
 -2      2722      3620      3320      3434
 -1     11581    3    0    1
 -2      1902      3355      3374      3434
 -1     11582    3    0    1
 -2       146      3510      1923      1924
 -1     11583    3    0    1
 -2       146       410      3510      1924
 -1     11584    3    0    1
 -2       610       410       614      1924
 -1     11585    3    0    1
 -2       411       410       610      1924
 -1     11586    3    0    1
 -2       404       115      3690      3699
 -1     11587    3    0    1
 -2      3690       115      3433      3699
 -1     11588    3    0    1
 -2      1286      2458      2555      3699
 -1     11589    3    0    1
 -2      1286       405      2458      3699
 -1     11590    3    0    1
 -2       115      2383      3433      3699
 -1     11591    3    0    1
 -2       115       957      2383      3699
 -1     11592    3    0    1
 -2      2555      2370      3433      3699
 -1     11593    3    0    1
 -2      2383      2555      3433      3699
 -1     11594    3    0    1
 -2      2458      2370      2555      3699
 -1     11595    3    0    1
 -2       108       405      3412      3699
 -1     11596    3    0    1
 -2       404       108      3412      3699
 -1     11597    3    0    1
 -2       405      1286      3412      3699
 -1     11598    3    0    1
 -2       957       115      3412      3699
 -1     11599    3    0    1
 -2       115       404      3412      3699
 -1     11600    3    0    1
 -2      1896      3131      3361      3434
 -1     11601    3    0    1
 -2      3126        59      1883      3436
 -1     11602    3    0    1
 -2      3127      2853      3221      3436
 -1     11603    3    0    1
 -2      3126      3127      3221      3436
 -1     11604    3    0    1
 -2      3509      3687      3413      3700
 -1     11605    3    0    1
 -2      3509      2487      3687      3700
 -1     11606    3    0    1
 -2      2487      3509      3672      3700
 -1     11607    3    0    1
 -2      3666       436      3421      3700
 -1     11608    3    0    1
 -2       436      3666      3689      3700
 -1     11609    3    0    1
 -2      1758      3666      3421      3700
 -1     11610    3    0    1
 -2      1758      3611      3666      3700
 -1     11611    3    0    1
 -2       436      3689      1920      3700
 -1     11612    3    0    1
 -2      3413      3363      3431      3700
 -1     11613    3    0    1
 -2      3363      3421      3431      3700
 -1     11614    3    0    1
 -2      3363      3414      3421      3700
 -1     11615    3    0    1
 -2      1423      3413      3431      3700
 -1     11616    3    0    1
 -2      2487      2162      3402      3700
 -1     11617    3    0    1
 -2      3421       436      3431      3700
 -1     11618    3    0    1
 -2      2175      2454      2614      3733
 -1     11619    3    0    1
 -2       436      1920      3431      3700
 -1     11620    3    0    1
 -2      1330      2175      2614      3733
 -1     11621    3    0    1
 -2      2502      2061      3638      3735
 -1     11622    3    0    1
 -2      1655       335      1932      3484
 -1     11623    3    0    1
 -2      2849      3638      3662      3735
 -1     11624    3    0    1
 -2       703       695      1013      1943
 -1     11625    3    0    1
 -2      1004      1013      3684      1943
 -1     11626    3    0    1
 -2       337       208      3696      1929
 -1     11627    3    0    1
 -2       189       188      3684      1943
 -1     11628    3    0    1
 -2      1907       684      3426      3702
 -1     11629    3    0    1
 -2      2910      3668      3671      3702
 -1     11630    3    0    1
 -2      2510      2910      3671      3702
 -1     11631    3    0    1
 -2      2910      2510      3668      3702
 -1     11632    3    0    1
 -2      2549      3131      3620      3702
 -1     11633    3    0    1
 -2      3620      3131      3434      3702
 -1     11634    3    0    1
 -2      1810      3314      3408      3702
 -1     11635    3    0    1
 -2      2973      3597      3314      3702
 -1     11636    3    0    1
 -2      3361       684      3434      3702
 -1     11637    3    0    1
 -2      3131      3361      3434      3702
 -1     11638    3    0    1
 -2      3335      3299      3418      3702
 -1     11639    3    0    1
 -2      2510      3375      3408      3702
 -1     11640    3    0    1
 -2      2549      3299      3335      3702
 -1     11641    3    0    1
 -2      3335      3418      3426      3702
 -1     11642    3    0    1
 -2      3375       684      3408      3702
 -1     11643    3    0    1
 -2      3361      3335      3426      3702
 -1     11644    3    0    1
 -2      3031      2510      3408      3702
 -1     11645    3    0    1
 -2      3299      2973      3418      3702
 -1     11646    3    0    1
 -2       684      1907      3408      3702
 -1     11647    3    0    1
 -2      3131      2549      3335      3702
 -1     11648    3    0    1
 -2      1907      1810      3408      3702
 -1     11649    3    0    1
 -2      2973      3314      3418      3702
 -1     11650    3    0    1
 -2       684      3375      3434      3702
 -1     11651    3    0    1
 -2      3131      3335      3361      3702
 -1     11652    3    0    1
 -2        43      3173      1925      1931
 -1     11653    3    0    1
 -2      1925      3346      1926      1931
 -1     11654    3    0    1
 -2      3173      1681      3346      1931
 -1     11655    3    0    1
 -2      3173      3346      1925      1931
 -1     11656    3    0    1
 -2      3615      3246      3676      1932
 -1     11657    3    0    1
 -2      1824      3217      3615      1932
 -1     11658    3    0    1
 -2      3615      3217      3246      1932
 -1     11659    3    0    1
 -2       335      3615      3676      1932
 -1     11660    3    0    1
 -2       438       335      3676      1932
 -1     11661    3    0    1
 -2      1655       335      1656      1932
 -1     11662    3    0    1
 -2      1840      1696      3656      3485
 -1     11663    3    0    1
 -2      1625      1701      3077      3703
 -1     11664    3    0    1
 -2      1625      3077      3342      3703
 -1     11665    3    0    1
 -2      3097      2797      3398      3703
 -1     11666    3    0    1
 -2      2797      3154      3398      3703
 -1     11667    3    0    1
 -2      3605      3633      3706      3709
 -1     11668    3    0    1
 -2      3363      3414      3700      3732
 -1     11669    3    0    1
 -2      3605      3519      3633      3709
 -1     11670    3    0    1
 -2      3230      1638      3237      3703
 -1     11671    3    0    1
 -2      1638      1781      3237      3703
 -1     11672    3    0    1
 -2      3237      1781      3342      3703
 -1     11673    3    0    1
 -2      3077      1701      3309      3703
 -1     11674    3    0    1
 -2       434      3389      3706      3709
 -1     11675    3    0    1
 -2      3243      3204      3381      3709
 -1     11676    3    0    1
 -2      3154      2797      3309      3703
 -1     11677    3    0    1
 -2      3154      1701      3420      3703
 -1     11678    3    0    1
 -2      1701      3154      3309      3703
 -1     11679    3    0    1
 -2      3230      2947      3420      3703
 -1     11680    3    0    1
 -2      1625      3230      3420      3703
 -1     11681    3    0    1
 -2      3230      3641      2947      3703
 -1     11682    3    0    1
 -2      2797      2791      3056      3703
 -1     11683    3    0    1
 -2      2791      2902      3056      3703
 -1     11684    3    0    1
 -2      1625      1781      3230      3703
 -1     11685    3    0    1
 -2      1701      1625      3420      3703
 -1     11686    3    0    1
 -2      2797      3056      3077      3703
 -1     11687    3    0    1
 -2      3056      2902      3237      3703
 -1     11688    3    0    1
 -2      3154      3331      3398      3703
 -1     11689    3    0    1
 -2      1781      1638      3230      3703
 -1     11690    3    0    1
 -2      3077      3056      3342      3703
 -1     11691    3    0    1
 -2      3056      3237      3342      3703
 -1     11692    3    0    1
 -2      2791      2797      3097      3703
 -1     11693    3    0    1
 -2      2797      3077      3309      3703
 -1     11694    3    0    1
 -2      3172      3165      3337      3705
 -1     11695    3    0    1
 -2      3321      3172      3337      3705
 -1     11696    3    0    1
 -2      2515      2567      2922      3705
 -1     11697    3    0    1
 -2      2730      3165      3172      3705
 -1     11698    3    0    1
 -2      1783      3321      3337      3705
 -1     11699    3    0    1
 -2      2567      2836      3082      3705
 -1     11700    3    0    1
 -2      2879      2515      2922      3705
 -1     11701    3    0    1
 -2      3088      2922      3291      3705
 -1     11702    3    0    1
 -2      2879      2922      3088      3705
 -1     11703    3    0    1
 -2      2567      2515      2597      3705
 -1     11704    3    0    1
 -2      2597      2515      3262      3705
 -1     11705    3    0    1
 -2      3256      2620      3307      3440
 -1     11706    3    0    1
 -2      1712      3388      3685      3441
 -1     11707    3    0    1
 -2      2819      2782      3715      3467
 -1     11708    3    0    1
 -2      3388      3617      3685      3441
 -1     11709    3    0    1
 -2      3617      3649      3685      3441
 -1     11710    3    0    1
 -2      2866      1674      3385      3442
 -1     11711    3    0    1
 -2      1674      1831      3385      3442
 -1     11712    3    0    1
 -2      1431      1674      2866      3442
 -1     11713    3    0    1
 -2      2650      1431      2866      3442
 -1     11714    3    0    1
 -2      1431      2650      2677      3442
 -1     11715    3    0    1
 -2      1588       612      3141      3707
 -1     11716    3    0    1
 -2      3141       612      3366      3707
 -1     11717    3    0    1
 -2      1504      1588      2793      3707
 -1     11718    3    0    1
 -2      2247      2134      3601      3731
 -1     11719    3    0    1
 -2      3599      3004      3601      3731
 -1     11720    3    0    1
 -2      2501      3269      3388      3731
 -1     11721    3    0    1
 -2      2829      3043      3366      3707
 -1     11722    3    0    1
 -2      3617      3534      3388      3731
 -1     11723    3    0    1
 -2      2925      2707      3365      3707
 -1     11724    3    0    1
 -2      2518      2716      3043      3707
 -1     11725    3    0    1
 -2      2716      2793      3043      3707
 -1     11726    3    0    1
 -2      2734      2134      3463      3731
 -1     11727    3    0    1
 -2       348      2261      3697      3733
 -1     11728    3    0    1
 -2      3043      2793      3141      3707
 -1     11729    3    0    1
 -2      1588      2925      3365      3707
 -1     11730    3    0    1
 -2      3043      3141      3366      3707
 -1     11731    3    0    1
 -2       612      1588      3365      3707
 -1     11732    3    0    1
 -2      1588      1504      2925      3707
 -1     11733    3    0    1
 -2      1826      1497      3252      3708
 -1     11734    3    0    1
 -2      3099      3110      3277      3708
 -1     11735    3    0    1
 -2      1826      3252      3356      3708
 -1     11736    3    0    1
 -2      1758      1425      3611      3732
 -1     11737    3    0    1
 -2      3381      1543      3389      3709
 -1     11738    3    0    1
 -2      3421      1758      3700      3732
 -1     11739    3    0    1
 -2      1425      3577      3611      3732
 -1     11740    3    0    1
 -2      1738      3060      3675      3710
 -1     11741    3    0    1
 -2      2831      3086      3202      3710
 -1     11742    3    0    1
 -2      3086      1506      3202      3710
 -1     11743    3    0    1
 -2      2894      2561      3181      3710
 -1     11744    3    0    1
 -2      1776      1506      3086      3710
 -1     11745    3    0    1
 -2      1506      1738      3202      3710
 -1     11746    3    0    1
 -2      2561      2727      2840      3710
 -1     11747    3    0    1
 -2      1482      1776      3086      3710
 -1     11748    3    0    1
 -2      2561      2528      2727      3710
 -1     11749    3    0    1
 -2      2153      1015      2690      3725
 -1     11750    3    0    1
 -2      3346      3173      1925      3498
 -1     11751    3    0    1
 -2      2782      3217      3370      3711
 -1     11752    3    0    1
 -2      2830      2782      3370      3711
 -1     11753    3    0    1
 -2      3217      3246      3370      3711
 -1     11754    3    0    1
 -2      3201      2830      3370      3711
 -1     11755    3    0    1
 -2      1618      1447      3370      3711
 -1     11756    3    0    1
 -2      3246      1618      3370      3711
 -1     11757    3    0    1
 -2      2250      2511      2777      3711
 -1     11758    3    0    1
 -2      1768      2834      1805      1933
 -1     11759    3    0    1
 -2      1629      2834      3149      1933
 -1     11760    3    0    1
 -2      2834      1629      1805      1933
 -1     11761    3    0    1
 -2      3407      2553      3701      3716
 -1     11762    3    0    1
 -2      2855      3092      3612      3716
 -1     11763    3    0    1
 -2      1462      3223      3612      3716
 -1     11764    3    0    1
 -2      1851      3397      1941      1942
 -1     11765    3    0    1
 -2       279      1060      3507      3712
 -1     11766    3    0    1
 -2      3505      1336      3693      3712
 -1     11767    3    0    1
 -2      2996      2803      3591      3492
 -1     11768    3    0    1
 -2      1652      2981      3232      3487
 -1     11769    3    0    1
 -2      1336       279      3693      3712
 -1     11770    3    0    1
 -2      1060      3505      3712      1336
 -1     11771    3    0    1
 -2      3559      1684      2981      2946
 -1     11772    3    0    1
 -2      1060       279      1336      3712
 -1     11773    3    0    1
 -2      1421      1819      3207      3713
 -1     11774    3    0    1
 -2      2845      1819      3384      3713
 -1     11775    3    0    1
 -2      2845      2639      1819      3713
 -1     11776    3    0    1
 -2      3507      1060      1890      3713
 -1     11777    3    0    1
 -2      2639      2519      3100      3713
 -1     11778    3    0    1
 -2      2508      2519      2639      3713
 -1     11779    3    0    1
 -2      2519      3074      3100      3713
 -1     11780    3    0    1
 -2      2519      1419      3074      3713
 -1     11781    3    0    1
 -2      2639      3100      3207      3713
 -1     11782    3    0    1
 -2      3218      2896      3384      3713
 -1     11783    3    0    1
 -2      2508      2639      2844      3713
 -1     11784    3    0    1
 -2      2657      2896      3218      3713
 -1     11785    3    0    1
 -2      1819      3218      3384      3713
 -1     11786    3    0    1
 -2      2844      2639      2845      3713
 -1     11787    3    0    1
 -2      1060      2657      3218      3713
 -1     11788    3    0    1
 -2      3218      1632      1890      3713
 -1     11789    3    0    1
 -2      1421      1632      3218      3713
 -1     11790    3    0    1
 -2      1819      1421      3218      3713
 -1     11791    3    0    1
 -2      1060      3218      1890      3713
 -1     11792    3    0    1
 -2      3293      1858      3322      3714
 -1     11793    3    0    1
 -2      1858      3293      3306      3714
 -1     11794    3    0    1
 -2      3315      2781      3444      3714
 -1     11795    3    0    1
 -2      2781      3318      3444      3714
 -1     11796    3    0    1
 -2      1865      3315      3444      3714
 -1     11797    3    0    1
 -2      3081      2576      3345      3714
 -1     11798    3    0    1
 -2      1865      1416      3315      3714
 -1     11799    3    0    1
 -2      1847      1865      3444      3714
 -1     11800    3    0    1
 -2      1550      1549      3394      3460
 -1     11801    3    0    1
 -2      3293      3081      3306      3714
 -1     11802    3    0    1
 -2      3345      2606      3394      3714
 -1     11803    3    0    1
 -2      2576      2606      3345      3714
 -1     11804    3    0    1
 -2      2977      2576      3081      3714
 -1     11805    3    0    1
 -2      1549       353      3679      3460
 -1     11806    3    0    1
 -2      2977      3081      3236      3714
 -1     11807    3    0    1
 -2      1858      1847      3444      3714
 -1     11808    3    0    1
 -2      3322      1858      3444      3714
 -1     11809    3    0    1
 -2      1665      1415      3545      3468
 -1     11810    3    0    1
 -2      2717      2788      3050      3498
 -1     11811    3    0    1
 -2       194       200      3502      3725
 -1     11812    3    0    1
 -2      3588       944      3648      3721
 -1     11813    3    0    1
 -2      1410      3422      1927      3448
 -1     11814    3    0    1
 -2      3152      3170      3668      3449
 -1     11815    3    0    1
 -2      3254      3152      3668      3449
 -1     11816    3    0    1
 -2      3152      1746      3185      3449
 -1     11817    3    0    1
 -2      3170      3152      3185      3449
 -1     11818    3    0    1
 -2      1564      2921      3051      1939
 -1     11819    3    0    1
 -2      3387      1851      3435      1941
 -1     11820    3    0    1
 -2      1706      2936      1939      1940
 -1     11821    3    0    1
 -2      3639      3262      3450      3490
 -1     11822    3    0    1
 -2        29         2      1935      1941
 -1     11823    3    0    1
 -2        29      1906      3395      1941
 -1     11824    3    0    1
 -2      3591      3639      3450      3492
 -1     11825    3    0    1
 -2      3591      2803      3639      3492
 -1     11826    3    0    1
 -2      3712      1892      3486      3491
 -1     11827    3    0    1
 -2      1529      1528      3450      3490
 -1     11828    3    0    1
 -2      1528      1529      3263      3490
 -1     11829    3    0    1
 -2      2623       498      3317      3494
 -1     11830    3    0    1
 -2      3620      2590      3671      3737
 -1     11831    3    0    1
 -2      3047      2623      3317      3494
 -1     11832    3    0    1
 -2      1457      3671      3452      3737
 -1     11833    3    0    1
 -2      3682      3407      3701      3716
 -1     11834    3    0    1
 -2      2553      3682      3701      3716
 -1     11835    3    0    1
 -2      1411      2553      3407      3716
 -1     11836    3    0    1
 -2      1462      3092      3275      3716
 -1     11837    3    0    1
 -2      3092      1462      3612      3716
 -1     11838    3    0    1
 -2      1669      1462      3275      3716
 -1     11839    3    0    1
 -2      3242      1669      3275      3716
 -1     11840    3    0    1
 -2      1691      3142      3242      3716
 -1     11841    3    0    1
 -2      1872      3142      1938      3716
 -1     11842    3    0    1
 -2      3242      3142      1872      3716
 -1     11843    3    0    1
 -2      1669      3242      1872      3716
 -1     11844    3    0    1
 -2      2633      2553      2855      3716
 -1     11845    3    0    1
 -2      2700      3142      3407      3716
 -1     11846    3    0    1
 -2      3142      1411      3407      3716
 -1     11847    3    0    1
 -2      3092      2855      3275      3716
 -1     11848    3    0    1
 -2      2855      3242      3275      3716
 -1     11849    3    0    1
 -2      2700      1775      3142      3716
 -1     11850    3    0    1
 -2      1462      1669      3223      3716
 -1     11851    3    0    1
 -2      3223      1669      1938      3716
 -1     11852    3    0    1
 -2      2553      1411      2855      3716
 -1     11853    3    0    1
 -2      1691      1411      3142      3716
 -1     11854    3    0    1
 -2      2855      1411      1691      3716
 -1     11855    3    0    1
 -2      2855      1691      3242      3716
 -1     11856    3    0    1
 -2      1775      3223      1938      3716
 -1     11857    3    0    1
 -2      3142      1775      1938      3716
 -1     11858    3    0    1
 -2      1669      1872      1938      3716
 -1     11859    3    0    1
 -2       736      2692      2880      3456
 -1     11860    3    0    1
 -2      2880      2692      3637      3456
 -1     11861    3    0    1
 -2      2880      2923      3177      3456
 -1     11862    3    0    1
 -2      1564      3186      3642      3457
 -1     11863    3    0    1
 -2      2989      1564      3642      3457
 -1     11864    3    0    1
 -2      1564      2989      3260      3457
 -1     11865    3    0    1
 -2      3260      2989      3642      3457
 -1     11866    3    0    1
 -2      2728      3564      3642      3717
 -1     11867    3    0    1
 -2      3564      2728      3174      3717
 -1     11868    3    0    1
 -2      2728      1010      3174      3717
 -1     11869    3    0    1
 -2      2936      1706      1939      3717
 -1     11870    3    0    1
 -2      1010       329      3554      3717
 -1     11871    3    0    1
 -2      2979      2728      3642      3717
 -1     11872    3    0    1
 -2       329      1697      3554      3717
 -1     11873    3    0    1
 -2       329      1706      3443      3717
 -1     11874    3    0    1
 -2      3174      3554      1010      1309
 -1     11875    3    0    1
 -2      3554      3174      1010      3717
 -1     11876    3    0    1
 -2      1697       329      1779      3717
 -1     11877    3    0    1
 -2      1779       329      3443      3717
 -1     11878    3    0    1
 -2      2705      2936      3260      3717
 -1     11879    3    0    1
 -2      2705      1456      2936      3717
 -1     11880    3    0    1
 -2      1689      1412      3573      3473
 -1     11881    3    0    1
 -2      1456      2705      2935      3717
 -1     11882    3    0    1
 -2      1456      1697      2936      3717
 -1     11883    3    0    1
 -2      1456      2935      1765      3717
 -1     11884    3    0    1
 -2      1010      2979      3457      3717
 -1     11885    3    0    1
 -2      2936      1697      3443      3717
 -1     11886    3    0    1
 -2      1939      1706      3457      3717
 -1     11887    3    0    1
 -2       329      1010      3457      3717
 -1     11888    3    0    1
 -2      1010      2728      2979      3717
 -1     11889    3    0    1
 -2      1706       329      3457      3717
 -1     11890    3    0    1
 -2      1697      1779      3443      3717
 -1     11891    3    0    1
 -2       188       695       703      1943
 -1     11892    3    0    1
 -2       188      3684      1943      1944
 -1     11893    3    0    1
 -2       188       178      3684      1944
 -1     11894    3    0    1
 -2       427       178       682      1944
 -1     11895    3    0    1
 -2       682       178       686      1944
 -1     11896    3    0    1
 -2      3304      3298      1899      3462
 -1     11897    3    0    1
 -2       348       269      3430      3733
 -1     11898    3    0    1
 -2      1559      3253      3304      3462
 -1     11899    3    0    1
 -2      1559      3304      1899      3462
 -1     11900    3    0    1
 -2      3004      2247      3601      3731
 -1     11901    3    0    1
 -2      2501      3030      3463      3731
 -1     11902    3    0    1
 -2      3233      3298      3304      3462
 -1     11903    3    0    1
 -2      3083      1661      3084      1945
 -1     11904    3    0    1
 -2       353      1068      3679      3718
 -1     11905    3    0    1
 -2      1068       353      3664      3718
 -1     11906    3    0    1
 -2      2134      3547      3599      3731
 -1     11907    3    0    1
 -2       269       348      3697      3733
 -1     11908    3    0    1
 -2      3587      3715      3467      3497
 -1     11909    3    0    1
 -2      1905       435      3720      3497
 -1     11910    3    0    1
 -2      1634      1905      3720      3497
 -1     11911    3    0    1
 -2      2222      3030      3402      3463
 -1     11912    3    0    1
 -2      2407      2222      3402      3463
 -1     11913    3    0    1
 -2      2222      2407      3030      3463
 -1     11914    3    0    1
 -2      1435      1634      3587      3497
 -1     11915    3    0    1
 -2      3715      3243      3468      3499
 -1     11916    3    0    1
 -2      3050      1803      3445      3498
 -1     11917    3    0    1
 -2      3715      2819      3467      3497
 -1     11918    3    0    1
 -2      1803      3050      3346      3498
 -1     11919    3    0    1
 -2      3545      3715      3468      3499
 -1     11920    3    0    1
 -2      3050      2788      3346      3498
 -1     11921    3    0    1
 -2      3720       435      3468      3497
 -1     11922    3    0    1
 -2       226       435      2869      1949
 -1     11923    3    0    1
 -2      3554      1309      3174      3469
 -1     11924    3    0    1
 -2       435       226      3683      1949
 -1     11925    3    0    1
 -2      1412      1694      3592      3721
 -1     11926    3    0    1
 -2      3648        94      3656      3721
 -1     11927    3    0    1
 -2      3650      3648      3656      3721
 -1     11928    3    0    1
 -2      2517      3622      3670      3736
 -1     11929    3    0    1
 -2        94       432      3656      3721
 -1     11930    3    0    1
 -2       432        94      1694      3721
 -1     11931    3    0    1
 -2      3573      3650      3447      3721
 -1     11932    3    0    1
 -2      1694      3573      3447      3721
 -1     11933    3    0    1
 -2      3656       432      3447      3721
 -1     11934    3    0    1
 -2       432      1694      3447      3721
 -1     11935    3    0    1
 -2      3563      3504      3660      3464
 -1     11936    3    0    1
 -2      3114      1875      3660      3464
 -1     11937    3    0    1
 -2      3059      3114      3660      3464
 -1     11938    3    0    1
 -2      1452      1523      3574      3464
 -1     11939    3    0    1
 -2      3574      1523      3201      3464
 -1     11940    3    0    1
 -2      1580      3633      3709      1947
 -1     11941    3    0    1
 -2      1917      1497      1918      3465
 -1     11942    3    0    1
 -2      3350      1917      1918      3465
 -1     11943    3    0    1
 -2      1497      1826      1827      3465
 -1     11944    3    0    1
 -2      1917      3350      3708      3465
 -1     11945    3    0    1
 -2      1497      1917      3708      3465
 -1     11946    3    0    1
 -2      1826      1497      3708      3465
 -1     11947    3    0    1
 -2      3110      1826      3708      3465
 -1     11948    3    0    1
 -2      1826      3110      3277      3465
 -1     11949    3    0    1
 -2      1827      1826      3277      3465
 -1     11950    3    0    1
 -2       437      1712      3685      3466
 -1     11951    3    0    1
 -2      3685      1712      3441      3466
 -1     11952    3    0    1
 -2      3729       415      1962      1963
 -1     11953    3    0    1
 -2       269       263      3430      3733
 -1     11954    3    0    1
 -2      3520      3587      3715      3467
 -1     11955    3    0    1
 -2      3520      1435      3587      3467
 -1     11956    3    0    1
 -2      3217      1435      3615      3467
 -1     11957    3    0    1
 -2      3217      3615      3711      3467
 -1     11958    3    0    1
 -2      3711      3520      3715      3467
 -1     11959    3    0    1
 -2      1435      3520      3615      3467
 -1     11960    3    0    1
 -2      3615      3520      3711      3467
 -1     11961    3    0    1
 -2      2162      3402      3700      3732
 -1     11962    3    0    1
 -2      3534      2162      3611      3732
 -1     11963    3    0    1
 -2      1925      3173      1946      3498
 -1     11964    3    0    1
 -2      2717      3050      3445      3498
 -1     11965    3    0    1
 -2      2788      2717      3173      3498
 -1     11966    3    0    1
 -2      1792      3346      1925      3498
 -1     11967    3    0    1
 -2      1765      2935      3085      3469
 -1     11968    3    0    1
 -2      1902      3340      3678      3472
 -1     11969    3    0    1
 -2      3677      3368      3691      3472
 -1     11970    3    0    1
 -2      3340      3677      3691      3472
 -1     11971    3    0    1
 -2      3678      3340      3691      3472
 -1     11972    3    0    1
 -2      3362      3678      3691      3472
 -1     11973    3    0    1
 -2      1438      3340      1902      3472
 -1     11974    3    0    1
 -2      3163      3379      3469      3722
 -1     11975    3    0    1
 -2      2935      3163      3469      3722
 -1     11976    3    0    1
 -2      3128      2643      3247      3722
 -1     11977    3    0    1
 -2      2705      2643      3128      3722
 -1     11978    3    0    1
 -2      3128      3247      3470      3722
 -1     11979    3    0    1
 -2      3379      3128      3470      3722
 -1     11980    3    0    1
 -2      3174      3386      3406      3722
 -1     11981    3    0    1
 -2      3386      3174      3469      3722
 -1     11982    3    0    1
 -2      2935      2705      3128      3722
 -1     11983    3    0    1
 -2      3163      3128      3379      3722
 -1     11984    3    0    1
 -2      1519      3386      3469      3722
 -1     11985    3    0    1
 -2      2935      3128      3163      3722
 -1     11986    3    0    1
 -2      3639      1432      1754      3244
 -1     11987    3    0    1
 -2      2367      1324      3544      3724
 -1     11988    3    0    1
 -2      3544      1324      3593      3724
 -1     11989    3    0    1
 -2      1324       226      3593      3724
 -1     11990    3    0    1
 -2      3593       226      3683      3724
 -1     11991    3    0    1
 -2      3587      3683      3720      3724
 -1     11992    3    0    1
 -2       226      3532      3720      3724
 -1     11993    3    0    1
 -2       226      1035      3532      3724
 -1     11994    3    0    1
 -2      2686      2367      3544      3724
 -1     11995    3    0    1
 -2      2511      2686      3544      3724
 -1     11996    3    0    1
 -2      2511      3544      3545      3724
 -1     11997    3    0    1
 -2      3545      3544      3683      3724
 -1     11998    3    0    1
 -2      3683       226      3720      3724
 -1     11999    3    0    1
 -2      2367      2511      2532      3724
 -1     12000    3    0    1
 -2       756      1035      1324      3724
 -1     12001    3    0    1
 -2      2342      2367      2532      3724
 -1     12002    3    0    1
 -2       766       756      1324      3724
 -1     12003    3    0    1
 -2      2511      2367      2686      3724
 -1     12004    3    0    1
 -2      1035       226      1324      3724
 -1     12005    3    0    1
 -2       268      1910      3404      3475
 -1     12006    3    0    1
 -2      1910      3149      3404      3475
 -1     12007    3    0    1
 -2       924      3149      1910      3475
 -1     12008    3    0    1
 -2      3012      3261      3428      3475
 -1     12009    3    0    1
 -2      3012      3168      3261      3475
 -1     12010    3    0    1
 -2      2261      2613      3697      3477
 -1     12011    3    0    1
 -2       632       414       415      1962
 -1     12012    3    0    1
 -2       154       415      3729      1963
 -1     12013    3    0    1
 -2      2521      1913      3476      3478
 -1     12014    3    0    1
 -2      1950      1914      3476      3478
 -1     12015    3    0    1
 -2      1914      1950      3476        17
 -1     12016    3    0    1
 -2      3476      1913      1950      3478
 -1     12017    3    0    1
 -2       118       963      2105      1951
 -1     12018    3    0    1
 -2      2105       963      3688      1951
 -1     12019    3    0    1
 -2       118      2105      3688      1951
 -1     12020    3    0    1
 -2       592       596       963      1951
 -1     12021    3    0    1
 -2       118       592       963      1951
 -1     12022    3    0    1
 -2       596       118       120      1951
 -1     12023    3    0    1
 -2       118       596       592      1951
 -1     12024    3    0    1
 -2       406       120      3688      1952
 -1     12025    3    0    1
 -2      3688       120      1951      1952
 -1     12026    3    0    1
 -2       406       407       604      1952
 -1     12027    3    0    1
 -2       406       604       613      1952
 -1     12028    3    0    1
 -2       188       189      3684      3726
 -1     12029    3    0    1
 -2      2390      2599      3684      3726
 -1     12030    3    0    1
 -2      2390       189      3410      3726
 -1     12031    3    0    1
 -2       189      2390      3684      3726
 -1     12032    3    0    1
 -2       188       178      2552      3726
 -1     12033    3    0    1
 -2       178       427      2552      3726
 -1     12034    3    0    1
 -2       427      1308      2552      3726
 -1     12035    3    0    1
 -2      1308      1007      2552      3726
 -1     12036    3    0    1
 -2       189       188      2552      3726
 -1     12037    3    0    1
 -2      2208      2599      3410      3726
 -1     12038    3    0    1
 -2      1007       189      2552      3726
 -1     12039    3    0    1
 -2      2599      2390      3410      3726
 -1     12040    3    0    1
 -2      2585      2204      3411      3727
 -1     12041    3    0    1
 -2       410       411      2545      3727
 -1     12042    3    0    1
 -2      2204      2201      3411      3727
 -1     12043    3    0    1
 -2       411      1293      2545      3727
 -1     12044    3    0    1
 -2       409       146      2545      3727
 -1     12045    3    0    1
 -2      2189      2204      2585      3727
 -1     12046    3    0    1
 -2       974       409      2545      3727
 -1     12047    3    0    1
 -2       108       405      3699      1954
 -1     12048    3    0    1
 -2       405       108       574      1954
 -1     12049    3    0    1
 -2       574       108       578      1954
 -1     12050    3    0    1
 -2       269       348       803      1955
 -1     12051    3    0    1
 -2       269       803       811      1955
 -1     12052    3    0    1
 -2       269       263      3697      1956
 -1     12053    3    0    1
 -2       791       794      1054      1956
 -1     12054    3    0    1
 -2       257       791      1054      1956
 -1     12055    3    0    1
 -2       794       257       263      1956
 -1     12056    3    0    1
 -2       257       794       791      1956
 -1     12057    3    0    1
 -2      3314      3418      3702      3480
 -1     12058    3    0    1
 -2      1810      3314      3702      3480
 -1     12059    3    0    1
 -2      1907      1810      3702      3480
 -1     12060    3    0    1
 -2      1908      1907      3426      3480
 -1     12061    3    0    1
 -2      3426      1907      3702      3480
 -1     12062    3    0    1
 -2      3418      3426      3702      3480
 -1     12063    3    0    1
 -2       208       337      3694      3481
 -1     12064    3    0    1
 -2      1319       208      3694      3481
 -1     12065    3    0    1
 -2      2608       979      3427      3729
 -1     12066    3    0    1
 -2      2429      2608      3427      3729
 -1     12067    3    0    1
 -2       989      3729      1962      1963
 -1     12068    3    0    1
 -2       649       640       989      1963
 -1     12069    3    0    1
 -2      3508       349      1922      3728
 -1     12070    3    0    1
 -2       280      3508      1922      3728
 -1     12071    3    0    1
 -2       349       280      1922      3728
 -1     12072    3    0    1
 -2       280      1335      2170      3728
 -1     12073    3    0    1
 -2       280      2170      3425      3728
 -1     12074    3    0    1
 -2       349       350      3482      3728
 -1     12075    3    0    1
 -2      2617      2475      3425      3728
 -1     12076    3    0    1
 -2       350       270      3482      3728
 -1     12077    3    0    1
 -2       280       349      3482      3728
 -1     12078    3    0    1
 -2       270      1334      3482      3728
 -1     12079    3    0    1
 -2      1335       280      3482      3728
 -1     12080    3    0    1
 -2      2170      2617      3425      3728
 -1     12081    3    0    1
 -2      2475      2415      3425      3728
 -1     12082    3    0    1
 -2      2412      2026      2429      3729
 -1     12083    3    0    1
 -2      3598      3543      3429      3483
 -1     12084    3    0    1
 -2      3543      3598      3400      3483
 -1     12085    3    0    1
 -2      3400      2557      3417      3483
 -1     12086    3    0    1
 -2      3409      3400      3417      3483
 -1     12087    3    0    1
 -2       775       237       767      1957
 -1     12088    3    0    1
 -2       248      3698      1957      1958
 -1     12089    3    0    1
 -2       248       342      3698      1958
 -1     12090    3    0    1
 -2       343       342       755      1958
 -1     12091    3    0    1
 -2       755       342       758      1958
 -1     12092    3    0    1
 -2      3701      1925      1928      1959
 -1     12093    3    0    1
 -2      3407      3701      1928      1959
 -1     12094    3    0    1
 -2      3282      1792      3701      1959
 -1     12095    3    0    1
 -2      3701      1792      1925      1959
 -1     12096    3    0    1
 -2      1655      1656      3107      3484
 -1     12097    3    0    1
 -2      3656      3650      3721      3735
 -1     12098    3    0    1
 -2      2288      2849      2927      3735
 -1     12099    3    0    1
 -2      2288      2927      2931      3735
 -1     12100    3    0    1
 -2      2927      3439      3447      3735
 -1     12101    3    0    1
 -2      2849      3197      3439      3735
 -1     12102    3    0    1
 -2      3650      3447      3721      3735
 -1     12103    3    0    1
 -2      2927      2849      3439      3735
 -1     12104    3    0    1
 -2      1696      3552      3656      3735
 -1     12105    3    0    1
 -2      3397      3395      1941      1960
 -1     12106    3    0    1
 -2       790      3591      3396      3492
 -1     12107    3    0    1
 -2      3639      2803      3474      3492
 -1     12108    3    0    1
 -2      2610      3546      3231      3486
 -1     12109    3    0    1
 -2      3231      3505      3693      3486
 -1     12110    3    0    1
 -2      3693      3505      3712      3486
 -1     12111    3    0    1
 -2      1511      3231      3693      3486
 -1     12112    3    0    1
 -2       276      1511      3693      3486
 -1     12113    3    0    1
 -2      3505      3501      3712      3486
 -1     12114    3    0    1
 -2      3501      3505      3546      3486
 -1     12115    3    0    1
 -2      3181      1482      1936      3487
 -1     12116    3    0    1
 -2      3559      2894      2981      3487
 -1     12117    3    0    1
 -2      2981      2894      3232      3487
 -1     12118    3    0    1
 -2      3232      3181      1936      3487
 -1     12119    3    0    1
 -2      1482      3181      3710      3487
 -1     12120    3    0    1
 -2      3086      1482      3710      3487
 -1     12121    3    0    1
 -2      3559      3086      3710      3487
 -1     12122    3    0    1
 -2      2894      3559      3710      3487
 -1     12123    3    0    1
 -2      3181      2894      3710      3487
 -1     12124    3    0    1
 -2      1684      2981      1893      3487
 -1     12125    3    0    1
 -2      1684      3559      2981      3487
 -1     12126    3    0    1
 -2      2894      3181      3232      3487
 -1     12127    3    0    1
 -2      2921      3051      1939      3489
 -1     12128    3    0    1
 -2      3053      1734      3651      3489
 -1     12129    3    0    1
 -2      1734      1564      3651      3489
 -1     12130    3    0    1
 -2      3051      1564      1939      3489
 -1     12131    3    0    1
 -2      1564      3051      3106      3489
 -1     12132    3    0    1
 -2      3106      3051      3651      3489
 -1     12133    3    0    1
 -2      1564      3106      3651      3489
 -1     12134    3    0    1
 -2      2920      2701      2921      3489
 -1     12135    3    0    1
 -2      2921      2701      3051      3489
 -1     12136    3    0    1
 -2      3546      3501      3486      3491
 -1     12137    3    0    1
 -2      3396      3591      3450      3492
 -1     12138    3    0    1
 -2      3639      3474      3490      3492
 -1     12139    3    0    1
 -2      3450      3639      3490      3492
 -1     12140    3    0    1
 -2      1528      3396      3450      3492
 -1     12141    3    0    1
 -2      1528       790      3396      3492
 -1     12142    3    0    1
 -2      3474      1528      3490      3492
 -1     12143    3    0    1
 -2      1528      3450      3490      3492
 -1     12144    3    0    1
 -2      1487      3120      3671      3493
 -1     12145    3    0    1
 -2      3231      3225      3496      3500
 -1     12146    3    0    1
 -2      3546      2563      3231      3500
 -1     12147    3    0    1
 -2      3043      2518      3707      3730
 -1     12148    3    0    1
 -2      2707      3673      3707      3730
 -1     12149    3    0    1
 -2      3589      2925      3707      3730
 -1     12150    3    0    1
 -2      3546      3231      3486      3500
 -1     12151    3    0    1
 -2      2491      2246      2563      3500
 -1     12152    3    0    1
 -2      2194      3501      3505      3500
 -1     12153    3    0    1
 -2      2491      2563      3546      3500
 -1     12154    3    0    1
 -2      2829      3043      3707      3730
 -1     12155    3    0    1
 -2      2563      2246      2931      3500
 -1     12156    3    0    1
 -2      3448      3461      3495      3737
 -1     12157    3    0    1
 -2      1870      1203      3357      3494
 -1     12158    3    0    1
 -2      2536      3671      3493      3737
 -1     12159    3    0    1
 -2      1203       499      2623      3494
 -1     12160    3    0    1
 -2       498      1201      3317      3494
 -1     12161    3    0    1
 -2      1203      2623      3047      3494
 -1     12162    3    0    1
 -2      2759      3493      1461      3737
 -1     12163    3    0    1
 -2      2590      3451      3452      3737
 -1     12164    3    0    1
 -2      3096      3640      3673      3730
 -1     12165    3    0    1
 -2      2707      2774      3096      3730
 -1     12166    3    0    1
 -2      2707      3096      3673      3730
 -1     12167    3    0    1
 -2      2707      2665      2774      3730
 -1     12168    3    0    1
 -2      2774      2665      2794      3730
 -1     12169    3    0    1
 -2      2755      2518      3233      3730
 -1     12170    3    0    1
 -2      2518      2829      3233      3730
 -1     12171    3    0    1
 -2      3333      3075      3462      3730
 -1     12172    3    0    1
 -2      3075      3253      3462      3730
 -1     12173    3    0    1
 -2      3075      3094      3253      3730
 -1     12174    3    0    1
 -2      2829      2518      3043      3730
 -1     12175    3    0    1
 -2      2829      3006      3233      3730
 -1     12176    3    0    1
 -2      3096      3075      3333      3730
 -1     12177    3    0    1
 -2      3075      2774      3094      3730
 -1     12178    3    0    1
 -2      2794      2707      2925      3730
 -1     12179    3    0    1
 -2      2755      3233      3304      3730
 -1     12180    3    0    1
 -2      3253      3094      3369      3730
 -1     12181    3    0    1
 -2      3233      3006      3298      3730
 -1     12182    3    0    1
 -2      2774      3075      3096      3730
 -1     12183    3    0    1
 -2      2665      2707      2794      3730
 -1     12184    3    0    1
 -2      3030      3402      3463      3732
 -1     12185    3    0    1
 -2      3463      2162      3731      3732
 -1     12186    3    0    1
 -2      3030      3463      3731      3732
 -1     12187    3    0    1
 -2      3388      3030      3731      3732
 -1     12188    3    0    1
 -2      3534      3388      3731      3732
 -1     12189    3    0    1
 -2      3534      3577      3649      3732
 -1     12190    3    0    1
 -2      3441      3649      3466      3732
 -1     12191    3    0    1
 -2      3649      1650      3466      3732
 -1     12192    3    0    1
 -2      3534      3617      3388      3732
 -1     12193    3    0    1
 -2      3388      3617      3441      3732
 -1     12194    3    0    1
 -2      1425      1650      3577      3732
 -1     12195    3    0    1
 -2      3577      1650      3649      3732
 -1     12196    3    0    1
 -2      3617      3649      3441      3732
 -1     12197    3    0    1
 -2      3617      3534      3649      3732
 -1     12198    3    0    1
 -2      1425      3414      3466      3732
 -1     12199    3    0    1
 -2      3414      1425      3421      3732
 -1     12200    3    0    1
 -2      3414      3030      3441      3732
 -1     12201    3    0    1
 -2      3414      3441      3466      3732
 -1     12202    3    0    1
 -2      1650      1425      3466      3732
 -1     12203    3    0    1
 -2      1425      1758      3421      3732
 -1     12204    3    0    1
 -2      3363      3030      3414      3732
 -1     12205    3    0    1
 -2      3402      2162      3463      3732
 -1     12206    3    0    1
 -2      3030      3388      3441      3732
 -1     12207    3    0    1
 -2       335      1320      3615      3734
 -1     12208    3    0    1
 -2       335      1932      3484      3734
 -1     12209    3    0    1
 -2      3107      1655      3484      3734
 -1     12210    3    0    1
 -2      1655      3107      3289      3734
 -1     12211    3    0    1
 -2      2959      3289      3637      3734
 -1     12212    3    0    1
 -2      2873      2959      3637      3734
 -1     12213    3    0    1
 -2      2873      3637      3669      3734
 -1     12214    3    0    1
 -2      2808      2652      3637      3734
 -1     12215    3    0    1
 -2      3289      2808      3637      3734
 -1     12216    3    0    1
 -2      2493      2652      3669      3734
 -1     12217    3    0    1
 -2      2652      2493      3637      3734
 -1     12218    3    0    1
 -2      3637      2493      3669      3734
 -1     12219    3    0    1
 -2      3615      1824      1932      3734
 -1     12220    3    0    1
 -2       335      3615      1932      3734
 -1     12221    3    0    1
 -2      3615      1320      3665      3734
 -1     12222    3    0    1
 -2      3532      3615      3665      3734
 -1     12223    3    0    1
 -2      1320      3532      3665      3734
 -1     12224    3    0    1
 -2      3107      2808      3289      3734
 -1     12225    3    0    1
 -2      1320      1655      3289      3734
 -1     12226    3    0    1
 -2      2873      1320      3289      3734
 -1     12227    3    0    1
 -2      1435      2652      3484      3734
 -1     12228    3    0    1
 -2      1824      1435      3484      3734
 -1     12229    3    0    1
 -2      1320       335      1655      3734
 -1     12230    3    0    1
 -2      2959      2873      3289      3734
 -1     12231    3    0    1
 -2      2652      1435      2678      3734
 -1     12232    3    0    1
 -2      2678      1435      1634      3734
 -1     12233    3    0    1
 -2      1932      1824      3484      3734
 -1     12234    3    0    1
 -2      2652      3107      3484      3734
 -1     12235    3    0    1
 -2      2652      2808      3107      3734
 -1     12236    3    0    1
 -2      3447      3439      3485      3735
 -1     12237    3    0    1
 -2      2061      2502      2931      3735
 -1     12238    3    0    1
 -2      1413      1696      3485      3735
 -1     12239    3    0    1
 -2      3317      1201      3415      3736
 -1     12240    3    0    1
 -2      3380      3415      3454      3736
 -1     12241    3    0    1
 -2      3351      3257      3371      3736
 -1     12242    3    0    1
 -2      1906      1201      3494      3736
 -1     12243    3    0    1
 -2      1201      1906      3415      3736
 -1     12244    3    0    1
 -2      3395      1906      3494      3736
 -1     12245    3    0    1
 -2      3313      3395      3494      3736
 -1     12246    3    0    1
 -2      1434      2620      3351      3736
 -1     12247    3    0    1
 -2      2517      2620      3256      3736
 -1     12248    3    0    1
 -2      3357      3175      3440      3736
 -1     12249    3    0    1
 -2      3351      3371      3397      3736
 -1     12250    3    0    1
 -2      3371      3257      3376      3736
 -1     12251    3    0    1
 -2      3047      3175      3357      3736
 -1     12252    3    0    1
 -2      3313      1434      3395      3736
 -3
    1PSTEP                         1           1           1          
  100CL  101 1.000000000        3737                     0    1           1
 -4  DISP        4    1
 -5  D1          1    2    1    0
 -5  D2          1    2    2    0
 -5  D3          1    2    3    0
 -5  ALL         1    2    0    0    1ALL
 -1         1-1.84794E-02 2.86121E-03-7.62756E-01
 -1         2-1.26880E-01 2.47841E-02-7.46060E-01
 -1         3 1.29894E-01-5.43920E-02-5.85033E-01
 -1         4 5.54122E-02 1.36025E-01-3.90174E-01
 -1         5 5.32651E-02-1.34273E-01-5.83129E-01
 -1         6 5.58902E-02-1.37234E-01-3.84452E-01
 -1         7 1.03925E-01-1.07762E-01-3.85179E-01
 -1         8 1.00883E-01-1.01799E-01-5.84865E-01
 -1         9 9.81786E-02-1.00717E-01-5.83619E-01
 -1        10 9.99335E-02-1.02303E-01-5.85206E-01
 -1        11 1.40458E-01-9.16883E-04-5.85095E-01
 -1        12 1.40183E-01-2.10443E-03-5.85868E-01
 -1        13 1.25901E-01 2.43005E-02-7.52245E-01
 -1        14 1.26440E-01-2.58126E-02-7.47420E-01
 -1        15 1.24086E-01 2.43177E-02-7.49425E-01
 -1        16 5.39053E-02 1.29371E-01-5.88530E-01
 -1        17 1.06522E-01-7.14621E-02-7.48237E-01
 -1        18 1.31117E-01-5.32429E-02-5.86125E-01
 -1        19 5.34062E-02-1.33431E-01-5.82255E-01
 -1        20-5.93723E-02-1.39339E-01-1.78025E-01
 -1        21-5.58624E-02-1.37272E-01-3.89317E-01
 -1        22-5.31954E-02-1.29676E-01-5.84390E-01
 -1        23-7.00018E-02-1.05775E-01-7.48366E-01
 -1        24-2.07984E-02-1.25396E-01-7.46432E-01
 -1        25-9.96595E-02-9.69636E-02-5.84485E-01
 -1        26-6.98132E-02-1.03877E-01-7.45678E-01
 -1        27-1.24079E-01-2.57158E-02-7.44417E-01
 -1        28-1.25442E-01-2.45389E-02-7.47791E-01
 -1        29-1.26031E-01 2.41183E-02-7.42828E-01
 -1        30-1.46241E-01 1.32417E-03-3.83625E-01
 -1        31-1.39601E-01 2.54946E-03-5.80032E-01
 -1        32-1.46566E-01 5.27654E-04-3.81342E-01
 -1        33-1.49070E-01 2.38170E-03-1.68151E-01
 -1        34-1.47035E-01 1.57174E-03-3.81641E-01
 -1        35-6.12483E-02 1.34498E-01-3.79087E-01
 -1        36-1.04881E-01-1.03146E-01-3.90858E-01
 -1        37-1.05074E-01-1.02817E-01-3.93152E-01
 -1        38-1.30300E-01-4.90362E-02-5.81973E-01
 -1        39-1.01300E-01-9.83207E-02-5.84391E-01
 -1        40-1.00325E-01-9.60194E-02-5.87291E-01
 -1        41-5.74806E-02 1.28290E-01-5.78587E-01
 -1        42-5.84414E-02 1.27522E-01-5.81223E-01
 -1        43-2.68162E-02 1.22257E-01-7.45812E-01
 -1        44 2.38814E-02 1.20925E-01-7.48181E-01
 -1        45-2.78368E-03 1.38686E-01-5.85330E-01
 -1        46-1.31128E-01 5.13960E-02-5.77502E-01
 -1        47-1.09620E-01 7.08983E-02-7.46712E-01
 -1        48-1.36917E-01 5.48550E-02-3.76381E-01
 -1        49-1.30421E-01 5.19800E-02-5.77289E-01
 -1        50-1.00397E-01 9.84797E-02-5.78073E-01
 -1        51-7.58047E-02 1.04321E-01-7.43711E-01
 -1        52-9.98943E-02 9.90695E-02-5.77981E-01
 -1        53-1.02990E-01 1.05354E-01-3.76753E-01
 -1        54-1.01699E-01 1.00015E-01-5.79426E-01
 -1        55-1.03115E-01 1.05169E-01-3.77221E-01
 -1        56-1.05065E-01 1.05183E-01-1.63939E-01
 -1        57-5.89995E-02 1.29262E-01-5.83256E-01
 -1        58-2.63646E-03 1.40819E-01-5.86915E-01
 -1        59 6.90910E-02 1.03345E-01-7.48189E-01
 -1        60 3.18659E-03-1.53027E-01-1.71964E-01
 -1        61 4.47985E-03-1.50517E-01-3.84335E-01
 -1        62-2.20452E-02-1.26276E-01-7.49950E-01
 -1        63 5.32745E-02-1.31055E-01-5.81240E-01
 -1        64 5.63033E-02-1.38796E-01-3.83967E-01
 -1        65 6.20837E-02-1.38252E-01-1.70759E-01
 -1        66 5.33885E-03-1.50582E-01-3.87165E-01
 -1        67 5.00571E-03-1.42263E-01-5.85253E-01
 -1        68-3.68636E-03 1.44887E-01-3.88581E-01
 -1        69 1.06394E-01 7.15306E-02-7.52455E-01
 -1        70 9.89420E-02 9.59658E-02-5.87396E-01
 -1        71 7.04338E-02-1.05593E-01-7.46934E-01
 -1        72 1.07401E-01-7.25216E-02-7.51868E-01
 -1        73 6.97211E-02-1.07210E-01-7.49460E-01
 -1        74 9.95696E-02-9.97517E-02-5.84107E-01
 -1        75 1.04347E-01 1.02106E-01-3.93524E-01
 -1        76 1.04918E-01 1.03171E-01-3.92032E-01
 -1        77 1.00721E-01 9.95159E-02-5.89627E-01
 -1        78 1.31139E-01 5.16297E-02-5.87715E-01
 -1        79 1.30064E-01 5.24263E-02-5.87297E-01
 -1        80 1.31871E-01 5.30006E-02-5.87824E-01
 -1        81 1.37599E-01 5.52419E-02-3.89892E-01
 -1        82 1.36494E-01 5.47557E-02-3.91141E-01
 -1        83 1.37702E-01 5.59642E-02-3.89818E-01
 -1        84 1.37619E-01-5.95177E-02-1.76120E-01
 -1        85 1.36886E-01-5.79756E-02-3.87420E-01
 -1        86 1.38158E-01-5.97370E-02-1.76545E-01
 -1        87 1.03785E-01-1.11205E-01-1.67732E-01
 -1        88 1.42658E-01-1.16070E-03-5.86183E-01
 -1        89 1.48441E-01-1.48404E-03-3.85501E-01
 -1        90 1.40576E-01 5.87853E-02-1.73388E-01
 -1        91-1.48475E-01 2.33682E-03-1.70416E-01
 -1        92-1.39867E-01 1.09439E-03-5.78946E-01
 -1        93-2.43342E-02-1.96752E-03-5.84763E-01
 -1        94-1.88060E-02-5.07262E-03-7.62903E-01
 -1        95-1.47250E-01 6.32466E-04-3.81051E-01
 -1        96-1.41301E-01 2.29756E-03-5.81683E-01
 -1        97-1.41963E-01 1.07821E-03-5.79177E-01
 -1        98-1.05116E-01-6.86504E-02-7.47105E-01
 -1        99-1.56786E-02-1.41165E-02-7.66713E-01
 -1       100-1.39748E-01-5.50878E-02-1.76677E-01
 -1       101-1.39537E-01-5.46785E-02-1.77245E-01
 -1       102-2.61452E-02-1.01005E-02-3.90577E-01
 -1       103-1.38062E-01-5.14621E-02-3.86139E-01
 -1       104-2.56623E-02-9.36501E-03-1.75822E-01
 -1       105-1.31866E-01-4.77696E-02-5.86162E-01
 -1       106-1.32222E-01-4.94586E-02-5.81712E-01
 -1       107-1.33600E-01-4.85783E-02-5.88599E-01
 -1       108-2.21247E-02-1.46927E-02-5.88015E-01
 -1       109-2.60344E-02-8.48807E-03-3.86604E-01
 -1       110-1.37419E-01-5.05805E-02-3.92289E-01
 -1       111-1.38494E-01-5.08317E-02-3.89933E-01
 -1       112-2.53884E-02-1.35831E-02-3.92969E-01
 -1       113-1.37247E-01-5.10671E-02-3.85762E-01
 -1       114-1.03678E-01-6.71788E-02-7.44604E-01
 -1       115-1.76395E-02-1.84673E-02-5.90113E-01
 -1       116-1.08568E-01-1.02324E-01-1.79686E-01
 -1       117-1.09569E-01-1.03316E-01-1.81313E-01
 -1       118-1.60630E-02-1.97330E-02-5.92202E-01
 -1       119-1.12930E-02-1.86978E-02-7.64620E-01
 -1       120-1.53824E-02-2.23794E-02-5.87710E-01
 -1       121-1.93498E-02-2.04530E-02-3.94948E-01
 -1       122-1.04454E-01-1.01955E-01-3.94893E-01
 -1       123-1.01688E-01-9.74729E-02-5.88971E-01
 -1       124-1.04261E-01-1.02649E-01-3.90723E-01
 -1       125-4.55645E-03-2.06635E-02-7.67519E-01
 -1       126-1.23729E-02-2.63610E-02-1.77557E-01
 -1       127-6.03077E-02-1.40640E-01-1.77514E-01
 -1       128-1.15268E-02-2.63692E-02-3.93238E-01
 -1       129-9.29165E-03-2.74924E-02-3.93818E-01
 -1       130-1.15755E-02-2.79926E-02-1.74797E-01
 -1       131-5.32760E-02-1.33091E-01-5.87053E-01
 -1       132-5.20233E-02-1.31155E-01-5.85724E-01
 -1       133-5.51290E-02-1.37382E-01-3.90391E-01
 -1       134-5.45872E-02-1.36506E-01-3.91734E-01
 -1       135-5.56209E-02-1.36734E-01-3.90220E-01
 -1       136-5.34766E-02-1.31285E-01-5.85473E-01
 -1       137-1.67364E-03-2.78779E-02-1.70253E-01
 -1       138 3.01396E-03-1.53540E-01-1.69936E-01
 -1       139 2.90727E-03-2.80992E-02-1.70171E-01
 -1       140 3.75016E-03-1.41846E-01-5.83506E-01
 -1       141 4.93220E-03-1.44589E-01-5.87460E-01
 -1       142 5.52864E-03-1.49945E-01-3.89339E-01
 -1       143 4.48602E-03-1.49664E-01-3.84455E-01
 -1       144 1.27307E-03-2.92053E-02-3.87556E-01
 -1       145 4.00560E-03-1.43947E-01-5.83144E-01
 -1       146-2.57625E-03-2.75482E-02-5.87434E-01
 -1       147 2.45366E-02-1.27444E-01-7.48440E-01
 -1       148 6.28969E-02-1.39689E-01-1.73027E-01
 -1       149 1.05511E-02-2.77994E-02-1.69867E-01
 -1       150 2.41296E-02-1.25966E-01-7.45140E-01
 -1       151 3.34698E-03-2.12522E-02-7.64701E-01
 -1       152 5.68923E-02-1.38897E-01-3.84267E-01
 -1       153 9.67173E-03-2.75086E-02-3.86198E-01
 -1       154 5.20680E-03-2.63166E-02-5.84022E-01
 -1       155 5.19399E-02-1.32402E-01-5.82210E-01
 -1       156 1.23241E-02-2.32384E-02-5.84441E-01
 -1       157 9.48658E-03-2.37946E-02-5.86911E-01
 -1       158 5.66754E-02-1.38128E-01-3.84899E-01
 -1       159 9.06931E-03-2.79827E-02-3.85483E-01
 -1       160 1.05196E-01-1.13063E-01-1.68203E-01
 -1       161 1.03760E-01-1.08522E-01-3.86398E-01
 -1       162 1.81601E-02-1.79093E-02-5.89135E-01
 -1       163 1.39792E-02-2.23904E-02-5.85084E-01
 -1       164 1.03318E-01-1.08139E-01-3.87778E-01
 -1       165 2.10056E-02-1.65511E-02-5.86795E-01
 -1       166 2.01223E-02-1.90933E-02-3.88541E-01
 -1       167 1.03139E-01-1.06745E-01-3.86065E-01
 -1       168 1.73749E-02-2.30510E-02-3.86249E-01
 -1       169 1.67176E-02-1.38522E-02-7.68868E-01
 -1       170 1.27370E-01-2.66757E-02-7.50786E-01
 -1       171 1.92736E-02-6.09437E-03-7.68712E-01
 -1       172 2.45452E-02-1.08486E-02-1.75583E-01
 -1       173 1.71879E-02-1.43079E-02-7.66209E-01
 -1       174 2.49862E-02-1.27651E-02-3.89866E-01
 -1       175 2.60242E-02-1.01364E-02-3.90143E-01
 -1       176 1.32656E-01-5.41927E-02-5.87119E-01
 -1       177 1.31911E-01-5.49864E-02-5.85914E-01
 -1       178 2.50133E-02-7.63807E-03-5.87037E-01
 -1       179 2.40574E-02-1.49329E-02-3.89628E-01
 -1       180 1.35514E-01-5.68795E-02-3.87965E-01
 -1       181 1.36735E-01-5.72930E-02-3.87523E-01
 -1       182 1.36327E-01-5.78931E-02-3.88238E-01
 -1       183 2.19901E-02-1.44234E-02-5.87263E-01
 -1       184 1.49758E-01-1.40937E-03-1.69638E-01
 -1       185 1.95795E-02-5.83274E-03-7.66303E-01
 -1       186 1.49378E-01-1.65953E-03-1.70892E-01
 -1       187 2.15517E-02-4.85908E-03-1.69600E-01
 -1       188 2.55556E-02-5.69753E-03-5.87236E-01
 -1       189 2.52187E-02-2.76324E-03-5.90666E-01
 -1       190 1.42119E-01-1.90830E-03-5.86918E-01
 -1       191 1.48533E-01-2.12443E-03-3.86496E-01
 -1       192 1.47980E-01-2.21070E-03-3.87665E-01
 -1       193 2.67430E-02 7.79523E-04-3.89031E-01
 -1       194 2.55242E-02 3.22410E-03-5.87184E-01
 -1       195 1.47569E-01-1.31417E-03-3.86494E-01
 -1       196 1.96563E-02 2.55358E-03-7.71720E-01
 -1       197 1.40598E-01 5.90307E-02-1.74166E-01
 -1       198 2.57607E-02 9.02133E-03-3.92160E-01
 -1       199 2.61283E-02 7.39298E-03-1.71389E-01
 -1       200 2.52624E-02 4.91855E-03-5.87604E-01
 -1       201 2.28946E-02 8.83348E-03-5.92908E-01
 -1       202 2.49967E-02 1.05886E-02-3.94183E-01
 -1       203 1.32991E-01 5.25432E-02-5.88541E-01
 -1       204 1.36848E-01 5.57693E-02-3.90063E-01
 -1       205 1.07768E-01 1.04756E-01-1.78116E-01
 -1       206 1.04662E-01 7.09441E-02-7.49640E-01
 -1       207 1.08480E-01 1.04998E-01-1.78464E-01
 -1       208 1.71835E-02 1.68724E-02-5.93482E-01
 -1       209 9.79560E-02 9.77617E-02-5.88606E-01
 -1       210 1.97284E-02 1.42230E-02-5.94036E-01
 -1       211 1.03885E-01 1.02489E-01-3.93324E-01
 -1       212 1.94204E-02 1.78656E-02-3.94750E-01
 -1       213 1.68400E-02 2.02553E-02-3.95428E-01
 -1       214 1.05288E-01 1.02701E-01-3.92668E-01
 -1       215 1.00047E-01 9.73702E-02-5.88432E-01
 -1       216 2.11724E-02 1.80367E-02-3.93523E-01
 -1       217 2.36040E-02 1.22673E-01-7.50783E-01
 -1       218 7.02054E-02 1.04353E-01-7.51102E-01
 -1       219 1.13999E-02 2.39090E-02-3.94509E-01
 -1       220 1.18057E-02 2.61095E-02-1.76800E-01
 -1       221 5.49706E-02 1.40689E-01-1.76450E-01
 -1       222 5.45376E-02 1.39462E-01-1.75315E-01
 -1       223 9.28687E-03 2.41532E-02-3.93339E-01
 -1       224 5.58154E-02 1.35750E-01-3.90685E-01
 -1       225 9.48633E-03 2.31186E-02-1.74938E-01
 -1       226 4.70807E-03 1.89814E-02-7.66151E-01
 -1       227 1.00410E-02 2.11138E-02-5.93281E-01
 -1       228 5.28219E-02 1.28209E-01-5.87266E-01
 -1       229 5.37247E-02 1.27091E-01-5.87453E-01
 -1       230 5.49288E-02 1.35141E-01-3.91057E-01
 -1       231 5.55740E-02 1.34758E-01-3.91597E-01
 -1       232 9.43316E-03 2.44524E-02-3.90682E-01
 -1       233 5.38310E-02 1.30220E-01-5.88071E-01
 -1       234 1.25275E-02 2.29927E-02-3.90782E-01
 -1       235-4.19700E-03 1.49426E-01-1.74162E-01
 -1       236-1.80194E-03 2.65639E-02-1.73209E-01
 -1       237 1.13205E-03 2.37383E-02-5.90819E-01
 -1       238-4.13864E-04 2.58758E-02-1.75254E-01
 -1       239-4.00862E-03 1.46469E-01-3.88544E-01
 -1       240-4.49230E-03 1.49648E-01-1.75583E-01
 -1       241-1.77693E-03 1.38088E-01-5.84774E-01
 -1       242-2.42851E-03 2.27710E-02-5.89619E-01
 -1       243-8.40186E-04 2.55262E-02-3.91688E-01
 -1       244-3.37913E-03 1.46262E-01-3.88239E-01
 -1       245-2.13261E-03 2.57888E-02-3.90162E-01
 -1       246-1.83020E-03 1.39784E-01-5.85011E-01
 -1       247-4.07978E-03 2.38724E-02-5.84008E-01
 -1       248 3.55743E-03 2.42402E-02-5.88459E-01
 -1       249-4.07981E-03 1.45841E-01-3.90054E-01
 -1       250-2.86586E-02 1.23247E-01-7.48705E-01
 -1       251-6.21201E-02 1.37570E-01-1.65917E-01
 -1       252-6.19761E-02 1.36968E-01-1.68139E-01
 -1       253-8.71707E-03 2.51162E-02-1.66155E-01
 -1       254-1.01656E-02 2.43378E-02-3.85006E-01
 -1       255-6.16709E-02 1.34528E-01-3.82276E-01
 -1       256-5.84210E-02 1.30158E-01-5.78088E-01
 -1       257-9.01023E-03 2.14758E-02-5.83940E-01
 -1       258-6.15156E-02 1.33852E-01-3.84047E-01
 -1       259-9.24547E-03 2.42195E-02-3.83557E-01
 -1       260-1.16972E-02 2.33593E-02-3.82721E-01
 -1       261-6.07518E-02 1.33419E-01-3.79047E-01
 -1       262-1.25910E-02 2.33425E-02-3.80108E-01
 -1       263-1.21222E-02 2.08836E-02-5.80145E-01
 -1       264-1.05832E-02 1.42024E-02-7.66145E-01
 -1       265-7.65226E-02 1.04499E-01-7.48059E-01
 -1       266-1.04629E-01 1.04757E-01-1.64522E-01
 -1       267-1.82215E-02 1.78602E-02-3.79945E-01
 -1       268-1.08134E-01 7.08110E-02-7.43026E-01
 -1       269-1.38010E-02 1.94569E-02-5.79729E-01
 -1       270-1.70810E-02 1.55154E-02-5.83209E-01
 -1       271-1.01340E-01 1.00249E-01-5.78173E-01
 -1       272-1.69045E-02 1.89649E-02-3.79934E-01
 -1       273-1.03088E-01 1.05143E-01-3.77729E-01
 -1       274-1.02347E-01 1.04338E-01-3.78054E-01
 -1       275-1.65132E-02 1.99963E-02-3.77370E-01
 -1       276-1.54944E-02 8.87218E-03-7.64233E-01
 -1       277-2.25320E-02 5.86269E-03-1.63874E-01
 -1       278-1.40387E-01 5.02588E-02-1.66219E-01
 -1       279-1.56452E-02 9.40176E-03-7.62219E-01
 -1       280-2.16551E-02 9.43585E-03-5.83153E-01
 -1       281-1.37217E-01 5.44086E-02-3.77580E-01
 -1       282-1.38885E-01 4.93258E-02-1.63610E-01
 -1       283-1.33023E-01 5.22333E-02-5.78743E-01
 -1       284-1.32354E-01 5.24735E-02-5.77789E-01
 -1       285-2.25214E-02 6.84861E-03-5.83418E-01
 -1       286-1.36818E-01 5.40449E-02-3.79054E-01
 -1       287-1.36673E-01 5.47890E-02-3.76906E-01
 -1       288-2.51391E-02 7.55772E-03-3.77932E-01
 -1       289 0.00000E+00 0.00000E+00 0.00000E+00
 -1       290 0.00000E+00 0.00000E+00 0.00000E+00
 -1       291 0.00000E+00 0.00000E+00 0.00000E+00
 -1       292 0.00000E+00 0.00000E+00 0.00000E+00
 -1       293 0.00000E+00 0.00000E+00 0.00000E+00
 -1       294 0.00000E+00 0.00000E+00 0.00000E+00
 -1       295 0.00000E+00 0.00000E+00 0.00000E+00
 -1       296 0.00000E+00 0.00000E+00 0.00000E+00
 -1       297 0.00000E+00 0.00000E+00 0.00000E+00
 -1       298 0.00000E+00 0.00000E+00 0.00000E+00
 -1       299 0.00000E+00 0.00000E+00 0.00000E+00
 -1       300 0.00000E+00 0.00000E+00 0.00000E+00
 -1       301 0.00000E+00 0.00000E+00 0.00000E+00
 -1       302 0.00000E+00 0.00000E+00 0.00000E+00
 -1       303 0.00000E+00 0.00000E+00 0.00000E+00
 -1       304 0.00000E+00 0.00000E+00 0.00000E+00
 -1       305 0.00000E+00 0.00000E+00 0.00000E+00
 -1       306 0.00000E+00 0.00000E+00 0.00000E+00
 -1       307 0.00000E+00 0.00000E+00 0.00000E+00
 -1       308 0.00000E+00 0.00000E+00 0.00000E+00
 -1       309 0.00000E+00 0.00000E+00 0.00000E+00
 -1       310 0.00000E+00 0.00000E+00 0.00000E+00
 -1       311 0.00000E+00 0.00000E+00 0.00000E+00
 -1       312 0.00000E+00 0.00000E+00 0.00000E+00
 -1       313 0.00000E+00 0.00000E+00 0.00000E+00
 -1       314 0.00000E+00 0.00000E+00 0.00000E+00
 -1       315 0.00000E+00 0.00000E+00 0.00000E+00
 -1       316 0.00000E+00 0.00000E+00 0.00000E+00
 -1       317 0.00000E+00 0.00000E+00 0.00000E+00
 -1       318 0.00000E+00 0.00000E+00 0.00000E+00
 -1       319 0.00000E+00 0.00000E+00 0.00000E+00
 -1       320 0.00000E+00 0.00000E+00 0.00000E+00
 -1       321 0.00000E+00 0.00000E+00 0.00000E+00
 -1       322 0.00000E+00 0.00000E+00 0.00000E+00
 -1       323 0.00000E+00 0.00000E+00 0.00000E+00
 -1       324 0.00000E+00 0.00000E+00 0.00000E+00
 -1       325 0.00000E+00 0.00000E+00 0.00000E+00
 -1       326 0.00000E+00 0.00000E+00 0.00000E+00
 -1       327 0.00000E+00 0.00000E+00 0.00000E+00
 -1       328 2.36401E-02 7.01246E-03-5.92038E-01
 -1       329 1.97870E-02 2.70091E-03-7.68667E-01
 -1       330 2.46571E-02 3.98261E-04-5.90776E-01
 -1       331 2.61005E-02 6.48424E-03-3.90555E-01
 -1       332 1.63733E-02 9.28258E-03-7.68471E-01
 -1       333 2.17628E-02 1.32263E-02-5.89912E-01
 -1       334 2.25433E-02 1.16391E-02-5.89584E-01
 -1       335 1.17176E-02 1.59379E-02-7.67597E-01
 -1       336 1.35736E-02 2.08278E-02-5.90288E-01
 -1       337 1.54399E-02 1.97027E-02-5.90381E-01
 -1       338 1.18962E-02-2.65144E-02-3.88358E-01
 -1       339 1.33327E-02-2.57871E-02-3.85056E-01
 -1       340 1.20048E-02-1.92699E-02-7.65675E-01
 -1       341 1.59220E-02-2.01483E-02-5.90702E-01
 -1       342 5.29010E-03 2.35560E-02-5.88607E-01
 -1       343 7.70911E-03 2.16924E-02-5.93312E-01
 -1       344-5.32681E-03 2.33187E-02-5.83030E-01
 -1       345-7.03867E-03 2.14552E-02-5.86113E-01
 -1       346-3.89441E-03 1.81587E-02-7.66470E-01
 -1       347-1.10048E-02 1.46132E-02-7.63732E-01
 -1       348-1.57877E-02 1.67582E-02-5.82857E-01
 -1       349-2.13846E-02 1.20732E-02-5.79852E-01
 -1       350-2.00249E-02 1.38794E-02-5.79603E-01
 -1       351-1.18895E-02 2.56371E-02-1.66189E-01
 -1       352-2.40155E-02 8.30054E-04-5.85011E-01
 -1       353-1.88581E-02 2.98081E-03-7.60908E-01
 -1       354-2.50134E-02 3.22354E-03-5.80252E-01
 -1       355-2.56228E-02 1.82943E-03-3.80595E-01
 -1       356-2.43609E-02 4.76832E-03-5.79880E-01
 -1       357-2.72195E-02-3.18446E-03-3.83286E-01
 -1       358 0.00000E+00 0.00000E+00 0.00000E+00
 -1       359 0.00000E+00 0.00000E+00 0.00000E+00
 -1       360-1.84394E-02-2.14099E-02-3.95130E-01
 -1       361-7.96357E-03-2.82837E-02-3.91448E-01
 -1       362 0.00000E+00 0.00000E+00 0.00000E+00
 -1       363 1.56862E-03-2.92305E-02-3.85753E-01
 -1       364 1.22961E-02-2.74099E-02-1.70185E-01
 -1       365 0.00000E+00 0.00000E+00 0.00000E+00
 -1       366 1.54645E-02-2.05564E-02-1.66625E-01
 -1       367 1.74376E-02-2.11007E-02-3.88715E-01
 -1       368-2.46325E-02-1.14706E-02-1.74276E-01
 -1       369-2.07407E-02-1.82373E-02-1.81491E-01
 -1       370-1.88629E-02-1.69745E-02-1.76337E-01
 -1       371-2.11932E-02-1.99486E-02-3.92276E-01
 -1       372-2.48221E-02-1.42725E-02-3.91566E-01
 -1       373 0.00000E+00 0.00000E+00 0.00000E+00
 -1       374 0.00000E+00 0.00000E+00 0.00000E+00
 -1       375-2.46181E-02-1.64409E-03-1.69690E-01
 -1       376-2.03053E-02 2.51561E-03-1.66732E-01
 -1       377 0.00000E+00 0.00000E+00 0.00000E+00
 -1       378-2.57173E-02-2.34564E-03-3.84251E-01
 -1       379 0.00000E+00 0.00000E+00 0.00000E+00
 -1       380-2.62038E-02 1.76021E-04-3.82651E-01
 -1       381-2.44949E-02 9.31436E-03-3.78211E-01
 -1       382 0.00000E+00 0.00000E+00 0.00000E+00
 -1       383-1.86514E-02 1.87360E-02-1.65031E-01
 -1       384-2.29387E-02 1.21694E-02-3.78494E-01
 -1       385-2.35917E-02 1.09691E-02-3.79383E-01
 -1       386-2.14533E-02 6.41656E-03-1.65296E-01
 -1       387-1.58004E-02 1.67754E-02-1.62515E-01
 -1       388-2.03083E-02 1.64362E-02-3.80343E-01
 -1       389 0.00000E+00 0.00000E+00 0.00000E+00
 -1       390-2.43268E-03 2.60324E-02-3.87932E-01
 -1       391-3.80238E-05 2.64598E-02-3.91110E-01
 -1       392 0.00000E+00 0.00000E+00 0.00000E+00
 -1       393 0.00000E+00 0.00000E+00 0.00000E+00
 -1       394 1.88977E-02 1.93290E-02-3.95856E-01
 -1       395 2.00559E-02 1.89271E-02-1.76952E-01
 -1       396 1.81925E-02 1.85989E-02-1.76750E-01
 -1       397 0.00000E+00 0.00000E+00 0.00000E+00
 -1       398-2.52620E-02-4.81978E-03-5.82951E-01
 -1       399-2.48436E-02-6.78620E-03-5.83239E-01
 -1       400-2.30615E-02-9.51352E-03-5.87996E-01
 -1       401-1.29916E-02-2.49342E-02-3.92330E-01
 -1       402-1.71999E-02-2.29211E-02-3.95085E-01
 -1       403-1.59492E-02-1.44472E-02-7.64192E-01
 -1       404-2.07953E-02-1.66456E-02-5.87588E-01
 -1       405-2.28701E-02-1.11407E-02-5.91598E-01
 -1       406-1.37770E-02-2.33851E-02-5.86682E-01
 -1       407-1.04890E-02-2.38433E-02-5.89889E-01
 -1       408-4.59228E-03-2.13679E-02-7.65212E-01
 -1       409 4.66751E-04-2.69110E-02-5.90281E-01
 -1       410-4.54727E-03-2.70370E-02-5.87431E-01
 -1       411-7.25552E-03-2.53709E-02-5.91100E-01
 -1       412-1.80279E-03-2.92042E-02-3.88690E-01
 -1       413-9.24056E-04-2.98109E-02-3.90518E-01
 -1       414 2.02600E-03-2.62809E-02-5.90224E-01
 -1       415 3.85601E-03-2.69254E-02-5.84997E-01
 -1       416 7.00172E-03-2.46603E-02-5.86989E-01
 -1       417 2.53880E-02 1.11036E-02-3.91384E-01
 -1       418 2.53768E-02 1.13591E-02-1.73192E-01
 -1       419 1.98883E-02-2.03134E-02-3.89091E-01
 -1       420 1.89425E-02-2.25470E-02-1.67056E-01
 -1       421 0.00000E+00 0.00000E+00 0.00000E+00
 -1       422 2.27879E-02-1.11074E-02-5.91219E-01
 -1       423 2.60625E-02-8.94096E-03-1.76431E-01
 -1       424 2.72278E-02-3.73404E-03-3.86263E-01
 -1       425 2.58665E-02-2.42419E-03-3.87966E-01
 -1       426 2.68647E-02-8.83736E-03-3.88628E-01
 -1       427 2.26718E-02-1.00750E-02-5.90393E-01
 -1       428 2.63607E-02-6.36885E-04-3.88882E-01
 -1       429 2.36463E-02-2.07985E-03-1.70093E-01
 -1       430 0.00000E+00 0.00000E+00 0.00000E+00
 -1       431 0.00000E+00 0.00000E+00 0.00000E+00
 -1       432-1.84960E-02-5.48020E-03-7.65122E-01
 -1       433-1.12147E-02-1.81935E-02-7.66715E-01
 -1       434-4.15697E-03 1.78915E-02-7.69226E-01
 -1       435 4.36389E-03 1.87529E-02-7.68358E-01
 -1       436 3.43544E-03-2.11881E-02-7.67607E-01
 -1       437 1.16201E-02-1.91945E-02-7.67689E-01
 -1       438 1.17191E-02 1.60708E-02-7.70220E-01
 -1       439 1.58902E-02 9.04134E-03-7.70665E-01
 -1       440 0.00000E+00 0.00000E+00 0.00000E+00
 -1       441 0.00000E+00 0.00000E+00 0.00000E+00
 -1       442 0.00000E+00 0.00000E+00 0.00000E+00
 -1       443 0.00000E+00 0.00000E+00 0.00000E+00
 -1       444 0.00000E+00 0.00000E+00 0.00000E+00
 -1       445 0.00000E+00 0.00000E+00 0.00000E+00
 -1       446 0.00000E+00 0.00000E+00 0.00000E+00
 -1       447 0.00000E+00 0.00000E+00 0.00000E+00
 -1       448 0.00000E+00 0.00000E+00 0.00000E+00
 -1       449-7.68116E-02-1.47043E-02-7.62394E-01
 -1       450-7.72330E-02 1.48438E-02-7.60707E-01
 -1       451 1.34225E-01-5.61169E-02-4.86979E-01
 -1       452 1.34728E-01-5.66101E-02-4.88277E-01
 -1       453 5.46579E-02 1.32780E-01-4.90236E-01
 -1       454 5.36336E-02-1.36593E-01-4.84072E-01
 -1       455 1.02357E-01-1.04317E-01-4.86263E-01
 -1       456 1.02126E-01-1.05460E-01-4.88633E-01
 -1       457 1.30786E-01-2.79879E-04-6.77093E-01
 -1       458 1.30402E-01-2.55256E-03-6.77411E-01
 -1       459 1.21337E-01 4.86029E-02-6.78767E-01
 -1       460 1.19587E-01 5.14679E-02-6.79042E-01
 -1       461 5.50916E-02 1.32551E-01-4.91673E-01
 -1       462 1.22514E-01-4.70228E-02-6.79301E-01
 -1       463 1.20524E-01-4.92355E-02-6.75344E-01
 -1       464 5.47370E-02-1.36503E-01-4.84836E-01
 -1       465-5.34639E-02-1.34918E-01-4.87970E-01
 -1       466-5.77929E-02-1.39495E-01-2.83377E-01
 -1       467-5.81938E-02-1.40880E-01-2.83435E-01
 -1       468-4.80406E-02-1.21436E-01-6.75053E-01
 -1       469-5.10190E-02-1.19673E-01-6.74402E-01
 -1       470-5.28854E-02-1.35666E-01-4.90663E-01
 -1       471-9.35146E-02-8.86308E-02-6.73116E-01
 -1       472-9.50902E-02-8.70680E-02-6.78468E-01
 -1       473-1.20003E-01-4.73538E-02-6.72902E-01
 -1       474-1.21304E-01-4.50415E-02-6.76036E-01
 -1       475-1.30510E-01 3.97907E-03-6.72726E-01
 -1       476-1.30207E-01 1.08435E-03-6.70311E-01
 -1       477-1.44146E-01 1.77165E-03-4.83206E-01
 -1       478-1.44800E-01 7.34625E-04-4.82898E-01
 -1       479-1.48662E-01 2.93596E-03-2.75790E-01
 -1       480-1.49194E-01 2.43562E-03-2.73952E-01
 -1       481-5.87879E-02 1.32463E-01-4.78251E-01
 -1       482-1.06695E-01-1.04315E-01-2.84477E-01
 -1       483-1.07451E-01-1.04799E-01-2.86405E-01
 -1       484-1.40494E-01-5.40485E-02-2.80758E-01
 -1       485-1.40034E-01-5.35862E-02-2.83307E-01
 -1       486-1.35171E-01-5.06653E-02-4.83304E-01
 -1       487-1.35968E-01-5.01331E-02-4.92405E-01
 -1       488-1.03407E-01-1.00388E-01-4.88138E-01
 -1       489-1.03544E-01-9.97367E-02-4.93350E-01
 -1       490-6.28056E-02 1.36765E-01-2.70778E-01
 -1       491-6.31234E-02 1.36780E-01-2.74108E-01
 -1       492-5.36294E-02 1.19703E-01-6.74085E-01
 -1       493-5.59831E-02 1.18516E-01-6.76037E-01
 -1       494-1.55934E-03 1.28593E-01-6.74164E-01
 -1       495-3.96894E-03 1.27540E-01-6.77159E-01
 -1       496-3.94082E-03 1.48995E-01-2.80357E-01
 -1       497-4.33274E-03 1.49416E-01-2.82046E-01
 -1       498-1.19944E-01 5.06716E-02-6.72469E-01
 -1       499-1.21833E-01 4.81920E-02-6.71298E-01
 -1       500-1.35164E-01 5.33649E-02-4.77745E-01
 -1       501-1.35504E-01 5.31253E-02-4.80909E-01
 -1       502-1.38565E-01 5.21379E-02-2.67443E-01
 -1       503-1.39411E-01 5.35155E-02-2.70515E-01
 -1       504-9.33794E-02 9.06593E-02-6.69054E-01
 -1       505-9.49031E-02 8.92125E-02-6.70425E-01
 -1       506-1.03622E-01 1.01922E-01-4.77735E-01
 -1       507-1.03835E-01 1.01160E-01-4.80161E-01
 -1       508-1.04288E-01 1.05603E-01-2.69904E-01
 -1       509-1.04764E-01 1.06126E-01-2.70057E-01
 -1       510-5.96426E-02 1.32496E-01-4.84557E-01
 -1       511-2.96694E-03 1.43695E-01-4.89245E-01
 -1       512 5.05418E-02 1.17680E-01-6.76948E-01
 -1       513 4.79822E-02 1.18317E-01-6.77311E-01
 -1       514 5.60056E-02 1.38836E-01-2.82744E-01
 -1       515 5.59421E-02 1.38858E-01-2.83492E-01
 -1       516 4.67334E-03-1.47408E-01-4.84118E-01
 -1       517 3.84861E-03-1.53124E-01-2.78184E-01
 -1       518 3.65568E-03-1.32295E-01-6.76103E-01
 -1       519 1.64321E-03-1.30893E-01-6.74492E-01
 -1       520 3.71916E-03-1.53762E-01-2.77001E-01
 -1       521 5.10751E-02-1.21232E-01-6.75530E-01
 -1       522 4.87857E-02-1.22691E-01-6.74476E-01
 -1       523 6.02956E-02-1.40483E-01-2.78256E-01
 -1       524 6.00539E-02-1.39819E-01-2.76212E-01
 -1       525 5.58962E-03-1.47791E-01-4.91044E-01
 -1       526-2.54823E-03 1.42861E-01-4.88580E-01
 -1       527 9.21887E-02 8.98193E-02-6.79227E-01
 -1       528 9.13968E-02 9.06558E-02-6.81426E-01
 -1       529 9.40127E-02-9.16120E-02-6.76142E-01
 -1       530 9.20150E-02-9.31121E-02-6.73497E-01
 -1       531 1.01443E-01 1.01358E-01-4.91969E-01
 -1       532 1.01241E-01 1.02552E-01-4.93959E-01
 -1       533 1.35169E-01 5.31770E-02-4.89271E-01
 -1       534 1.35185E-01 5.36719E-02-4.89919E-01
 -1       535 1.50774E-01-1.34459E-03-2.76541E-01
 -1       536 1.50689E-01-1.35644E-03-2.76712E-01
 -1       537 1.38347E-01-5.96234E-02-2.79112E-01
 -1       538 1.38818E-01-5.96517E-02-2.80774E-01
 -1       539 1.05674E-01-1.09625E-01-2.76351E-01
 -1       540 1.06191E-01-1.10966E-01-2.77470E-01
 -1       541 1.45546E-01-7.98901E-04-4.87430E-01
 -1       542 1.45528E-01-1.44142E-03-4.89318E-01
 -1       543 1.07278E-01 1.05543E-01-2.84952E-01
 -1       544 1.06996E-01 1.05279E-01-2.85238E-01
 -1       545 1.40013E-01 5.80651E-02-2.80508E-01
 -1       546 1.40442E-01 5.87179E-02-2.81646E-01
 -1       547-8.64096E-02 4.51034E-04-1.70533E-01
 -1       548-8.69769E-02 7.13988E-04-1.68410E-01
 -1       549-7.66040E-02 1.46828E-02-7.56469E-01
 -1       550-2.11785E-02 6.05930E-04-6.76821E-01
 -1       551-8.25153E-02 5.73185E-04-5.81439E-01
 -1       552-8.64233E-02-2.22744E-04-3.81362E-01
 -1       553-2.64485E-02-5.78280E-04-2.73367E-01
 -1       554-2.52430E-02-9.13313E-04-2.75238E-01
 -1       555-8.69746E-02-5.62098E-04-3.83165E-01
 -1       556-8.19162E-02 1.28865E-04-5.83257E-01
 -1       557-2.11832E-02-4.32990E-03-6.80023E-01
 -1       558-7.60341E-02-1.47503E-02-7.58660E-01
 -1       559-8.30403E-02 7.94038E-04-5.80307E-01
 -1       560-8.23145E-02-2.42926E-04-5.83286E-01
 -1       561-8.65387E-02-1.70986E-04-3.81648E-01
 -1       562-8.71705E-02-2.75039E-04-3.83987E-01
 -1       563-2.52879E-02-3.02683E-03-4.87552E-01
 -1       564-2.52858E-02 1.59430E-03-4.84399E-01
 -1       565-6.58382E-02-4.47948E-02-7.63764E-01
 -1       566-8.28044E-02-3.27446E-02-1.76985E-01
 -1       567-8.34023E-02-3.30943E-02-1.76818E-01
 -1       568-2.01854E-02-7.11778E-03-6.79816E-01
 -1       569-7.66322E-02-2.89255E-02-5.85748E-01
 -1       570-8.23787E-02-3.06202E-02-3.88253E-01
 -1       571-2.61539E-02-9.51904E-03-2.82246E-01
 -1       572-2.68195E-02-1.12623E-02-2.84299E-01
 -1       573-8.14968E-02-3.10718E-02-3.90568E-01
 -1       574-7.75355E-02-2.96125E-02-5.88337E-01
 -1       575-1.95123E-02-1.13245E-02-6.84074E-01
 -1       576-6.50619E-02-4.42968E-02-7.59788E-01
 -1       577-7.72649E-02-2.89318E-02-5.83992E-01
 -1       578-7.82347E-02-2.97367E-02-5.90016E-01
 -1       579-8.23654E-02-3.00176E-02-3.86615E-01
 -1       580-8.14121E-02-3.13417E-02-3.92470E-01
 -1       581-2.27121E-02-1.39859E-02-4.94175E-01
 -1       582-2.52884E-02-7.97783E-03-4.88414E-01
 -1       583-4.38322E-02-6.64323E-02-7.63796E-01
 -1       584-6.52170E-02-6.04686E-02-1.81474E-01
 -1       585-6.47205E-02-6.00232E-02-1.79284E-01
 -1       586-5.84508E-02-5.90350E-02-5.87650E-01
 -1       587-1.74369E-02-1.54776E-02-6.80667E-01
 -1       588-6.15547E-02-6.21010E-02-3.92424E-01
 -1       589-1.84585E-02-2.12717E-02-2.85861E-01
 -1       590-1.86860E-02-2.33375E-02-2.86421E-01
 -1       591-6.13031E-02-6.26560E-02-3.94461E-01
 -1       592-5.80384E-02-5.87852E-02-5.90019E-01
 -1       593-1.30195E-02-1.99028E-02-6.83050E-01
 -1       594-4.33738E-02-6.56640E-02-7.59821E-01
 -1       595-5.91609E-02-5.89608E-02-5.86419E-01
 -1       596-5.82931E-02-5.91374E-02-5.90006E-01
 -1       597-6.18783E-02-6.17567E-02-3.91386E-01
 -1       598-6.08363E-02-6.24701E-02-3.95031E-01
 -1       599-1.64035E-02-2.15750E-02-4.95672E-01
 -1       600-1.98751E-02-1.73877E-02-4.93051E-01
 -1       601-1.49758E-02-7.71599E-02-7.64113E-01
 -1       602-3.64779E-02-8.30233E-02-1.77839E-01
 -1       603-3.70350E-02-8.46050E-02-1.76976E-01
 -1       604-3.18716E-02-7.77170E-02-5.87739E-01
 -1       605-1.12464E-02-2.18733E-02-6.82464E-01
 -1       606-3.37191E-02-8.11794E-02-3.91122E-01
 -1       607-1.22801E-02-2.74789E-02-2.86263E-01
 -1       608-1.00607E-02-2.81855E-02-2.85030E-01
 -1       609-3.33268E-02-8.22804E-02-3.91577E-01
 -1       610-3.11377E-02-7.69397E-02-5.87897E-01
 -1       611-5.57471E-03-2.31259E-02-6.81993E-01
 -1       612-1.52792E-02-7.56889E-02-7.60254E-01
 -1       613-3.20116E-02-7.81378E-02-5.88319E-01
 -1       614-3.10110E-02-7.76095E-02-5.87865E-01
 -1       615-3.38285E-02-8.07156E-02-3.91746E-01
 -1       616-3.28130E-02-8.25818E-02-3.91285E-01
 -1       617-5.88348E-03-2.72796E-02-4.93424E-01
 -1       618-1.26240E-02-2.43423E-02-4.92084E-01
 -1       619 1.47032E-02-7.90963E-02-7.64104E-01
 -1       620 1.58024E-03-9.10858E-02-1.71901E-01
 -1       621 1.58386E-03-9.17111E-02-1.69609E-01
 -1       622 2.98740E-03-8.50113E-02-5.88400E-01
 -1       623-2.19436E-03-2.44732E-02-6.85006E-01
 -1       624 2.65919E-03-8.96058E-02-3.87828E-01
 -1       625 4.58334E-05-2.93987E-02-2.78812E-01
 -1       626 1.03996E-03-2.97404E-02-2.76907E-01
 -1       627 3.25235E-03-8.98642E-02-3.86148E-01
 -1       628 2.70620E-03-8.42228E-02-5.86760E-01
 -1       629 1.73111E-03-2.33691E-02-6.80516E-01
 -1       630 1.38341E-02-7.81806E-02-7.60247E-01
 -1       631 3.00225E-03-8.59497E-02-5.89396E-01
 -1       632 3.08129E-03-8.47762E-02-5.84908E-01
 -1       633 2.81984E-03-8.96121E-02-3.89704E-01
 -1       634 3.54381E-03-8.94993E-02-3.85389E-01
 -1       635 2.80985E-03-2.82618E-02-4.88537E-01
 -1       636-2.09059E-03-2.76557E-02-4.92821E-01
 -1       637 4.51620E-02-6.80310E-02-7.65204E-01
 -1       638 3.78434E-02-8.41296E-02-1.72930E-01
 -1       639 3.69648E-02-8.27900E-02-1.70510E-01
 -1       640 3.08254E-02-7.84672E-02-5.84391E-01
 -1       641 5.67552E-03-2.30989E-02-6.80351E-01
 -1       642 3.27501E-02-8.30256E-02-3.85253E-01
 -1       643 1.01539E-02-2.86539E-02-2.79408E-01
 -1       644 1.11535E-02-2.79650E-02-2.77044E-01
 -1       645 3.28959E-02-8.26888E-02-3.85157E-01
 -1       646 3.08744E-02-7.86765E-02-5.84603E-01
 -1       647 9.77820E-03-2.14436E-02-6.82228E-01
 -1       648 4.49467E-02-6.70394E-02-7.60989E-01
 -1       649 3.10616E-02-7.92328E-02-5.84270E-01
 -1       650 3.11004E-02-7.87666E-02-5.85036E-01
 -1       651 3.25551E-02-8.27771E-02-3.85282E-01
 -1       652 3.34220E-02-8.24774E-02-3.85309E-01
 -1       653 1.16736E-02-2.49530E-02-4.89442E-01
 -1       654 6.77713E-03-2.64770E-02-4.86723E-01
 -1       655 6.50216E-02-4.47956E-02-7.65754E-01
 -1       656 5.99361E-02-6.62536E-02-1.67616E-01
 -1       657 6.16526E-02-6.81820E-02-1.67719E-01
 -1       658 5.85836E-02-5.98909E-02-5.86572E-01
 -1       659 1.29225E-02-1.99813E-02-6.83728E-01
 -1       660 6.07789E-02-6.42796E-02-3.86639E-01
 -1       661 1.83459E-02-1.97613E-02-2.75985E-01
 -1       662 1.92990E-02-2.16255E-02-2.77370E-01
 -1       663 6.15958E-02-6.45298E-02-3.87534E-01
 -1       664 5.87017E-02-5.95085E-02-5.87364E-01
 -1       665 1.68655E-02-1.64237E-02-6.79512E-01
 -1       666 6.40286E-02-4.44303E-02-7.61697E-01
 -1       667 5.85680E-02-5.98299E-02-5.86602E-01
 -1       668 5.94170E-02-5.98297E-02-5.87110E-01
 -1       669 6.10762E-02-6.41915E-02-3.86908E-01
 -1       670 6.14629E-02-6.43334E-02-3.88641E-01
 -1       671 1.99771E-02-1.79261E-02-4.91121E-01
 -1       672 1.57405E-02-2.20946E-02-4.92081E-01
 -1       673 7.73954E-02-1.72871E-02-7.66511E-01
 -1       674 8.13526E-02-3.53367E-02-1.76276E-01
 -1       675 8.22076E-02-3.56884E-02-1.76387E-01
 -1       676 1.97924E-02-1.32927E-02-6.85016E-01
 -1       677 7.72096E-02-3.26312E-02-5.88696E-01
 -1       678 8.06087E-02-3.42147E-02-3.88303E-01
 -1       679 2.59131E-02-1.41990E-02-2.81234E-01
 -1       680 2.66698E-02-1.08190E-02-2.81571E-01
 -1       681 8.11558E-02-3.43750E-02-3.88661E-01
 -1       682 7.69604E-02-3.25436E-02-5.88297E-01
 -1       683 2.11443E-02-7.54235E-03-6.82574E-01
 -1       684 7.57156E-02-1.77892E-02-7.62353E-01
 -1       685 7.72581E-02-3.27643E-02-5.88997E-01
 -1       686 7.78563E-02-3.27906E-02-5.87961E-01
 -1       687 8.08351E-02-3.47136E-02-3.88702E-01
 -1       688 8.11105E-02-3.40026E-02-3.88553E-01
 -1       689 2.51027E-02-8.85698E-03-4.90275E-01
 -1       690 2.23462E-02-1.48365E-02-4.92287E-01
 -1       691 7.72837E-02 1.51105E-02-7.67909E-01
 -1       692 8.61843E-02-2.52620E-03-1.71232E-01
 -1       693 8.74965E-02-2.67296E-03-1.69338E-01
 -1       694 2.23393E-02-4.84216E-03-6.85788E-01
 -1       695 8.32135E-02-1.19525E-03-5.88366E-01
 -1       696 8.71030E-02-1.36882E-03-3.86629E-01
 -1       697 2.63974E-02-2.35820E-03-2.76440E-01
 -1       698 2.60202E-02-9.41540E-04-2.75574E-01
 -1       699 8.74271E-02-1.19996E-03-3.87354E-01
 -1       700 8.25355E-02-8.58202E-04-5.88705E-01
 -1       701 2.28989E-02 1.05397E-03-6.80757E-01
 -1       702 7.62018E-02 1.45883E-02-7.63696E-01
 -1       703 8.37971E-02-1.36712E-03-5.88369E-01
 -1       704 8.33121E-02-8.33885E-04-5.88717E-01
 -1       705 8.74439E-02-1.28761E-03-3.87215E-01
 -1       706 8.71847E-02-1.22647E-03-3.88364E-01
 -1       707 2.51882E-02 1.82115E-03-4.91329E-01
 -1       708 2.58096E-02-4.17500E-03-4.92836E-01
 -1       709 6.32784E-02 4.34654E-02-7.67300E-01
 -1       710 8.35103E-02 3.43902E-02-1.73891E-01
 -1       711 8.35346E-02 3.43362E-02-1.73211E-01
 -1       712 2.14582E-02 5.72619E-03-6.85779E-01
 -1       713 7.67848E-02 2.99790E-02-5.90016E-01
 -1       714 8.14903E-02 3.28471E-02-3.91094E-01
 -1       715 2.61730E-02 1.02020E-02-2.82359E-01
 -1       716 2.55909E-02 1.06391E-02-2.81564E-01
 -1       717 8.11563E-02 3.25623E-02-3.91385E-01
 -1       718 7.75856E-02 3.00184E-02-5.90603E-01
 -1       719 1.93203E-02 1.09337E-02-6.84489E-01
 -1       720 6.20890E-02 4.32448E-02-7.63350E-01
 -1       721 7.74847E-02 3.03932E-02-5.89497E-01
 -1       722 7.76199E-02 3.03909E-02-5.90066E-01
 -1       723 8.12022E-02 3.24691E-02-3.90424E-01
 -1       724 8.09291E-02 3.30414E-02-3.91886E-01
 -1       725 2.30337E-02 1.18346E-02-4.94755E-01
 -1       726 2.51336E-02 6.03022E-03-4.91982E-01
 -1       727 4.47145E-02 6.38921E-02-7.67030E-01
 -1       728 6.38692E-02 6.14563E-02-1.77851E-01
 -1       729 6.46490E-02 6.17046E-02-1.78144E-01
 -1       730 1.81104E-02 1.21309E-02-6.86454E-01
 -1       731 5.97048E-02 5.67163E-02-5.91217E-01
 -1       732 6.26511E-02 5.96892E-02-3.93454E-01
 -1       733 2.02364E-02 1.82891E-02-2.85664E-01
 -1       734 6.25580E-02 6.02366E-02-3.94088E-01
 -1       735 2.05457E-02 1.85844E-02-2.85535E-01
 -1       736 4.45418E-02 6.33661E-02-7.63394E-01
 -1       737 5.87119E-02 5.63879E-02-5.91475E-01
 -1       738 1.56261E-02 1.66177E-02-6.86338E-01
 -1       739 5.98691E-02 5.67516E-02-5.90808E-01
 -1       740 5.85025E-02 5.67662E-02-5.90506E-01
 -1       741 6.25699E-02 5.92964E-02-3.93440E-01
 -1       742 6.23915E-02 6.05932E-02-3.95043E-01
 -1       743 1.59514E-02 1.96947E-02-4.97058E-01
 -1       744 2.05131E-02 1.56306E-02-4.95482E-01
 -1       745 1.45383E-02 7.51858E-02-7.65574E-01
 -1       746 3.26497E-02 8.31058E-02-1.76298E-01
 -1       747 3.16503E-02 8.14165E-02-1.75259E-01
 -1       748 1.35984E-02 1.79063E-02-6.85206E-01
 -1       749 3.12443E-02 7.53966E-02-5.90319E-01
 -1       750 3.22669E-02 7.99317E-02-3.91689E-01
 -1       751 1.13359E-02 2.47879E-02-2.84599E-01
 -1       752 3.18156E-02 8.01052E-02-3.91828E-01
 -1       753 1.10702E-02 2.42697E-02-2.82341E-01
 -1       754 1.47377E-02 7.41630E-02-7.61741E-01
 -1       755 3.10975E-02 7.46402E-02-5.90343E-01
 -1       756 4.19554E-03 2.04634E-02-6.84686E-01
 -1       757 3.18355E-02 7.57101E-02-5.89806E-01
 -1       758 3.14763E-02 7.52520E-02-5.90157E-01
 -1       759 3.27330E-02 7.96289E-02-3.91693E-01
 -1       760 3.14835E-02 7.98483E-02-3.91864E-01
 -1       761 7.04412E-03 2.37280E-02-4.94036E-01
 -1       762 1.26720E-02 2.20174E-02-4.95889E-01
 -1       763-1.72022E-02 7.71691E-02-7.65589E-01
 -1       764-3.14134E-03 8.82623E-02-1.75305E-01
 -1       765-2.82765E-03 8.80001E-02-1.73888E-01
 -1       766 3.82583E-03 2.09118E-02-6.83736E-01
 -1       767-1.51649E-03 8.18487E-02-5.88476E-01
 -1       768-3.11346E-03 8.57522E-02-3.89919E-01
 -1       769-1.24721E-03 2.65607E-02-2.82233E-01
 -1       770-3.45948E-03 8.57885E-02-3.89320E-01
 -1       771-1.17483E-03 2.67554E-02-2.80563E-01
 -1       772-1.67427E-02 7.63610E-02-7.61492E-01
 -1       773-1.95080E-03 8.08280E-02-5.87530E-01
 -1       774-1.61786E-03 2.11598E-02-6.79947E-01
 -1       775-1.15424E-03 8.20122E-02-5.88725E-01
 -1       776-2.09642E-03 8.10567E-02-5.86154E-01
 -1       777-2.71749E-03 8.60559E-02-3.90885E-01
 -1       778-3.52316E-03 8.55442E-02-3.88797E-01
 -1       779-3.95611E-03 2.38720E-02-4.90850E-01
 -1       780 3.01984E-03 2.46826E-02-4.95104E-01
 -1       781-4.48362E-02 6.28599E-02-7.63534E-01
 -1       782-3.62810E-02 8.09649E-02-1.67952E-01
 -1       783-3.65509E-02 8.16029E-02-1.65825E-01
 -1       784-7.41863E-03 1.94922E-02-6.84034E-01
 -1       785-3.31537E-02 7.47739E-02-5.83818E-01
 -1       786-3.57969E-02 7.90807E-02-3.83336E-01
 -1       787-1.10757E-02 2.49232E-02-2.74428E-01
 -1       788-3.61459E-02 7.87894E-02-3.80296E-01
 -1       789-1.23070E-02 2.47956E-02-2.71697E-01
 -1       790-4.50870E-02 6.15301E-02-7.59341E-01
 -1       791-3.31656E-02 7.54636E-02-5.81464E-01
 -1       792-9.05257E-03 1.86550E-02-6.78937E-01
 -1       793-3.35355E-02 7.54086E-02-5.84864E-01
 -1       794-3.35815E-02 7.55345E-02-5.79707E-01
 -1       795-3.55056E-02 7.89252E-02-3.84335E-01
 -1       796-3.65124E-02 7.84989E-02-3.79695E-01
 -1       797-1.25798E-02 2.16657E-02-4.84151E-01
 -1       798-6.56453E-03 2.36545E-02-4.86529E-01
 -1       799-6.53358E-02 4.11655E-02-7.61079E-01
 -1       800-6.12298E-02 6.05575E-02-1.64506E-01
 -1       801-6.16144E-02 6.10483E-02-1.64108E-01
 -1       802-1.30298E-02 1.70769E-02-6.77642E-01
 -1       803-5.84571E-02 5.79005E-02-5.80972E-01
 -1       804-5.89956E-02 6.28710E-02-3.77677E-01
 -1       805-1.80416E-02 1.85937E-02-2.70075E-01
 -1       806-5.99376E-02 6.23224E-02-3.78353E-01
 -1       807-1.86923E-02 1.78192E-02-2.70751E-01
 -1       808-6.44181E-02 4.07377E-02-7.56982E-01
 -1       809-5.83201E-02 5.74191E-02-5.80818E-01
 -1       810-1.67919E-02 1.30232E-02-6.75203E-01
 -1       811-5.89139E-02 5.84822E-02-5.81236E-01
 -1       812-5.88275E-02 5.74691E-02-5.79497E-01
 -1       813-5.84156E-02 6.27187E-02-3.77746E-01
 -1       814-6.05266E-02 6.23394E-02-3.78423E-01
 -1       815-1.96851E-02 1.47618E-02-4.82478E-01
 -1       816-1.49830E-02 1.88580E-02-4.81710E-01
 -1       817-8.05562E-02 2.76618E-02-1.63830E-01
 -1       818-8.19964E-02 2.86628E-02-1.66465E-01
 -1       819-1.92251E-02 8.26096E-03-6.79990E-01
 -1       820-7.74852E-02 2.99875E-02-5.80712E-01
 -1       821-8.00177E-02 3.26742E-02-3.77962E-01
 -1       822-2.42304E-02 1.20827E-02-2.71462E-01
 -1       823-2.30688E-02 7.14766E-03-2.68141E-01
 -1       824-8.04778E-02 3.25575E-02-3.77587E-01
 -1       825-7.70243E-02 2.93635E-02-5.80494E-01
 -1       826-2.03263E-02 4.32525E-03-6.77879E-01
 -1       827-7.78752E-02 3.04801E-02-5.80271E-01
 -1       828-7.75053E-02 2.91334E-02-5.79536E-01
 -1       829-7.99779E-02 3.25460E-02-3.79247E-01
 -1       830-8.07597E-02 3.24545E-02-3.77789E-01
 -1       831-2.43706E-02 6.39444E-03-4.81824E-01
 -1       832-2.19125E-02 1.11507E-02-4.82404E-01
 -1       833 0.00000E+00 0.00000E+00 0.00000E+00
 -1       834 0.00000E+00 0.00000E+00 0.00000E+00
 -1       835 0.00000E+00 0.00000E+00 0.00000E+00
 -1       836 0.00000E+00 0.00000E+00 0.00000E+00
 -1       837 0.00000E+00 0.00000E+00 0.00000E+00
 -1       838 0.00000E+00 0.00000E+00 0.00000E+00
 -1       839 0.00000E+00 0.00000E+00 0.00000E+00
 -1       840 0.00000E+00 0.00000E+00 0.00000E+00
 -1       841 0.00000E+00 0.00000E+00 0.00000E+00
 -1       842 0.00000E+00 0.00000E+00 0.00000E+00
 -1       843 0.00000E+00 0.00000E+00 0.00000E+00
 -1       844 0.00000E+00 0.00000E+00 0.00000E+00
 -1       845 0.00000E+00 0.00000E+00 0.00000E+00
 -1       846 0.00000E+00 0.00000E+00 0.00000E+00
 -1       847 0.00000E+00 0.00000E+00 0.00000E+00
 -1       848 0.00000E+00 0.00000E+00 0.00000E+00
 -1       849 0.00000E+00 0.00000E+00 0.00000E+00
 -1       850 0.00000E+00 0.00000E+00 0.00000E+00
 -1       851 0.00000E+00 0.00000E+00 0.00000E+00
 -1       852 0.00000E+00 0.00000E+00 0.00000E+00
 -1       853 0.00000E+00 0.00000E+00 0.00000E+00
 -1       854 0.00000E+00 0.00000E+00 0.00000E+00
 -1       855 0.00000E+00 0.00000E+00 0.00000E+00
 -1       856 0.00000E+00 0.00000E+00 0.00000E+00
 -1       857 0.00000E+00 0.00000E+00 0.00000E+00
 -1       858 0.00000E+00 0.00000E+00 0.00000E+00
 -1       859 0.00000E+00 0.00000E+00 0.00000E+00
 -1       860 0.00000E+00 0.00000E+00 0.00000E+00
 -1       861 0.00000E+00 0.00000E+00 0.00000E+00
 -1       862 0.00000E+00 0.00000E+00 0.00000E+00
 -1       863 0.00000E+00 0.00000E+00 0.00000E+00
 -1       864 0.00000E+00 0.00000E+00 0.00000E+00
 -1       865 0.00000E+00 0.00000E+00 0.00000E+00
 -1       866 0.00000E+00 0.00000E+00 0.00000E+00
 -1       867 0.00000E+00 0.00000E+00 0.00000E+00
 -1       868 0.00000E+00 0.00000E+00 0.00000E+00
 -1       869 0.00000E+00 0.00000E+00 0.00000E+00
 -1       870 0.00000E+00 0.00000E+00 0.00000E+00
 -1       871 0.00000E+00 0.00000E+00 0.00000E+00
 -1       872 0.00000E+00 0.00000E+00 0.00000E+00
 -1       873 0.00000E+00 0.00000E+00 0.00000E+00
 -1       874 0.00000E+00 0.00000E+00 0.00000E+00
 -1       875 0.00000E+00 0.00000E+00 0.00000E+00
 -1       876 0.00000E+00 0.00000E+00 0.00000E+00
 -1       877 0.00000E+00 0.00000E+00 0.00000E+00
 -1       878 0.00000E+00 0.00000E+00 0.00000E+00
 -1       879 0.00000E+00 0.00000E+00 0.00000E+00
 -1       880 0.00000E+00 0.00000E+00 0.00000E+00
 -1       881 0.00000E+00 0.00000E+00 0.00000E+00
 -1       882 0.00000E+00 0.00000E+00 0.00000E+00
 -1       883 0.00000E+00 0.00000E+00 0.00000E+00
 -1       884 0.00000E+00 0.00000E+00 0.00000E+00
 -1       885 0.00000E+00 0.00000E+00 0.00000E+00
 -1       886 0.00000E+00 0.00000E+00 0.00000E+00
 -1       887 0.00000E+00 0.00000E+00 0.00000E+00
 -1       888 0.00000E+00 0.00000E+00 0.00000E+00
 -1       889 0.00000E+00 0.00000E+00 0.00000E+00
 -1       890 0.00000E+00 0.00000E+00 0.00000E+00
 -1       891 0.00000E+00 0.00000E+00 0.00000E+00
 -1       892 0.00000E+00 0.00000E+00 0.00000E+00
 -1       893 0.00000E+00 0.00000E+00 0.00000E+00
 -1       894 0.00000E+00 0.00000E+00 0.00000E+00
 -1       895 0.00000E+00 0.00000E+00 0.00000E+00
 -1       896 0.00000E+00 0.00000E+00 0.00000E+00
 -1       897 5.42326E-02 1.34560E-01-4.40544E-01
 -1       898 1.03474E-01-1.05104E-01-4.36084E-01
 -1       899 1.35551E-01 1.83313E-04-6.31790E-01
 -1       900 1.23788E-01-1.12075E-03-7.18221E-01
 -1       901 1.24699E-01 5.16249E-02-6.34788E-01
 -1       902 5.52413E-02 1.30155E-01-5.40443E-01
 -1       903 5.62259E-02-1.37584E-01-4.34624E-01
 -1       904-5.70227E-02-1.39362E-01-3.36717E-01
 -1       905-5.34682E-02-1.36552E-01-4.41112E-01
 -1       906-9.67612E-02-9.31428E-02-6.29720E-01
 -1       907-8.93081E-02-8.36958E-02-7.18422E-01
 -1       908-1.14922E-01-4.29346E-02-7.17515E-01
 -1       909-1.35369E-01 1.66065E-03-6.25122E-01
 -1       910-1.42338E-01 2.51691E-03-5.32573E-01
 -1       911-1.48336E-01 2.21111E-03-3.28676E-01
 -1       912-1.49135E-01 2.64154E-03-2.20306E-01
 -1       913-5.78853E-02 1.31642E-01-5.28789E-01
 -1       914-1.39959E-01-5.42810E-02-2.28013E-01
 -1       915-1.37505E-01-4.98783E-02-4.42273E-01
 -1       916-1.34906E-01-4.86277E-02-5.40884E-01
 -1       917-1.02460E-01-9.82980E-02-5.41578E-01
 -1       918-5.77586E-02 1.23033E-01-6.29064E-01
 -1       919-2.84375E-03 1.23589E-01-7.16688E-01
 -1       920-4.37590E-03 1.49574E-01-2.28257E-01
 -1       921-1.27061E-01 5.01382E-02-6.24414E-01
 -1       922-1.38096E-01 5.40884E-02-3.22740E-01
 -1       923-1.39902E-01 5.15510E-02-2.18507E-01
 -1       924-8.94566E-02 8.57864E-02-7.11948E-01
 -1       925-9.78940E-02 9.36495E-02-6.26041E-01
 -1       926-1.03568E-01 1.05817E-01-3.22965E-01
 -1       927-1.04713E-01 1.05526E-01-2.16238E-01
 -1       928-5.97476E-02 1.30290E-01-5.34307E-01
 -1       929-6.13040E-02 1.33314E-01-4.34172E-01
 -1       930-4.28024E-03 1.45042E-01-4.39463E-01
 -1       931 4.26224E-03-1.37553E-01-6.31050E-01
 -1       932-1.46529E-04-1.24988E-01-7.17161E-01
 -1       933 1.02354E-01 1.03255E-01-4.43480E-01
 -1       934 1.38080E-01-5.88320E-02-3.33906E-01
 -1       935 1.04767E-01-1.10411E-01-2.21629E-01
 -1       936 1.46736E-01-3.89524E-04-4.36752E-01
 -1       937 1.06482E-01 1.04312E-01-3.38506E-01
 -1       938 1.07428E-01 1.04992E-01-2.31022E-01
 -1       939 1.40600E-01 5.89222E-02-2.27492E-01
 -1       940-2.25119E-02-7.28937E-04-6.31971E-01
 -1       941-2.59100E-02 3.64212E-04-3.27832E-01
 -1       942-2.62951E-02-1.63001E-03-2.18793E-01
 -1       943-2.67600E-02-2.49145E-04-3.29654E-01
 -1       944-2.05384E-02-5.85118E-03-7.22522E-01
 -1       945-2.57775E-02-3.57347E-03-4.36338E-01
 -1       946-2.47157E-02-3.76983E-03-5.36502E-01
 -1       947-2.48021E-02 1.89571E-03-5.33870E-01
 -1       948-2.60225E-02 4.91342E-04-4.33427E-01
 -1       949-2.63518E-02-1.18935E-02-3.35001E-01
 -1       950-2.69863E-02-9.84700E-03-2.28471E-01
 -1       951-2.56977E-02-1.19577E-02-3.38763E-01
 -1       952-1.81836E-02-1.25095E-02-7.26241E-01
 -1       953-2.43220E-02-1.32148E-02-4.44217E-01
 -1       954-2.24613E-02-1.30803E-02-5.43039E-01
 -1       955-2.45923E-02-7.18495E-03-5.37842E-01
 -1       956-2.62614E-02-7.84567E-03-4.38647E-01
 -1       957-1.66150E-02-1.82976E-02-6.38394E-01
 -1       958-1.94777E-02-2.11753E-02-3.40753E-01
 -1       959-2.05272E-02-1.78587E-02-2.31338E-01
 -1       960-1.81600E-02-2.23705E-02-3.40548E-01
 -1       961-1.31973E-02-1.88125E-02-7.26031E-01
 -1       962-1.64241E-02-2.25073E-02-4.46339E-01
 -1       963-1.55384E-02-2.15913E-02-5.43669E-01
 -1       964-1.91010E-02-1.74978E-02-5.41005E-01
 -1       965-2.01986E-02-1.89006E-02-4.43590E-01
 -1       966-9.38295E-03-2.31942E-02-6.36386E-01
 -1       967-1.28770E-02-2.62200E-02-2.32029E-01
 -1       968-9.96850E-03-2.76911E-02-3.40701E-01
 -1       969-6.27413E-03-2.27677E-02-7.23841E-01
 -1       970-7.45854E-03-2.78174E-02-4.44023E-01
 -1       971-6.38451E-03-2.60871E-02-5.41850E-01
 -1       972-1.25572E-02-2.35790E-02-5.41918E-01
 -1       973-1.30553E-02-2.49661E-02-4.42536E-01
 -1       974-7.26055E-06-2.57555E-02-6.38771E-01
 -1       975 1.15638E-03-2.98099E-02-2.23500E-01
 -1       976 1.18865E-03-3.02778E-02-3.33903E-01
 -1       977 2.08024E-03-2.21723E-02-7.22089E-01
 -1       978 3.50905E-03-2.82283E-02-4.37191E-01
 -1       979 2.76092E-03-2.72433E-02-5.38029E-01
 -1       980-1.50023E-03-2.73059E-02-5.42121E-01
 -1       981-1.60617E-03-2.86916E-02-4.41816E-01
 -1       982 7.54738E-03-2.39701E-02-6.34416E-01
 -1       983 1.07273E-02-2.76934E-02-3.33434E-01
 -1       984 1.26504E-02-2.89857E-02-2.24248E-01
 -1       985 1.18968E-02-2.71631E-02-3.32286E-01
 -1       986 1.09699E-02-2.07815E-02-7.23826E-01
 -1       987 1.26321E-02-2.52693E-02-4.38852E-01
 -1       988 1.17169E-02-2.39643E-02-5.38744E-01
 -1       989 7.01674E-03-2.59981E-02-5.35734E-01
 -1       990 7.04448E-03-2.74522E-02-4.36271E-01
 -1       991 1.50319E-02-1.95665E-02-6.35893E-01
 -1       992 1.79409E-02-1.95651E-02-2.20585E-01
 -1       993 1.96018E-02-2.05742E-02-3.33446E-01
 -1       994 1.70486E-02-1.49764E-02-7.23742E-01
 -1       995 2.01968E-02-1.87901E-02-4.40055E-01
 -1       996 2.03427E-02-1.69963E-02-5.39870E-01
 -1       997 1.53016E-02-2.16672E-02-5.40728E-01
 -1       998 1.51986E-02-2.28315E-02-4.40523E-01
 -1       999 2.14650E-02-1.12608E-02-6.41022E-01
 -1      1000 2.61934E-02-1.14619E-02-2.26302E-01
 -1      1001 2.61708E-02-1.14944E-02-3.36580E-01
 -1      1002 2.10413E-02-6.91382E-03-7.26406E-01
 -1      1003 2.58234E-02-9.72983E-03-4.40300E-01
 -1      1004 2.45446E-02-8.71507E-03-5.39724E-01
 -1      1005 2.16931E-02-1.43398E-02-5.42195E-01
 -1      1006 2.39049E-02-1.44261E-02-4.41761E-01
 -1      1007 2.37045E-02-2.34257E-03-6.39997E-01
 -1      1008 2.55556E-02-2.48314E-03-2.20354E-01
 -1      1009 2.62572E-02-1.20802E-03-3.33114E-01
 -1      1010 2.16058E-02 1.09267E-03-7.24721E-01
 -1      1011 2.58166E-02 1.24443E-03-4.39680E-01
 -1      1012 2.50179E-02 1.76177E-03-5.41056E-01
 -1      1013 2.56001E-02-4.52259E-03-5.42034E-01
 -1      1014 2.65663E-02-4.09297E-03-4.40792E-01
 -1      1015 2.30833E-02 7.12793E-03-6.41217E-01
 -1      1016 2.67349E-02 1.03613E-02-2.26878E-01
 -1      1017 2.62661E-02 1.06789E-02-3.37589E-01
 -1      1018 1.93250E-02 8.87540E-03-7.29720E-01
 -1      1019 2.37714E-02 1.25742E-02-4.45047E-01
 -1      1020 2.23277E-02 1.13589E-02-5.44807E-01
 -1      1021 2.45836E-02 6.09383E-03-5.41243E-01
 -1      1022 2.57298E-02 7.37296E-03-4.42058E-01
 -1      1023 1.80641E-02 1.49776E-02-6.41712E-01
 -1      1024 1.98314E-02 1.83384E-02-3.41015E-01
 -1      1025 2.09361E-02 1.77092E-02-2.31222E-01
 -1      1026 1.94184E-02 1.89095E-02-3.41152E-01
 -1      1027 1.45319E-02 1.66608E-02-7.28209E-01
 -1      1028 1.77015E-02 1.95925E-02-4.46846E-01
 -1      1029 1.60697E-02 1.85810E-02-5.45210E-01
 -1      1030 2.03127E-02 1.44142E-02-5.45043E-01
 -1      1031 2.13186E-02 1.54074E-02-4.45435E-01
 -1      1032 9.68056E-03 1.96816E-02-6.40387E-01
 -1      1033 1.12388E-02 2.50294E-02-2.30885E-01
 -1      1034 9.06598E-03 2.50981E-02-3.38459E-01
 -1      1035 6.89328E-03 1.98153E-02-7.26232E-01
 -1      1036 6.76847E-03 2.44141E-02-4.43499E-01
 -1      1037 6.93562E-03 2.31793E-02-5.42472E-01
 -1      1038 1.24579E-02 2.11960E-02-5.44563E-01
 -1      1039 1.23896E-02 2.28960E-02-4.44486E-01
 -1      1040 5.20604E-04 2.30385E-02-6.37724E-01
 -1      1041-1.13976E-03 2.62213E-02-3.37500E-01
 -1      1042-1.48420E-03 2.70784E-02-2.27458E-01
 -1      1043-2.65363E-03 2.65899E-02-3.36500E-01
 -1      1044-1.04451E-03 2.07468E-02-7.24758E-01
 -1      1045-4.38546E-03 2.46484E-02-4.40925E-01
 -1      1046-3.73224E-03 2.31781E-02-5.39822E-01
 -1      1047 2.99312E-03 2.42257E-02-5.43693E-01
 -1      1048 1.87809E-03 2.52904E-02-4.44338E-01
 -1      1049-6.20711E-03 2.10953E-02-6.36477E-01
 -1      1050-1.17698E-02 2.53482E-02-2.19452E-01
 -1      1051-1.12525E-02 2.47567E-02-3.27605E-01
 -1      1052-1.10556E-02 1.73592E-02-7.22762E-01
 -1      1053-1.39845E-02 2.16334E-02-4.33356E-01
 -1      1054-1.22137E-02 2.09931E-02-5.34066E-01
 -1      1055-6.55504E-03 2.27578E-02-5.36128E-01
 -1      1056-7.24185E-03 2.41722E-02-4.36101E-01
 -1      1057-1.66028E-02 2.01222E-02-3.24459E-01
 -1      1058-1.82351E-02 1.80169E-02-2.15244E-01
 -1      1059-1.84154E-02 1.81121E-02-3.26184E-01
 -1      1060-1.76033E-02 1.12802E-02-7.21306E-01
 -1      1061-1.92540E-02 1.67711E-02-4.31609E-01
 -1      1062-1.89015E-02 1.45585E-02-5.32378E-01
 -1      1063-1.47091E-02 1.81308E-02-5.32815E-01
 -1      1064-1.40924E-02 2.03449E-02-4.30942E-01
 -1      1065-2.44369E-02 1.06191E-02-3.25345E-01
 -1      1066-2.44139E-02 9.62109E-03-2.18403E-01
 -1      1067-2.41269E-02 1.00442E-02-3.24176E-01
 -1      1068-1.97164E-02 3.86260E-03-7.18634E-01
 -1      1069-2.46936E-02 7.71254E-03-4.30773E-01
 -1      1070-2.37753E-02 5.74582E-03-5.32134E-01
 -1      1071-2.18267E-02 1.02913E-02-5.32568E-01
 -1      1072-2.29286E-02 1.12823E-02-4.31189E-01
 -1      1073 0.00000E+00 0.00000E+00 0.00000E+00
 -1      1074 0.00000E+00 0.00000E+00 0.00000E+00
 -1      1075 0.00000E+00 0.00000E+00 0.00000E+00
 -1      1076 0.00000E+00 0.00000E+00 0.00000E+00
 -1      1077 0.00000E+00 0.00000E+00 0.00000E+00
 -1      1078 0.00000E+00 0.00000E+00 0.00000E+00
 -1      1079 0.00000E+00 0.00000E+00 0.00000E+00
 -1      1080 0.00000E+00 0.00000E+00 0.00000E+00
 -1      1081 0.00000E+00 0.00000E+00 0.00000E+00
 -1      1082 0.00000E+00 0.00000E+00 0.00000E+00
 -1      1083 0.00000E+00 0.00000E+00 0.00000E+00
 -1      1084 0.00000E+00 0.00000E+00 0.00000E+00
 -1      1085 0.00000E+00 0.00000E+00 0.00000E+00
 -1      1086 0.00000E+00 0.00000E+00 0.00000E+00
 -1      1087 0.00000E+00 0.00000E+00 0.00000E+00
 -1      1088 0.00000E+00 0.00000E+00 0.00000E+00
 -1      1089 0.00000E+00 0.00000E+00 0.00000E+00
 -1      1090 0.00000E+00 0.00000E+00 0.00000E+00
 -1      1091 0.00000E+00 0.00000E+00 0.00000E+00
 -1      1092 0.00000E+00 0.00000E+00 0.00000E+00
 -1      1093 0.00000E+00 0.00000E+00 0.00000E+00
 -1      1094 0.00000E+00 0.00000E+00 0.00000E+00
 -1      1095 0.00000E+00 0.00000E+00 0.00000E+00
 -1      1096 0.00000E+00 0.00000E+00 0.00000E+00
 -1      1097 0.00000E+00 0.00000E+00 0.00000E+00
 -1      1098 0.00000E+00 0.00000E+00 0.00000E+00
 -1      1099 0.00000E+00 0.00000E+00 0.00000E+00
 -1      1100 0.00000E+00 0.00000E+00 0.00000E+00
 -1      1101 0.00000E+00 0.00000E+00 0.00000E+00
 -1      1102 0.00000E+00 0.00000E+00 0.00000E+00
 -1      1103 0.00000E+00 0.00000E+00 0.00000E+00
 -1      1104 0.00000E+00 0.00000E+00 0.00000E+00
 -1      1105 0.00000E+00 0.00000E+00 0.00000E+00
 -1      1106 0.00000E+00 0.00000E+00 0.00000E+00
 -1      1107 0.00000E+00 0.00000E+00 0.00000E+00
 -1      1108 0.00000E+00 0.00000E+00 0.00000E+00
 -1      1109 0.00000E+00 0.00000E+00 0.00000E+00
 -1      1110 0.00000E+00 0.00000E+00 0.00000E+00
 -1      1111 0.00000E+00 0.00000E+00 0.00000E+00
 -1      1112 0.00000E+00 0.00000E+00 0.00000E+00
 -1      1113 0.00000E+00 0.00000E+00 0.00000E+00
 -1      1114 0.00000E+00 0.00000E+00 0.00000E+00
 -1      1115 0.00000E+00 0.00000E+00 0.00000E+00
 -1      1116 0.00000E+00 0.00000E+00 0.00000E+00
 -1      1117 0.00000E+00 0.00000E+00 0.00000E+00
 -1      1118 0.00000E+00 0.00000E+00 0.00000E+00
 -1      1119 0.00000E+00 0.00000E+00 0.00000E+00
 -1      1120 0.00000E+00 0.00000E+00 0.00000E+00
 -1      1121 0.00000E+00 0.00000E+00 0.00000E+00
 -1      1122 0.00000E+00 0.00000E+00 0.00000E+00
 -1      1123 0.00000E+00 0.00000E+00 0.00000E+00
 -1      1124 0.00000E+00 0.00000E+00 0.00000E+00
 -1      1125 0.00000E+00 0.00000E+00 0.00000E+00
 -1      1126 0.00000E+00 0.00000E+00 0.00000E+00
 -1      1127 0.00000E+00 0.00000E+00 0.00000E+00
 -1      1128 0.00000E+00 0.00000E+00 0.00000E+00
 -1      1129 0.00000E+00 0.00000E+00 0.00000E+00
 -1      1130 0.00000E+00 0.00000E+00 0.00000E+00
 -1      1131 1.35501E-01-5.59172E-02-4.37381E-01
 -1      1132 1.33720E-01-5.49463E-02-5.37515E-01
 -1      1133 1.32679E-01-5.65493E-02-5.37672E-01
 -1      1134 1.35770E-01-5.76891E-02-4.38092E-01
 -1      1135 5.35897E-02 1.31747E-01-5.39680E-01
 -1      1136 5.29070E-02-1.35650E-01-5.34030E-01
 -1      1137 5.39341E-02-1.37698E-01-4.34427E-01
 -1      1138 1.02052E-01-1.02468E-01-5.36153E-01
 -1      1139 1.00220E-01-1.04118E-01-5.37237E-01
 -1      1140 1.02829E-01-1.07472E-01-4.37634E-01
 -1      1141 1.24143E-01 9.14412E-04-7.19204E-01
 -1      1142 1.35396E-01-1.32269E-03-6.32560E-01
 -1      1143 1.15493E-01 4.73574E-02-7.20738E-01
 -1      1144 1.27121E-01 5.04754E-02-6.35171E-01
 -1      1145 1.14731E-01 4.96814E-02-7.21401E-01
 -1      1146 5.58784E-02 1.33961E-01-4.41356E-01
 -1      1147 1.12876E-01-4.78573E-02-7.17959E-01
 -1      1148 1.26895E-01-5.03363E-02-6.34980E-01
 -1      1149 1.16478E-01-4.77017E-02-7.19300E-01
 -1      1150 1.25956E-01-5.13413E-02-6.31660E-01
 -1      1151 5.48248E-02-1.34219E-01-5.33948E-01
 -1      1152-5.41153E-02-1.32480E-01-5.36779E-01
 -1      1153-5.51439E-02-1.36008E-01-4.38343E-01
 -1      1154-5.86915E-02-1.39769E-01-2.30829E-01
 -1      1155-5.63749E-02-1.38383E-01-3.37066E-01
 -1      1156-5.91483E-02-1.41083E-01-2.30198E-01
 -1      1157-4.74415E-02-1.16259E-01-7.16815E-01
 -1      1158-5.14724E-02-1.26922E-01-6.31745E-01
 -1      1159-4.59313E-02-1.16659E-01-7.17535E-01
 -1      1160-5.23788E-02-1.24574E-01-6.31250E-01
 -1      1161-5.23768E-02-1.34516E-01-5.39100E-01
 -1      1162-8.76377E-02-8.52640E-02-7.14832E-01
 -1      1163-9.74926E-02-9.20690E-02-6.34792E-01
 -1      1164-1.24898E-01-4.78683E-02-6.28690E-01
 -1      1165-1.14386E-01-4.39306E-02-7.14019E-01
 -1      1166-1.27364E-01-4.70505E-02-6.32392E-01
 -1      1167-1.26085E-01 2.62952E-03-7.14628E-01
 -1      1168-1.35042E-01 2.92982E-03-6.27801E-01
 -1      1169-1.24506E-01 7.38555E-04-7.12774E-01
 -1      1170-1.45544E-01 1.93625E-03-4.32787E-01
 -1      1171-1.46235E-01-4.74335E-05-4.31575E-01
 -1      1172-1.43128E-01 9.18208E-05-5.31489E-01
 -1      1173-1.48430E-01 2.68225E-03-2.22810E-01
 -1      1174-1.48446E-01 1.81335E-03-3.27522E-01
 -1      1175-5.91503E-02 1.33488E-01-4.28474E-01
 -1      1176-1.07731E-01-1.03287E-01-2.31868E-01
 -1      1177-1.05396E-01-1.04430E-01-3.38054E-01
 -1      1178-1.05509E-01-1.04818E-01-3.38312E-01
 -1      1179-1.08465E-01-1.04215E-01-2.33557E-01
 -1      1180-1.39954E-01-5.33813E-02-3.33826E-01
 -1      1181-1.39208E-01-5.22373E-02-3.36330E-01
 -1      1182-1.39832E-01-5.42636E-02-2.29893E-01
 -1      1183-1.36490E-01-5.12597E-02-4.33602E-01
 -1      1184-1.33172E-01-5.05491E-02-5.32667E-01
 -1      1185-1.04571E-01-1.01060E-01-4.43723E-01
 -1      1186-1.03676E-01-1.02106E-01-4.39358E-01
 -1      1187-1.01460E-01-1.00066E-01-5.36915E-01
 -1      1188-6.19050E-02 1.35665E-01-3.25080E-01
 -1      1189-6.23601E-02 1.37148E-01-2.18313E-01
 -1      1190-6.25564E-02 1.36773E-01-2.20521E-01
 -1      1191-6.22525E-02 1.35751E-01-3.27775E-01
 -1      1192-5.21490E-02 1.13359E-01-7.15118E-01
 -1      1193-5.67313E-02 1.23959E-01-6.26820E-01
 -1      1194-5.34795E-02 1.11293E-01-7.18816E-01
 -1      1195-1.62165E-03 1.33693E-01-6.30612E-01
 -1      1196-4.07061E-03 1.47968E-01-3.33630E-01
 -1      1197-3.60646E-03 1.33287E-01-6.33451E-01
 -1      1198-3.60756E-03 1.21689E-01-7.18822E-01
 -1      1199-4.04389E-03 1.49313E-01-2.26875E-01
 -1      1200-4.51179E-03 1.48220E-01-3.35689E-01
 -1      1201-1.15797E-01 4.61475E-02-7.11596E-01
 -1      1202-1.24722E-01 5.10844E-02-6.26028E-01
 -1      1203-1.16594E-01 4.47927E-02-7.14117E-01
 -1      1204-1.33338E-01 5.31116E-02-5.28000E-01
 -1      1205-1.36011E-01 5.46168E-02-4.26515E-01
 -1      1206-1.36495E-01 5.34846E-02-4.29653E-01
 -1      1207-1.34595E-01 5.18564E-02-5.30572E-01
 -1      1208-1.38444E-01 5.07285E-02-2.15427E-01
 -1      1209-1.38246E-01 5.43024E-02-3.23816E-01
 -1      1210-9.72804E-02 9.57755E-02-6.26054E-01
 -1      1211-9.12353E-02 8.52440E-02-7.14562E-01
 -1      1212-1.01713E-01 1.01248E-01-5.28226E-01
 -1      1213-1.03223E-01 1.04145E-01-4.27119E-01
 -1      1214-1.03799E-01 1.02642E-01-4.28803E-01
 -1      1215-1.03360E-01 1.00108E-01-5.30458E-01
 -1      1216-1.04260E-01 1.05149E-01-2.16901E-01
 -1      1217-1.04185E-01 1.05980E-01-3.23613E-01
 -1      1218-3.63196E-03 1.42145E-01-5.38673E-01
 -1      1219 5.11054E-02 1.24042E-01-6.34900E-01
 -1      1220 4.77247E-02 1.10687E-01-7.19086E-01
 -1      1221 5.20027E-02 1.22364E-01-6.33879E-01
 -1      1222 4.62640E-02 1.12284E-01-7.18350E-01
 -1      1223 5.57832E-02 1.39964E-01-2.30032E-01
 -1      1224 5.62171E-02 1.37726E-01-3.36993E-01
 -1      1225 5.52391E-02 1.39090E-01-2.28515E-01
 -1      1226 5.54998E-02 1.37761E-01-3.36686E-01
 -1      1227 3.90060E-03-1.45217E-01-5.33842E-01
 -1      1228 4.15905E-03-1.48893E-01-4.33742E-01
 -1      1229 3.50742E-03-1.52956E-01-2.24542E-01
 -1      1230 4.20278E-03-1.52096E-01-3.32319E-01
 -1      1231 2.28570E-04-1.25052E-01-7.15273E-01
 -1      1232 2.76005E-03-1.36641E-01-6.30898E-01
 -1      1233 4.22079E-03-1.52311E-01-3.30953E-01
 -1      1234 3.32496E-03-1.53577E-01-2.22905E-01
 -1      1235 6.22401E-03-1.49330E-01-4.39736E-01
 -1      1236 5.18106E-02-1.25757E-01-6.29889E-01
 -1      1237 4.81422E-02-1.15566E-01-7.16988E-01
 -1      1238 4.58733E-02-1.16735E-01-7.17143E-01
 -1      1239 5.07313E-02-1.28003E-01-6.28794E-01
 -1      1240 6.16743E-02-1.40087E-01-2.24959E-01
 -1      1241 5.92738E-02-1.39936E-01-3.31479E-01
 -1      1242 5.83690E-02-1.39295E-01-3.29629E-01
 -1      1243 6.06330E-02-1.38677E-01-2.22798E-01
 -1      1244 6.40680E-03-1.46089E-01-5.39866E-01
 -1      1245 1.00392E-01 1.01357E-01-5.42383E-01
 -1      1246-1.81766E-03 1.40908E-01-5.37033E-01
 -1      1247-2.64076E-03 1.44531E-01-4.38185E-01
 -1      1248 8.76036E-02-8.85778E-02-7.16493E-01
 -1      1249 9.42416E-02 9.40934E-02-6.35403E-01
 -1      1250 8.79914E-02 8.61964E-02-7.18820E-01
 -1      1251 9.54553E-02 9.28316E-02-6.33755E-01
 -1      1252 8.62124E-02 8.68999E-02-7.19443E-01
 -1      1253 9.71267E-02-9.57637E-02-6.31482E-01
 -1      1254 8.92100E-02-8.74767E-02-7.18016E-01
 -1      1255 9.61104E-02-9.70579E-02-6.29426E-01
 -1      1256 1.00993E-01 9.85510E-02-5.40437E-01
 -1      1257 1.03739E-01 1.01667E-01-4.42081E-01
 -1      1258 1.34380E-01 5.22897E-02-5.39548E-01
 -1      1259 1.36314E-01 5.34729E-02-4.40143E-01
 -1      1260 1.37859E-01-5.94913E-02-2.27297E-01
 -1      1261 1.36192E-01 5.53803E-02-4.40052E-01
 -1      1262 1.32897E-01 5.38274E-02-5.39328E-01
 -1      1263 1.49435E-01-1.25144E-03-2.23390E-01
 -1      1264 1.49940E-01-1.38378E-03-3.31215E-01
 -1      1265 1.50072E-01-1.74146E-03-3.31851E-01
 -1      1266 1.49763E-01-1.12900E-03-2.22227E-01
 -1      1267 1.37609E-01-5.84691E-02-3.33903E-01
 -1      1268 1.38373E-01-5.94790E-02-2.28198E-01
 -1      1269 1.05097E-01-1.09039E-01-3.30386E-01
 -1      1270 1.05368E-01-1.09637E-01-3.31738E-01
 -1      1271 1.06391E-01-1.11886E-01-2.22143E-01
 -1      1272 1.44069E-01-1.15310E-04-5.37498E-01
 -1      1273 1.43443E-01-2.14310E-03-5.38323E-01
 -1      1274 1.47230E-01-2.25151E-03-4.37919E-01
 -1      1275 1.08067E-01 1.05285E-01-2.31463E-01
 -1      1276 1.06132E-01 1.04921E-01-3.39123E-01
 -1      1277 1.39067E-01 5.64889E-02-3.35339E-01
 -1      1278 1.40435E-01 5.86556E-02-2.26580E-01
 -1      1279 1.39153E-01 5.70570E-02-3.35220E-01
 -1      1280-2.05752E-02 1.12204E-03-7.19767E-01
 -1      1281-2.52798E-02-1.43886E-03-2.21974E-01
 -1      1282-2.27875E-02-1.88372E-03-6.32671E-01
 -1      1283-2.18222E-02-9.37292E-03-6.35265E-01
 -1      1284-2.02404E-02-7.45292E-03-7.21807E-01
 -1      1285-2.66393E-02-1.16222E-02-2.29038E-01
 -1      1286-2.12103E-02-1.11337E-02-6.37378E-01
 -1      1287-1.77203E-02-1.50898E-02-7.24448E-01
 -1      1288-2.04227E-02-2.08694E-02-2.34075E-01
 -1      1289-1.48411E-02-1.97513E-02-6.40653E-01
 -1      1290-1.20916E-02-2.06117E-02-7.26893E-01
 -1      1291-1.17900E-02-2.66176E-02-3.39994E-01
 -1      1292-1.30752E-02-2.82100E-02-2.31678E-01
 -1      1293-7.03564E-03-2.43250E-02-6.38376E-01
 -1      1294-3.20240E-03-2.31511E-02-7.26735E-01
 -1      1295-4.68813E-04-2.95122E-02-3.35580E-01
 -1      1296 6.39033E-04-3.02116E-02-2.21708E-01
 -1      1297 2.26916E-03-2.47476E-02-6.35336E-01
 -1      1298 4.84844E-03-2.13014E-02-7.24394E-01
 -1      1299 1.05821E-02-2.73339E-02-2.21166E-01
 -1      1300 9.15792E-03-2.26570E-02-6.35468E-01
 -1      1301 1.31248E-02-1.84356E-02-7.27018E-01
 -1      1302 1.80387E-02-2.13438E-02-3.33271E-01
 -1      1303 1.94284E-02-2.16286E-02-2.21823E-01
 -1      1304 1.62034E-02-1.79260E-02-6.35198E-01
 -1      1305 1.94142E-02-1.18486E-02-7.28789E-01
 -1      1306 2.55963E-02-1.21808E-02-3.36402E-01
 -1      1307 2.67244E-02-1.13451E-02-2.27016E-01
 -1      1308 2.15372E-02-1.02202E-02-6.38839E-01
 -1      1309 2.12933E-02-4.23356E-03-7.28933E-01
 -1      1310 2.65542E-02-1.92605E-03-3.33732E-01
 -1      1311 2.52490E-02-2.08759E-03-2.20075E-01
 -1      1312 2.37238E-02-2.78288E-04-6.37152E-01
 -1      1313 2.05297E-02 5.31541E-03-7.30362E-01
 -1      1314 2.62737E-02 8.38211E-03-3.38265E-01
 -1      1315 2.64387E-02 9.79722E-03-2.26573E-01
 -1      1316 2.15495E-02 8.39962E-03-6.40160E-01
 -1      1317 1.82768E-02 1.10389E-02-7.27211E-01
 -1      1318 2.04834E-02 1.85426E-02-2.31323E-01
 -1      1319 1.65198E-02 1.51170E-02-6.41443E-01
 -1      1320 1.25838E-02 1.74863E-02-7.28499E-01
 -1      1321 1.03648E-02 2.49726E-02-3.39910E-01
 -1      1322 9.75230E-03 2.35682E-02-2.28628E-01
 -1      1323 7.57951E-03 2.15764E-02-6.41374E-01
 -1      1324 2.81439E-03 2.03529E-02-7.26712E-01
 -1      1325-1.15103E-03 2.65530E-02-2.26488E-01
 -1      1326-8.77065E-04 2.18113E-02-6.36615E-01
 -1      1327-7.13946E-03 1.87685E-02-7.25142E-01
 -1      1328-1.01374E-02 2.49431E-02-3.30453E-01
 -1      1329-1.06204E-02 2.54465E-02-2.17323E-01
 -1      1330-8.47481E-03 2.07056E-02-6.31068E-01
 -1      1331-1.49420E-02 1.72910E-02-6.33313E-01
 -1      1332-1.30793E-02 1.57171E-02-7.21086E-01
 -1      1333-1.81920E-02 1.72625E-02-2.15780E-01
 -1      1334-1.55318E-02 1.49611E-02-6.30966E-01
 -1      1335-2.09792E-02 8.01285E-03-6.31526E-01
 -1      1336-1.77930E-02 9.46549E-03-7.23484E-01
 -1      1337-2.28689E-02 7.60939E-03-2.14191E-01
 -1      1338-2.20450E-02 5.85595E-03-6.31181E-01
 -1      1339 0.00000E+00 0.00000E+00 0.00000E+00
 -1      1340 0.00000E+00 0.00000E+00 0.00000E+00
 -1      1341 0.00000E+00 0.00000E+00 0.00000E+00
 -1      1342 0.00000E+00 0.00000E+00 0.00000E+00
 -1      1343 0.00000E+00 0.00000E+00 0.00000E+00
 -1      1344 0.00000E+00 0.00000E+00 0.00000E+00
 -1      1345 0.00000E+00 0.00000E+00 0.00000E+00
 -1      1346 0.00000E+00 0.00000E+00 0.00000E+00
 -1      1347 0.00000E+00 0.00000E+00 0.00000E+00
 -1      1348 0.00000E+00 0.00000E+00 0.00000E+00
 -1      1349 0.00000E+00 0.00000E+00 0.00000E+00
 -1      1350 0.00000E+00 0.00000E+00 0.00000E+00
 -1      1351 0.00000E+00 0.00000E+00 0.00000E+00
 -1      1352 0.00000E+00 0.00000E+00 0.00000E+00
 -1      1353 0.00000E+00 0.00000E+00 0.00000E+00
 -1      1354 0.00000E+00 0.00000E+00 0.00000E+00
 -1      1355 0.00000E+00 0.00000E+00 0.00000E+00
 -1      1356 0.00000E+00 0.00000E+00 0.00000E+00
 -1      1357 0.00000E+00 0.00000E+00 0.00000E+00
 -1      1358 0.00000E+00 0.00000E+00 0.00000E+00
 -1      1359 0.00000E+00 0.00000E+00 0.00000E+00
 -1      1360 0.00000E+00 0.00000E+00 0.00000E+00
 -1      1361 0.00000E+00 0.00000E+00 0.00000E+00
 -1      1362 0.00000E+00 0.00000E+00 0.00000E+00
 -1      1363 0.00000E+00 0.00000E+00 0.00000E+00
 -1      1364 0.00000E+00 0.00000E+00 0.00000E+00
 -1      1365 0.00000E+00 0.00000E+00 0.00000E+00
 -1      1366 0.00000E+00 0.00000E+00 0.00000E+00
 -1      1367 0.00000E+00 0.00000E+00 0.00000E+00
 -1      1368 0.00000E+00 0.00000E+00 0.00000E+00
 -1      1369 0.00000E+00 0.00000E+00 0.00000E+00
 -1      1370 0.00000E+00 0.00000E+00 0.00000E+00
 -1      1371 0.00000E+00 0.00000E+00 0.00000E+00
 -1      1372 0.00000E+00 0.00000E+00 0.00000E+00
 -1      1373 0.00000E+00 0.00000E+00 0.00000E+00
 -1      1374 0.00000E+00 0.00000E+00 0.00000E+00
 -1      1375 0.00000E+00 0.00000E+00 0.00000E+00
 -1      1376 0.00000E+00 0.00000E+00 0.00000E+00
 -1      1377 0.00000E+00 0.00000E+00 0.00000E+00
 -1      1378 0.00000E+00 0.00000E+00 0.00000E+00
 -1      1379 0.00000E+00 0.00000E+00 0.00000E+00
 -1      1380 0.00000E+00 0.00000E+00 0.00000E+00
 -1      1381 0.00000E+00 0.00000E+00 0.00000E+00
 -1      1382 0.00000E+00 0.00000E+00 0.00000E+00
 -1      1383 0.00000E+00 0.00000E+00 0.00000E+00
 -1      1384 0.00000E+00 0.00000E+00 0.00000E+00
 -1      1385 0.00000E+00 0.00000E+00 0.00000E+00
 -1      1386 0.00000E+00 0.00000E+00 0.00000E+00
 -1      1387 0.00000E+00 0.00000E+00 0.00000E+00
 -1      1388 0.00000E+00 0.00000E+00 0.00000E+00
 -1      1389 0.00000E+00 0.00000E+00 0.00000E+00
 -1      1390 0.00000E+00 0.00000E+00 0.00000E+00
 -1      1391 0.00000E+00 0.00000E+00 0.00000E+00
 -1      1392 0.00000E+00 0.00000E+00 0.00000E+00
 -1      1393 0.00000E+00 0.00000E+00 0.00000E+00
 -1      1394 0.00000E+00 0.00000E+00 0.00000E+00
 -1      1395 0.00000E+00 0.00000E+00 0.00000E+00
 -1      1396 0.00000E+00 0.00000E+00 0.00000E+00
 -1      1397 0.00000E+00 0.00000E+00 0.00000E+00
 -1      1398 0.00000E+00 0.00000E+00 0.00000E+00
 -1      1399 0.00000E+00 0.00000E+00 0.00000E+00
 -1      1400 0.00000E+00 0.00000E+00 0.00000E+00
 -1      1401 0.00000E+00 0.00000E+00 0.00000E+00
 -1      1402 0.00000E+00 0.00000E+00 0.00000E+00
 -1      1403 0.00000E+00 0.00000E+00 0.00000E+00
 -1      1404 0.00000E+00 0.00000E+00 0.00000E+00
 -1      1405 0.00000E+00 0.00000E+00 0.00000E+00
 -1      1406 0.00000E+00 0.00000E+00 0.00000E+00
 -1      1407 0.00000E+00 0.00000E+00 0.00000E+00
 -1      1408 0.00000E+00 0.00000E+00 0.00000E+00
 -1      1409-8.76535E-02 8.40538E-02-7.50919E-01
 -1      1410 1.11551E-01-4.93294E-02-7.54413E-01
 -1      1411-3.93510E-03 1.19626E-01-7.55133E-01
 -1      1412-1.82814E-02-6.46072E-04-7.67676E-01
 -1      1413-1.76917E-02-9.62450E-03-7.68906E-01
 -1      1414-4.49385E-02-1.14454E-01-7.54044E-01
 -1      1415 2.04797E-04 1.75136E-02-7.71139E-01
 -1      1416-4.72974E-02 9.09747E-03-7.59413E-01
 -1      1417-4.80508E-02 9.33011E-03-7.63977E-01
 -1      1418 8.48367E-02 8.58905E-02-7.55184E-01
 -1      1419-1.32486E-02 1.13037E-02-7.68427E-01
 -1      1420 8.58159E-02-8.68120E-02-7.54690E-01
 -1      1421-4.01804E-02 2.38074E-02-7.60979E-01
 -1      1422-4.06293E-02 2.48693E-02-7.65257E-01
 -1      1423-9.81581E-04-1.95265E-02-7.69555E-01
 -1      1424-1.30582E-02-1.60675E-02-7.69072E-01
 -1      1425 7.32260E-03-1.97442E-02-7.70166E-01
 -1      1426-2.83070E-02-4.23227E-02-7.63039E-01
 -1      1427-2.83885E-02-4.29146E-02-7.67443E-01
 -1      1428-2.46899E-02 1.02796E-01-7.55885E-01
 -1      1429-2.48120E-02 1.03878E-01-7.60110E-01
 -1      1430-8.50436E-02-8.36167E-02-7.53225E-01
 -1      1431 1.21693E-01-7.79002E-04-7.56207E-01
 -1      1432-2.58273E-02 3.84184E-02-7.62037E-01
 -1      1433-2.62734E-02 3.91210E-02-7.66316E-01
 -1      1434-1.12177E-01 4.45081E-02-7.48925E-01
 -1      1435 7.09834E-03 1.51276E-02-7.71028E-01
 -1      1436-1.27378E-02-1.80445E-02-7.67444E-01
 -1      1437-1.22885E-01 1.63161E-03-7.50647E-01
 -1      1438 1.02357E-01-2.19724E-02-7.57923E-01
 -1      1439 1.03491E-01-2.23712E-02-7.62156E-01
 -1      1440-1.17338E-02 4.78225E-02-7.63892E-01
 -1      1441-1.15816E-02 4.86548E-02-7.68423E-01
 -1      1442-5.97180E-02-8.63061E-02-7.54405E-01
 -1      1443-5.94326E-02-8.81594E-02-7.58547E-01
 -1      1444-3.60415E-03-1.22003E-01-7.50890E-01
 -1      1445 1.32871E-02-1.60880E-02-7.71027E-01
 -1      1446 1.22107E-01-3.79540E-03-7.36652E-01
 -1      1447 1.45252E-02 1.25498E-02-7.72898E-01
 -1      1448-1.59005E-02 5.10069E-03-7.65383E-01
 -1      1449-4.10924E-02-2.87190E-02-7.62312E-01
 -1      1450-4.17029E-02-2.91756E-02-7.66574E-01
 -1      1451 1.12543E-01 4.65326E-02-7.56787E-01
 -1      1452 1.78006E-02 5.94085E-03-7.73286E-01
 -1      1453-5.20087E-02 1.10410E-01-7.54694E-01
 -1      1454 4.14032E-02 2.67257E-02-7.66102E-01
 -1      1455 4.20278E-02 2.71307E-02-7.70344E-01
 -1      1456 1.74751E-02-2.50180E-03-7.72020E-01
 -1      1457 8.45511E-02-5.99401E-02-7.57046E-01
 -1      1458 8.61597E-02-5.97768E-02-7.60525E-01
 -1      1459 1.73941E-02-1.01499E-02-7.71603E-01
 -1      1460-1.10012E-01-4.00712E-02-7.49713E-01
 -1      1461 1.12298E-01-5.16343E-02-7.36035E-01
 -1      1462 1.90913E-02 9.86656E-02-7.57418E-01
 -1      1463 1.90177E-02 1.00387E-01-7.60898E-01
 -1      1464 1.03016E-01 1.93635E-02-7.58565E-01
 -1      1465 1.03884E-01 2.03329E-02-7.62451E-01
 -1      1466 1.11530E-02 4.52095E-02-7.64277E-01
 -1      1467 1.04073E-02 4.64286E-02-7.68402E-01
 -1      1468 1.13831E-01 4.68590E-02-7.39814E-01
 -1      1469-6.12635E-02 8.46924E-02-7.55648E-01
 -1      1470-6.17793E-02 8.57656E-02-7.59308E-01
 -1      1471 2.85035E-02 4.03492E-02-7.65465E-01
 -1      1472 2.89072E-02 4.10526E-02-7.69932E-01
 -1      1473-4.96278E-02 1.11556E-01-7.36695E-01
 -1      1474 5.74260E-02-8.94892E-02-7.55356E-01
 -1      1475 5.79451E-02-9.02700E-02-7.59134E-01
 -1      1476-4.84497E-02-1.08997E-02-7.61396E-01
 -1      1477-4.92333E-02-1.10852E-02-7.65725E-01
 -1      1478-4.81818E-03 1.21556E-01-7.34538E-01
 -1      1479-8.75575E-02-5.72176E-02-7.53771E-01
 -1      1480-8.82734E-02-5.81181E-02-7.57323E-01
 -1      1481 8.72247E-02 5.83848E-02-7.63322E-01
 -1      1482 8.69753E-02 5.75768E-02-7.59587E-01
 -1      1483 1.60811E-02 8.61601E-02-7.59608E-01
 -1      1484 1.65426E-02 8.79173E-02-7.63620E-01
 -1      1485 5.14174E-02-8.02840E-02-7.59046E-01
 -1      1486 5.20072E-02-8.10243E-02-7.62722E-01
 -1      1487 7.55195E-02-5.34125E-02-7.59495E-01
 -1      1488 7.70066E-02-5.32242E-02-7.63305E-01
 -1      1489-6.07805E-02-1.45949E-02-7.59911E-01
 -1      1490-6.19197E-02-1.40887E-02-7.64028E-01
 -1      1491-7.73753E-02-4.95208E-02-7.57018E-01
 -1      1492-7.75178E-02-5.08769E-02-7.60777E-01
 -1      1493 4.24664E-02-3.04701E-02-7.68777E-01
 -1      1494 4.18952E-02-3.01023E-02-7.64506E-01
 -1      1495 5.81937E-02 8.49740E-02-7.61300E-01
 -1      1496 5.70904E-02 8.41982E-02-7.57867E-01
 -1      1497-1.02931E-01 1.97936E-02-7.51756E-01
 -1      1498-1.04160E-01 1.97596E-02-7.55791E-01
 -1      1499 4.72798E-02 1.10272E-01-7.56470E-01
 -1      1500 2.21595E-02-1.05084E-01-7.54976E-01
 -1      1501 2.22026E-02-1.06422E-01-7.58647E-01
 -1      1502-3.50898E-02-5.63890E-02-7.61838E-01
 -1      1503-3.56662E-02-5.68224E-02-7.65863E-01
 -1      1504-1.99780E-02-1.00777E-01-7.54205E-01
 -1      1505-2.00727E-02-1.02186E-01-7.57891E-01
 -1      1506 7.35329E-02 5.01124E-02-7.61559E-01
 -1      1507 7.51626E-02 4.98931E-02-7.65619E-01
 -1      1508-1.40100E-02 1.00257E-02-7.67042E-01
 -1      1509-1.83616E-02-2.93656E-02-7.63647E-01
 -1      1510-1.83137E-02-3.00724E-02-7.67371E-01
 -1      1511-1.57422E-02 7.04205E-03-7.65188E-01
 -1      1512 2.82058E-02-4.23982E-02-7.63745E-01
 -1      1513 2.84266E-02-4.32876E-02-7.68030E-01
 -1      1514-8.85801E-02 5.87955E-02-7.56658E-01
 -1      1515-8.78213E-02 5.88867E-02-7.52680E-01
 -1      1516-1.05353E-02-4.92951E-02-7.67474E-01
 -1      1517-1.02309E-02-4.83179E-02-7.63385E-01
 -1      1518 4.87321E-02-1.19763E-02-7.69388E-01
 -1      1519 4.81203E-02-1.17036E-02-7.65291E-01
 -1      1520-7.20830E-03-1.72158E-02-7.68024E-01
 -1      1521 3.72822E-02-5.45338E-02-7.62991E-01
 -1      1522 3.75563E-02-5.52858E-02-7.67138E-01
 -1      1523 1.67718E-02 7.58805E-03-7.72019E-01
 -1      1524-5.32564E-02-3.44346E-02-7.61036E-01
 -1      1525-5.36989E-02-3.56767E-02-7.65349E-01
 -1      1526 3.75079E-02 5.16416E-02-7.63982E-01
 -1      1527 3.74584E-02 5.23169E-02-7.68141E-01
 -1      1528-3.63306E-02 5.29568E-02-7.60747E-01
 -1      1529-3.66492E-02 5.35965E-02-7.65208E-01
 -1      1530 1.80922E-02-8.28328E-03-7.71179E-01
 -1      1531 4.62191E-02-1.13406E-01-7.54326E-01
 -1      1532-2.61648E-02-2.14711E-02-7.62900E-01
 -1      1533-2.69806E-02-2.15251E-02-7.67198E-01
 -1      1534 6.57753E-02-9.76950E-02-7.51857E-01
 -1      1535 6.62905E-02-9.88062E-02-7.55480E-01
 -1      1536-1.18317E-02 1.28673E-02-7.68260E-01
 -1      1537 3.95931E-02-6.17364E-02-7.62252E-01
 -1      1538 4.04912E-02-6.21129E-02-7.66437E-01
 -1      1539-5.10536E-02-7.70918E-02-7.62054E-01
 -1      1540-5.11367E-02-7.57965E-02-7.58914E-01
 -1      1541-1.96862E-02 8.91276E-02-7.59330E-01
 -1      1542-1.97722E-02 8.99474E-02-7.62969E-01
 -1      1543-7.95989E-03 1.50761E-02-7.68615E-01
 -1      1544 3.32069E-02-1.01710E-02-7.64840E-01
 -1      1545 3.39369E-02-1.01672E-02-7.69442E-01
 -1      1546-8.84423E-02 8.53574E-02-7.32662E-01
 -1      1547-5.34131E-02 3.38332E-02-7.58892E-01
 -1      1548-5.39316E-02 3.44357E-02-7.63283E-01
 -1      1549-3.26073E-02 5.80358E-03-7.60227E-01
 -1      1550-3.33324E-02 5.79568E-03-7.64270E-01
 -1      1551 4.82034E-02-7.39570E-02-7.60020E-01
 -1      1552 4.88438E-02-7.48698E-02-7.64305E-01
 -1      1553-2.17186E-02-1.12309E-01-7.51666E-01
 -1      1554-2.24851E-02-1.13423E-01-7.55145E-01
 -1      1555-5.15706E-02 7.38814E-02-7.58508E-01
 -1      1556-5.21718E-02 7.48882E-02-7.62323E-01
 -1      1557 9.49736E-03-5.07711E-02-7.62605E-01
 -1      1558 9.73133E-03-5.15143E-02-7.67227E-01
 -1      1559 1.77858E-02-9.18839E-02-7.57956E-01
 -1      1560 1.79513E-02-9.27785E-02-7.62052E-01
 -1      1561 4.75814E-02 1.09393E-01-7.36619E-01
 -1      1562 2.31174E-02-1.16769E-01-7.49842E-01
 -1      1563 2.32095E-02-1.17895E-01-7.53675E-01
 -1      1564 4.90864E-02 8.76629E-03-7.65895E-01
 -1      1565 4.97987E-02 8.93786E-03-7.70441E-01
 -1      1566 3.60593E-02-1.21745E-01-7.52415E-01
 -1      1567-1.11064E-01 5.71841E-02-7.49994E-01
 -1      1568-1.64675E-02-1.17205E-02-7.68560E-01
 -1      1569-1.41755E-02-1.53760E-02-7.67970E-01
 -1      1570-1.07804E-02-1.20419E-01-7.49181E-01
 -1      1571-3.58600E-02-1.22518E-01-7.53499E-01
 -1      1572 4.63302E-02-1.16068E-01-7.36503E-01
 -1      1573 1.23685E-02-6.40795E-02-7.61512E-01
 -1      1574 1.28747E-02-6.50514E-02-7.65548E-01
 -1      1575 7.82198E-02-9.75111E-02-7.50694E-01
 -1      1576-6.66130E-03 3.18320E-02-7.64695E-01
 -1      1577-6.90293E-03 3.22929E-02-7.68597E-01
 -1      1578 1.14087E-01-2.57040E-02-7.52975E-01
 -1      1579 1.15310E-01-2.59507E-02-7.56567E-01
 -1      1580-1.85526E-03 1.66690E-02-7.70921E-01
 -1      1581-1.27033E-02-6.23850E-02-7.61687E-01
 -1      1582-1.29240E-02-6.36054E-02-7.66018E-01
 -1      1583-5.50756E-02-1.19194E-02-7.60597E-01
 -1      1584-5.59963E-02-1.23079E-02-7.64741E-01
 -1      1585 1.05804E-02-1.25192E-01-7.51379E-01
 -1      1586-1.30752E-03-1.23679E-01-7.36386E-01
 -1      1587 1.81601E-02-1.27249E-01-7.50672E-01
 -1      1588-1.98028E-02-8.80065E-02-7.58475E-01
 -1      1589-1.91566E-02-8.95558E-02-7.62012E-01
 -1      1590 3.31216E-02 4.64362E-02-7.69121E-01
 -1      1591 3.26843E-02 4.58350E-02-7.64660E-01
 -1      1592 8.89573E-02 1.87366E-02-7.62857E-01
 -1      1593 8.97607E-02 1.91421E-02-7.66473E-01
 -1      1594-3.20155E-02-8.65372E-03-7.61616E-01
 -1      1595-3.28532E-02-8.70879E-03-7.66062E-01
 -1      1596 6.32746E-02 9.47100E-02-7.52554E-01
 -1      1597 6.43552E-02 9.52999E-02-7.56106E-01
 -1      1598 1.13708E-01 2.11562E-02-7.53402E-01
 -1      1599 1.14976E-01 2.20855E-02-7.57464E-01
 -1      1600-6.27526E-03-1.90016E-02-7.68847E-01
 -1      1601-9.78775E-02-6.12134E-02-7.49583E-01
 -1      1602-9.85043E-02-6.25187E-02-7.52959E-01
 -1      1603 1.85968E-02-3.02252E-02-7.63868E-01
 -1      1604 1.88252E-02-3.08221E-02-7.67816E-01
 -1      1605 1.25126E-01 1.08337E-02-7.55530E-01
 -1      1606-1.07890E-01-5.39415E-02-7.49820E-01
 -1      1607-1.20549E-02-1.82202E-02-7.67424E-01
 -1      1608 1.18936E-01-3.93568E-02-7.54221E-01
 -1      1609 1.19034E-01 3.58840E-02-7.55371E-01
 -1      1610 1.08076E-02-5.72831E-02-7.62056E-01
 -1      1611 1.13645E-02-5.82523E-02-7.66200E-01
 -1      1612-6.46133E-02-9.52889E-02-7.50287E-01
 -1      1613-6.44446E-02-9.73489E-02-7.53687E-01
 -1      1614 6.16254E-03-3.46861E-02-7.64393E-01
 -1      1615 6.40310E-03-3.51173E-02-7.68261E-01
 -1      1616 2.83356E-02 1.73324E-02-7.67459E-01
 -1      1617 2.88113E-02 1.78047E-02-7.71586E-01
 -1      1618 1.35238E-02 1.49094E-02-7.72503E-01
 -1      1619-6.70331E-02 9.53524E-02-7.49727E-01
 -1      1620-6.72871E-02 9.60732E-02-7.53824E-01
 -1      1621 5.03383E-02 7.44013E-02-7.59753E-01
 -1      1622 5.11678E-02 7.49232E-02-7.63978E-01
 -1      1623 1.42997E-02 6.00184E-02-7.63545E-01
 -1      1624 1.35478E-02 6.11615E-02-7.67742E-01
 -1      1625-1.02369E-01-1.93158E-02-7.52693E-01
 -1      1626-1.03594E-01-1.87530E-02-7.56368E-01
 -1      1627-6.31684E-03-3.56943E-02-7.63763E-01
 -1      1628-6.91303E-03-3.63630E-02-7.68018E-01
 -1      1629-8.07015E-02 9.11087E-02-7.49515E-01
 -1      1630 1.81571E-02 9.27540E-02-7.58312E-01
 -1      1631 1.81281E-02 9.46522E-02-7.62228E-01
 -1      1632-2.80319E-02 1.57370E-02-7.60601E-01
 -1      1633-2.84951E-02 1.67351E-02-7.65134E-01
 -1      1634 6.19121E-03 1.72397E-02-7.70009E-01
 -1      1635-7.11004E-02-4.76907E-02-7.58504E-01
 -1      1636-7.15977E-02-4.84521E-02-7.62280E-01
 -1      1637-1.13128E-01-4.16467E-02-7.31571E-01
 -1      1638-8.91875E-02-1.59842E-02-7.55189E-01
 -1      1639-8.98555E-02-1.66171E-02-7.59553E-01
 -1      1640 5.21928E-02 3.36416E-02-7.64803E-01
 -1      1641 5.26020E-02 3.44225E-02-7.68754E-01
 -1      1642 1.49113E-02 1.06967E-02-7.71760E-01
 -1      1643-1.83945E-02 8.38213E-02-7.59955E-01
 -1      1644-1.87066E-02 8.47936E-02-7.64096E-01
 -1      1645-8.62306E-02-8.43738E-02-7.36336E-01
 -1      1646-1.42661E-02 6.21593E-02-7.62778E-01
 -1      1647-1.41543E-02 6.30439E-02-7.66802E-01
 -1      1648 3.04905E-02-1.25895E-01-7.50909E-01
 -1      1649-1.10718E-01-4.48933E-02-7.34050E-01
 -1      1650 9.47898E-03-1.95139E-02-7.69558E-01
 -1      1651-2.40933E-03-2.00465E-02-7.69182E-01
 -1      1652 9.67026E-02 6.56304E-02-7.54046E-01
 -1      1653 9.75031E-02 6.61929E-02-7.58229E-01
 -1      1654 8.52893E-02-8.80999E-02-7.36057E-01
 -1      1655 1.99950E-02 2.62600E-02-7.66373E-01
 -1      1656 2.02916E-02 2.67083E-02-7.70286E-01
 -1      1657-4.79168E-02-1.14004E-01-7.34676E-01
 -1      1658-2.11450E-02-1.69880E-02-7.63799E-01
 -1      1659-2.15880E-02-1.73182E-02-7.67347E-01
 -1      1660-1.46869E-02-1.48623E-02-7.67162E-01
 -1      1661-5.73763E-02-1.10679E-01-7.50881E-01
 -1      1662-4.68501E-02-3.15850E-02-7.61553E-01
 -1      1663-4.73308E-02-3.23592E-02-7.65741E-01
 -1      1664-6.52147E-02 1.07983E-01-7.51507E-01
 -1      1665 2.36700E-03 1.73080E-02-7.70638E-01
 -1      1666 1.12886E-01-4.77507E-02-7.37506E-01
 -1      1667 1.10421E-01 5.79779E-02-7.55040E-01
 -1      1668-8.69345E-03-1.80067E-02-7.67896E-01
 -1      1669 2.29139E-02 1.11882E-01-7.52518E-01
 -1      1670 2.24156E-02 1.13445E-01-7.56307E-01
 -1      1671 3.63456E-02 1.16323E-01-7.52903E-01
 -1      1672-4.74652E-02-7.15785E-02-7.59162E-01
 -1      1673-4.75917E-02-7.27635E-02-7.63104E-01
 -1      1674 1.23675E-01-1.39799E-02-7.52017E-01
 -1      1675-6.01410E-03 1.63123E-02-7.69203E-01
 -1      1676-2.46369E-02 2.33609E-03-5.57014E-01
 -1      1677-2.33987E-02 5.89117E-03-5.61053E-01
 -1      1678 6.47827E-03 3.13808E-02-7.63615E-01
 -1      1679 6.67242E-03 3.20598E-02-7.67908E-01
 -1      1680 1.05339E-02-1.94508E-02-7.69104E-01
 -1      1681-4.17804E-02 1.17595E-01-7.52739E-01
 -1      1682-7.53041E-02 4.77219E-02-7.56156E-01
 -1      1683-7.61088E-02 4.84264E-02-7.59485E-01
 -1      1684 1.11719E-01 4.98115E-02-7.38031E-01
 -1      1685-8.11358E-02-5.52918E-02-7.55431E-01
 -1      1686-8.19994E-02-5.59081E-02-7.59259E-01
 -1      1687 1.20645E-02 5.32989E-02-7.63914E-01
 -1      1688 1.15883E-02 5.43289E-02-7.68146E-01
 -1      1689-1.78685E-02 1.17582E-03-7.66404E-01
 -1      1690 9.55793E-02 7.99180E-02-7.56327E-01
 -1      1691 8.89964E-03 1.22820E-01-7.53227E-01
 -1      1692 8.34667E-02 1.65700E-02-7.63095E-01
 -1      1693 8.45118E-02 1.68092E-02-7.66845E-01
 -1      1694-1.80965E-02-2.94363E-03-7.67448E-01
 -1      1695 5.88005E-02-1.11851E-01-7.51696E-01
 -1      1696-1.84562E-02-8.08945E-03-7.68064E-01
 -1      1697 1.85871E-02 5.04919E-05-7.72160E-01
 -1      1698 4.53277E-02 1.10108E-01-7.37035E-01
 -1      1699 5.88158E-02 1.08381E-01-7.54711E-01
 -1      1700 7.80459E-02 9.40685E-02-7.53261E-01
 -1      1701-1.13461E-01-2.38527E-02-7.49375E-01
 -1      1702-1.14841E-01-2.24736E-02-7.52758E-01
 -1      1703 1.66841E-02-1.18056E-02-7.71605E-01
 -1      1704-5.45367E-02 8.03469E-02-7.57279E-01
 -1      1705-5.65777E-02 8.02018E-02-7.60847E-01
 -1      1706 3.24127E-02 7.64470E-03-7.67544E-01
 -1      1707 3.33689E-02 7.19828E-03-7.71978E-01
 -1      1708 1.89622E-02 4.75729E-03-7.72986E-01
 -1      1709-8.86903E-02-8.09329E-02-7.31483E-01
 -1      1710-9.66185E-02-7.72407E-02-7.49644E-01
 -1      1711-7.89407E-02-9.45881E-02-7.51305E-01
 -1      1712 1.19431E-02-1.73403E-02-7.69806E-01
 -1      1713 1.54895E-02 8.17105E-02-7.64718E-01
 -1      1714 1.51481E-02 8.02123E-02-7.60417E-01
 -1      1715 1.23581E-01 1.50762E-03-7.36819E-01
 -1      1716 4.65581E-02 2.99956E-02-7.65400E-01
 -1      1717 4.72289E-02 3.05289E-02-7.69538E-01
 -1      1718-1.07581E-01-6.22676E-02-7.48357E-01
 -1      1719-4.03466E-02-6.08074E-02-7.61077E-01
 -1      1720-4.04392E-02-6.16729E-02-7.65011E-01
 -1      1721-5.92266E-02-3.82852E-02-7.61011E-01
 -1      1722-5.97940E-02-3.93465E-02-7.64978E-01
 -1      1723 1.96192E-02-1.70645E-02-5.64259E-01
 -1      1724 2.20723E-02-1.31818E-02-5.69548E-01
 -1      1725 3.20587E-02-4.86129E-02-7.63596E-01
 -1      1726 3.24253E-02-4.93210E-02-7.67643E-01
 -1      1727-5.46782E-02-8.19539E-02-7.56368E-01
 -1      1728-5.46326E-02-8.31299E-02-7.60520E-01
 -1      1729 8.76194E-02 8.53479E-02-7.39202E-01
 -1      1730 2.75435E-02-2.09089E-02-7.65146E-01
 -1      1731 2.81449E-02-2.12755E-02-7.69558E-01
 -1      1732 1.47201E-02-2.16884E-02-5.63078E-01
 -1      1733 1.11234E-02-2.37087E-02-5.66448E-01
 -1      1734 6.22147E-02 1.16612E-02-7.65465E-01
 -1      1735 6.31161E-02 1.19770E-02-7.69531E-01
 -1      1736 1.49339E-02-1.51994E-02-7.70657E-01
 -1      1737 4.71577E-02-1.15078E-01-7.35192E-01
 -1      1738 6.76438E-02 4.60137E-02-7.62253E-01
 -1      1739 6.91397E-02 4.59744E-02-7.66335E-01
 -1      1740 6.13422E-02-9.23224E-02-7.53927E-01
 -1      1741 6.17314E-02-9.33353E-02-7.57240E-01
 -1      1742-1.28654E-02 5.61888E-02-7.67459E-01
 -1      1743-1.34515E-02 5.52987E-02-7.63283E-01
 -1      1744 1.09076E-01 1.88539E-02-7.56337E-01
 -1      1745 1.10067E-01 2.00789E-02-7.60148E-01
 -1      1746 5.30090E-02-3.72743E-02-7.62926E-01
 -1      1747 5.34442E-02-3.79602E-02-7.67311E-01
 -1      1748 1.29347E-02-7.10185E-02-7.61131E-01
 -1      1749 1.38040E-02-7.19094E-02-7.65099E-01
 -1      1750 2.06615E-02 1.38621E-02-5.67440E-01
 -1      1751 2.24301E-02 1.09122E-02-5.71263E-01
 -1      1752-7.03280E-02 4.39787E-02-7.56237E-01
 -1      1753-7.13983E-02 4.49953E-02-7.60364E-01
 -1      1754-1.80300E-02 2.60077E-02-7.62711E-01
 -1      1755-1.84534E-02 2.67354E-02-7.67083E-01
 -1      1756 1.48262E-02 6.66943E-02-7.63033E-01
 -1      1757 1.41263E-02 6.79605E-02-7.66955E-01
 -1      1758 5.69902E-03-2.06016E-02-7.69901E-01
 -1      1759 5.84169E-02 9.08923E-02-7.55203E-01
 -1      1760 6.00939E-02 9.12471E-02-7.58886E-01
 -1      1761 5.89733E-02-4.08431E-02-7.62258E-01
 -1      1762 5.95093E-02-4.17526E-02-7.66562E-01
 -1      1763 4.77387E-02-3.36387E-02-7.63815E-01
 -1      1764 4.81296E-02-3.39344E-02-7.67811E-01
 -1      1765 1.84035E-02-4.50512E-03-7.70457E-01
 -1      1766-1.01386E-01-6.59116E-02-7.50044E-01
 -1      1767-1.00465E-01-6.51271E-02-7.46767E-01
 -1      1768-7.32786E-02 9.84136E-02-7.47401E-01
 -1      1769-7.35220E-02 9.90626E-02-7.50942E-01
 -1      1770 1.79755E-02-9.92321E-02-7.56665E-01
 -1      1771 1.87746E-02-1.00270E-01-7.60604E-01
 -1      1772 1.10025E-01 6.57253E-02-7.53923E-01
 -1      1773-1.60830E-02-1.28626E-02-7.67955E-01
 -1      1774-1.17162E-01-3.30441E-02-7.49830E-01
 -1      1775 2.31376E-04 1.20793E-01-7.36257E-01
 -1      1776 8.00289E-02 5.53432E-02-7.60901E-01
 -1      1777 8.15967E-02 5.51050E-02-7.64635E-01
 -1      1778-1.11209E-01-5.01418E-02-7.43038E-01
 -1      1779 1.89180E-02 1.26372E-03-7.72233E-01
 -1      1780-9.67745E-02-1.84944E-02-7.58067E-01
 -1      1781-9.57089E-02-1.79019E-02-7.53932E-01
 -1      1782 1.25743E-02 1.52124E-02-7.71373E-01
 -1      1783-1.50193E-02 6.79632E-02-7.62594E-01
 -1      1784-1.50988E-02 6.89705E-02-7.66467E-01
 -1      1785-5.39621E-03-2.01322E-02-7.68209E-01
 -1      1786-2.59099E-02-6.78548E-03-7.62251E-01
 -1      1787-2.62444E-02-6.93460E-03-7.65738E-01
 -1      1788-7.16702E-02 1.04902E-01-7.48907E-01
 -1      1789-9.01817E-02 1.69909E-02-7.55029E-01
 -1      1790-9.12205E-02 1.73659E-02-7.58956E-01
 -1      1791-1.24452E-01 7.73267E-04-7.33702E-01
 -1      1792-2.73363E-02 1.14114E-01-7.51705E-01
 -1      1793-2.72871E-02 1.15458E-01-7.54800E-01
 -1      1794-3.14945E-02-4.96269E-02-7.62479E-01
 -1      1795-3.20406E-02-4.99441E-02-7.66564E-01
 -1      1796-2.46176E-02-3.42269E-03-5.60218E-01
 -1      1797-2.43911E-02-7.41524E-03-5.64672E-01
 -1      1798 6.87111E-02 1.33599E-02-7.64666E-01
 -1      1799 6.96868E-02 1.39517E-02-7.68968E-01
 -1      1800-5.41636E-03-1.23579E-01-7.33362E-01
 -1      1801-1.24402E-01-1.11318E-02-7.48980E-01
 -1      1802-5.48941E-02 1.10572E-01-7.33316E-01
 -1      1803-2.75872E-02 1.08737E-01-7.54026E-01
 -1      1804-2.74811E-02 1.10106E-01-7.57688E-01
 -1      1805-7.85181E-02 9.84688E-02-7.48904E-01
 -1      1806-3.20917E-03 2.32044E-02-5.62292E-01
 -1      1807-6.05332E-03 2.29385E-02-5.63943E-01
 -1      1808 1.20166E-01 2.35627E-02-7.51815E-01
 -1      1809 1.21548E-01 2.38843E-02-7.55349E-01
 -1      1810 6.23624E-02-1.43880E-02-7.64040E-01
 -1      1811 6.31631E-02-1.45530E-02-7.68577E-01
 -1      1812-5.57664E-03-2.85557E-02-7.64441E-01
 -1      1813-6.07889E-03-2.88351E-02-7.67747E-01
 -1      1814-3.58376E-03-2.04468E-02-7.67973E-01
 -1      1815 1.23215E-01-3.24350E-02-7.52580E-01
 -1      1816 1.22899E-01 3.04764E-02-7.53602E-01
 -1      1817 8.58209E-02 8.54550E-02-7.38136E-01
 -1      1818-4.71864E-02 2.98010E-02-7.64511E-01
 -1      1819-4.66300E-02 2.90191E-02-7.60254E-01
 -1      1820 1.01863E-01 7.63779E-02-7.54568E-01
 -1      1821 2.27271E-02-1.80241E-02-7.65853E-01
 -1      1822 2.33750E-02-1.80155E-02-7.69627E-01
 -1      1823-9.92296E-02 7.79853E-02-7.49356E-01
 -1      1824 9.26449E-03 1.53801E-02-7.70458E-01
 -1      1825-1.60802E-02 1.22798E-01-7.50976E-01
 -1      1826-9.58525E-02 1.81081E-02-7.53825E-01
 -1      1827-9.68666E-02 1.83596E-02-7.57596E-01
 -1      1828 7.49460E-02 1.00214E-01-7.51753E-01
 -1      1829-9.21592E-03 1.57276E-02-7.67812E-01
 -1      1830 1.89676E-02-5.53731E-03-7.69428E-01
 -1      1831 1.21895E-01-2.06252E-02-7.51643E-01
 -1      1832 1.59861E-02-1.45820E-02-7.69827E-01
 -1      1833-8.35410E-02 5.24483E-02-7.54421E-01
 -1      1834-8.38196E-02 5.30882E-02-7.58702E-01
 -1      1835 9.95961E-04-2.08712E-02-7.69063E-01
 -1      1836 6.76444E-02-1.02469E-01-7.49359E-01
 -1      1837 6.78155E-02-1.03904E-01-7.52134E-01
 -1      1838 7.10809E-02-1.00776E-01-7.49759E-01
 -1      1839 1.63873E-02 1.24130E-01-7.51727E-01
 -1      1840-1.85948E-02-6.76709E-03-7.67212E-01
 -1      1841-1.50867E-02 1.98022E-02-7.63147E-01
 -1      1842-1.51074E-02 2.05322E-02-7.66982E-01
 -1      1843 1.21772E-01-1.19032E-02-7.41169E-01
 -1      1844 7.96944E-02-9.25393E-02-7.42647E-01
 -1      1845 2.15477E-02 1.31411E-02-7.67958E-01
 -1      1846 2.18506E-02 1.34379E-02-7.71251E-01
 -1      1847-6.26587E-02 1.06650E-02-7.58402E-01
 -1      1848-6.33944E-02 1.14357E-02-7.62529E-01
 -1      1849-1.21704E-01 1.14766E-02-7.47846E-01
 -1      1850 1.27407E-01 1.77273E-02-7.53364E-01
 -1      1851-1.15792E-01 2.31365E-02-7.48438E-01
 -1      1852-1.16784E-01 2.28498E-02-7.51651E-01
 -1      1853 6.50252E-02-1.10675E-01-7.50514E-01
 -1      1854-9.87322E-02 6.37745E-02-7.46920E-01
 -1      1855-9.96586E-02 6.41706E-02-7.51279E-01
 -1      1856 1.08756E-01-2.35840E-02-7.55487E-01
 -1      1857 1.09877E-01-2.39809E-02-7.59318E-01
 -1      1858-6.96813E-02 1.33725E-02-7.57640E-01
 -1      1859-7.04438E-02 1.36082E-02-7.61723E-01
 -1      1860-1.03575E-02-1.83875E-02-7.66973E-01
 -1      1861 1.54410E-02 9.88271E-03-7.70978E-01
 -1      1862-9.33077E-02-5.86609E-02-7.52089E-01
 -1      1863-9.38008E-02-5.97264E-02-7.55598E-01
 -1      1864-5.62746E-02 1.10279E-02-7.63173E-01
 -1      1865-5.55133E-02 1.06415E-02-7.58703E-01
 -1      1866-9.80649E-03 1.47060E-02-7.67185E-01
 -1      1867-1.68046E-02 3.85339E-03-7.65228E-01
 -1      1868 1.68174E-02-1.30446E-02-7.69987E-01
 -1      1869 1.26039E-01 8.44424E-03-7.45251E-01
 -1      1870-1.14605E-01 4.51155E-02-7.33197E-01
 -1      1871 2.31751E-02 1.18689E-01-7.53860E-01
 -1      1872 2.34915E-02 1.16943E-01-7.50850E-01
 -1      1873-8.34521E-02 1.47536E-02-7.55591E-01
 -1      1874-8.42447E-02 1.57802E-02-7.59917E-01
 -1      1875 1.92130E-02 3.66071E-03-7.72166E-01
 -1      1876-2.80191E-02-1.24565E-01-7.51790E-01
 -1      1877-4.53688E-02-1.16167E-01-7.35041E-01
 -1      1878 1.63265E-02 8.39532E-03-7.71168E-01
 -1      1879-6.77607E-02-1.02243E-01-7.51139E-01
 -1      1880-6.78499E-02-1.00419E-01-7.48050E-01
 -1      1881-5.85026E-02 3.74949E-02-7.57719E-01
 -1      1882-5.92647E-02 3.81150E-02-7.62063E-01
 -1      1883 6.63221E-02 9.86052E-02-7.50046E-01
 -1      1884 6.74829E-02 9.95526E-02-7.53511E-01
 -1      1885 7.04209E-02-4.88248E-02-7.60613E-01
 -1      1886 7.14285E-02-4.89564E-02-7.64611E-01
 -1      1887 1.01695E-01 6.91285E-02-7.52160E-01
 -1      1888 1.02676E-01 6.96719E-02-7.55865E-01
 -1      1889-5.04884E-03 1.70043E-02-7.69092E-01
 -1      1890-2.12856E-02 1.26450E-02-7.61488E-01
 -1      1891-2.18572E-02 1.29388E-02-7.65109E-01
 -1      1892-1.48841E-02 9.29716E-03-7.65171E-01
 -1      1893 1.12392E-01 5.52732E-02-7.47125E-01
 -1      1894 8.41580E-03 3.82634E-02-7.63858E-01
 -1      1895 8.20509E-03 3.93153E-02-7.68025E-01
 -1      1896 8.91231E-02-2.09265E-02-7.60859E-01
 -1      1897 9.04413E-02-2.03515E-02-7.64353E-01
 -1      1898-1.21765E-01 4.74282E-03-7.30829E-01
 -1      1899 1.61628E-02-8.43391E-02-7.59574E-01
 -1      1900 1.63508E-02-8.52867E-02-7.63274E-01
 -1      1901 9.61133E-02-2.12207E-02-7.63108E-01
 -1      1902 9.52440E-02-2.15312E-02-7.59921E-01
 -1      1903 3.00329E-02 1.19163E-01-7.52447E-01
 -1      1904 6.47537E-02 1.06933E-01-7.52412E-01
 -1      1905 5.38344E-03 1.82112E-02-7.69283E-01
 -1      1906-1.15334E-01 4.24661E-02-7.29637E-01
 -1      1907 6.90396E-02-1.60190E-02-7.63275E-01
 -1      1908 7.03541E-02-1.64208E-02-7.67299E-01
 -1      1909-1.19039E-01 3.57982E-02-7.48876E-01
 -1      1910-9.01800E-02 8.30307E-02-7.31433E-01
 -1      1911 2.51366E-02 2.14397E-03-5.63822E-01
 -1      1912 2.47859E-02 5.71500E-03-5.68571E-01
 -1      1913 9.67033E-02-8.13117E-02-7.55491E-01
 -1      1914 9.49607E-02-6.79331E-02-7.53764E-01
 -1      1915 9.61921E-02-6.81518E-02-7.57291E-01
 -1      1916 8.74391E-02-8.76594E-02-7.36989E-01
 -1      1917-1.10465E-01 2.06987E-02-7.49902E-01
 -1      1918-1.11582E-01 2.08444E-02-7.53709E-01
 -1      1919-1.04577E-01 7.39978E-02-7.48087E-01
 -1      1920 1.89882E-03-2.08148E-02-7.68442E-01
 -1      1921-1.88177E-02 1.44457E-02-5.55831E-01
 -1      1922-2.15355E-02 1.12398E-02-5.60556E-01
 -1      1923-9.05936E-04-2.71077E-02-5.65182E-01
 -1      1924-5.51424E-03-2.65534E-02-5.68793E-01
 -1      1925-2.74651E-02 1.18115E-01-7.49149E-01
 -1      1926-2.82253E-02 1.19361E-01-7.51846E-01
 -1      1927 1.09716E-01-6.13721E-02-7.51962E-01
 -1      1928-2.21986E-02 1.20706E-01-7.49179E-01
 -1      1929 1.59274E-02 1.83506E-02-5.67807E-01
 -1      1930 1.23518E-02 2.09653E-02-5.71751E-01
 -1      1931-3.57694E-02 1.22426E-01-7.50497E-01
 -1      1932 1.02676E-02 1.63380E-02-7.70679E-01
 -1      1933-8.06577E-02 9.24160E-02-7.38917E-01
 -1      1934-1.11738E-01 6.55212E-02-7.48439E-01
 -1      1935-1.25072E-01 1.85924E-02-7.46887E-01
 -1      1936 9.24792E-02 6.30432E-02-7.56893E-01
 -1      1937 9.32793E-02 6.31715E-02-7.60685E-01
 -1      1938 7.05719E-03 1.22159E-01-7.41803E-01
 -1      1939 4.14737E-02 7.79257E-03-7.67204E-01
 -1      1940 4.21237E-02 7.67208E-03-7.71377E-01
 -1      1941-1.21708E-01 2.35527E-02-7.45855E-01
 -1      1942-1.22455E-01 2.36476E-02-7.49420E-01
 -1      1943 2.51172E-02-4.18574E-03-5.64944E-01
 -1      1944 2.44827E-02-8.51403E-03-5.67975E-01
 -1      1945-6.42430E-02-1.09381E-01-7.49011E-01
 -1      1946-4.39647E-02 1.17070E-01-7.43707E-01
 -1      1947-2.87373E-03 1.70982E-02-7.69892E-01
 -1      1948-6.40079E-02 1.09151E-01-7.41301E-01
 -1      1949 3.37822E-03 1.80178E-02-7.69147E-01
 -1      1950 1.03250E-01-7.74565E-02-7.54448E-01
 -1      1951-1.57903E-02-2.07590E-02-5.66801E-01
 -1      1952-1.28000E-02-2.35237E-02-5.68529E-01
 -1      1953-1.90192E-02-1.76687E-02-5.64575E-01
 -1      1954-2.24022E-02-1.37937E-02-5.69271E-01
 -1      1955-1.45002E-02 1.81638E-02-5.56503E-01
 -1      1956-1.13281E-02 2.09493E-02-5.61382E-01
 -1      1957 2.41175E-03 2.38669E-02-5.66626E-01
 -1      1958 6.30116E-03 2.31561E-02-5.70206E-01
 -1      1959-1.31421E-02 1.21064E-01-7.41069E-01
 -1      1960-1.24163E-01 3.03586E-02-7.47851E-01
 -1      1961-1.21427E-01 1.25013E-02-7.36762E-01
 -1      1962 2.59070E-03-2.68689E-02-5.62317E-01
 -1      1963 6.12903E-03-2.60926E-02-5.64565E-01
 -1      1964 1.09530E-01-6.02534E-02-7.41603E-01
 -1      1965-1.24862E-02-3.03642E-02-1.70509E-01
 -1      1966 7.62721E-04 2.76913E-02-1.59682E-01
 -1      1967-2.13908E-02 1.87339E-02-1.56282E-01
 -1      1968-5.76633E-04-3.39454E-02-1.62302E-01
 -1      1969 3.11023E-02-3.07547E-02-4.69012E-01
 -1      1970-3.02305E-02-1.10388E-02-1.62241E-01
 -1      1971 2.75904E-02 1.87219E-02-1.64040E-01
 -1      1972 3.26942E-02-1.68952E-02-2.12219E-01
 -1      1973-2.11460E-02-1.45057E-02-8.74207E-02
 -1      1974-6.09412E-03 2.79327E-02-1.25063E-01
 -1      1975-1.60139E-02-1.42570E-02-6.05393E-02
 -1      1976-9.70224E-03-2.11280E-02-8.56316E-02
 -1      1977-9.86385E-03-2.31076E-02-5.64220E-02
 -1      1978-1.12602E-03-1.78327E-02-7.72887E-02
 -1      1979 8.38840E-05-1.81269E-02-5.83523E-02
 -1      1980 3.94400E-03-2.32059E-02-7.35309E-02
 -1      1981 8.04671E-03-1.98031E-02-5.38364E-02
 -1      1982 5.32359E-03-2.87709E-02-1.84867E-01
 -1      1983 8.04811E-03-1.35905E-02-7.69622E-02
 -1      1984-1.90414E-02-1.08123E-02-5.59620E-02
 -1      1985-2.15346E-02-1.53062E-02-7.93981E-02
 -1      1986-1.37758E-02-6.54568E-04-5.70233E-02
 -1      1987-1.72411E-02 3.34739E-03-7.80858E-02
 -1      1988-1.79905E-02-3.18295E-03-7.93902E-02
 -1      1989-1.22863E-02 4.45195E-03-5.38169E-02
 -1      1990-1.29060E-02 1.00206E-02-7.46888E-02
 -1      1991-9.69997E-03 1.08157E-02-4.74535E-02
 -1      1992 1.46626E-02 1.13776E-02-7.39427E-02
 -1      1993-8.16918E-03 1.33019E-02-7.39628E-02
 -1      1994-1.02201E-02 1.81042E-02-5.53288E-02
 -1      1995 3.77374E-03 2.12136E-02-9.33079E-02
 -1      1996-5.82236E-03 1.58817E-02-7.86958E-02
 -1      1997 1.92501E-02 3.05969E-02-2.30438E-01
 -1      1998-5.91223E-04 1.57703E-02-5.44811E-02
 -1      1999 3.15940E-03 1.21472E-02-7.91599E-02
 -1      2000 6.33528E-03 2.04720E-02-5.83656E-02
 -1      2001 1.02310E-02 1.37673E-02-8.01241E-02
 -1      2002 1.53737E-02 1.42740E-02-6.14986E-02
 -1      2003-1.25548E-02 1.29247E-02-8.63804E-02
 -1      2004 2.02964E-02 9.31185E-03-5.49676E-02
 -1      2005 1.30045E-02-1.38730E-02-5.49260E-02
 -1      2006 1.42317E-02 8.77167E-03-5.36068E-02
 -1      2007 1.57324E-02-1.00532E-02-7.93772E-02
 -1      2008 2.10082E-02-9.01143E-03-5.78857E-02
 -1      2009 1.77895E-02 7.23362E-03-7.78168E-02
 -1      2010 2.18714E-02-4.31715E-03-7.03468E-02
 -1      2011 3.39316E-02 4.72612E-03-1.60901E-01
 -1      2012 1.34283E-02 3.39762E-04-5.05254E-02
 -1      2013 7.76083E-04-7.30637E-04-8.21044E-01
 -1      2014 2.11049E-02-2.51050E-02-1.51346E-01
 -1      2015-5.59222E-03 1.24390E-02-4.85742E-02
 -1      2016 8.98836E-03-3.17861E-02-1.20540E-01
 -1      2017 1.31070E-02-6.85633E-03-3.61951E-02
 -1      2018-2.47912E-02-1.79779E-02-2.43073E-01
 -1      2019-1.71831E-02-2.64433E-02-2.49810E-01
 -1      2020 7.52351E-03-1.75646E-02-4.39643E-02
 -1      2021-2.73877E-02-7.49888E-03-2.35295E-01
 -1      2022-1.51701E-02 2.23279E-02-2.25876E-01
 -1      2023 8.50242E-03 1.71728E-02-8.72549E-02
 -1      2024-8.88548E-03 9.01893E-03-4.84848E-02
 -1      2025-1.68446E-02 1.22515E-02-5.33566E-02
 -1      2026-1.32018E-02 3.40647E-02-5.95824E-01
 -1      2027 1.99050E-02-6.09158E-03-8.10658E-02
 -1      2028-2.20827E-02 8.98613E-03-8.92482E-02
 -1      2029 2.26790E-02 2.39956E-03-5.62628E-02
 -1      2030-3.33040E-02 7.85651E-03-1.56200E-01
 -1      2031-2.30961E-02-9.47038E-04-3.65673E-02
 -1      2032 4.94971E-03 1.64435E-02-9.81457E-02
 -1      2033-2.86930E-02-4.49960E-03-9.62937E-02
 -1      2034-3.50526E-03 8.97304E-03-3.53050E-02
 -1      2035-2.39243E-02 1.48417E-02-9.98099E-02
 -1      2036-5.79171E-03 1.28577E-02-3.91454E-02
 -1      2037-2.71434E-02 1.81760E-02-1.64259E-01
 -1      2038-1.09474E-02 2.32305E-03-3.53540E-02
 -1      2039-9.85696E-03 1.65477E-02-5.26643E-02
 -1      2040 1.36421E-02 1.07529E-02-9.92957E-02
 -1      2041-1.71094E-02-4.31105E-03-6.29097E-02
 -1      2042 5.40168E-03 1.11493E-02-3.31235E-02
 -1      2043 6.43000E-03-1.71185E-02-4.95892E-02
 -1      2044-2.77294E-02-2.74911E-03-8.35155E-02
 -1      2045-2.10564E-02 1.54809E-02-1.77592E-01
 -1      2046-2.34410E-02-2.65542E-02-6.73625E-01
 -1      2047 3.36036E-03 2.29097E-02-1.88502E-01
 -1      2048 1.63904E-02-1.27457E-02-8.93352E-02
 -1      2049 1.65910E-02-1.02670E-02-9.88775E-02
 -1      2050-1.64952E-02 2.09960E-02-1.01302E-01
 -1      2051 2.37350E-02 1.50568E-02-1.80104E-01
 -1      2052-1.49666E-02 1.21270E-02-8.73967E-02
 -1      2053-1.53165E-02-2.63452E-02-1.62830E-01
 -1      2054 2.33683E-02-1.77455E-02-2.37392E-01
 -1      2055 2.99679E-02-7.21186E-03-2.34713E-01
 -1      2056-9.58066E-03 6.82733E-03-3.27547E-02
 -1      2057 2.43044E-02-5.32169E-03-9.46528E-02
 -1      2058 8.23542E-03-6.00595E-03-3.07187E-02
 -1      2059 9.45511E-03 3.85535E-02-3.32576E-01
 -1      2060 9.24334E-03 2.03563E-02-4.25840E-02
 -1      2061 2.34335E-02 1.96237E-03-7.70064E-01
 -1      2062 2.05220E-02-1.39934E-02-8.28358E-02
 -1      2063-4.96729E-03-2.82511E-02-9.11928E-02
 -1      2064-2.94623E-04-2.50456E-02-9.15609E-02
 -1      2065 1.80592E-02-3.95250E-03-8.86050E-02
 -1      2066-1.03405E-02-8.14379E-03-3.96089E-02
 -1      2067-2.33960E-02 3.81710E-03-1.75791E-01
 -1      2068-3.90219E-02 1.34287E-02-4.89259E-01
 -1      2069-6.60173E-03 1.93671E-02-8.60601E-02
 -1      2070 1.15071E-02 1.45255E-02-9.59655E-02
 -1      2071 2.82683E-02-3.29540E-03-1.50448E-01
 -1      2072-7.62847E-03-1.94004E-02-9.64212E-02
 -1      2073-6.18120E-03-2.72728E-02-1.84953E-01
 -1      2074-8.58793E-03-4.14931E-02-4.64430E-01
 -1      2075-5.94043E-03 2.55862E-02-1.81672E-01
 -1      2076 2.57417E-03 1.04037E-02-3.25110E-02
 -1      2077-1.35934E-02 1.41162E-03-4.73201E-02
 -1      2078-9.38232E-03 2.81536E-03-3.38736E-02
 -1      2079-4.07333E-02-9.65218E-03-4.62949E-01
 -1      2080 1.24541E-02-2.78255E-02-1.54645E-01
 -1      2081 8.36483E-03-2.26212E-02-1.02334E-01
 -1      2082-2.71875E-03-3.05653E-02-2.98328E-01
 -1      2083-2.04016E-02-3.71465E-03-9.75950E-02
 -1      2084-2.01970E-02-2.93747E-02-1.45730E-01
 -1      2085 1.01716E-02-1.56643E-02-7.05234E-02
 -1      2086 1.52191E-03-1.61476E-02-5.33330E-02
 -1      2087-1.62629E-02-1.92219E-02-9.98436E-02
 -1      2088-1.10026E-02 3.94215E-03-3.35384E-02
 -1      2089 1.60770E-02-2.20694E-02-1.60285E-01
 -1      2090-7.56865E-03 6.90616E-03-2.59461E-02
 -1      2091 2.64841E-02-1.11639E-03-7.34989E-02
 -1      2092-1.17477E-02-2.66844E-02-1.03856E-01
 -1      2093 7.36207E-03-1.79637E-02-4.48644E-02
 -1      2094-2.06408E-02 1.19503E-02-9.14778E-02
 -1      2095-4.59176E-03 2.28135E-02-9.27394E-02
 -1      2096-3.90373E-03 2.83851E-02-1.07868E-01
 -1      2097 1.13131E-02-7.84784E-03-3.22967E-02
 -1      2098-1.90366E-02 1.75499E-02-9.99349E-02
 -1      2099 1.37285E-02-5.28447E-03-3.05788E-02
 -1      2100 1.73687E-02-9.75266E-03-1.03754E-01
 -1      2101-1.43892E-02-6.96313E-03-4.14839E-02
 -1      2102-8.97421E-03-1.11265E-02-3.53243E-02
 -1      2103-1.12040E-02 1.89723E-02-9.81980E-02
 -1      2104-4.19441E-04 1.65558E-02-5.11140E-02
 -1      2105 2.75546E-02 2.63812E-02-5.40617E-01
 -1      2106 7.88566E-03-9.98002E-03-3.81755E-02
 -1      2107-3.61788E-02 1.37199E-02-2.66176E-01
 -1      2108 8.88598E-03 4.88958E-03-3.33577E-02
 -1      2109 2.13041E-02-1.23318E-03-5.44753E-02
 -1      2110 2.70534E-02 3.65664E-03-1.84402E-01
 -1      2111-1.25765E-02-2.61027E-04-3.75112E-02
 -1      2112-1.30550E-02 1.00762E-02-3.30098E-02
 -1      2113-2.48091E-02 6.28171E-03-1.02808E-01
 -1      2114-1.08842E-03 9.92621E-03-3.18431E-02
 -1      2115-7.73370E-03-1.63112E-02-4.27197E-02
 -1      2116-4.15373E-02 4.84951E-03-3.55468E-01
 -1      2117 1.37476E-02 2.32068E-03-3.96801E-02
 -1      2118 2.46723E-02 9.20001E-03-8.82141E-02
 -1      2119 1.02750E-03-1.39851E-02-3.79623E-02
 -1      2120-1.44806E-02 4.05730E-03-3.51360E-02
 -1      2121 1.19193E-02-2.18817E-03-3.67944E-02
 -1      2122 1.07933E-02-2.15660E-03-3.26696E-02
 -1      2123-8.17129E-03 3.69488E-03-2.66523E-02
 -1      2124 1.81666E-02 5.76528E-03-9.16537E-02
 -1      2125-7.69764E-03 1.06186E-02-3.73199E-02
 -1      2126-3.05768E-02-8.08838E-03-1.22860E-01
 -1      2127 5.75797E-03 9.59139E-03-3.27924E-02
 -1      2128 1.40410E-02 2.33406E-02-1.91099E-01
 -1      2129 2.72517E-03 1.24537E-02-3.80682E-02
 -1      2130 4.88384E-03 3.35423E-02-2.09221E-01
 -1      2131-5.31556E-03 3.54227E-02-2.48803E-01
 -1      2132-3.14765E-03 1.46846E-02-3.24378E-02
 -1      2133-2.01768E-02 3.44564E-02-2.63454E-01
 -1      2134-1.83329E-02 7.19262E-03-7.85688E-01
 -1      2135 4.26331E-02-3.70503E-03-4.74693E-01
 -1      2136-4.89106E-03-1.23379E-02-3.33557E-02
 -1      2137 5.77790E-03-9.20670E-03-3.42749E-02
 -1      2138 9.96624E-03 2.98464E-02-7.00577E-01
 -1      2139-2.24551E-02 2.54241E-03-9.50621E-02
 -1      2140-5.99540E-03 7.39004E-03-3.22756E-02
 -1      2141-2.73348E-02 2.16721E-02-6.43858E-01
 -1      2142-1.13643E-02-6.01328E-04-3.51445E-02
 -1      2143-1.61896E-02 2.65910E-02-7.18715E-01
 -1      2144-4.84570E-03 6.37399E-03-2.41732E-02
 -1      2145-2.89030E-02 2.99512E-02-4.41319E-01
 -1      2146-1.16533E-02 4.16640E-03-9.54665E-02
 -1      2147 1.17994E-02-8.37173E-04-2.31451E-02
 -1      2148-2.90800E-03-1.83952E-02-3.98097E-02
 -1      2149-3.98180E-03-3.06030E-02-1.06203E-01
 -1      2150-1.04173E-02-7.49972E-03-3.43088E-02
 -1      2151-1.04740E-02-1.12047E-02-5.02696E-02
 -1      2152 1.24037E-02 5.24619E-03-3.27214E-02
 -1      2153-3.57462E-02-4.77241E-03-6.51811E-01
 -1      2154 1.43063E-02-4.06997E-02-4.11372E-01
 -1      2155-1.22836E-02-6.98777E-03-3.52538E-02
 -1      2156 7.71442E-03 2.41443E-03-2.94730E-02
 -1      2157 5.28449E-03-8.31004E-03-3.69330E-02
 -1      2158-4.80841E-05 3.89863E-02-5.17549E-01
 -1      2159 2.68262E-02 3.61656E-03-2.87976E-01
 -1      2160-7.93695E-04 3.94040E-02-3.63836E-01
 -1      2161 3.60499E-03 1.03404E-02-7.96930E-01
 -1      2162-7.38107E-03 1.61851E-02-7.81081E-01
 -1      2163 5.93672E-03-3.06283E-02-2.85851E-01
 -1      2164-8.57915E-03 1.96397E-02-1.46335E-01
 -1      2165-1.72293E-02 2.11131E-03-9.86690E-02
 -1      2166-4.22604E-03-4.62311E-03-2.44183E-02
 -1      2167-1.12336E-02-5.79278E-03-3.37883E-02
 -1      2168 1.24188E-02 7.58733E-03-3.01662E-02
 -1      2169-3.83637E-02-4.94262E-03-2.38014E-01
 -1      2170 3.36487E-02-1.76469E-02-6.33232E-01
 -1      2171 1.20025E-02 1.62723E-03-3.14510E-02
 -1      2172-2.95717E-02 1.30415E-02-1.67340E-01
 -1      2173 1.11618E-02 1.98227E-03-2.99667E-02
 -1      2174 1.08597E-03-2.75749E-02-1.00338E-01
 -1      2175 1.66725E-02-3.49040E-02-6.37525E-01
 -1      2176-2.35305E-02-7.14328E-03-1.53843E-01
 -1      2177-3.94384E-02-9.27458E-03-2.61242E-01
 -1      2178 2.73489E-02 6.88584E-03-9.94777E-02
 -1      2179-4.94740E-03-1.07188E-02-3.57648E-02
 -1      2180 2.25726E-03-6.79829E-03-2.64766E-02
 -1      2181-2.74866E-02-1.19967E-02-1.15224E-01
 -1      2182 4.76166E-03-1.02577E-02-2.70839E-02
 -1      2183 1.13811E-02-9.81847E-04-3.33966E-02
 -1      2184-6.83414E-03 1.06980E-02-2.79793E-02
 -1      2185 1.22063E-03-1.22616E-02-8.04811E-01
 -1      2186 9.10481E-03-2.23921E-02-5.89771E-02
 -1      2187 5.57997E-03 8.16168E-03-2.97141E-02
 -1      2188-3.68478E-02 8.86239E-03-2.14089E-01
 -1      2189-3.12771E-03 3.46435E-02-6.25240E-01
 -1      2190 1.88702E-02-1.12195E-02-1.55202E-01
 -1      2191 5.42988E-03 1.67446E-02-4.21327E-02
 -1      2192 2.43946E-03-1.90070E-02-9.49768E-02
 -1      2193 3.94119E-03-2.58916E-02-8.41712E-02
 -1      2194 2.52588E-02-1.90087E-02-7.46922E-01
 -1      2195-3.20955E-02-2.38541E-02-3.09170E-01
 -1      2196-3.29100E-02-1.91197E-02-2.19941E-01
 -1      2197 1.48729E-02-2.01495E-02-9.23458E-02
 -1      2198 2.61365E-02 1.37549E-02-3.01154E-01
 -1      2199 2.08293E-05 2.24256E-02-1.29469E-01
 -1      2200-9.07545E-03-8.49717E-03-2.89740E-02
 -1      2201 1.29403E-02 3.41859E-02-5.78033E-01
 -1      2202 3.00265E-03 2.43724E-02-1.04572E-01
 -1      2203-1.32717E-03-1.04486E-02-2.54950E-02
 -1      2204 7.53684E-03 3.33155E-02-6.28469E-01
 -1      2205-5.17241E-03 3.00043E-02-7.29029E-01
 -1      2206-1.16553E-02 3.83628E-02-4.23763E-01
 -1      2207-3.61435E-03 8.54873E-03-2.45897E-02
 -1      2208-3.70176E-02 9.26077E-03-6.03280E-01
 -1      2209-4.28337E-02-2.44749E-03-3.69315E-01
 -1      2210 9.08054E-03 3.37545E-02-1.96325E-01
 -1      2211-4.05212E-02 8.18978E-03-3.13833E-01
 -1      2212 1.24055E-02 8.78724E-03-3.97674E-02
 -1      2213 5.69621E-03-2.02268E-02-1.00699E-01
 -1      2214-3.53704E-02-1.56913E-02-5.76287E-01
 -1      2215 3.77028E-02-7.04339E-03-2.45665E-01
 -1      2216-4.11785E-02 5.29587E-04-4.95202E-01
 -1      2217-9.15172E-03-2.23390E-02-9.67833E-02
 -1      2218-2.70246E-02-1.24949E-02-7.54131E-01
 -1      2219 2.41102E-02-3.55689E-02-3.34967E-01
 -1      2220 2.66459E-02 2.00659E-02-6.78938E-01
 -1      2221-3.85455E-03 3.03798E-02-1.69631E-01
 -1      2222-1.07816E-03-7.81582E-03-8.08956E-01
 -1      2223-2.44824E-02-1.62261E-02-1.54320E-01
 -1      2224-8.37084E-03-3.38011E-02-1.84270E-01
 -1      2225-3.05047E-02 1.70169E-02-2.02990E-01
 -1      2226 3.57363E-02 1.24703E-02-2.47320E-01
 -1      2227 7.53884E-03-7.71954E-03-3.41565E-02
 -1      2228-3.75966E-03 5.56178E-03-8.05938E-01
 -1      2229-3.86765E-03-4.17125E-02-3.08862E-01
 -1      2230 3.68747E-02 1.14101E-03-6.29351E-01
 -1      2231 2.24569E-02 6.99732E-03-9.58521E-02
 -1      2232 3.97551E-02-7.03310E-03-5.77329E-01
 -1      2233-1.38369E-02-4.06326E-02-3.28333E-01
 -1      2234-3.83051E-02-1.82207E-02-3.50630E-01
 -1      2235-3.60487E-02-4.68543E-03-1.81759E-01
 -1      2236-2.43831E-02 1.43168E-02-2.76807E-01
 -1      2237 4.25387E-02 4.16279E-03-3.46110E-01
 -1      2238-1.55578E-02 2.19091E-02-3.10744E-01
 -1      2239-2.07313E-02-8.34775E-03-1.04038E-01
 -1      2240-3.16067E-02 5.32144E-04-1.71503E-01
 -1      2241 1.28707E-02-3.03100E-02-7.39051E-01
 -1      2242-3.52468E-02 1.62564E-02-5.68287E-01
 -1      2243-3.21659E-02 7.94109E-03-7.07924E-01
 -1      2244-1.39456E-02-2.16178E-02-5.71049E-02
 -1      2245 1.69181E-02 2.30647E-02-1.30824E-01
 -1      2246 7.30344E-03-2.38161E-03-8.18078E-01
 -1      2247-8.35284E-03-6.22272E-03-8.09526E-01
 -1      2248 4.38907E-02-3.49291E-03-3.49486E-01
 -1      2249 4.01553E-02 6.45999E-03-4.94604E-01
 -1      2250-1.19910E-02-2.06963E-02-7.66006E-01
 -1      2251 3.80335E-02 1.06237E-03-2.29955E-01
 -1      2252-4.28110E-02-5.66330E-04-2.94592E-01
 -1      2253-3.40866E-02 2.24726E-02-3.52127E-01
 -1      2254 3.14314E-02-2.52538E-02-2.23922E-01
 -1      2255 4.12159E-02 2.07239E-05-5.43264E-01
 -1      2256-9.95424E-03-2.75947E-03-2.43727E-02
 -1      2257 2.15029E-02-2.90583E-02-6.92576E-01
 -1      2258 2.82958E-02-2.25428E-02-6.82335E-01
 -1      2259-5.21705E-03 3.92579E-02-4.56102E-01
 -1      2260-1.68565E-02-6.23276E-03-3.88540E-02
 -1      2261 2.80770E-02-2.99550E-02-5.80960E-01
 -1      2262-1.95179E-02-3.01595E-02-1.71086E-01
 -1      2263 4.68001E-03 2.62052E-02-2.90271E-01
 -1      2264-2.00944E-02-1.48351E-02-1.12329E-01
 -1      2265-2.84555E-02-2.77163E-02-2.16022E-01
 -1      2266-3.95993E-02 3.91419E-03-2.52449E-01
 -1      2267 3.24209E-02-8.37212E-03-1.84843E-01
 -1      2268 4.36227E-02-1.50967E-03-4.21019E-01
 -1      2269 3.29482E-02 2.20026E-02-3.72990E-01
 -1      2270-2.92574E-02 2.66495E-02-5.47642E-01
 -1      2271-3.81201E-02 1.60859E-02-3.78564E-01
 -1      2272-1.21114E-02-3.67235E-02-2.39424E-01
 -1      2273-3.03854E-03-3.64513E-02-6.30655E-01
 -1      2274 5.16765E-03 1.38043E-03-2.85997E-02
 -1      2275 1.66739E-02 3.55496E-02-4.24835E-01
 -1      2276 2.46984E-02-1.73657E-02-3.19748E-01
 -1      2277-5.99846E-03-3.72963E-02-1.96862E-01
 -1      2278-2.09427E-02 3.53524E-02-3.94305E-01
 -1      2279-9.72379E-03 3.34236E-02-2.19611E-01
 -1      2280-1.37143E-04 3.69505E-02-2.60054E-01
 -1      2281-2.61086E-02 3.06218E-02-2.90464E-01
 -1      2282 3.26154E-02 7.20736E-03-6.98525E-01
 -1      2283 7.89165E-03-4.00060E-02-2.65970E-01
 -1      2284 4.02180E-02-1.58976E-02-3.68833E-01
 -1      2285 1.87254E-02 1.76570E-02-7.55912E-01
 -1      2286 2.17625E-02 1.85771E-02-1.27737E-01
 -1      2287 2.48187E-02-1.65882E-03-9.95733E-02
 -1      2288-7.96171E-03-2.93741E-03-8.04136E-01
 -1      2289 2.27238E-03 1.26209E-02-2.84391E-02
 -1      2290 1.85742E-02 2.56227E-02-6.98818E-01
 -1      2291 1.43813E-02 3.07777E-02-6.47278E-01
 -1      2292-2.85208E-02 8.50245E-04-7.60375E-01
 -1      2293-2.54656E-02 6.05474E-03-2.76112E-01
 -1      2294-1.69673E-02-1.44021E-02-1.03387E-01
 -1      2295 1.79862E-02-7.53547E-03-4.98999E-02
 -1      2296 1.98568E-02 1.61241E-02-1.08893E-01
 -1      2297-3.56147E-02 1.99219E-02-4.43162E-01
 -1      2298-2.58527E-02-1.89871E-02-1.71110E-01
 -1      2299 6.39472E-03 8.56916E-03-3.07671E-02
 -1      2300-1.83295E-02-3.34076E-02-2.48056E-01
 -1      2301-7.58522E-03 2.60890E-02-2.84287E-01
 -1      2302 4.11698E-03-3.44956E-02-1.73518E-01
 -1      2303 8.78543E-03 3.66256E-02-2.43409E-01
 -1      2304-4.14281E-02-9.84245E-03-3.62722E-01
 -1      2305-1.05267E-02-1.98373E-02-9.17585E-02
 -1      2306 2.60559E-02 2.50300E-02-2.66365E-01
 -1      2307 1.23447E-02 2.72967E-02-1.73694E-01
 -1      2308-1.30220E-02-1.74462E-02-4.21967E-02
 -1      2309-2.50666E-02-3.21073E-02-2.92426E-01
 -1      2310 1.87911E-02 2.24958E-04-1.00439E-01
 -1      2311 1.61019E-02 1.93303E-02-8.91732E-02
 -1      2312-2.11402E-02 2.81635E-02-6.37291E-01
 -1      2313-8.81031E-03-1.09199E-03-2.58883E-02
 -1      2314 3.28173E-02-9.96359E-03-7.09520E-01
 -1      2315-7.89878E-03 5.04512E-03-3.01625E-02
 -1      2316-4.23737E-02-2.79478E-03-4.53464E-01
 -1      2317-4.08746E-02 8.01831E-03-4.42117E-01
 -1      2318 3.33920E-02 1.90841E-02-2.75341E-01
 -1      2319-3.92555E-02 8.87641E-03-5.22057E-01
 -1      2320-2.97595E-02 2.83123E-02-3.50199E-01
 -1      2321 5.80967E-03 3.91946E-02-4.25022E-01
 -1      2322 6.15421E-03 4.34879E-03-8.06055E-01
 -1      2323-1.24619E-02 2.22109E-02-1.37020E-01
 -1      2324-4.10034E-03 3.80714E-02-2.95915E-01
 -1      2325-6.09105E-03 4.61120E-03-3.35356E-02
 -1      2326 1.50343E-02-2.55406E-02-2.91762E-01
 -1      2327-2.63075E-02 2.49674E-02-2.50469E-01
 -1      2328 2.60796E-02-1.11364E-02-1.38890E-01
 -1      2329 1.50953E-02 2.34711E-02-2.91521E-01
 -1      2330-1.00757E-02 7.18822E-03-2.67871E-02
 -1      2331-2.98758E-02-2.97445E-02-3.07293E-01
 -1      2332 2.79173E-02-2.01377E-02-1.75589E-01
 -1      2333-1.65183E-03 6.89684E-03-2.65453E-02
 -1      2334-9.29517E-03 3.79171E-03-2.32992E-02
 -1      2335 1.85572E-02-3.91107E-02-5.20254E-01
 -1      2336-2.51433E-02-1.39036E-03-9.79436E-02
 -1      2337-2.47642E-02 3.37509E-02-3.72959E-01
 -1      2338 6.69661E-03-3.86791E-03-2.85076E-02
 -1      2339-3.24206E-02 2.51322E-02-4.19325E-01
 -1      2340 2.77853E-02 2.79266E-02-4.14449E-01
 -1      2341 8.62104E-03-8.33860E-03-3.40295E-02
 -1      2342-1.26592E-02-3.27456E-02-6.98079E-01
 -1      2343-1.91981E-02 3.44718E-02-5.10155E-01
 -1      2344 2.66986E-02 9.49656E-04-1.08984E-01
 -1      2345-7.30921E-03-3.08859E-04-2.62397E-02
 -1      2346-5.29493E-03 2.17258E-03-2.50964E-02
 -1      2347 3.28656E-02-3.39050E-03-1.78578E-01
 -1      2348-3.92158E-02-1.44590E-02-4.07948E-01
 -1      2349 2.53713E-02-2.97059E-02-2.42738E-01
 -1      2350-3.04246E-02 2.19980E-02-2.56014E-01
 -1      2351-2.36403E-02 2.73626E-02-2.16692E-01
 -1      2352-7.24591E-03-2.70968E-03-2.43663E-02
 -1      2353 9.21000E-03 2.60046E-03-2.39366E-02
 -1      2354 2.92894E-02 1.35534E-02-1.59722E-01
 -1      2355 5.17323E-03-3.58994E-02-6.75481E-01
 -1      2356 3.81298E-02 7.20769E-03-5.68417E-01
 -1      2357 1.17313E-02 1.85378E-02-1.07875E-01
 -1      2358 3.50753E-03 8.34167E-03-2.89350E-02
 -1      2359 3.62948E-02-2.26319E-02-3.37489E-01
 -1      2360-1.68212E-02 2.47606E-02-1.12708E-01
 -1      2361-2.71328E-02-3.01440E-02-5.00674E-01
 -1      2362 1.78966E-02 3.40469E-02-2.69472E-01
 -1      2363 3.86706E-02 1.43283E-02-3.82889E-01
 -1      2364 2.87186E-03-3.88028E-02-2.42226E-01
 -1      2365-3.90646E-02-8.12427E-03-5.61760E-01
 -1      2366 4.40318E-03-6.38132E-03-2.47978E-02
 -1      2367-2.23984E-03-3.36634E-02-7.27453E-01
 -1      2368-7.13290E-03-1.73536E-02-3.53884E-02
 -1      2369 6.02666E-03-4.08966E-02-5.53580E-01
 -1      2370 3.38069E-02 1.68991E-02-5.71484E-01
 -1      2371 4.22107E-02 1.76686E-03-3.07185E-01
 -1      2372 2.22701E-02-3.30114E-02-2.37404E-01
 -1      2373-9.69356E-04-1.43130E-02-3.39632E-02
 -1      2374-9.05500E-03 2.12181E-02-1.11744E-01
 -1      2375 2.67074E-03-4.33814E-02-4.14921E-01
 -1      2376 3.05298E-03 9.77210E-03-2.81895E-02
 -1      2377 9.74023E-03-4.16172E-02-4.70740E-01
 -1      2378 3.94831E-02-2.61500E-03-2.66024E-01
 -1      2379 2.07152E-02-2.13098E-02-1.28102E-01
 -1      2380-3.55819E-02-1.57607E-02-2.55770E-01
 -1      2381-3.10955E-02-2.84256E-02-4.15483E-01
 -1      2382 3.30285E-02 7.93692E-03-1.75456E-01
 -1      2383 2.84876E-02 2.32283E-02-6.05943E-01
 -1      2384-2.18366E-02 3.35224E-02-3.05056E-01
 -1      2385-3.04891E-03 3.37760E-02-2.14263E-01
 -1      2386-9.50334E-03 3.18943E-02-6.65199E-01
 -1      2387 4.08198E-03 2.41047E-02-7.57041E-01
 -1      2388-3.22144E-02-1.53582E-02-6.69729E-01
 -1      2389 3.79306E-02 7.04686E-03-2.53342E-01
 -1      2390-3.76201E-02-3.19243E-05-5.82416E-01
 -1      2391 2.92935E-02 2.59678E-02-3.46041E-01
 -1      2392-1.28036E-02-2.23446E-02-8.55252E-02
 -1      2393 9.74473E-03 7.93038E-03-3.08690E-02
 -1      2394 7.33256E-03 2.47728E-02-1.01729E-01
 -1      2395-1.62929E-02 3.70709E-02-3.42875E-01
 -1      2396-2.50156E-02-2.17598E-02-7.29520E-01
 -1      2397 1.56797E-02 3.67756E-02-3.52064E-01
 -1      2398-9.05424E-03-4.16286E-02-3.71217E-01
 -1      2399-3.51556E-02-2.14737E-02-3.87579E-01
 -1      2400-2.26195E-02-3.02267E-02-2.10189E-01
 -1      2401 2.25747E-02-1.89169E-02-1.10858E-01
 -1      2402-4.29934E-03-8.84649E-03-2.64455E-02
 -1      2403 2.20300E-02 2.82474E-02-5.96351E-01
 -1      2404-2.69275E-02-4.63634E-03-3.18861E-01
 -1      2405-2.02219E-02-3.71463E-02-3.53960E-01
 -1      2406-2.47668E-02 1.91468E-02-7.28076E-01
 -1      2407-2.48212E-03 2.79224E-03-8.13368E-01
 -1      2408-3.30515E-04-4.19875E-02-5.00930E-01
 -1      2409 1.18013E-02 3.83821E-02-4.02689E-01
 -1      2410 1.98252E-02 3.25892E-02-3.35071E-01
 -1      2411 2.82001E-02-4.54337E-03-1.22023E-01
 -1      2412-1.15757E-02 3.71813E-02-5.19640E-01
 -1      2413 2.33130E-02 2.77822E-02-1.98176E-01
 -1      2414 1.34267E-02-1.46826E-02-8.22730E-02
 -1      2415 3.40802E-02-2.55229E-02-5.49377E-01
 -1      2416 3.65753E-02-2.37172E-02-4.47306E-01
 -1      2417 3.90819E-02 1.33472E-02-4.87000E-01
 -1      2418-2.04654E-03-4.31456E-02-3.90973E-01
 -1      2419-8.29447E-03-3.82360E-02-2.71514E-01
 -1      2420 3.85796E-02 9.14834E-03-3.21524E-01
 -1      2421 1.91067E-02 3.34043E-02-5.11346E-01
 -1      2422 3.17337E-02-2.90416E-02-3.84985E-01
 -1      2423 4.01434E-02-1.55962E-02-4.93313E-01
 -1      2424 3.73806E-02-1.41371E-02-2.72725E-01
 -1      2425 4.09200E-02 7.21613E-03-4.10320E-01
 -1      2426 4.18970E-02-1.06216E-02-3.41233E-01
 -1      2427 1.01462E-02-3.77717E-02-2.15602E-01
 -1      2428 3.77696E-02-1.86145E-02-3.25001E-01
 -1      2429-8.20733E-03 3.63896E-02-5.84520E-01
 -1      2430 1.23874E-02-6.77848E-03-4.74071E-02
 -1      2431-3.28844E-02 2.26683E-02-5.10495E-01
 -1      2432 3.24493E-02-2.56706E-02-3.03298E-01
 -1      2433 5.43982E-03 7.15760E-03-2.11939E-02
 -1      2434 1.73529E-02-1.95963E-02-7.20253E-02
 -1      2435 2.77185E-02-1.70205E-02-1.32932E-01
 -1      2436-1.03741E-02-1.44631E-02-3.26484E-02
 -1      2437 2.93948E-02 1.92274E-02-1.96722E-01
 -1      2438-1.61967E-02-2.59842E-02-1.22768E-01
 -1      2439-4.02090E-02-5.98675E-03-2.91792E-01
 -1      2440 3.63198E-02-6.34279E-03-6.53558E-01
 -1      2441 2.26773E-02-8.85058E-03-7.63129E-01
 -1      2442-3.25019E-02-2.48828E-02-5.13455E-01
 -1      2443-4.30702E-02 8.04610E-04-4.14304E-01
 -1      2444-8.24778E-03 3.79904E-02-3.49568E-01
 -1      2445 9.40925E-03-4.23276E-02-3.60123E-01
 -1      2446-1.56862E-02-3.79142E-02-5.44486E-01
 -1      2447 3.10535E-02 2.42664E-02-4.72261E-01
 -1      2448-1.64073E-02-2.52215E-02-6.78046E-02
 -1      2449-2.92804E-02-3.98056E-03-1.62146E-01
 -1      2450-1.54062E-02-4.08382E-02-4.23446E-01
 -1      2451 7.62194E-03-5.82005E-03-2.68156E-02
 -1      2452 2.08468E-02-3.77345E-02-4.25102E-01
 -1      2453 2.63132E-02-3.43791E-02-5.01986E-01
 -1      2454 1.88104E-02-3.57683E-02-5.82014E-01
 -1      2455 3.16558E-02-2.00617E-02-2.55368E-01
 -1      2456 3.48382E-02-7.47580E-03-1.82360E-01
 -1      2457 2.85414E-02 8.92177E-04-1.55049E-01
 -1      2458 3.44590E-02 9.68895E-03-6.30454E-01
 -1      2459-3.27424E-03-1.05788E-02-2.71976E-02
 -1      2460-2.16622E-02 2.77135E-02-1.88373E-01
 -1      2461 3.47982E-02 1.94240E-02-4.36713E-01
 -1      2462 3.89883E-02-1.88131E-02-4.03738E-01
 -1      2463-1.78303E-03 1.28387E-02-2.86611E-02
 -1      2464 2.40989E-03-4.25693E-02-3.28188E-01
 -1      2465-8.88196E-03-3.87809E-02-5.51007E-01
 -1      2466-2.75545E-02-3.14690E-02-3.89264E-01
 -1      2467-1.96004E-02-3.64668E-02-4.58629E-01
 -1      2468 1.71474E-02-3.50863E-02-2.47137E-01
 -1      2469-2.68123E-02-2.99417E-02-2.40683E-01
 -1      2470 1.40821E-02 3.52094E-02-4.94177E-01
 -1      2471-2.99064E-02-2.16215E-02-6.27017E-01
 -1      2472-6.47566E-03-5.42620E-03-2.48352E-02
 -1      2473 1.21300E-02-4.03616E-02-3.03660E-01
 -1      2474-1.53008E-02-2.51865E-02-3.22264E-01
 -1      2475 2.95049E-02-2.62708E-02-6.13757E-01
 -1      2476 4.14866E-02-1.17124E-02-4.37070E-01
 -1      2477 9.56499E-03-3.72631E-02-1.95927E-01
 -1      2478-1.35191E-02-3.51590E-02-6.20587E-01
 -1      2479-2.52261E-02-2.86190E-02-5.90787E-01
 -1      2480 2.84516E-02-3.40050E-02-3.85925E-01
 -1      2481 3.02555E-02 2.28991E-02-2.84810E-01
 -1      2482-3.78865E-02-1.69142E-02-4.85667E-01
 -1      2483 1.51486E-02-3.85856E-02-5.72466E-01
 -1      2484 1.97514E-02-3.81026E-02-3.36945E-01
 -1      2485 8.26157E-03 3.70001E-02-5.45794E-01
 -1      2486 2.90576E-02-3.05441E-02-3.10830E-01
 -1      2487-4.10726E-03 2.16753E-02-7.68014E-01
 -1      2488-2.36205E-02 3.00526E-02-5.70257E-01
 -1      2489 2.23209E-02-5.17071E-02-7.67682E-01
 -1      2490 6.45397E-02-6.59928E-02-7.64197E-01
 -1      2491 9.39633E-03-1.08384E-02-7.93574E-01
 -1      2492-6.55591E-02-6.58064E-02-7.61131E-01
 -1      2493 2.01765E-02 4.83487E-02-7.69161E-01
 -1      2494 3.49695E-02 7.41446E-02-7.65782E-01
 -1      2495-4.12299E-02-4.50372E-02-7.65585E-01
 -1      2496-4.93234E-02-5.61220E-02-7.64746E-01
 -1      2497 1.85129E-02-1.50931E-02-6.20424E-01
 -1      2498-3.57008E-02-1.14472E-02-6.23049E-01
 -1      2499-4.99169E-02-2.23947E-02-7.66062E-01
 -1      2500 4.07887E-02-9.94271E-03-5.12646E-01
 -1      2501 3.77641E-03-7.40065E-03-8.07702E-01
 -1      2502 1.06373E-02 3.08050E-03-7.95371E-01
 -1      2503 1.28536E-02-2.05404E-02-6.16749E-01
 -1      2504 7.81061E-03-3.83695E-02-6.14930E-01
 -1      2505-2.43412E-02-5.57517E-02-7.67080E-01
 -1      2506 3.35540E-02-7.94228E-02-7.66058E-01
 -1      2507-1.48911E-02 3.47803E-02-5.58958E-01
 -1      2508-4.28010E-02 4.21596E-02-7.66882E-01
 -1      2509 3.94128E-02-4.10721E-02-7.69001E-01
 -1      2510 6.79751E-02-2.88752E-02-7.12632E-01
 -1      2511-2.74838E-03-2.18831E-02-7.76628E-01
 -1      2512-5.28584E-02-5.25592E-02-6.98118E-01
 -1      2513 3.25222E-02-6.53038E-02-7.66047E-01
 -1      2514 9.03030E-03 1.04396E-02-7.83627E-01
 -1      2515-2.56427E-02 5.56633E-02-7.67434E-01
 -1      2516-3.94185E-02 1.17322E-02-3.83570E-01
 -1      2517-8.52929E-02 3.45870E-02-7.61441E-01
 -1      2518 6.22759E-05-9.48514E-02-7.62753E-01
 -1      2519-2.94370E-02 2.53497E-02-7.67332E-01
 -1      2520-1.75584E-02-7.29387E-03-7.85470E-01
 -1      2521 8.05772E-02-6.90648E-02-7.59811E-01
 -1      2522 2.17128E-02 9.59588E-03-7.69205E-01
 -1      2523 2.52190E-02-6.55334E-02-7.66934E-01
 -1      2524 2.93810E-02 6.55797E-02-7.14192E-01
 -1      2525 3.87029E-02-1.49136E-02-5.56120E-01
 -1      2526 2.17843E-02 6.25929E-02-7.68149E-01
 -1      2527-6.17879E-02-5.22856E-02-7.63599E-01
 -1      2528 8.02799E-02 3.21233E-02-7.68884E-01
 -1      2529-2.31353E-03 7.89706E-02-7.66199E-01
 -1      2530-3.80279E-02 7.84902E-02-7.63463E-01
 -1      2531-3.18263E-02 6.74983E-02-7.02793E-01
 -1      2532-9.23668E-03-2.77485E-02-7.39876E-01
 -1      2533-7.60932E-02-3.19633E-02-7.63123E-01
 -1      2534 5.46480E-02-5.27259E-02-7.66865E-01
 -1      2535 3.53699E-02 3.47431E-02-7.71845E-01
 -1      2536 8.60779E-02-3.66507E-02-7.31090E-01
 -1      2537-4.87041E-02-1.41093E-03-7.65194E-01
 -1      2538-6.68389E-02-3.58338E-03-7.64137E-01
 -1      2539 1.11462E-02 2.07737E-02-7.51986E-01
 -1      2540 4.25010E-02 4.24977E-02-7.30082E-01
 -1      2541-2.37281E-02 2.62944E-02-7.68312E-01
 -1      2542 4.43049E-05 4.69181E-02-7.68589E-01
 -1      2543-3.09964E-02-2.34647E-02-5.68488E-01
 -1      2544 2.75001E-02-7.18571E-02-7.00007E-01
 -1      2545-3.92437E-03-2.48845E-02-6.19910E-01
 -1      2546 2.97750E-02 2.46478E-02-5.48635E-01
 -1      2547 3.04633E-02 4.50603E-03-7.39941E-01
 -1      2548-2.97200E-02 2.35646E-02-5.85330E-01
 -1      2549 7.29101E-02-3.10145E-02-7.68020E-01
 -1      2550-2.93701E-02-2.95849E-02-7.67920E-01
 -1      2551 3.86332E-02-7.48608E-02-7.64211E-01
 -1      2552 2.37154E-02-6.69303E-03-6.19637E-01
 -1      2553-6.07431E-03 1.00028E-01-7.60539E-01
 -1      2554 3.53108E-02 8.50976E-02-7.32082E-01
 -1      2555 3.00023E-02 1.69329E-02-6.30584E-01
 -1      2556 7.40913E-02-7.60540E-05-7.14375E-01
 -1      2557 6.72937E-02-5.59297E-02-7.62748E-01
 -1      2558-3.33007E-02 2.13461E-02-5.51360E-01
 -1      2559 5.33584E-02-5.43267E-02-7.01765E-01
 -1      2560 7.38351E-02-8.25860E-02-7.59168E-01
 -1      2561 8.35979E-02 4.29818E-02-7.65275E-01
 -1      2562-6.86709E-02-2.70244E-02-7.12851E-01
 -1      2563-8.30562E-03 3.53278E-03-7.98239E-01
 -1      2564-6.27757E-02-2.15624E-02-7.64189E-01
 -1      2565-3.47973E-02-8.08076E-02-7.64564E-01
 -1      2566-2.89276E-02-7.02247E-02-6.99753E-01
 -1      2567-2.60690E-02 7.21133E-02-7.65544E-01
 -1      2568-3.01446E-02 8.92064E-02-7.60782E-01
 -1      2569-6.37454E-02-6.19642E-02-7.24826E-01
 -1      2570-5.03041E-03-8.49989E-03-8.03828E-01
 -1      2571 6.33831E-02-4.93138E-02-7.64624E-01
 -1      2572 3.78819E-02-6.70408E-02-7.65412E-01
 -1      2573 2.27450E-02-5.73736E-02-7.31464E-01
 -1      2574 6.39954E-03-1.58680E-02-7.81831E-01
 -1      2575 3.56224E-02-1.28636E-02-6.18439E-01
 -1      2576-4.54331E-02 1.84846E-02-7.64500E-01
 -1      2577 3.64241E-02 1.66293E-02-7.70800E-01
 -1      2578-9.95754E-03-3.65437E-02-5.94468E-01
 -1      2579-4.26123E-02-3.70201E-02-7.67117E-01
 -1      2580 8.59672E-02-6.21375E-04-7.66226E-01
 -1      2581-8.16326E-02-7.00984E-02-7.57098E-01
 -1      2582-3.74345E-02 8.17691E-02-7.29308E-01
 -1      2583-7.12806E-02-7.75459E-02-7.58552E-01
 -1      2584-1.01714E-02 2.68894E-02-7.43526E-01
 -1      2585 1.63435E-03 3.64851E-02-5.78354E-01
 -1      2586 1.08373E-02 3.62889E-03-7.99387E-01
 -1      2587 2.88297E-02 6.14127E-02-7.67462E-01
 -1      2588 5.70389E-02 5.46587E-02-7.21292E-01
 -1      2589 9.60920E-02-3.66820E-02-7.61581E-01
 -1      2590 8.25618E-02-4.32030E-02-7.64694E-01
 -1      2591 3.55876E-02 7.40554E-03-6.10745E-01
 -1      2592-5.29109E-02-1.70472E-02-7.65824E-01
 -1      2593-5.37547E-02-6.06795E-03-7.66061E-01
 -1      2594-5.35677E-02 5.11434E-02-6.94624E-01
 -1      2595-8.60957E-03-1.10695E-01-7.54460E-01
 -1      2596-6.22323E-02-2.78796E-02-7.64298E-01
 -1      2597-3.46730E-02 6.48272E-02-7.66266E-01
 -1      2598 3.26892E-03 2.24288E-02-6.20149E-01
 -1      2599-3.86909E-02 5.15563E-03-5.66790E-01
 -1      2600 1.60151E-02-2.68559E-02-7.48190E-01
 -1      2601 3.98062E-02 4.27034E-03-5.31144E-01
 -1      2602 5.71882E-02 5.84856E-02-7.67667E-01
 -1      2603 1.27246E-02-3.99031E-02-5.17552E-01
 -1      2604-1.31372E-02-2.27322E-02-6.18213E-01
 -1      2605 2.27222E-02 3.02330E-02-5.49462E-01
 -1      2606-3.19245E-02 8.73552E-03-7.64040E-01
 -1      2607 2.53671E-02 7.90596E-02-7.66377E-01
 -1      2608-2.35691E-03 3.86972E-02-5.27570E-01
 -1      2609-7.80349E-03 3.35968E-02-6.28469E-01
 -1      2610-1.04856E-02 7.65290E-03-7.82539E-01
 -1      2611 5.51534E-02-3.02534E-02-7.68691E-01
 -1      2612-2.22000E-02-3.31449E-02-5.44360E-01
 -1      2613 2.44103E-02-3.37782E-02-5.49226E-01
 -1      2614 2.18071E-02-3.20743E-02-6.34391E-01
 -1      2615-9.46442E-06-3.96788E-02-5.73128E-01
 -1      2616 1.98340E-02 1.20548E-02-6.21267E-01
 -1      2617 3.08708E-02-2.20753E-02-6.45130E-01
 -1      2618-1.91868E-02-3.01697E-02-6.38657E-01
 -1      2619-1.70246E-02 3.57755E-02-7.66811E-01
 -1      2620-9.54099E-02 4.71682E-02-7.55405E-01
 -1      2621-6.59677E-02 6.19430E-02-7.60958E-01
 -1      2622-1.57870E-02-1.08384E-01-7.56174E-01
 -1      2623-6.96972E-02 2.69467E-02-6.97163E-01
 -1      2624-6.16055E-02-1.74554E-02-7.65300E-01
 -1      2625-4.07489E-03 3.27775E-02-7.69037E-01
 -1      2626-4.21217E-03-1.09207E-02-7.89516E-01
 -1      2627-7.01624E-02-9.97569E-03-7.63310E-01
 -1      2628-3.48017E-02-1.43961E-02-7.67437E-01
 -1      2629 5.81277E-03-1.07120E-01-7.58062E-01
 -1      2630 3.31101E-02-8.03811E-02-7.25639E-01
 -1      2631-4.41072E-02 7.17498E-02-7.63804E-01
 -1      2632-7.35493E-02-2.23010E-04-7.07333E-01
 -1      2633 2.93768E-03 9.10541E-02-7.63336E-01
 -1      2634 5.24503E-02-5.37484E-02-7.12350E-01
 -1      2635-4.92339E-02 5.53783E-02-7.63045E-01
 -1      2636 7.27265E-02 7.35330E-02-7.61615E-01
 -1      2637-4.70873E-02-4.74708E-02-7.21303E-01
 -1      2638-3.24827E-02-6.58678E-02-7.66275E-01
 -1      2639-4.29642E-02 3.46429E-02-7.65112E-01
 -1      2640 2.25809E-02-5.66481E-02-7.38289E-01
 -1      2641-5.30495E-02 5.01694E-02-7.09248E-01
 -1      2642 2.38419E-02-2.94618E-02-7.68494E-01
 -1      2643 6.09348E-02-2.77842E-03-7.70357E-01
 -1      2644-1.12961E-03 7.16505E-02-7.13975E-01
 -1      2645 5.77681E-02 2.61716E-02-7.70713E-01
 -1      2646-3.46107E-02-1.89156E-02-7.67017E-01
 -1      2647-5.17037E-02-2.90720E-02-7.65915E-01
 -1      2648-2.60334E-02-1.70178E-02-7.67797E-01
 -1      2649-1.60715E-02 3.17850E-02-6.00959E-01
 -1      2650 1.04793E-01-5.50825E-03-7.61165E-01
 -1      2651-1.63634E-02 2.28733E-02-7.51509E-01
 -1      2652 1.78889E-02 3.21382E-02-7.70668E-01
 -1      2653-2.50033E-02 9.33389E-02-7.62160E-01
 -1      2654 1.02313E-03 5.79179E-02-7.37960E-01
 -1      2655-2.87554E-02-6.93936E-02-7.12145E-01
 -1      2656-4.56252E-02-2.04230E-02-7.34650E-01
 -1      2657-3.91603E-02 3.73205E-02-7.24788E-01
 -1      2658 1.20147E-02-3.76160E-02-7.68067E-01
 -1      2659 6.53546E-02-8.88010E-02-7.58042E-01
 -1      2660-3.32853E-02 7.24542E-02-7.17471E-01
 -1      2661 1.00080E-02-3.94352E-02-5.78110E-01
 -1      2662-5.24119E-03 6.39605E-02-7.66909E-01
 -1      2663 1.54727E-02-3.57742E-02-7.68091E-01
 -1      2664 5.81072E-02-7.62494E-02-7.63625E-01
 -1      2665 1.76463E-03-7.69632E-02-7.01974E-01
 -1      2666-2.37364E-02-2.22238E-02-7.67098E-01
 -1      2667 6.83427E-02 2.81439E-02-7.15127E-01
 -1      2668-4.76048E-02 9.27208E-02-7.60120E-01
 -1      2669 2.07539E-03 3.17594E-02-7.69953E-01
 -1      2670 6.34472E-02-6.45464E-02-7.27843E-01
 -1      2671 2.57306E-02 2.06888E-02-7.70663E-01
 -1      2672-6.63491E-02 4.47888E-03-7.62891E-01
 -1      2673-2.66420E-02 9.64449E-03-7.44982E-01
 -1      2674 3.50662E-02 9.28283E-02-7.60696E-01
 -1      2675-4.21079E-02-7.75753E-02-7.63413E-01
 -1      2676 1.07666E-01-1.55945E-02-7.60845E-01
 -1      2677 1.06422E-01 7.03990E-03-7.60474E-01
 -1      2678 1.33984E-02 3.39772E-02-7.69832E-01
 -1      2679 4.55313E-02-1.11995E-01-7.29877E-01
 -1      2680 4.80794E-03-1.19687E-01-7.42800E-01
 -1      2681 3.24354E-02 7.65358E-02-7.27529E-01
 -1      2682 5.51638E-02 2.20089E-02-7.32760E-01
 -1      2683 5.26459E-02-5.97763E-02-7.66304E-01
 -1      2684 1.65417E-02-5.07885E-02-7.67625E-01
 -1      2685-4.30270E-02-9.85183E-02-7.58334E-01
 -1      2686 4.18286E-03-2.65977E-02-7.64384E-01
 -1      2687-2.13992E-02-5.17862E-02-7.29478E-01
 -1      2688 2.85245E-02 5.06621E-02-7.70056E-01
 -1      2689 3.89040E-02 1.64005E-03-5.89852E-01
 -1      2690 2.36370E-02 2.47066E-03-6.20497E-01
 -1      2691 3.63000E-02-8.84233E-02-7.28487E-01
 -1      2692 3.77306E-02 5.95732E-02-7.67113E-01
 -1      2693-3.53584E-02-2.97625E-02-7.67401E-01
 -1      2694 9.64797E-02 4.06136E-02-7.63340E-01
 -1      2695 8.18568E-02 7.58605E-03-7.67254E-01
 -1      2696 4.34731E-02-9.70591E-02-7.59666E-01
 -1      2697 1.57452E-02-1.85868E-02-7.71873E-01
 -1      2698 3.90832E-02 4.11115E-02-7.46876E-01
 -1      2699 2.35703E-02 2.58530E-02-7.72557E-01
 -1      2700-3.62501E-03 1.19721E-01-7.27351E-01
 -1      2701 3.45865E-02 1.13427E-02-7.71540E-01
 -1      2702-1.54745E-02-1.15287E-01-7.52663E-01
 -1      2703-3.57346E-02-8.49440E-02-7.26614E-01
 -1      2704-7.32030E-02-6.07216E-02-7.60387E-01
 -1      2705 4.20957E-02 5.59850E-04-7.71221E-01
 -1      2706 4.29483E-02 4.87451E-02-7.70997E-01
 -1      2707 1.13751E-03-6.80630E-02-7.31035E-01
 -1      2708-4.29283E-04 7.37399E-02-7.11539E-01
 -1      2709-5.95634E-02 6.83927E-02-7.61838E-01
 -1      2710-6.91275E-02 6.48210E-02-7.27084E-01
 -1      2711-7.09090E-02-3.82473E-02-7.62508E-01
 -1      2712 2.82760E-02-5.13726E-02-7.67267E-01
 -1      2713-3.95612E-02-4.99545E-02-7.65693E-01
 -1      2714-2.39856E-02-3.08297E-02-7.66917E-01
 -1      2715-1.76218E-02-2.61465E-02-7.67365E-01
 -1      2716-8.77082E-03-1.00772E-01-7.59299E-01
 -1      2717-3.98078E-02 9.58617E-02-7.40605E-01
 -1      2718 2.70578E-02-2.67211E-02-7.68772E-01
 -1      2719 3.62164E-02-1.87263E-02-7.71940E-01
 -1      2720-8.72747E-02-3.41443E-02-7.30297E-01
 -1      2721 2.23151E-02 5.02870E-02-7.03156E-01
 -1      2722 8.66490E-02-3.68978E-02-7.30776E-01
 -1      2723 4.16830E-02-5.19462E-02-7.67961E-01
 -1      2724 3.39235E-02 3.90442E-02-7.71542E-01
 -1      2725 6.64220E-02 6.48595E-02-7.31250E-01
 -1      2726 4.00871E-02-4.19895E-02-7.31136E-01
 -1      2727 7.17351E-02 3.70314E-02-7.68369E-01
 -1      2728 6.03992E-02 5.00030E-04-7.28075E-01
 -1      2729 4.30559E-02 4.00017E-02-7.40676E-01
 -1      2730-2.25540E-02 4.94537E-02-7.31840E-01
 -1      2731-2.42556E-02 8.27056E-02-7.64756E-01
 -1      2732 6.43118E-02 6.23276E-03-7.69586E-01
 -1      2733-6.56951E-02-6.35347E-04-7.16352E-01
 -1      2734-2.04985E-02 1.45446E-02-7.59675E-01
 -1      2735-4.50243E-02-5.97150E-02-7.65169E-01
 -1      2736 1.01872E-03 6.27631E-02-7.67850E-01
 -1      2737-3.45103E-02 3.98902E-02-7.67070E-01
 -1      2738-4.22441E-02 4.83106E-02-7.65613E-01
 -1      2739-2.71608E-02 3.39935E-02-7.67671E-01
 -1      2740-3.25559E-02 8.19983E-02-7.44279E-01
 -1      2741-7.33183E-02 7.78641E-02-7.55924E-01
 -1      2742 2.10076E-02-3.80662E-02-7.68504E-01
 -1      2743-8.77421E-05-5.52863E-02-7.67208E-01
 -1      2744-1.92359E-02-3.76849E-02-7.67955E-01
 -1      2745 8.50359E-02 3.58556E-02-7.33115E-01
 -1      2746 8.40359E-02 6.93503E-02-7.61234E-01
 -1      2747 7.18193E-02 5.95998E-02-7.62823E-01
 -1      2748 6.78994E-02 2.33392E-02-7.70534E-01
 -1      2749-3.88789E-02-3.88200E-02-7.28625E-01
 -1      2750 3.95324E-02-3.45484E-02-7.68735E-01
 -1      2751 5.33432E-03 7.60967E-02-7.66243E-01
 -1      2752-1.93033E-02-1.44708E-02-7.66268E-01
 -1      2753-5.42901E-02-5.75331E-02-7.38498E-01
 -1      2754-5.86783E-02-7.24835E-02-7.61324E-01
 -1      2755 8.31015E-03-9.55322E-02-7.60185E-01
 -1      2756 4.04685E-02-8.66121E-02-7.63202E-01
 -1      2757 5.76481E-03 5.28683E-02-7.69563E-01
 -1      2758 5.06927E-02-5.57133E-02-7.41001E-01
 -1      2759 1.11176E-01-4.72163E-02-7.32290E-01
 -1      2760-5.52467E-02 5.06310E-02-7.63814E-01
 -1      2761 4.86115E-02 4.36410E-02-7.69525E-01
 -1      2762-3.36244E-02-4.08188E-02-7.66314E-01
 -1      2763 6.14687E-02-6.80185E-02-7.43204E-01
 -1      2764-4.23419E-02-1.34813E-02-7.66410E-01
 -1      2765 3.19678E-02-7.21637E-02-7.40958E-01
 -1      2766 4.04652E-02-1.14899E-02-5.48713E-01
 -1      2767-6.97188E-02-5.31678E-02-7.61868E-01
 -1      2768 1.53827E-02-4.88240E-02-7.48535E-01
 -1      2769 8.18595E-03 8.58751E-02-7.64187E-01
 -1      2770 2.61009E-02 6.12209E-02-7.38428E-01
 -1      2771 3.28148E-02-9.36794E-02-7.60352E-01
 -1      2772 3.74924E-03-3.29784E-02-7.33051E-01
 -1      2773-5.60414E-03 5.04036E-02-7.68806E-01
 -1      2774 7.97531E-04-7.52895E-02-7.12047E-01
 -1      2775 4.66741E-02-5.98825E-02-7.67053E-01
 -1      2776-4.27158E-02-2.51066E-02-7.66584E-01
 -1      2777-7.99736E-03-1.06794E-02-7.96156E-01
 -1      2778 1.85860E-02-6.45630E-02-7.66531E-01
 -1      2779 3.83231E-02 4.71002E-02-7.70752E-01
 -1      2780-8.96242E-03-1.31108E-02-7.85718E-01
 -1      2781-5.60670E-02 1.99222E-02-7.21997E-01
 -1      2782 6.46129E-03 7.98894E-03-7.95402E-01
 -1      2783-1.04780E-02 8.71009E-02-7.63616E-01
 -1      2784-2.17693E-03 9.36279E-02-7.29335E-01
 -1      2785-4.57122E-02-8.81743E-02-7.61820E-01
 -1      2786-3.53050E-02 3.39101E-02-7.31233E-01
 -1      2787 5.93875E-02 6.91329E-02-7.66503E-01
 -1      2788-4.10045E-02 9.96822E-02-7.58051E-01
 -1      2789 1.52314E-02-1.17120E-01-7.55268E-01
 -1      2790-2.08393E-03 4.84578E-02-7.32985E-01
 -1      2791-9.22697E-02 6.30861E-04-7.58128E-01
 -1      2792-3.38731E-02-2.17943E-02-7.66917E-01
 -1      2793-1.41340E-02-9.71767E-02-7.59540E-01
 -1      2794 1.75613E-03-9.58447E-02-7.19623E-01
 -1      2795 4.09399E-02-8.54609E-02-7.43918E-01
 -1      2796-5.17370E-02-2.00634E-02-7.25875E-01
 -1      2797-1.08152E-01-6.24367E-03-7.54676E-01
 -1      2798 3.91260E-02-1.15585E-01-7.43076E-01
 -1      2799 2.76443E-02 9.18352E-02-7.62900E-01
 -1      2800 4.65186E-02 2.35908E-02-7.70877E-01
 -1      2801-2.07435E-02 4.47590E-02-7.31515E-01
 -1      2802-4.30407E-02 8.98359E-02-7.30566E-01
 -1      2803-3.19400E-02 6.46643E-02-7.37637E-01
 -1      2804-5.86147E-03-5.66852E-02-7.67548E-01
 -1      2805-5.49250E-02-4.33672E-02-7.64769E-01
 -1      2806-5.51316E-02-5.12396E-02-7.39835E-01
 -1      2807-2.55590E-02-5.03181E-02-7.67055E-01
 -1      2808 2.23359E-02 3.95547E-02-7.70115E-01
 -1      2809 4.92423E-02 5.96656E-02-7.67618E-01
 -1      2810-1.59271E-02-4.56415E-02-7.68618E-01
 -1      2811-2.56312E-02-7.32021E-02-7.65182E-01
 -1      2812-3.08967E-02-9.59247E-02-7.61027E-01
 -1      2813 3.31777E-02-4.01119E-02-7.68723E-01
 -1      2814 5.95958E-02-8.45738E-02-7.61173E-01
 -1      2815-5.41271E-02-9.69409E-02-7.57555E-01
 -1      2816-5.10453E-02 4.79359E-03-7.64262E-01
 -1      2817 8.63673E-02-8.69695E-02-7.30913E-01
 -1      2818 8.21241E-02-8.80748E-02-7.39699E-01
 -1      2819 1.33822E-03 8.96335E-03-7.88951E-01
 -1      2820 3.70231E-02-3.54643E-02-7.33562E-01
 -1      2821 4.35890E-02-2.63035E-02-7.70181E-01
 -1      2822-2.40071E-02-3.45571E-02-7.66804E-01
 -1      2823-1.06554E-01-4.48884E-02-7.41894E-01
 -1      2824-9.40798E-02-4.37143E-02-7.56071E-01
 -1      2825 1.39835E-02-2.87049E-02-7.68443E-01
 -1      2826 9.04103E-02 3.01096E-02-7.65458E-01
 -1      2827 4.13629E-02 3.23284E-02-7.70705E-01
 -1      2828-4.52208E-02-1.12592E-01-7.26046E-01
 -1      2829-2.91806E-03-7.53578E-02-7.65505E-01
 -1      2830 8.64675E-03 6.13446E-03-7.91496E-01
 -1      2831 8.76734E-02 3.75104E-02-7.33344E-01
 -1      2832 3.33569E-02 3.69117E-02-7.55618E-01
 -1      2833-3.84140E-03 7.19890E-02-7.38782E-01
 -1      2834-7.35196E-02 8.77489E-02-7.52853E-01
 -1      2835-6.36851E-03 7.38959E-02-7.65249E-01
 -1      2836-2.19947E-02 7.37154E-02-7.65889E-01
 -1      2837-6.98436E-03 4.14989E-02-7.69303E-01
 -1      2838-1.27148E-02 3.42310E-02-7.69090E-01
 -1      2839 1.14348E-02-4.41801E-02-7.68065E-01
 -1      2840 7.69056E-02 4.38686E-02-7.67442E-01
 -1      2841 4.07483E-03-1.64146E-02-7.86297E-01
 -1      2842 5.44493E-02-5.38317E-02-7.36206E-01
 -1      2843-3.93402E-02-5.71554E-02-7.65332E-01
 -1      2844-4.83588E-02 4.09573E-02-7.64955E-01
 -1      2845-5.05332E-02 3.77677E-02-7.64245E-01
 -1      2846-2.01241E-03-1.08150E-02-7.91081E-01
 -1      2847-2.60205E-02-8.49738E-02-7.61880E-01
 -1      2848 1.06542E-01-3.45901E-02-7.59931E-01
 -1      2849-1.00656E-02-8.70151E-03-7.88100E-01
 -1      2850 6.31206E-02 2.77249E-02-7.39971E-01
 -1      2851-9.05842E-02-3.04708E-02-7.59128E-01
 -1      2852-2.39769E-02 4.30862E-03-7.71404E-01
 -1      2853 4.21739E-02 8.37733E-02-7.62949E-01
 -1      2854-5.29635E-02-8.98592E-02-7.60243E-01
 -1      2855 5.60439E-03 1.09636E-01-7.59346E-01
 -1      2856-8.59599E-02-6.27405E-02-7.57486E-01
 -1      2857-3.51243E-02 3.91580E-02-7.46040E-01
 -1      2858-4.04736E-02-6.87599E-02-7.64915E-01
 -1      2859-2.91665E-02-3.41697E-02-7.37634E-01
 -1      2860-3.87153E-03 2.55190E-02-7.69450E-01
 -1      2861 9.43937E-02-3.97540E-04-7.31477E-01
 -1      2862-3.34490E-02-8.63559E-02-7.31057E-01
 -1      2863-2.00958E-02-6.26056E-02-7.67138E-01
 -1      2864-2.03206E-02-7.22436E-02-7.65282E-01
 -1      2865-2.49304E-02-6.10785E-02-7.36784E-01
 -1      2866 1.14075E-01-1.12110E-02-7.57572E-01
 -1      2867-4.99999E-02-1.43419E-02-7.65680E-01
 -1      2868-6.10999E-02-1.00365E-02-7.64935E-01
 -1      2869 3.12223E-03 2.54437E-02-7.69630E-01
 -1      2870 4.66975E-03 3.41865E-02-7.69560E-01
 -1      2871-3.47318E-02-3.75522E-03-7.67801E-01
 -1      2872 4.58405E-02 1.08172E-01-7.32375E-01
 -1      2873 2.06960E-02 4.72830E-02-7.33636E-01
 -1      2874 2.30031E-02 8.77516E-02-7.63974E-01
 -1      2875 3.51018E-02 5.35860E-02-7.68197E-01
 -1      2876 1.01401E-01 4.76198E-02-7.58843E-01
 -1      2877-6.38301E-02-5.25401E-02-7.47569E-01
 -1      2878 3.33558E-04-1.22035E-01-7.23813E-01
 -1      2879-1.79974E-02 4.36345E-02-7.67669E-01
 -1      2880 3.79666E-02 6.84855E-02-7.65422E-01
 -1      2881 3.62652E-02-1.04384E-01-7.57850E-01
 -1      2882-6.11914E-02 5.79857E-02-7.27857E-01
 -1      2883 2.88426E-02 6.30167E-02-7.43608E-01
 -1      2884-3.36619E-02 1.77446E-03-7.65225E-01
 -1      2885-3.01096E-02-6.74768E-02-7.39489E-01
 -1      2886-3.34258E-02-4.66185E-02-7.67093E-01
 -1      2887-5.08720E-02-3.86034E-02-7.66005E-01
 -1      2888 2.52887E-02-8.33191E-02-7.62282E-01
 -1      2889-9.83524E-02-4.92945E-02-7.55490E-01
 -1      2890 1.06044E-01 3.31692E-02-7.61776E-01
 -1      2891 1.91673E-02 7.18267E-02-7.67294E-01
 -1      2892-6.51197E-02-4.94016E-02-7.63577E-01
 -1      2893-6.17847E-02-3.28495E-02-7.64988E-01
 -1      2894 9.08839E-02 4.73963E-02-7.62377E-01
 -1      2895 7.95969E-02 6.30635E-02-7.62363E-01
 -1      2896-4.97202E-02 4.44876E-02-7.38508E-01
 -1      2897 8.50790E-02 8.44188E-02-7.31991E-01
 -1      2898 4.93557E-02-8.96884E-02-7.61391E-01
 -1      2899-4.91562E-02 1.45672E-03-7.28395E-01
 -1      2900 9.39171E-02 9.80315E-03-7.63048E-01
 -1      2901 8.10481E-03 6.66432E-02-7.67545E-01
 -1      2902-8.06355E-02-7.32079E-03-7.61261E-01
 -1      2903 5.30967E-02-6.87326E-02-7.65233E-01
 -1      2904 2.69218E-02 3.29523E-02-7.71324E-01
 -1      2905 9.32909E-02-6.27267E-04-7.30196E-01
 -1      2906 3.45719E-02 2.55054E-02-7.70709E-01
 -1      2907 6.58870E-02 7.92726E-02-7.61923E-01
 -1      2908 4.02195E-02 1.09824E-01-7.42021E-01
 -1      2909-7.59493E-03-7.00685E-02-7.66871E-01
 -1      2910 5.15030E-02-2.46234E-02-7.32653E-01
 -1      2911 5.51478E-02-1.03050E-01-7.56158E-01
 -1      2912-4.90414E-02 1.94259E-02-7.29356E-01
 -1      2913-1.06330E-02-3.50730E-02-7.68939E-01
 -1      2914 1.01335E-01 1.20066E-02-7.61834E-01
 -1      2915 1.12557E-01 1.50651E-02-7.59943E-01
 -1      2916 7.93500E-02 2.47410E-02-7.67028E-01
 -1      2917-2.58770E-02-9.75937E-02-7.61014E-01
 -1      2918-5.02307E-02 6.50299E-02-7.63780E-01
 -1      2919-6.52151E-02 7.68419E-02-7.59579E-01
 -1      2920 2.80740E-02 7.34369E-03-7.71840E-01
 -1      2921 3.78444E-02 9.75966E-03-7.72477E-01
 -1      2922-1.78503E-02 5.55484E-02-7.68156E-01
 -1      2923 4.43467E-02 7.59533E-02-7.64229E-01
 -1      2924-8.14635E-02-1.23656E-02-7.61459E-01
 -1      2925-2.23707E-03-8.89313E-02-7.37826E-01
 -1      2926-5.02820E-02-5.73301E-02-7.49711E-01
 -1      2927-1.01755E-02-1.77294E-03-7.88786E-01
 -1      2928-6.52661E-02-8.47541E-02-7.58834E-01
 -1      2929-2.38034E-03-3.79711E-02-7.67131E-01
 -1      2930-4.21702E-03-3.28008E-02-7.67374E-01
 -1      2931 1.29343E-02-4.49268E-03-7.95740E-01
 -1      2932 2.66266E-02-3.65744E-02-7.68732E-01
 -1      2933 4.25981E-02 5.59689E-02-7.68646E-01
 -1      2934 3.62094E-02-4.80952E-02-7.67843E-01
 -1      2935 3.47355E-02-4.44914E-03-7.70821E-01
 -1      2936 3.40017E-02 2.53392E-03-7.72489E-01
 -1      2937 8.77988E-02 2.24554E-02-7.66707E-01
 -1      2938 7.79225E-02 2.06196E-02-7.68450E-01
 -1      2939 3.00858E-02-1.02147E-01-7.58890E-01
 -1      2940-4.17928E-02-4.03499E-02-7.43925E-01
 -1      2941-8.41450E-02 1.45184E-03-7.30416E-01
 -1      2942-8.23476E-02-2.43525E-02-7.61599E-01
 -1      2943 1.57144E-02 5.16031E-02-7.68963E-01
 -1      2944 2.95953E-02 4.63958E-02-7.69676E-01
 -1      2945-5.62322E-02-3.38398E-02-7.65843E-01
 -1      2946 1.11447E-01 4.70276E-02-7.30067E-01
 -1      2947-9.47863E-02 4.44166E-04-7.27194E-01
 -1      2948 6.01559E-02 4.94595E-02-7.67959E-01
 -1      2949 5.66510E-02 3.20818E-02-7.69644E-01
 -1      2950 5.19456E-02 6.83269E-02-7.66396E-01
 -1      2951 3.83015E-02-4.40430E-02-7.46321E-01
 -1      2952 4.37089E-02-5.40267E-02-7.50804E-01
 -1      2953-4.69175E-02 8.10442E-02-7.61608E-01
 -1      2954-7.28140E-02-1.43833E-03-7.37380E-01
 -1      2955 2.00095E-03 4.77659E-02-7.49663E-01
 -1      2956-8.26335E-02-4.50276E-02-7.59688E-01
 -1      2957 3.40956E-02-5.79378E-02-7.66213E-01
 -1      2958 2.64458E-02-4.59497E-02-7.67920E-01
 -1      2959 2.37152E-02 4.92034E-02-7.48477E-01
 -1      2960-7.29720E-02-6.98675E-02-7.30102E-01
 -1      2961-4.30337E-02 5.49312E-02-7.64568E-01
 -1      2962-5.14813E-02 5.07686E-02-7.32905E-01
 -1      2963-4.62230E-02-1.73552E-02-7.42156E-01
 -1      2964-6.50174E-02 6.96220E-02-7.41135E-01
 -1      2965 3.17242E-02-5.06221E-03-7.34477E-01
 -1      2966 8.51772E-02-4.44358E-03-7.48152E-01
 -1      2967-6.16695E-02 9.96620E-02-7.56381E-01
 -1      2968 2.74473E-02-1.68576E-02-7.71563E-01
 -1      2969-6.64177E-02-2.80146E-02-7.33354E-01
 -1      2970-8.74261E-03 2.77821E-02-7.69148E-01
 -1      2971 1.05007E-02-8.07723E-03-7.90317E-01
 -1      2972-5.59962E-02-2.84203E-02-7.45767E-01
 -1      2973 4.87605E-02-1.75371E-02-7.70455E-01
 -1      2974 3.03873E-02 7.62477E-02-7.44374E-01
 -1      2975-3.93476E-02-4.57737E-02-7.45642E-01
 -1      2976-2.87851E-02 2.88211E-03-7.64922E-01
 -1      2977-6.37793E-02 2.71045E-02-7.62846E-01
 -1      2978-4.80750E-02-2.95616E-02-7.65997E-01
 -1      2979 5.35649E-02 6.18436E-04-7.46607E-01
 -1      2980 1.12651E-01-4.32542E-02-7.42970E-01
 -1      2981 1.08528E-01 5.03749E-02-7.46139E-01
 -1      2982-6.99898E-02 5.42716E-02-7.59713E-01
 -1      2983 4.41631E-02 1.94263E-02-7.27353E-01
 -1      2984-5.19377E-02 1.09465E-01-7.31158E-01
 -1      2985 5.21570E-02 1.73695E-02-7.71835E-01
 -1      2986 7.34722E-02 9.07522E-03-7.69239E-01
 -1      2987-4.36953E-02 7.75619E-02-7.62455E-01
 -1      2988-6.13602E-02 4.53573E-02-7.63027E-01
 -1      2989 5.16244E-02 5.47426E-03-7.71057E-01
 -1      2990 7.10371E-02 5.25414E-02-7.65366E-01
 -1      2991 7.35152E-02-7.92786E-02-7.41556E-01
 -1      2992 8.97041E-02 1.46185E-02-7.64979E-01
 -1      2993-1.38684E-02 8.37328E-02-7.64403E-01
 -1      2994-3.06305E-03 5.65176E-02-7.47064E-01
 -1      2995 7.08596E-02 6.62889E-02-7.35530E-01
 -1      2996-4.09502E-02 7.80475E-02-7.41801E-01
 -1      2997 4.52532E-02-1.00947E-01-7.40589E-01
 -1      2998-4.29191E-02-2.56527E-03-7.34951E-01
 -1      2999-7.39268E-02-1.92047E-02-7.62021E-01
 -1      3000 8.64090E-02 3.08241E-02-7.48059E-01
 -1      3001-7.61834E-02-4.47937E-02-7.61000E-01
 -1      3002 1.61019E-03-3.56412E-02-7.67570E-01
 -1      3003-4.65871E-02 8.85341E-02-7.42240E-01
 -1      3004 7.00820E-03-2.07656E-03-7.99706E-01
 -1      3005 5.16591E-02-4.33170E-02-7.68223E-01
 -1      3006 4.71064E-03-6.90966E-02-7.66602E-01
 -1      3007-3.05006E-02 4.14005E-02-7.66534E-01
 -1      3008 1.37342E-02-1.07845E-01-7.57492E-01
 -1      3009 3.51125E-02-1.36725E-02-7.71662E-01
 -1      3010 1.05300E-01 2.40525E-03-7.40529E-01
 -1      3011 4.59559E-02-1.47155E-02-7.70577E-01
 -1      3012-8.15059E-02 6.82377E-02-7.54845E-01
 -1      3013-3.88504E-02-8.13817E-02-7.42476E-01
 -1      3014-5.07981E-02-6.60626E-02-7.62845E-01
 -1      3015-8.41184E-04 8.66640E-02-7.33837E-01
 -1      3016 2.98006E-02-1.14826E-01-7.55396E-01
 -1      3017 4.91427E-02-9.14774E-02-7.46224E-01
 -1      3018 1.19715E-01-1.22947E-03-7.34495E-01
 -1      3019-4.07399E-02 4.94914E-03-7.65014E-01
 -1      3020-2.26088E-02-4.00738E-02-7.67958E-01
 -1      3021 4.06740E-03-5.13536E-02-7.67324E-01
 -1      3022 4.17067E-02-5.77702E-02-7.67608E-01
 -1      3023-6.91079E-02 4.91444E-02-7.61030E-01
 -1      3024 2.19074E-02-7.54529E-02-7.64596E-01
 -1      3025 2.84656E-02-9.28563E-02-7.60566E-01
 -1      3026 6.98407E-02 2.62826E-02-7.41965E-01
 -1      3027-1.27038E-02-2.85732E-02-7.68798E-01
 -1      3028 5.80104E-02 7.77003E-02-7.63841E-01
 -1      3029 2.79379E-02 1.41181E-02-7.71164E-01
 -1      3030 1.47669E-03-9.52237E-03-8.00009E-01
 -1      3031 4.58655E-02-2.00908E-02-7.35058E-01
 -1      3032-8.72375E-03-6.26387E-02-7.67194E-01
 -1      3033 4.34422E-02 1.95412E-02-7.46583E-01
 -1      3034 4.76305E-02-3.64435E-02-7.67964E-01
 -1      3035 1.19730E-03 7.32433E-02-7.45352E-01
 -1      3036-4.95182E-02 7.75666E-02-7.62067E-01
 -1      3037-5.66016E-02 9.16234E-02-7.58570E-01
 -1      3038 6.24834E-02 1.76964E-02-7.70694E-01
 -1      3039 3.09856E-02 7.12685E-04-7.43213E-01
 -1      3040 2.10138E-02 5.71564E-02-7.50634E-01
 -1      3041-3.71750E-02-3.27087E-02-7.51299E-01
 -1      3042 3.32580E-02-2.75390E-02-7.69523E-01
 -1      3043-5.72072E-03-8.68091E-02-7.63678E-01
 -1      3044-4.46036E-02-9.83146E-02-7.39465E-01
 -1      3045-3.25223E-02-1.79551E-02-5.96264E-01
 -1      3046 1.69148E-02 6.21660E-02-7.68316E-01
 -1      3047-8.02346E-02 3.24141E-02-7.25097E-01
 -1      3048-7.62426E-02-3.63253E-02-7.42313E-01
 -1      3049 4.36904E-02-8.16571E-02-7.62958E-01
 -1      3050-3.34576E-02 9.75231E-02-7.60337E-01
 -1      3051 4.54545E-02 1.31644E-02-7.72052E-01
 -1      3052 3.73072E-02 3.11904E-02-7.51440E-01
 -1      3053 4.97076E-02 1.84679E-02-7.48698E-01
 -1      3054-7.03380E-02 5.90850E-02-7.41409E-01
 -1      3055-7.65450E-02 3.75215E-02-7.61020E-01
 -1      3056-9.71506E-02-8.46264E-03-7.58751E-01
 -1      3057-8.55875E-02-8.15270E-02-7.32039E-01
 -1      3058 9.33656E-03 5.85906E-02-7.68559E-01
 -1      3059 1.30582E-02 3.89321E-04-7.88475E-01
 -1      3060 6.43624E-02 3.82826E-02-7.68477E-01
 -1      3061 1.16859E-01-3.61025E-02-7.47081E-01
 -1      3062 8.93202E-02 2.70059E-03-7.46324E-01
 -1      3063-6.77099E-02-4.14028E-02-7.63266E-01
 -1      3064 2.86673E-02-8.60292E-02-7.41220E-01
 -1      3065 3.54896E-02-6.99371E-02-7.51169E-01
 -1      3066 3.36415E-02-1.00449E-01-7.42419E-01
 -1      3067 5.40178E-02 4.12605E-02-7.68273E-01
 -1      3068-8.79866E-02-7.75150E-02-7.38769E-01
 -1      3069-6.64662E-02-3.33716E-02-7.48740E-01
 -1      3070-8.30102E-02-3.36103E-02-7.24211E-01
 -1      3071 1.01358E-01 3.75394E-02-7.45213E-01
 -1      3072-1.22672E-02-4.38752E-02-7.68338E-01
 -1      3073-2.97423E-02-1.07064E-02-7.66630E-01
 -1      3074-2.39462E-02 1.80378E-02-7.65473E-01
 -1      3075 8.41795E-04-8.00778E-02-7.34638E-01
 -1      3076 5.09441E-02 8.77977E-02-7.60781E-01
 -1      3077-1.07920E-01-1.31573E-02-7.57003E-01
 -1      3078-8.92676E-03-1.42911E-02-7.77852E-01
 -1      3079 4.54429E-02-4.22302E-02-7.45594E-01
 -1      3080 5.41079E-02 5.96870E-02-7.44911E-01
 -1      3081-6.15741E-02 1.87709E-02-7.63336E-01
 -1      3082-1.77534E-02 6.50843E-02-7.66981E-01
 -1      3083-5.36219E-02-1.06247E-01-7.40012E-01
 -1      3084-5.31729E-02-1.04512E-01-7.54927E-01
 -1      3085 2.93206E-02-7.06274E-03-7.71026E-01
 -1      3086 8.61698E-02 4.16349E-02-7.46562E-01
 -1      3087-3.63165E-02 4.55922E-02-7.65889E-01
 -1      3088-1.45421E-02 4.30991E-02-7.68189E-01
 -1      3089-5.30952E-02-4.38115E-02-7.48750E-01
 -1      3090 1.05223E-01-4.03530E-03-7.42721E-01
 -1      3091 1.31501E-02-2.32565E-03-7.86250E-01
 -1      3092 1.02355E-02 1.02933E-01-7.61035E-01
 -1      3093-3.36999E-02 1.55222E-02-7.66399E-01
 -1      3094 2.17415E-03-1.01858E-01-7.36033E-01
 -1      3095-2.52032E-02 1.23789E-02-7.65481E-01
 -1      3096 1.99731E-03-5.10341E-02-7.30252E-01
 -1      3097-1.06777E-01 3.79626E-03-7.56372E-01
 -1      3098 1.20516E-02 4.30548E-02-7.68739E-01
 -1      3099-8.30605E-02 8.06953E-03-7.60610E-01
 -1      3100-3.53797E-02 2.56613E-02-7.65776E-01
 -1      3101-7.30334E-03-1.35412E-02-7.79076E-01
 -1      3102 2.52423E-02-7.01374E-02-7.45683E-01
 -1      3103 7.54675E-03-5.43230E-02-7.67257E-01
 -1      3104 1.66983E-02 4.52658E-02-7.51639E-01
 -1      3105 2.53741E-02-2.56239E-03-7.62128E-01
 -1      3106 5.42507E-02 1.38286E-02-7.71303E-01
 -1      3107 2.00783E-02 3.11025E-02-7.70344E-01
 -1      3108 2.70377E-02-9.34457E-02-7.47466E-01
 -1      3109 6.76898E-02 5.83482E-02-7.47238E-01
 -1      3110-9.63305E-02 7.83150E-03-7.58444E-01
 -1      3111-9.32266E-02-7.03593E-02-7.52846E-01
 -1      3112-1.03912E-01-2.82839E-02-7.54745E-01
 -1      3113 3.13787E-02 1.06688E-01-7.57847E-01
 -1      3114 1.51210E-02 3.74469E-05-7.81722E-01
 -1      3115-1.53109E-02-2.80298E-02-7.67517E-01
 -1      3116 4.77443E-02 3.84375E-02-7.69585E-01
 -1      3117-6.67418E-02 8.48328E-02-7.58162E-01
 -1      3118 2.11444E-02 1.51345E-02-7.71173E-01
 -1      3119-5.40371E-02 5.92893E-02-7.44751E-01
 -1      3120 6.65835E-02-3.11113E-02-7.42919E-01
 -1      3121-3.05878E-03 2.20226E-02-6.16073E-01
 -1      3122 4.40396E-02 2.21135E-02-7.56408E-01
 -1      3123-3.59362E-02-4.60338E-02-7.54091E-01
 -1      3124-2.39184E-02-5.20706E-02-7.45337E-01
 -1      3125-9.04668E-02-4.18401E-02-7.41576E-01
 -1      3126 4.78322E-02 1.06550E-01-7.42147E-01
 -1      3127 4.78103E-02 9.54101E-02-7.59773E-01
 -1      3128 5.11851E-02-7.18437E-03-7.71087E-01
 -1      3129-3.24585E-02-5.82445E-02-7.66485E-01
 -1      3130 1.20796E-01 6.16662E-03-7.44749E-01
 -1      3131 8.62333E-02-2.74326E-02-7.65026E-01
 -1      3132-1.65843E-02-5.29685E-02-7.67985E-01
 -1      3133-6.19339E-03-4.49444E-02-7.67944E-01
 -1      3134-2.22606E-03-1.62274E-02-7.80159E-01
 -1      3135-3.77180E-02-1.08026E-01-7.58032E-01
 -1      3136 6.78914E-02-3.69149E-02-7.68186E-01
 -1      3137 9.77433E-02-2.96540E-02-7.61803E-01
 -1      3138-5.12767E-02 2.53348E-02-7.64553E-01
 -1      3139 5.88270E-02-4.54153E-02-7.66414E-01
 -1      3140 8.93975E-02 8.02899E-02-7.46110E-01
 -1      3141-1.25639E-02-9.05598E-02-7.62574E-01
 -1      3142 3.90997E-03 1.16252E-01-7.42716E-01
 -1      3143 1.12022E-01 4.26636E-02-7.43129E-01
 -1      3144-1.61769E-02 1.03066E-01-7.60501E-01
 -1      3145 7.20524E-02 1.61486E-03-7.46168E-01
 -1      3146 7.32841E-02-9.03562E-02-7.55350E-01
 -1      3147 2.40739E-02-2.13307E-02-7.69517E-01
 -1      3148-1.27894E-02 7.69218E-02-7.65340E-01
 -1      3149-8.61468E-02 8.16974E-02-7.35697E-01
 -1      3150 9.82673E-02 2.54133E-02-7.65554E-01
 -1      3151-6.80447E-03 8.52616E-02-7.42941E-01
 -1      3152 5.02753E-02-3.23003E-02-7.69426E-01
 -1      3153-6.67986E-02 3.51365E-02-7.62521E-01
 -1      3154-1.18397E-01-8.01151E-03-7.39064E-01
 -1      3155-1.07956E-02 3.62386E-02-7.68538E-01
 -1      3156 3.12611E-03 8.66707E-02-7.47038E-01
 -1      3157 5.57643E-02 9.57912E-02-7.58266E-01
 -1      3158-2.83996E-02-1.04146E-01-7.59924E-01
 -1      3159 2.65184E-02 1.01531E-01-7.60212E-01
 -1      3160-1.15270E-01-2.71955E-02-7.52007E-01
 -1      3161-8.10565E-02-8.57914E-02-7.41019E-01
 -1      3162-1.76299E-02 9.55904E-02-7.62386E-01
 -1      3163 4.12591E-02-8.63652E-03-7.70288E-01
 -1      3164-4.82779E-02-8.06300E-02-7.62013E-01
 -1      3165-1.80873E-02 4.63695E-02-7.47170E-01
 -1      3166 6.57403E-02 1.03747E-02-7.69726E-01
 -1      3167-4.27020E-02-3.25724E-02-7.66795E-01
 -1      3168-7.76036E-02 5.85861E-02-7.57559E-01
 -1      3169-8.90063E-02-3.05549E-02-7.38919E-01
 -1      3170 5.14610E-02-2.58156E-02-7.47908E-01
 -1      3171-6.37510E-02 2.64654E-02-7.38872E-01
 -1      3172-2.59064E-02 6.40040E-02-7.44774E-01
 -1      3173-4.43670E-02 1.10971E-01-7.42794E-01
 -1      3174 5.00108E-02-2.78369E-03-7.37235E-01
 -1      3175-7.83404E-02 3.52994E-02-7.40202E-01
 -1      3176-1.13109E-02 6.78017E-02-7.66403E-01
 -1      3177 4.42583E-02 7.07312E-02-7.65431E-01
 -1      3178 9.77374E-02 1.51845E-02-7.63978E-01
 -1      3179 8.79844E-03 2.78643E-02-7.69383E-01
 -1      3180-8.33132E-02-1.84093E-02-7.60828E-01
 -1      3181 8.84431E-02 5.33227E-02-7.63027E-01
 -1      3182-4.37148E-02-2.43941E-02-7.50059E-01
 -1      3183 9.41133E-02 7.35464E-02-7.58797E-01
 -1      3184-2.78305E-03-5.33071E-02-7.45636E-01
 -1      3185 4.47748E-02-2.44639E-02-7.55509E-01
 -1      3186 6.34827E-02 4.29428E-03-7.53904E-01
 -1      3187-6.71286E-02-2.45678E-02-7.37690E-01
 -1      3188 6.39790E-02 2.14692E-02-7.52041E-01
 -1      3189-5.03309E-03-1.46702E-02-7.83434E-01
 -1      3190 1.14482E-01-3.44679E-02-7.56869E-01
 -1      3191 3.28215E-02 1.13703E-01-7.46496E-01
 -1      3192-1.00722E-01-2.36859E-02-7.55797E-01
 -1      3193 3.81197E-02-3.43814E-02-7.51904E-01
 -1      3194-2.71222E-02-8.88393E-02-7.44590E-01
 -1      3195-7.84852E-02-2.45688E-02-7.44066E-01
 -1      3196 1.81004E-02 2.05293E-02-7.71723E-01
 -1      3197-1.30840E-02-1.04646E-02-7.78563E-01
 -1      3198 7.72417E-02 8.78530E-02-7.42700E-01
 -1      3199 7.31021E-02 8.59327E-02-7.57326E-01
 -1      3200 1.15468E-01 3.54014E-02-7.47295E-01
 -1      3201 1.09108E-02 6.41522E-03-7.86079E-01
 -1      3202 7.24450E-02 3.53702E-02-7.48546E-01
 -1      3203-1.74257E-02 2.12436E-02-7.67949E-01
 -1      3204-4.15832E-03 6.70798E-03-7.90784E-01
 -1      3205-1.54912E-02 2.74244E-02-7.67431E-01
 -1      3206 7.70157E-02 2.47470E-02-7.52099E-01
 -1      3207-4.20196E-02 3.01034E-02-7.65248E-01
 -1      3208-3.17125E-02-6.09839E-02-7.49556E-01
 -1      3209 6.97660E-02 2.01400E-02-7.69919E-01
 -1      3210 7.39755E-02 9.30563E-02-7.54833E-01
 -1      3211 6.90109E-02 9.11297E-02-7.56743E-01
 -1      3212-2.16087E-02-8.00358E-02-7.63359E-01
 -1      3213-8.92110E-02-4.95484E-02-7.57820E-01
 -1      3214-7.35912E-02 9.21196E-03-7.62172E-01
 -1      3215-4.33030E-02-6.86426E-03-7.66768E-01
 -1      3216-9.71059E-03 5.88484E-02-7.67708E-01
 -1      3217 8.98879E-03 1.22908E-02-7.83322E-01
 -1      3218-3.69018E-02 3.21296E-02-7.42700E-01
 -1      3219 1.28998E-02-4.80385E-03-7.85839E-01
 -1      3220-4.18329E-02 2.24588E-02-7.65339E-01
 -1      3221 4.09500E-02 8.90180E-02-7.38628E-01
 -1      3222-1.18982E-02-1.40733E-02-7.81045E-01
 -1      3223-1.34576E-03 1.03098E-01-7.37798E-01
 -1      3224 5.93075E-02 7.86686E-03-7.70330E-01
 -1      3225-9.84764E-03 2.54745E-03-7.88269E-01
 -1      3226-4.80903E-02-1.45287E-02-7.52028E-01
 -1      3227 2.15970E-02-9.25482E-02-7.61803E-01
 -1      3228 3.78152E-02 2.00127E-02-7.70972E-01
 -1      3229-7.55780E-02-6.97486E-02-7.37400E-01
 -1      3230-8.75570E-02-2.84533E-03-7.41774E-01
 -1      3231-1.13046E-02 4.13710E-03-7.82285E-01
 -1      3232 9.89216E-02 5.83746E-02-7.60123E-01
 -1      3233 5.99628E-03-8.43345E-02-7.64054E-01
 -1      3234-7.53938E-02-9.33069E-02-7.44404E-01
 -1      3235 9.01852E-02 6.63042E-02-7.60228E-01
 -1      3236-7.39618E-02 2.53483E-02-7.62077E-01
 -1      3237-9.00895E-02-1.26174E-02-7.60311E-01
 -1      3238-1.50734E-02 1.12918E-01-7.55086E-01
 -1      3239-7.30100E-02 4.07180E-02-7.60755E-01
 -1      3240 3.81388E-03-2.96785E-02-7.68560E-01
 -1      3241 9.64239E-03 7.33729E-02-7.66423E-01
 -1      3242 1.31475E-02 1.17664E-01-7.55797E-01
 -1      3243-2.89787E-03 9.48988E-03-7.91790E-01
 -1      3244-2.00880E-02 3.64990E-02-7.67047E-01
 -1      3245-2.51466E-02 4.81931E-02-7.67654E-01
 -1      3246 1.04953E-02 1.41740E-02-7.78319E-01
 -1      3247 6.29831E-02-8.80259E-03-7.68812E-01
 -1      3248 4.92778E-02-1.09219E-01-7.39412E-01
 -1      3249 7.20599E-02-8.92190E-02-7.44952E-01
 -1      3250 3.82588E-02-1.24359E-02-7.70748E-01
 -1      3251-7.67005E-02 5.30812E-02-7.59048E-01
 -1      3252-9.44905E-02 4.29871E-03-7.39571E-01
 -1      3253 6.54830E-03-8.99271E-02-7.43853E-01
 -1      3254 5.86492E-02-3.42766E-02-7.68576E-01
 -1      3255-7.90364E-03-2.69719E-02-7.68766E-01
 -1      3256-8.38847E-02 4.46271E-02-7.57913E-01
 -1      3257-9.01607E-02 2.67809E-02-7.59039E-01
 -1      3258-6.01364E-02 7.62252E-02-7.61074E-01
 -1      3259 7.29012E-03-3.09651E-02-7.68596E-01
 -1      3260 4.24169E-02 3.42569E-03-7.71502E-01
 -1      3261-8.96087E-02 6.45316E-02-7.55937E-01
 -1      3262-3.01313E-02 5.55797E-02-7.66589E-01
 -1      3263-2.73142E-02 4.46582E-02-7.66698E-01
 -1      3264 1.13995E-02 3.55061E-02-7.69282E-01
 -1      3265-6.45303E-02 8.50912E-03-7.62926E-01
 -1      3266 7.71974E-02-4.52675E-02-7.65822E-01
 -1      3267-5.48942E-02-7.53679E-02-7.61254E-01
 -1      3268-4.80878E-02 2.61620E-02-7.65134E-01
 -1      3269 1.04055E-02-1.09977E-02-7.83836E-01
 -1      3270 1.56712E-02-5.99697E-03-7.76652E-01
 -1      3271-6.89863E-02-7.60765E-02-7.42496E-01
 -1      3272 1.78767E-02-2.48582E-02-7.69216E-01
 -1      3273 3.15346E-02-4.33435E-02-7.68462E-01
 -1      3274-5.87606E-02 5.88612E-03-7.63481E-01
 -1      3275 1.21526E-02 1.10595E-01-7.58684E-01
 -1      3276-2.83079E-02-5.29264E-03-7.67268E-01
 -1      3277-8.87622E-02 1.13087E-02-7.60378E-01
 -1      3278-5.05263E-02 2.46068E-02-7.46009E-01
 -1      3279 3.53323E-02 7.64536E-02-7.40632E-01
 -1      3280-3.25494E-02-4.85500E-03-7.13408E-01
 -1      3281 1.04697E-01-3.01609E-02-7.60437E-01
 -1      3282-5.10290E-03 1.05365E-01-7.39790E-01
 -1      3283 1.15415E-01 3.02957E-02-7.57468E-01
 -1      3284-9.46010E-03-1.50743E-02-7.73295E-01
 -1      3285 1.97765E-02-8.42218E-02-7.63009E-01
 -1      3286-5.70687E-02-3.36298E-03-7.43453E-01
 -1      3287 7.56673E-02 5.68141E-02-7.64469E-01
 -1      3288-6.62718E-02 1.60730E-03-7.37861E-01
 -1      3289 2.32926E-02 4.27742E-02-7.56081E-01
 -1      3290 3.28567E-02-3.90111E-02-7.53991E-01
 -1      3291-1.48252E-02 5.17920E-02-7.67846E-01
 -1      3292 9.84230E-02 5.90067E-03-7.49446E-01
 -1      3293-7.21896E-02 1.90099E-02-7.61954E-01
 -1      3294 3.33967E-02 9.43538E-02-7.42015E-01
 -1      3295 2.36904E-02 6.79855E-02-7.51131E-01
 -1      3296 2.66436E-03-5.13389E-02-7.45209E-01
 -1      3297 3.54617E-02-2.19855E-02-7.70450E-01
 -1      3298 8.88753E-03-7.71983E-02-7.64255E-01
 -1      3299 5.95460E-02-2.60457E-02-7.68649E-01
 -1      3300 1.08156E-01 7.44037E-03-7.47414E-01
 -1      3301-7.85303E-02 4.56825E-02-7.59149E-01
 -1      3302 5.72718E-02-9.54688E-02-7.58886E-01
 -1      3303-6.40171E-03 1.10908E-02-7.78590E-01
 -1      3304 1.15047E-02-8.89461E-02-7.62239E-01
 -1      3305 8.09924E-02 7.15111E-02-7.44003E-01
 -1      3306-6.64653E-02 1.61020E-02-7.62394E-01
 -1      3307-9.43779E-02 5.56854E-02-7.54325E-01
 -1      3308-3.24787E-02-1.14661E-01-7.57771E-01
 -1      3309-1.18775E-01-1.50051E-02-7.52382E-01
 -1      3310 7.28533E-02 7.66210E-02-7.42421E-01
 -1      3311-8.79826E-03 1.20253E-02-7.73751E-01
 -1      3312-7.48963E-02 8.04215E-02-7.39167E-01
 -1      3313-1.09300E-01 4.94032E-02-7.39519E-01
 -1      3314 5.54421E-02-1.67844E-02-7.69955E-01
 -1      3315-4.66081E-02 1.51117E-02-7.39408E-01
 -1      3316 9.91464E-03-6.97573E-02-7.65251E-01
 -1      3317-8.62139E-02 3.39649E-02-7.23184E-01
 -1      3318-6.95429E-02 2.55686E-02-7.36031E-01
 -1      3319-8.13101E-02-4.37591E-02-7.47588E-01
 -1      3320 9.91427E-02-3.74204E-02-7.41104E-01
 -1      3321-2.41821E-02 7.35643E-02-7.50925E-01
 -1      3322-7.33384E-02 2.26554E-02-7.46278E-01
 -1      3323-9.22867E-02-2.39354E-02-7.58452E-01
 -1      3324 2.07001E-02-4.77883E-02-7.46003E-01
 -1      3325-7.36148E-02-6.03224E-02-7.45677E-01
 -1      3326-3.41529E-02 1.80974E-02-7.65425E-01
 -1      3327-6.01100E-02-6.71601E-02-7.45317E-01
 -1      3328-1.05660E-02 9.66066E-02-7.46168E-01
 -1      3329-4.95535E-02-6.65863E-03-7.51180E-01
 -1      3330-5.79766E-02 3.25636E-02-7.63474E-01
 -1      3331-1.21521E-01 1.52065E-03-7.21043E-01
 -1      3332 2.41850E-03 6.18037E-02-7.49980E-01
 -1      3333 4.20356E-03-7.09076E-02-7.45852E-01
 -1      3334 6.40630E-03-6.12914E-02-7.66828E-01
 -1      3335 7.41977E-02-2.52986E-02-7.67219E-01
 -1      3336-1.02276E-01-5.89475E-02-7.52065E-01
 -1      3337-1.91373E-02 5.75209E-02-7.51637E-01
 -1      3338-1.75183E-02-2.82996E-02-7.24754E-01
 -1      3339 2.85992E-02-5.83622E-02-7.48937E-01
 -1      3340 9.64148E-02-8.64679E-03-7.48585E-01
 -1      3341-5.67115E-02 4.22628E-03-7.46034E-01
 -1      3342-9.94212E-02-1.41212E-02-7.58857E-01
 -1      3343 1.36637E-02 7.57094E-03-7.77644E-01
 -1      3344-7.13228E-02-8.93773E-02-7.55078E-01
 -1      3345-4.81582E-02 1.44485E-02-7.64454E-01
 -1      3346-3.42630E-02 1.07926E-01-7.57430E-01
 -1      3347 6.17820E-03 4.46870E-02-7.69683E-01
 -1      3348-8.13408E-02 1.13319E-02-7.61247E-01
 -1      3349-5.54426E-02 1.06985E-01-7.40990E-01
 -1      3350-1.08326E-01 1.28787E-02-7.54326E-01
 -1      3351-1.05034E-01 3.37508E-02-7.54036E-01
 -1      3352 1.41497E-02-1.10825E-02-7.80368E-01
 -1      3353 1.32739E-02 4.92874E-02-7.68805E-01
 -1      3354 5.15358E-03-4.29883E-02-7.68058E-01
 -1      3355 9.73872E-02-3.07150E-02-7.49867E-01
 -1      3356-8.15899E-02 6.37804E-03-7.43223E-01
 -1      3357-9.63346E-02 3.93275E-02-7.31174E-01
 -1      3358 7.53606E-02-5.21835E-03-7.67824E-01
 -1      3359-3.09004E-02-5.31553E-02-7.66575E-01
 -1      3360 2.74321E-02-1.03362E-02-7.70774E-01
 -1      3361 8.08695E-02-2.15009E-02-7.66221E-01
 -1      3362 9.30153E-02-1.07163E-02-7.64306E-01
 -1      3363-5.79660E-04-1.21333E-02-7.89007E-01
 -1      3364 7.07899E-02-4.34301E-02-7.66562E-01
 -1      3365-3.24812E-03-7.31427E-02-7.44722E-01
 -1      3366-8.62059E-03-8.05254E-02-7.65307E-01
 -1      3367-4.25474E-02-1.13205E-01-7.39637E-01
 -1      3368 1.00213E-01-1.05504E-02-7.62216E-01
 -1      3369 8.82064E-03-9.98394E-02-7.45475E-01
 -1      3370 1.18427E-02 1.05674E-02-7.84738E-01
 -1      3371-1.00400E-01 2.65954E-02-7.56101E-01
 -1      3372-6.29323E-03 7.45057E-02-7.49220E-01
 -1      3373 1.50485E-02-3.90920E-03-7.82047E-01
 -1      3374 9.26781E-02-2.46709E-02-7.63335E-01
 -1      3375 7.35347E-02-3.01358E-02-7.43625E-01
 -1      3376-9.50917E-02 2.29604E-02-7.57056E-01
 -1      3377 2.44625E-02-8.01797E-02-7.49468E-01
 -1      3378 9.26261E-02-1.62483E-02-7.63679E-01
 -1      3379 4.85563E-02-1.03820E-02-7.69824E-01
 -1      3380-9.05545E-02 3.14969E-02-7.38698E-01
 -1      3381-5.73583E-03 1.13756E-02-7.82584E-01
 -1      3382-9.94303E-02-4.67883E-02-7.43114E-01
 -1      3383 1.08661E-02 9.54609E-02-7.62866E-01
 -1      3384-4.66403E-02 3.66102E-02-7.47634E-01
 -1      3385 1.17917E-01-1.66604E-02-7.54206E-01
 -1      3386 5.40269E-02-4.64565E-03-7.50576E-01
 -1      3387-1.14024E-01 1.20057E-02-7.51266E-01
 -1      3388 7.45422E-03-1.45674E-02-7.87223E-01
 -1      3389-5.56513E-03 1.42776E-02-7.75498E-01
 -1      3390 5.94227E-02-5.08898E-02-7.49121E-01
 -1      3391 5.49398E-02 4.75356E-02-7.48001E-01
 -1      3392-2.68950E-03-3.83728E-02-5.87944E-01
 -1      3393-2.99622E-02-2.47866E-02-7.67513E-01
 -1      3394-4.10152E-02 9.51788E-03-7.64372E-01
 -1      3395-1.13193E-01 3.84514E-02-7.38449E-01
 -1      3396-4.02310E-02 6.29688E-02-7.65411E-01
 -1      3397-1.08773E-01 2.76108E-02-7.54175E-01
 -1      3398-1.20700E-01 2.84035E-03-7.35583E-01
 -1      3399-3.72574E-02-3.74445E-03-6.05298E-01
 -1      3400 7.22220E-02-6.31660E-02-7.61788E-01
 -1      3401 4.16032E-02 8.11912E-02-7.48965E-01
 -1      3402-2.61592E-03 1.20042E-02-7.93624E-01
 -1      3403-2.28039E-02-4.62624E-03-6.15910E-01
 -1      3404-9.22820E-02 7.82922E-02-7.40066E-01
 -1      3405 7.01601E-02-5.26970E-02-7.63596E-01
 -1      3406 7.01306E-02-3.94163E-03-7.48981E-01
 -1      3407-5.15263E-03 1.18334E-01-7.39380E-01
 -1      3408 5.71582E-02-2.35449E-02-7.46703E-01
 -1      3409 8.75604E-02-6.62238E-02-7.59669E-01
 -1      3410-3.68680E-02 2.99548E-03-6.13687E-01
 -1      3411 9.18863E-03 3.51649E-02-5.87467E-01
 -1      3412-1.94919E-02-1.42865E-02-6.19341E-01
 -1      3413-1.10813E-04-1.53434E-02-7.82787E-01
 -1      3414 2.39659E-03-1.39960E-02-7.84955E-01
 -1      3415-1.05538E-01 3.55320E-02-7.37918E-01
 -1      3416-1.68681E-02-3.55574E-02-5.90611E-01
 -1      3417 7.97060E-02-6.14321E-02-7.61485E-01
 -1      3418 6.43541E-02-2.25495E-02-7.69054E-01
 -1      3419 1.53666E-02-5.89604E-02-7.66729E-01
 -1      3420-1.06633E-01-2.51244E-03-7.38374E-01
 -1      3421 2.68758E-03-1.64411E-02-7.80013E-01
 -1      3422 1.08223E-01-5.06468E-02-7.42779E-01
 -1      3423-1.94507E-02-3.37541E-02-7.67688E-01
 -1      3424 4.49015E-03-2.46154E-02-6.15988E-01
 -1      3425 3.47189E-02-2.08148E-02-5.93508E-01
 -1      3426 7.29202E-02-2.13704E-02-7.67633E-01
 -1      3427-6.69319E-03 3.81698E-02-5.43728E-01
 -1      3428-9.57865E-02 7.04864E-02-7.52803E-01
 -1      3429 7.08825E-02-6.99139E-02-7.35972E-01
 -1      3430-1.13859E-02 1.90358E-02-6.13152E-01
 -1      3431 1.67898E-03-1.81997E-02-7.77993E-01
 -1      3432 8.32259E-02-1.23151E-02-7.66607E-01
 -1      3433 2.97335E-02 2.17115E-02-5.96908E-01
 -1      3434 8.48292E-02-2.93621E-02-7.48897E-01
 -1      3435-1.09204E-01 5.97524E-03-7.37703E-01
 -1      3436 5.00872E-02 9.78235E-02-7.42486E-01
 -1      3437 3.05797E-02-7.78493E-03-7.40789E-01
 -1      3438 5.26598E-02-6.30821E-02-7.49419E-01
 -1      3439-1.35153E-02-5.83865E-03-7.80169E-01
 -1      3440-8.91262E-02 4.33321E-02-7.41496E-01
 -1      3441 7.30054E-03-1.57162E-02-7.82013E-01
 -1      3442 1.19508E-01-5.35501E-03-7.43010E-01
 -1      3443 2.63948E-02 1.86093E-03-7.72644E-01
 -1      3444-5.98287E-02 1.96769E-02-7.44768E-01
 -1      3445-3.38477E-02 9.13794E-02-7.48605E-01
 -1      3446 1.00413E-01 2.99017E-02-7.64309E-01
 -1      3447-1.51339E-02-3.20916E-03-7.77532E-01
 -1      3448 9.96884E-02-5.23520E-02-7.59107E-01
 -1      3449 5.99126E-02-3.26114E-02-7.52660E-01
 -1      3450-3.35630E-02 5.74004E-02-7.66486E-01
 -1      3451 9.22044E-02-5.48466E-02-7.60900E-01
 -1      3452 8.46060E-02-5.17251E-02-7.63030E-01
 -1      3453-1.03429E-01 5.73118E-02-7.52663E-01
 -1      3454-1.00027E-01 2.72615E-02-7.43857E-01
 -1      3455-4.36477E-03-1.68002E-02-7.76898E-01
 -1      3456 3.69732E-02 6.94645E-02-7.51087E-01
 -1      3457 4.42485E-02 2.08244E-03-7.54442E-01
 -1      3458-6.98612E-02 6.27635E-03-7.47308E-01
 -1      3459-5.73849E-02 1.45606E-02-7.63919E-01
 -1      3460-2.57875E-02 5.81902E-03-7.64358E-01
 -1      3461 1.01433E-01-6.16947E-02-7.54773E-01
 -1      3462 7.87853E-03-8.02313E-02-7.48726E-01
 -1      3463-6.51269E-03 5.59916E-03-8.01071E-01
 -1      3464 1.61219E-02 4.74676E-03-7.84075E-01
 -1      3465-1.03052E-01 1.38769E-02-7.56616E-01
 -1      3466 8.53228E-03-1.76292E-02-7.75031E-01
 -1      3467 4.66187E-03 1.22932E-02-7.85838E-01
 -1      3468 2.18772E-03 1.43959E-02-7.80842E-01
 -1      3469 3.94176E-02-4.17359E-03-7.54560E-01
 -1      3470 5.53536E-02-1.05837E-02-7.69419E-01
 -1      3471-8.44019E-02 2.14601E-02-7.59860E-01
 -1      3472 9.64177E-02-1.65420E-02-7.62657E-01
 -1      3473-1.40673E-02-3.33041E-05-7.78934E-01
 -1      3474-2.64018E-02 4.99788E-02-7.45138E-01
 -1      3475-8.22128E-02 7.04838E-02-7.37755E-01
 -1      3476 8.99298E-02-8.16345E-02-7.44097E-01
 -1      3477 2.37743E-02-3.32936E-02-5.83398E-01
 -1      3478 9.26126E-02-7.34798E-02-7.58115E-01
 -1      3479-2.33902E-02 3.01149E-03-6.11382E-01
 -1      3480 6.46280E-02-1.84806E-02-7.68983E-01
 -1      3481 1.36349E-02 1.86399E-02-6.21332E-01
 -1      3482-1.86056E-02 1.19149E-02-6.11952E-01
 -1      3483 6.75817E-02-6.06479E-02-7.47013E-01
 -1      3484 1.48541E-02 2.45117E-02-7.70677E-01
 -1      3485-1.62503E-02-5.92958E-03-7.74597E-01
 -1      3486-1.11535E-02 5.64833E-03-7.78776E-01
 -1      3487 9.64663E-02 4.83437E-02-7.47116E-01
 -1      3488 7.58238E-02 6.31363E-02-7.49552E-01
 -1      3489 4.16287E-02 1.30664E-02-7.56061E-01
 -1      3490-3.00256E-02 5.04043E-02-7.66795E-01
 -1      3491-1.26923E-02 8.31887E-03-7.75618E-01
 -1      3492-3.39234E-02 5.79486E-02-7.51062E-01
 -1      3493 9.60512E-02-4.57523E-02-7.41483E-01
 -1      3494-1.13553E-01 4.43870E-02-7.20964E-01
 -1      3495 9.73980E-02-5.79799E-02-7.57984E-01
 -1      3496-1.18357E-02 3.29781E-03-7.77824E-01
 -1      3497 3.73802E-03 1.44858E-02-7.78563E-01
 -1      3498-3.93813E-02 1.04559E-01-7.43772E-01
 -1      3499-2.08859E-03 1.27320E-02-7.80329E-01
 -1      3500 1.37761E-02-8.11580E-03-7.87048E-01
 -1      3501 3.61345E-03-2.93833E-03-7.65937E-01
 -1      3502-2.05432E-03-8.07783E-04-5.63017E-01
 -1      3503-1.92732E-03-3.80775E-03-7.71334E-01
 -1      3504-4.43869E-03-3.24425E-03-7.70882E-01
 -1      3505-1.48396E-03 4.81844E-04-7.65812E-01
 -1      3506 3.51485E-04 9.93070E-04-7.68079E-01
 -1      3507-8.57085E-03 5.52462E-03-7.43092E-01
 -1      3508 3.53703E-03-3.22450E-03-5.55603E-01
 -1      3509-1.01311E-03-5.99725E-04-7.67769E-01
 -1      3510 1.29576E-03 3.57543E-03-5.64681E-01
 -1      3511 3.14649E-03 4.92885E-04-7.64551E-01
 -1      3512-7.36324E-03-9.51049E-03-7.45556E-01
 -1      3513-5.10779E-03-6.79820E-03-7.65427E-01
 -1      3514-5.70866E-04-4.83483E-03-7.48608E-01
 -1      3515-7.04617E-04-1.17823E-03-7.72789E-01
 -1      3516 2.24164E-03-4.72031E-03-7.67453E-01
 -1      3517 3.40666E-03 1.91682E-03-7.72981E-01
 -1      3518-1.68461E-03 3.77535E-03-5.62575E-01
 -1      3519 4.87189E-04-1.97395E-04-7.69849E-01
 -1      3520 5.30355E-04-4.51779E-03-7.68595E-01
 -1      3521 9.18268E-04 3.70545E-03-6.04052E-01
 -1      3522 1.73405E-03-9.43979E-04-7.70610E-01
 -1      3523-3.13334E-03 1.21778E-03-7.68194E-01
 -1      3524-8.95627E-03 4.71324E-03-5.79620E-01
 -1      3525-3.79217E-03-6.92052E-03-7.66798E-01
 -1      3526-2.09655E-03-1.91504E-03-5.66235E-01
 -1      3527-6.02690E-02-5.82434E-02-7.41327E-01
 -1      3528 3.95547E-03-2.72422E-03-5.55910E-01
 -1      3529 2.66640E-03-8.45800E-03-6.01641E-01
 -1      3530 2.63182E-03-7.43848E-03-5.59056E-01
 -1      3531 4.96270E-02 4.89397E-02-7.42719E-01
 -1      3532 5.06435E-03 8.80182E-03-7.47707E-01
 -1      3533 3.44568E-02-8.42614E-02-7.36783E-01
 -1      3534-2.52309E-03 3.55901E-03-7.73319E-01
 -1      3535-4.46109E-02-2.04454E-02-7.45277E-01
 -1      3536 5.07886E-04-2.05722E-03-7.48143E-01
 -1      3537 3.45414E-02 3.39500E-02-7.49435E-01
 -1      3538-1.21032E-03-1.51725E-02-7.44750E-01
 -1      3539-2.02896E-03-1.04306E-02-7.68301E-01
 -1      3540-4.25581E-03 6.20577E-03-5.98337E-01
 -1      3541 7.14658E-03-1.12503E-03-6.05214E-01
 -1      3542 1.52860E-02-3.80073E-02-7.32410E-01
 -1      3543 6.78495E-02-7.10147E-02-7.46460E-01
 -1      3544 1.54124E-03-4.30438E-03-7.52200E-01
 -1      3545 9.78184E-04-4.26096E-03-7.80252E-01
 -1      3546 6.80893E-04-1.41514E-03-7.81850E-01
 -1      3547-3.40400E-04-2.00525E-03-7.69230E-01
 -1      3548-6.71075E-03-7.34032E-03-7.66129E-01
 -1      3549-5.62936E-03-1.27552E-02-7.45733E-01
 -1      3550 1.65990E-03-1.76885E-03-6.06260E-01
 -1      3551-1.53312E-02 3.40849E-02-7.38702E-01
 -1      3552 7.37571E-03-2.00147E-04-7.67806E-01
 -1      3553-3.60950E-02-8.65283E-02-7.37660E-01
 -1      3554 1.32055E-02-2.37836E-03-7.47878E-01
 -1      3555-3.41818E-02-3.49905E-02-7.41146E-01
 -1      3556 8.43414E-03 2.81284E-04-7.71813E-01
 -1      3557 1.31037E-03-2.33477E-03-7.56259E-01
 -1      3558-6.61771E-02 6.34143E-02-7.38977E-01
 -1      3559 8.51095E-02 3.64814E-02-7.43439E-01
 -1      3560 5.25125E-03-5.50619E-03-7.69341E-01
 -1      3561 7.31404E-03-9.99087E-03-7.45841E-01
 -1      3562 4.87989E-03 5.28212E-03-7.70657E-01
 -1      3563 8.58273E-03 1.40735E-03-7.71324E-01
 -1      3564 7.10670E-02-4.08937E-04-7.40304E-01
 -1      3565 3.05861E-02 7.74902E-02-7.50791E-01
 -1      3566-4.39649E-02 4.20013E-02-7.38897E-01
 -1      3567-3.97716E-03 5.45379E-02-7.55290E-01
 -1      3568-3.32726E-02 7.41885E-02-7.46408E-01
 -1      3569 2.31971E-02-5.62697E-02-7.45699E-01
 -1      3570 4.52171E-02-4.68013E-02-7.43459E-01
 -1      3571-2.01171E-03 1.58513E-03-7.66951E-01
 -1      3572 3.75123E-03 7.27198E-02-7.53959E-01
 -1      3573 2.33621E-03-3.03552E-03-7.82745E-01
 -1      3574 2.33902E-03-6.17208E-04-7.71632E-01
 -1      3575-1.75766E-02-8.16808E-03-7.42505E-01
 -1      3576-5.61827E-03-2.76956E-03-7.69159E-01
 -1      3577 3.19231E-03-6.00263E-03-7.56846E-01
 -1      3578 6.64404E-03-1.17193E-03-5.66116E-01
 -1      3579-1.24704E-03 8.89921E-04-7.50702E-01
 -1      3580 1.72400E-02-5.42035E-02-7.54423E-01
 -1      3581-5.70437E-02 5.08463E-02-7.43630E-01
 -1      3582-5.76706E-03-4.60679E-03-6.07465E-01
 -1      3583-7.71361E-03-1.28831E-02-7.66458E-01
 -1      3584 2.40146E-03 3.99480E-02-7.57012E-01
 -1      3585 9.40021E-02 3.29999E-02-7.52403E-01
 -1      3586 8.04069E-03 3.72427E-03-7.70666E-01
 -1      3587 3.23165E-03 6.08026E-03-7.68866E-01
 -1      3588 3.91228E-03-3.70414E-03-7.51100E-01
 -1      3589-5.90657E-04-9.85513E-02-7.37645E-01
 -1      3590-4.20488E-02-8.95811E-02-7.46524E-01
 -1      3591-3.49943E-02 6.91570E-02-7.46774E-01
 -1      3592-1.63974E-02-9.72512E-05-7.41084E-01
 -1      3593 2.07149E-03 1.63074E-02-7.45505E-01
 -1      3594 6.73441E-03-4.00601E-03-7.68863E-01
 -1      3595 4.00754E-02 3.68692E-02-7.55382E-01
 -1      3596 6.42917E-02 6.58993E-02-7.43877E-01
 -1      3597 3.91631E-02-1.69251E-02-7.48042E-01
 -1      3598 5.18615E-02-4.80704E-02-7.50155E-01
 -1      3599 5.73671E-04-2.20886E-03-7.86864E-01
 -1      3600-9.63101E-03-9.81615E-03-7.65877E-01
 -1      3601-2.56659E-03-2.47894E-03-7.93864E-01
 -1      3602 1.85044E-03-1.86144E-03-7.47269E-01
 -1      3603 1.02088E-02-8.59094E-03-7.68992E-01
 -1      3604-2.90583E-02 2.94560E-02-7.47824E-01
 -1      3605-1.92175E-03 8.38208E-03-7.69046E-01
 -1      3606-4.21269E-02-4.09489E-02-7.50799E-01
 -1      3607-2.38418E-02-6.30702E-02-7.47514E-01
 -1      3608 4.51755E-03-2.96557E-03-7.69180E-01
 -1      3609-5.90077E-02 6.48553E-02-7.49017E-01
 -1      3610-2.67371E-03 1.45871E-05-7.63957E-01
 -1      3611 3.70330E-04-5.13127E-03-7.68125E-01
 -1      3612 4.76913E-03 9.04788E-02-7.52057E-01
 -1      3613 1.29182E-02-4.95120E-03-7.68321E-01
 -1      3614-3.20580E-02-6.90675E-02-7.48362E-01
 -1      3615 4.77471E-03 6.10496E-03-7.69365E-01
 -1      3616-5.85289E-03 7.95272E-03-7.65989E-01
 -1      3617 3.34242E-03-5.76543E-03-7.68031E-01
 -1      3618-1.07000E-02-2.94658E-02-7.49604E-01
 -1      3619 2.16965E-02-6.63003E-02-7.53701E-01
 -1      3620 8.50315E-02-3.66912E-02-7.43877E-01
 -1      3621-1.01336E-03-3.76010E-04-7.45703E-01
 -1      3622-6.85798E-02 2.94013E-02-7.46940E-01
 -1      3623 1.10047E-02-1.02155E-02-7.68667E-01
 -1      3624-8.30108E-02-2.57222E-02-7.49084E-01
 -1      3625-4.17281E-02-1.70456E-02-7.48944E-01
 -1      3626-6.98094E-03-1.15012E-02-7.66616E-01
 -1      3627-4.02463E-02 1.63211E-02-7.41400E-01
 -1      3628-6.45061E-03-9.49605E-03-7.57736E-01
 -1      3629-3.20096E-03-1.22018E-02-7.68035E-01
 -1      3630-6.40026E-03 7.58655E-03-7.66304E-01
 -1      3631 1.03779E-02 4.57636E-03-7.70111E-01
 -1      3632-8.03847E-04-1.46874E-03-7.47072E-01
 -1      3633-1.25759E-03 7.15842E-03-7.69095E-01
 -1      3634 8.36505E-03 6.16606E-03-7.46095E-01
 -1      3635-8.88062E-03 1.38250E-02-7.49015E-01
 -1      3636-4.37371E-02-1.77871E-03-7.44804E-01
 -1      3637 2.55074E-02 5.39574E-02-7.53895E-01
 -1      3638 3.13230E-03-6.06639E-04-7.90765E-01
 -1      3639-2.34141E-02 4.99194E-02-7.45404E-01
 -1      3640 2.77906E-03-5.71130E-02-7.52879E-01
 -1      3641-7.07217E-02 4.93436E-04-7.42815E-01
 -1      3642 5.39371E-02 4.06999E-04-7.54483E-01
 -1      3643 4.18041E-02-9.41063E-02-7.47707E-01
 -1      3644 1.59068E-02 5.05149E-03-7.48634E-01
 -1      3645 1.23196E-02 1.47980E-03-7.71253E-01
 -1      3646-6.11208E-02-3.93908E-03-7.49387E-01
 -1      3647 6.04152E-02 5.58813E-02-7.49431E-01
 -1      3648-5.36002E-03-4.27901E-03-7.55034E-01
 -1      3649 5.27629E-03-9.77326E-03-7.67948E-01
 -1      3650-2.20893E-03-3.53794E-03-7.65846E-01
 -1      3651 5.17508E-02 1.95692E-02-7.54977E-01
 -1      3652 1.89864E-02-4.27650E-02-7.53882E-01
 -1      3653 6.95251E-02 7.70670E-02-7.47820E-01
 -1      3654-5.27687E-02 1.49876E-04-7.47675E-01
 -1      3655-1.21177E-03 7.12160E-02-7.30796E-01
 -1      3656-8.51980E-03-4.51389E-03-7.65969E-01
 -1      3657-8.29636E-02-3.37005E-02-7.40397E-01
 -1      3658 1.17759E-02-5.22558E-03-7.68902E-01
 -1      3659 7.53170E-02 4.84441E-03-7.54892E-01
 -1      3660 4.34158E-03 4.77078E-04-7.84246E-01
 -1      3661 5.45619E-04 1.60722E-04-7.45757E-01
 -1      3662-4.70834E-03-5.98394E-03-7.79502E-01
 -1      3663 1.52994E-03 2.50559E-03-7.49861E-01
 -1      3664-6.37598E-03-6.35393E-05-7.64487E-01
 -1      3665-6.29964E-04-4.40069E-03-7.45339E-01
 -1      3666 3.05735E-03-1.44431E-02-7.67356E-01
 -1      3667 6.76094E-02 2.39609E-02-7.55166E-01
 -1      3668 4.60251E-02-2.21344E-02-7.51097E-01
 -1      3669 1.41344E-02 3.64008E-02-7.52126E-01
 -1      3670-7.75530E-02 2.51605E-02-7.49802E-01
 -1      3671 7.00338E-02-3.38429E-02-7.51389E-01
 -1      3672 5.07764E-04-8.83799E-03-7.67289E-01
 -1      3673-1.88475E-03-5.92948E-02-7.51091E-01
 -1      3674 1.57668E-03 5.55183E-02-7.54351E-01
 -1      3675 6.12298E-02 2.72883E-02-7.51730E-01
 -1      3676 7.15466E-03 9.21597E-03-7.69960E-01
 -1      3677 1.04774E-01-7.86057E-03-7.48629E-01
 -1      3678 8.02272E-02-5.21957E-03-7.54420E-01
 -1      3679-1.54807E-02 4.33940E-03-7.40734E-01
 -1      3680-7.84961E-02-6.77931E-02-7.45010E-01
 -1      3681 7.01365E-03-8.54297E-03-7.80512E-01
 -1      3682-2.11103E-03 9.30298E-02-7.38949E-01
 -1      3683 2.70164E-03 7.59294E-03-7.68511E-01
 -1      3684-3.03283E-03-1.65031E-03-5.64059E-01
 -1      3685 7.99576E-03-1.26874E-02-7.67281E-01
 -1      3686 8.14773E-03-3.19732E-03-6.05976E-01
 -1      3687-7.32259E-04-1.86442E-03-7.84476E-01
 -1      3688 1.70857E-03 2.98787E-03-5.67488E-01
 -1      3689 1.87873E-03-1.40110E-02-7.67164E-01
 -1      3690 2.54097E-03 9.48619E-04-5.64789E-01
 -1      3691 9.09674E-02-2.17284E-03-7.52450E-01
 -1      3692 5.27433E-03-1.78459E-02-7.48787E-01
 -1      3693-9.39829E-03 4.54004E-03-7.64094E-01
 -1      3694-4.35898E-03-8.04678E-03-6.16052E-01
 -1      3695 6.88828E-02-7.28830E-03-7.58328E-01
 -1      3696-3.07086E-03-5.85542E-03-5.67900E-01
 -1      3697 2.89037E-03-2.92360E-03-5.56860E-01
 -1      3698 4.75291E-05-5.06646E-03-5.65966E-01
 -1      3699 5.66817E-03 2.48399E-03-6.01897E-01
 -1      3700 9.80449E-04-7.20841E-03-7.80288E-01
 -1      3701-1.05416E-02 1.04563E-01-7.47540E-01
 -1      3702 6.40181E-02-2.72536E-02-7.51629E-01
 -1      3703-9.55488E-02-3.13071E-03-7.45704E-01
 -1      3704-1.92544E-03 4.20161E-03-6.01785E-01
 -1      3705-2.42123E-02 5.75377E-02-7.50174E-01
 -1      3706-2.27223E-03 1.11204E-02-7.68973E-01
 -1      3707-5.74790E-03-8.24862E-02-7.48487E-01
 -1      3708-1.00351E-01 5.00207E-03-7.45260E-01
 -1      3709-8.53317E-04 2.46848E-03-7.80815E-01
 -1      3710 7.78562E-02 4.03552E-02-7.53267E-01
 -1      3711 2.84411E-03 2.56088E-03-7.87548E-01
 -1      3712-8.08169E-03 4.64666E-03-7.64343E-01
 -1      3713-3.46634E-02 2.94692E-02-7.50117E-01
 -1      3714-5.33327E-02 1.71436E-02-7.51529E-01
 -1      3715 1.76072E-03-2.26014E-03-7.89363E-01
 -1      3716 2.96195E-03 1.04126E-01-7.46550E-01
 -1      3717 3.55843E-02-3.88872E-04-7.53920E-01
 -1      3718-1.10313E-02 1.81223E-03-7.63117E-01
 -1      3719-1.29928E-02 8.47455E-04-7.63455E-01
 -1      3720 3.91673E-03 1.22340E-02-7.68416E-01
 -1      3721-1.12044E-02-3.68974E-03-7.65026E-01
 -1      3722 5.37260E-02-3.59376E-03-7.54639E-01
 -1      3723-8.25851E-04-8.19025E-03-6.05980E-01
 -1      3724 1.03942E-04-4.93065E-03-7.42563E-01
 -1      3725-7.75982E-03-1.47232E-03-6.06320E-01
 -1      3726-7.75664E-03-8.63128E-04-6.06140E-01
 -1      3727 1.51672E-03 4.96702E-03-6.06430E-01
 -1      3728 5.94494E-03-4.57638E-03-5.91582E-01
 -1      3729-1.13572E-03 2.18449E-03-5.60678E-01
 -1      3730 5.03153E-04-8.05228E-02-7.42033E-01
 -1      3731-1.79556E-03-1.93063E-03-8.00413E-01
 -1      3732-3.20571E-04-3.41711E-03-7.84615E-01
 -1      3733 4.94673E-03-5.67610E-03-5.98904E-01
 -1      3734 1.29474E-02 2.30582E-02-7.53164E-01
 -1      3735-9.33841E-04-2.93868E-03-7.84631E-01
 -1      3736-9.39137E-02 3.55168E-02-7.38015E-01
 -1      3737 9.54274E-02-4.68694E-02-7.46521E-01
 -3
    1PSTEP                         2           1           1          
  100CL  101 1.000000000        3737                     0    1           1
 -4  STRESS      6    1
 -5  SXX         1    4    1    1
 -5  SYY         1    4    2    2
 -5  SZZ         1    4    3    3
 -5  SXY         1    4    1    2
 -5  SYZ         1    4    2    3
 -5  SZX         1    4    3    1
 -1         1-2.41863E+01-2.51976E+01-1.60183E+01-6.79013E-01 1.23198E+00-8.08024E+00
 -1         2-1.25535E+01-5.94018E+01 1.82814E+00-8.43312E+00 8.85706E-01 3.65135E+00
 -1         3-5.45173E+00-2.97410E+00 8.89380E-02 1.83532E+00 4.72431E-02-3.05790E-01
 -1         4-1.46906E+00-3.02938E+00-2.80856E-01-3.96116E-01-7.05870E-01-2.40831E-01
 -1         5-7.16111E-01-4.66216E-01 2.20481E+00 6.02694E-01 6.76960E-01-1.30141E-01
 -1         6-1.10860E+00-2.98113E-01 6.95187E-01 1.99264E-01 6.44693E-01 3.90346E-03
 -1         7-2.12422E+00-1.98791E+00-9.41788E-02 1.08225E+00 6.47482E-01-6.78461E-01
 -1         8-1.47332E-02-1.52266E+00 1.99361E+00 5.06986E-01 3.73190E-01-5.02771E-01
 -1         9-3.79499E+00-4.34911E+00 1.00685E-01 2.16707E+00-4.37841E-02-1.22288E-02
 -1        10-2.57057E+00 1.06760E-01 1.35683E+00 7.09938E-01 5.40372E-01 4.23237E-01
 -1        11-6.44932E+00-2.14601E+00 1.86601E-01 4.03485E-01 1.30357E-02-1.50373E-01
 -1        12-4.73140E+00-1.10152E+00 7.85020E-01-4.27030E-01-1.58713E-01-1.70357E-01
 -1        13-7.43980E+00-6.45462E+01-2.68273E+00 1.44143E+01-1.02599E+00-3.02169E+00
 -1        14-1.70075E+01-7.44361E+01-1.04414E+01-1.25438E+01 4.82131E-01 1.49111E+00
 -1        15-7.83791E+00-5.75601E+01-3.50421E+00 1.34531E+01 6.22036E-01 4.54648E-01
 -1        16 3.35467E-01-1.21867E+00 2.46792E+00 1.68459E-01-4.08609E-01-3.60459E-01
 -1        17-2.71985E+01-5.02680E+01-7.01631E+00-2.57128E+01-1.72369E+00 2.08020E+00
 -1        18-4.39094E+00-2.65900E+00 8.97170E-02 1.94345E+00 5.13388E-01-4.47764E-01
 -1        19 2.25645E-01-1.23249E+00 2.82331E+00-2.49539E-01 4.70842E-01-4.65329E-01
 -1        20-4.78438E-01-7.21082E-01-8.86270E-01 7.20798E-02 7.54691E-01 1.37705E-01
 -1        21-1.47934E+00-2.78407E+00 2.81848E-01-5.09804E-01 4.94250E-01 4.55640E-01
 -1        22-2.23986E+00-5.20155E+00 5.39172E-01-1.35225E+00 1.31180E-01 1.89549E-01
 -1        23-4.78115E+01-2.35156E+01-3.75048E+00 2.95300E+01 2.01759E+00 1.33276E-02
 -1        24-5.86495E+01-1.25412E+01-3.59950E+00 9.61810E+00-3.83982E+00 1.04434E+00
 -1        25-4.38570E+00-4.47860E+00-6.90009E-02-2.06981E+00 3.54800E-01 2.04980E-01
 -1        26-4.54227E+01-2.20006E+01-4.52977E+00 2.51562E+01-5.25286E-01-4.46986E-01
 -1        27-7.14595E+00-5.85600E+01-1.20428E+00 7.36274E+00-1.32247E+00-1.25170E+00
 -1        28-3.29716E+00-5.26232E+01 2.86513E+00 5.10739E+00-8.09214E-01 1.13827E+00
 -1        29-1.35612E+01-6.98336E+01-4.66679E+00-1.22671E+01-5.81117E-02 1.03365E+00
 -1        30-4.64344E-01 3.24337E-01 1.12611E+00-8.84216E-02-3.17557E-01 3.40489E-01
 -1        31-5.42299E+00-1.57757E+00 5.56451E-01-1.88885E-01 5.00843E-02 2.10132E-01
 -1        32-4.76180E-01-7.31243E-02 1.56571E-01 8.05586E-02 5.78425E-01 5.40421E-01
 -1        33 1.14687E-01 1.26202E-02 1.60180E-01 1.02798E-01-1.21487E-01-1.35538E-01
 -1        34-2.06333E+00-4.91392E-01 7.32550E-02 2.01077E-01 3.96539E-02 7.39524E-01
 -1        35-1.33996E+00-2.21175E+00-1.29530E-01 5.51367E-01-5.11730E-01 2.83109E-01
 -1        36-1.61741E+00-2.40242E+00 5.41455E-02-7.65622E-01 8.13702E-01 6.69980E-01
 -1        37-1.20917E+00-1.52406E+00 1.27394E-01-7.34076E-01 9.42158E-01 6.14031E-01
 -1        38-5.50260E+00-2.48539E+00 5.38766E-01-1.59434E+00-1.03599E-02 2.51929E-01
 -1        39-2.00071E+00 2.36445E-01 1.80653E+00-5.67448E-01 7.59887E-01-3.61738E-01
 -1        40-2.71968E+00-4.03812E+00 5.19033E-02-1.80177E+00 7.10546E-01-2.36065E-01
 -1        41-2.55979E+00-5.17268E+00 3.40848E-02 1.42392E+00-2.80267E-01 1.30991E-02
 -1        42-1.27567E+00-4.83074E+00 4.43202E-01 9.93872E-01-1.98238E-01-2.08002E-01
 -1        43-7.02089E+01-1.10762E+01-1.21893E+00-9.29534E+00 1.20624E+00 2.69949E+00
 -1        44-6.45239E+01-8.82735E+00-3.01333E+00 1.37705E+01-8.86702E-01-7.35720E-01
 -1        45-2.28292E+00-6.41889E+00-4.12446E-02-2.43831E-01-1.28680E-01 1.13025E-01
 -1        46-4.92680E+00-2.71475E+00 5.14301E-01 1.46459E+00-3.80449E-02 1.52953E-01
 -1        47-2.33644E+01-4.16070E+01-4.50128E+00-2.33561E+01 4.40370E-01 2.00563E+00
 -1        48-1.73015E+00-5.88384E-01 1.86103E-01 1.75896E-01-5.92820E-01 4.69055E-01
 -1        49-5.40896E+00-2.08405E+00 5.08125E-01 1.17700E+00 1.12452E-02 4.73350E-01
 -1        50-3.32400E+00-3.90017E+00 4.12669E-01 1.94790E+00-2.46044E-01 1.57017E-01
 -1        51-4.26191E+01-3.22658E+01 2.88073E+00-2.57825E+01 5.62650E+00 1.06842E+00
 -1        52-3.01190E+00-2.43946E+00 7.96859E-01 1.45287E+00-3.27019E-02 4.39462E-01
 -1        53-9.39191E-01-1.64860E+00-5.62917E-02 3.50759E-01-7.82211E-01 3.40004E-01
 -1        54 1.91997E-01-1.87466E+00 1.56686E+00 5.38773E-01 3.54303E-01 6.50950E-01
 -1        55-8.21973E-01-1.22831E+00 4.21967E-01 2.88602E-01-5.03954E-01 1.19855E-01
 -1        56 1.88419E-02 5.58281E-02 5.58264E-02-2.63602E-03 4.88564E-02-1.79484E-02
 -1        57 9.24194E-02-2.55375E+00 9.86154E-01-5.47637E-01-9.39458E-02 4.35569E-01
 -1        58-4.52291E-01-1.65309E+00 1.38858E+00-1.19722E+00-1.76612E-01 6.36137E-01
 -1        59-3.88460E+01-2.39114E+01-7.50537E+00 2.55081E+01 4.59820E+00 1.41420E-01
 -1        60-1.07992E-01-2.41469E-01-3.37254E-01 1.05352E-01 2.85370E-01-1.24506E-01
 -1        61-7.61264E-01-2.41857E+00 2.83430E-01-1.51159E-01 7.77890E-01 6.28165E-02
 -1        62-5.21992E+01-6.35579E+00 2.62485E-01 8.65969E+00-2.86383E-01 9.52650E-01
 -1        63-2.78898E+00-6.07546E+00-8.80176E-02 1.61304E+00 1.88942E-01-1.12920E-01
 -1        64-8.51195E-01-1.60907E+00 3.75142E-01 7.04494E-01 7.85222E-01-1.22759E-01
 -1        65 8.14020E-02-8.67637E-02-2.51375E-01 1.66652E-01 1.70109E-01-1.45135E-01
 -1        66-1.44894E-01-1.89036E+00-1.16993E-01-2.87672E-01 9.29849E-01-2.12845E-01
 -1        67-1.68020E+00-6.36651E+00 4.11981E-01-2.34497E-02 1.41984E-01-5.21422E-02
 -1        68-6.07730E-01-6.91611E-01 2.68195E-01-9.21492E-02-4.28938E-01 5.58110E-02
 -1        69-2.55467E+01-4.95114E+01-1.78286E+00 2.86251E+01-2.79986E+00-4.07569E+00
 -1        70-4.28089E+00-4.35345E+00 2.24128E-01-2.30364E+00-1.63239E-01-2.28293E-01
 -1        71-4.51896E+01-2.78211E+01-5.63660E+00-2.57940E+01 3.95742E-01 1.23579E+00
 -1        72-1.85641E+01-4.30345E+01-1.10349E+00-2.42765E+01-5.14676E-01-3.80045E-01
 -1        73-3.87115E+01-2.06584E+01 1.90353E+00-2.15511E+01-5.68121E-01-2.24680E+00
 -1        74-1.83768E+00-3.91502E+00 6.76294E-01 1.99534E+00 5.01664E-01-4.82873E-01
 -1        75-1.11659E+00-2.11787E-01 1.28841E+00-1.51390E-01 4.56212E-01-4.31021E-01
 -1        76-2.27553E+00-1.95245E+00-1.97913E-01-1.01315E+00-4.31828E-01-7.46417E-01
 -1        77-1.80974E+00-7.56823E-01 1.30354E+00-2.52183E-01 2.24429E-01-4.63372E-01
 -1        78-4.94694E+00-2.62697E+00 1.36751E-01-1.55629E+00-5.69229E-02-1.95417E-01
 -1        79-4.93984E+00-1.43091E+00 4.73048E-01-1.24523E+00 1.76054E-01-1.71394E-01
 -1        80-2.56996E+00 1.07686E-01 1.06694E+00 5.53961E-01-4.71434E-01-1.00727E-01
 -1        81-2.57657E+00-1.33495E+00 1.77967E-02-7.48139E-01-2.76730E-01-6.42403E-01
 -1        82-8.99585E-01 1.68736E-01 6.28632E-01-8.26108E-04 3.66057E-01-3.87635E-01
 -1        83-2.05533E+00-1.11024E+00 4.14033E-02-8.17205E-01-3.22307E-01-9.26494E-01
 -1        84-5.47764E-02 7.97036E-02 7.48236E-02-1.25355E-01-1.72913E-01-3.10547E-03
 -1        85-1.96220E+00-9.66025E-01-4.59962E-03 4.75304E-01 2.83888E-01-8.09898E-01
 -1        86-6.61783E-02-4.33542E-02-2.45384E-01-8.72402E-02-1.43281E-01-1.30355E-01
 -1        87-5.58360E-01-1.83473E-01-6.12632E-01 6.77206E-02 2.09914E-01-5.23194E-01
 -1        88-1.51955E+00-3.84995E-01 1.94624E+00 1.22556E+00-7.94892E-01-3.92718E-01
 -1        89-2.69196E+00-8.27066E-01-2.12460E-01-1.46983E-03-5.90203E-02-9.16643E-01
 -1        90-3.37726E-01-1.70602E-01-4.77065E-01-4.00613E-02-1.20904E-01-3.86856E-01
 -1        91 6.23755E-03 1.69852E-02 1.57530E-01 6.17397E-02-8.86089E-02-6.42373E-02
 -1        92-4.97087E+00-1.35022E+00 4.41915E-02 1.75091E-01-2.00541E-01-2.41151E-01
 -1        93-1.92379E+00-3.84784E+00-4.71530E-02-1.70934E-01-5.30265E-01 1.10078E+00
 -1        94-1.27045E+01-1.80675E+01-7.87923E+00 1.54604E+00-2.50377E-01-1.92160E+00
 -1        95-1.21122E+00 2.99205E-01 7.52694E-03 2.20452E-01 2.97027E-01 7.07504E-01
 -1        96-1.43820E+00-7.23710E-01 1.10481E+00-1.26657E+00-2.21270E-01 5.68100E-01
 -1        97-1.90245E+00-6.10846E-01 3.62503E-01 1.17234E+00 3.13534E-01-1.75234E-01
 -1        98-2.45490E+01-4.32242E+01-2.58476E+00 2.79545E+01 1.78935E-01 1.05811E+00
 -1        99-2.38807E+01-2.65998E+01-1.65884E+01 2.65355E+00-4.20636E-01-3.96883E+00
 -1       100 4.74189E-02-6.80983E-02-8.37970E-02-2.54392E-01 4.17410E-01-1.59124E-01
 -1       101-1.34858E-01-4.10542E-01-5.57430E-01-2.14149E-01 2.39300E-01 2.05401E-01
 -1       102-1.16839E+00-1.86799E+00 8.99225E-02-1.58787E-01 6.66927E-01 1.44406E+00
 -1       103-2.44560E+00-1.24784E+00 3.44862E-01-5.35460E-01 1.97833E-01 5.41375E-01
 -1       104 2.97727E+00 1.92641E+00 8.13607E-01 6.69988E-01 1.28948E+00 2.04877E+00
 -1       105-3.91834E+00-1.65678E+00 1.96224E-01-1.68636E+00 1.02508E-01 7.14666E-02
 -1       106-2.02782E+00 3.07646E-01 2.14103E+00 5.70832E-01 9.12894E-01 3.69882E-01
 -1       107-7.94708E-01-1.80500E+00 6.86727E-01-1.34928E+00-2.56834E-01 2.01350E-01
 -1       108-1.17035E+01-1.38812E+01-5.38244E+00 2.95477E+00 1.11052E+00-1.34377E-01
 -1       109-4.21902E+00-5.96293E+00-3.41565E+00 4.52677E-02 1.73867E-01 2.36757E+00
 -1       110-8.62209E-01-8.92766E-01-2.26102E-01 1.05485E-01 1.55480E-01 7.40164E-01
 -1       111-1.31611E+00-3.21529E-01 1.08913E-01-5.87456E-01 1.40204E-01 6.55784E-01
 -1       112-2.12689E+00-2.64039E+00-7.02355E-01 3.42336E-02 8.38799E-01 1.14731E+00
 -1       113-2.79635E-01-5.43187E-01 7.26503E-01-5.50966E-01 3.43783E-01-1.64722E-01
 -1       114-2.02349E+01-3.63333E+01-2.06315E+00 2.73993E+01-7.51128E-01-1.15076E+00
 -1       115-2.22608E+00-1.74652E+00 2.91372E-01 8.82976E-01 1.11437E+00 9.89060E-01
 -1       116-4.02607E-01 9.48395E-02-1.88510E-01 1.89132E-02-9.50592E-02 3.20640E-01
 -1       117-2.48059E-01 8.36882E-02 1.33738E-01-7.81744E-02-1.10026E-01 1.61979E-01
 -1       118-1.44099E+00-2.06508E+00-1.86495E+00 1.58157E-01 5.38334E-01 3.14807E-01
 -1       119-1.62185E+01-1.31532E+01-8.82138E+00 9.64769E-01-4.66906E+00-2.00125E+00
 -1       120-1.34179E+01-1.18663E+01-8.64945E+00 3.13188E+00-7.74374E-01-1.25049E+00
 -1       121-2.12554E+00-1.81896E+00-5.32033E-01 1.06837E-01 1.23919E+00 1.26422E+00
 -1       122-1.14557E+00-2.14569E-01-3.99875E-01-4.38426E-01 2.75087E-01 4.53511E-01
 -1       123-1.28206E-01-3.41445E+00-1.90600E-01-5.61001E-01 2.66907E-01-3.43516E-02
 -1       124-1.00583E-01-1.35564E+00 2.20394E-01-5.03632E-01 5.03703E-01-6.50896E-04
 -1       125-3.04803E+01-3.38259E+01-1.93058E+01-7.36789E-01-8.79496E+00-1.80517E+00
 -1       126 5.68363E-01-1.56052E+00 1.53021E+00 2.59421E-02 3.28081E+00 8.17116E-01
 -1       127-3.27558E-01-5.45684E-01-1.04328E+00-1.27689E-01 7.37218E-01 5.38472E-02
 -1       128-2.82116E+00-1.85226E+00 3.99731E-01 7.94832E-01 9.87484E-01 5.84034E-01
 -1       129-2.20981E+00-1.45121E+00-9.43844E-01 1.36062E-01 1.23809E+00 4.10012E-01
 -1       130-7.10172E-01 3.20605E-01 1.76353E+00 6.07942E-01 3.74333E+00 3.42280E-01
 -1       131-4.55757E-01-4.75284E-01 1.67039E+00-5.15001E-01 3.75488E-01 8.31246E-02
 -1       132-1.43724E+00-3.88633E+00 2.91072E-01-1.48476E+00 1.18459E-01 2.11093E-01
 -1       133-1.03435E+00-1.80868E+00-4.59255E-01-7.21488E-01 5.27683E-01 4.29748E-01
 -1       134-1.78234E-02-8.68631E-01-3.58042E-01-6.13072E-02 5.05694E-01 6.49988E-02
 -1       135-5.96755E-01-4.28342E-01 9.07222E-01-7.19749E-01-9.92600E-02 5.88131E-01
 -1       136 3.48431E-01-2.01204E+00 2.30627E+00 5.54733E-01 3.41690E-01 9.94555E-01
 -1       137 1.55518E+00 4.93814E+00 2.11601E+00-1.99988E-01 3.21297E+00-4.45125E-02
 -1       138-1.51033E-01-2.52350E-01-5.81174E-01 4.62075E-02 3.40790E-01-1.93718E-01
 -1       139 3.93880E-02 1.50755E+00 6.77389E-01-6.63096E-02 2.64095E+00-1.46622E-02
 -1       140-1.52712E+00-5.25431E+00 7.67434E-01 6.49233E-01 4.79156E-01-3.58222E-01
 -1       141-2.16506E-01-1.72593E+00 1.61598E+00-1.09482E+00-1.01401E-01-9.44806E-01
 -1       142 2.16603E-01-7.60014E-01 2.30536E-01 1.41600E-01 6.71896E-01-5.72786E-01
 -1       143-6.56721E-02-8.93411E-01 7.71362E-01-5.17494E-01 1.43175E-01 5.14128E-01
 -1       144-3.03865E+00-2.61464E+00-5.55000E-01-1.78649E-01 1.35951E+00 3.81364E-01
 -1       145-1.04057E+00-2.00239E+00 9.35834E-01 1.65494E+00 5.91101E-01 1.14216E-01
 -1       146-1.49507E+01-9.40897E+00-6.29349E+00 1.28878E+00-3.78786E-01 6.66056E-01
 -1       147-6.66933E+01-1.23792E+01-8.30655E+00-9.19736E+00 3.23207E+00-1.45809E+00
 -1       148 5.45936E-02-1.31456E-01-1.53925E-01 9.69303E-02 1.51221E-01-1.61756E-01
 -1       149 2.14672E+00 1.01963E+00-3.64949E-01-3.55314E-01 2.65411E+00-1.34267E+00
 -1       150-6.51206E+01-9.36001E+00-7.71297E+00-9.98458E+00-1.66666E+00-7.85633E-01
 -1       151-1.78343E+01-1.25286E+01-8.73694E+00-4.92376E-01-1.84747E+00 1.14079E+00
 -1       152-1.32372E+00-1.81992E+00-2.35155E-01 9.32323E-01 6.34233E-01-1.36389E-01
 -1       153-3.28291E+00-2.67443E+00-7.30693E-01-4.25180E-02 1.16162E+00-7.14307E-01
 -1       154-9.59801E+00-6.67365E+00-3.51886E+00-9.72091E-01 5.43185E-02-7.36075E-01
 -1       155-1.71493E+00-4.13227E+00 5.46471E-01 1.75367E+00 2.07999E-01-1.90782E-01
 -1       156-1.22938E+01-1.06712E+01-6.01403E+00-2.13202E+00-8.91024E-01 1.39500E-02
 -1       157-3.96695E+00-3.18033E+00-1.10871E+00-3.37821E-01 6.77052E-01-3.53018E-01
 -1       158-1.15608E+00-7.09133E-01-3.04167E-01 8.49342E-01 2.57367E-01-1.37211E-01
 -1       159-3.14685E+00-2.85546E+00-1.21957E+00 2.31898E-01 1.54994E+00-6.59169E-01
 -1       160-3.49442E-01-2.18305E-01-8.46997E-01 1.22101E-01 2.21810E-01-5.42116E-01
 -1       161-1.21206E+00-1.43841E+00 2.27288E-01 8.72490E-01 5.99803E-01-3.54636E-01
 -1       162-2.97361E+00-2.27040E+00 7.41253E-01-9.20185E-01 1.07036E+00-6.12453E-02
 -1       163-1.35193E+01-1.13638E+01-6.46172E+00-2.32604E+00-3.57054E-01 4.61217E-01
 -1       164-1.68278E-02-1.10461E+00 6.13243E-01 4.77603E-01 5.56345E-01 1.71113E-01
 -1       165-1.38814E+01-1.59977E+01-7.33258E+00-3.01849E+00 6.42560E-01 5.48302E-01
 -1       166-2.83860E+00-2.72748E+00-2.40862E+00-1.38876E-01 1.63727E+00-1.16076E+00
 -1       167-6.24603E-01-6.57183E-02 7.69325E-01 6.34275E-01-1.33115E-01-1.10506E+00
 -1       168-4.55255E+00-5.36321E+00-3.45525E+00-5.59331E-01 1.72346E+00-1.76891E+00
 -1       169-2.26479E+01-2.56868E+01-1.44940E+01 3.57746E-01-2.61976E+00 4.23044E+00
 -1       170-8.67466E+00-5.67569E+01 1.72376E+00-9.98957E+00-6.52241E-01-1.26471E+00
 -1       171-2.35848E+01-2.52432E+01-1.69097E+01-1.51026E+00-2.72442E+00 7.58858E+00
 -1       172 1.57522E+00 1.72138E+00 8.46294E-01-1.16729E+00 9.19962E-01-1.67655E+00
 -1       173-1.93941E+01-2.10074E+01-1.13434E+01-1.14507E+00-1.04430E+00 3.77439E+00
 -1       174-3.50740E+00-4.22269E+00-1.16462E+00-8.03402E-01 4.74540E-01-1.13683E+00
 -1       175-2.50938E+00-2.59903E+00-1.23006E+00-3.28066E-01 2.65383E-01-1.18204E+00
 -1       176-6.08205E-01-2.24500E+00 1.15971E+00 1.46193E+00 7.82113E-02-6.83103E-01
 -1       177-1.95117E+00 3.22494E-01 1.88830E+00-3.89996E-01 8.67578E-01-1.00590E-02
 -1       178-7.33186E+00-1.16569E+01-3.36392E+00-1.50499E+00 5.12804E-01 3.23513E-01
 -1       179-4.58583E+00-4.33496E+00-2.79834E+00-5.94915E-01 1.00307E+00-1.97702E+00
 -1       180-6.33740E-01-7.74720E-01 3.60144E-01 9.75442E-02-5.78338E-02-4.08819E-01
 -1       181-1.40549E+00-1.75784E-01 3.14165E-01 4.74344E-01 2.03642E-01-5.06213E-01
 -1       182-5.86993E-01-5.85047E-01-9.69733E-02 6.12600E-01 4.05532E-01-3.24496E-01
 -1       183-1.19956E+01-1.43221E+01-6.34807E+00-2.55687E+00 8.81584E-02 4.87846E-01
 -1       184 2.93873E-01 2.09353E-01 4.10444E-01-1.05469E-01-1.24645E-01 3.47301E-01
 -1       185-1.71128E+01-2.21445E+01-1.26355E+01-2.95835E+00-9.28272E-01 5.08257E+00
 -1       186 4.76643E-01 2.13787E-01 7.19190E-01 5.87451E-02-1.27484E-01 5.09194E-01
 -1       187 7.88378E+00 4.86039E+00 4.42267E+00 1.14643E+00 9.13479E-01-3.85096E+00
 -1       188-7.71843E+00-1.33459E+01-4.64951E+00-1.34692E+00 6.94684E-01 6.45265E-01
 -1       189-2.28565E+00-3.79267E+00 5.84519E-01 5.83888E-02 1.87134E-01-7.80554E-01
 -1       190-1.87764E+00-7.60071E-01 1.15108E+00-1.45047E+00 3.79989E-01-3.67566E-01
 -1       191-1.86944E+00-3.03016E-01 1.13941E-01 1.00293E-01 2.31069E-01-7.19966E-01
 -1       192-9.59727E-01-4.83865E-03 4.73660E-01 4.28089E-01 5.16465E-01-3.89257E-01
 -1       193-1.73165E+00-1.52864E+00-1.27569E+00-1.42763E-01 1.33172E-01-1.99128E+00
 -1       194-7.47605E+00-1.27032E+01-5.21143E+00 4.46196E-01-3.50650E-01-6.52184E-01
 -1       195-8.74572E-01 3.06273E-01 6.67654E-01-2.09141E-01-8.20857E-01-6.88073E-01
 -1       196-1.71343E+01-2.54506E+01-1.19079E+01-1.08218E-01 1.60547E+00 4.70613E+00
 -1       197-2.86264E-01-1.40687E-01-5.25011E-01-8.20474E-02-6.24186E-02-3.80739E-01
 -1       198-3.02109E+00-3.78011E+00-1.69173E+00 2.22095E-01-1.63023E-01-1.43073E+00
 -1       199 2.18377E+00 1.62974E-01 6.28913E-01 9.44684E-01-9.94767E-01-2.81764E+00
 -1       200-7.63506E+00-1.17216E+01-5.05270E+00 7.25448E-01 2.12693E-02-6.93778E-01
 -1       201-3.23274E+00-4.09489E+00-1.75049E+00 1.70509E-01-6.43546E-01-4.83295E-01
 -1       202-1.12648E+00-1.08713E+00 1.67933E-01 1.06881E-01-5.06143E-01-1.74857E+00
 -1       203-6.67760E-01-1.69861E+00 9.20020E-01-1.27040E+00 2.42881E-01-3.37574E-01
 -1       204-8.19459E-01-1.14965E+00-3.75477E-01-9.13767E-01-2.63605E-01-3.80848E-01
 -1       205-1.55013E-01-2.12930E-01-5.11665E-01-1.82374E-01-3.30342E-01-2.81943E-01
 -1       206-2.46486E+01-4.41282E+01-3.61082E+00 2.85542E+01 2.28684E-01-1.06693E+00
 -1       207-1.74312E-01-2.06679E-01-5.62720E-01-1.82049E-01-3.40888E-01-3.02837E-01
 -1       208-3.62918E+00-4.07026E+00-2.35336E-01 9.37294E-01-4.66000E-01-4.50380E-01
 -1       209-4.14514E+00-2.58244E+00 4.51037E-01-2.18447E+00-2.09525E-01-5.88332E-01
 -1       210-3.12201E+00-2.42359E+00-1.71829E+00 5.99485E-01-7.80924E-01-8.04209E-01
 -1       211-2.06520E-01-4.19218E-01-1.17787E-01-4.95071E-01-8.92227E-01-2.32993E-01
 -1       212-2.40823E+00-2.39792E+00-1.60779E+00 5.15658E-02-1.14761E+00-1.13772E+00
 -1       213-3.73559E+00-3.86340E+00-3.28143E+00 4.02963E-01-1.92609E+00-1.34284E+00
 -1       214-1.54049E+00-7.32631E-01 8.28828E-01-8.98592E-01-9.79663E-02-5.53880E-01
 -1       215 1.67698E-01-2.90454E+00 1.45580E+00-6.43731E-01 1.34344E-01-6.43844E-01
 -1       216-5.43678E+00-4.91717E+00-3.44991E+00 7.05259E-02-1.56875E+00-1.48910E+00
 -1       217-6.92330E+01-6.83246E+00-1.08221E+00 1.32694E+01-5.43625E-01-1.37406E-01
 -1       218-4.39860E+01-2.53015E+01-4.95056E+00 2.76227E+01 3.94506E+00-4.35302E-01
 -1       219-1.03703E+00-1.08143E+00 1.92186E-01-6.03712E-02-1.25986E+00-1.01517E+00
 -1       220 6.24069E-01-3.91100E-01 1.54560E+00-3.13739E-01-2.64777E+00-1.19137E+00
 -1       221-5.56067E-01-3.61832E-01-5.37409E-01 7.78795E-03-3.91536E-01-2.43004E-01
 -1       222-2.38202E-01-1.70117E-01-2.42926E-01-1.30079E-01-1.93845E-01-9.29177E-02
 -1       223-2.47556E+00-2.10439E+00-1.21227E+00-3.14399E-01-1.60930E+00-6.94547E-01
 -1       224-1.01150E+00-2.39919E+00-2.20038E-01-5.48761E-01-8.30600E-01-1.73230E-01
 -1       225 1.90112E+00 2.59027E+00 3.31918E+00-9.32646E-01-4.18431E+00-5.29281E-01
 -1       226-2.19447E+01-1.48605E+01-9.33949E+00 3.22270E-01 3.59573E+00-6.50759E-01
 -1       227-3.19939E+00-2.11223E+00-3.05916E-02 3.69971E-01-7.51610E-01-2.36750E-01
 -1       228-3.09909E+00-5.37848E+00-2.61185E-02-1.73986E+00-2.66400E-01-1.22325E-01
 -1       229-2.21153E+00-5.54019E+00 3.70404E-01-1.46848E+00-2.96684E-01 1.09691E-01
 -1       230 8.43984E-02-1.48811E+00 2.08374E-01 4.51801E-02-5.40157E-01 2.02649E-01
 -1       231-7.22951E-01-6.66857E-01-2.50351E-01-6.84549E-01-3.82692E-01-3.67903E-01
 -1       232-2.50268E+00-1.96786E+00-7.67636E-01-5.16743E-01-2.18677E+00-5.09031E-01
 -1       233-1.85299E+00-7.12470E-01 1.10100E+00-1.39542E+00-4.09422E-01 2.82537E-01
 -1       234-7.22124E+00-6.27422E+00-4.34147E+00 1.17235E+00-1.77511E+00-2.14524E+00
 -1       235 3.50731E-02-3.25195E-01-4.54191E-01-2.75661E-02-3.84318E-01-3.25779E-02
 -1       236 2.02745E+00 2.26390E+00 2.15892E+00 2.66166E-01-2.53818E+00 2.32413E-01
 -1       237-2.49012E+00-1.13167E+00 7.92101E-02-4.36535E-01-4.78008E-01-2.86545E-02
 -1       238 1.98872E+00 2.97675E+00 1.34440E+00 1.86408E-01-2.65493E+00 1.75341E-01
 -1       239-1.15167E+00-2.96025E+00-1.80386E-01 1.56521E-01-7.97871E-01 1.67678E-01
 -1       240 1.79305E-02-3.00481E-01-4.69120E-01-2.96994E-02-3.82466E-01-1.85841E-02
 -1       241-1.32304E+00-4.68259E+00 4.29008E-01 3.48940E-01 1.15427E-01 4.32328E-01
 -1       242-2.77126E+00-2.10668E+00-2.41539E+00 7.21500E-01-6.86389E-01 6.03944E-01
 -1       243-2.98633E+00-3.33891E+00-2.16489E+00 1.81829E-01-1.67925E+00-6.95749E-01
 -1       244-3.06106E-01-1.79323E+00 4.75255E-01-4.34352E-02-8.07936E-01 2.56660E-02
 -1       245-4.32455E+00-4.63242E+00-3.16708E+00-2.83330E-01-1.71468E+00-3.00606E-01
 -1       246-8.75245E-01-2.00848E+00 2.22502E-01 1.37513E+00-6.81913E-02-7.53559E-02
 -1       247-1.30493E+01-9.06320E+00-8.34850E+00-3.09980E-01 3.89856E-01 1.11539E+00
 -1       248-1.52594E+01-9.78533E+00-7.34466E+00 9.12533E-01 6.17047E-01-4.03365E-01
 -1       249 7.20804E-02-9.12121E-01 6.91715E-01 4.02730E-01-3.77545E-01 6.27035E-01
 -1       250-6.04432E+01-6.88033E+00 3.24614E+00-1.29271E+01-2.70165E+00-5.58448E-01
 -1       251 3.47703E-02-1.96207E-01-2.24042E-01-2.77240E-03-2.12968E-01-1.87544E-02
 -1       252 1.07683E-02-1.13743E-01-2.78420E-01-3.72329E-02-1.79118E-01-4.94821E-02
 -1       253 3.67258E-01 1.40150E+00 9.18472E-01 3.53830E-02-1.99376E+00 6.32341E-01
 -1       254-1.92151E+00-1.63073E+00-6.41027E-01 6.56072E-01-1.51408E+00 2.75775E-01
 -1       255-8.14375E-01-1.62255E+00 1.13220E-01 5.42947E-01-7.24493E-01 2.71996E-01
 -1       256-1.41986E+00-5.50630E-01 1.20604E+00 1.15272E+00-4.07944E-01-3.69985E-01
 -1       257-3.31671E+00-1.79358E+00 4.39962E-02-2.24605E-01-5.97072E-01 5.03104E-02
 -1       258-8.15843E-01-6.12995E-01-2.38813E-01 6.78032E-01-2.91682E-01 2.41457E-01
 -1       259-4.51533E+00-3.81495E+00-3.40426E+00 5.08423E-01-2.12087E+00 3.48216E-01
 -1       260-4.02890E+00-3.85939E+00-1.10565E+00-3.82187E-01-1.74942E+00 2.82296E-01
 -1       261 2.20937E-01-4.64441E-01 7.12021E-01 1.31176E-01-4.84052E-01-4.23502E-01
 -1       262-2.40331E+00-3.39934E+00-1.51794E+00-3.49349E-01-2.19626E+00 1.56885E+00
 -1       263-1.44032E+01-1.14679E+01-6.15285E+00-2.67428E+00-3.17799E-02 7.19890E-02
 -1       264-2.76159E+01-2.60332E+01-1.89959E+01 6.19139E-01 5.21522E+00-4.90801E+00
 -1       265-2.86039E+01-2.41844E+01 6.76720E+00-1.95779E+01-1.16097E+00 3.01956E+00
 -1       266 1.67859E-03 6.78759E-02 9.29146E-03-5.96816E-03 2.13894E-02-3.59639E-03
 -1       267-3.46771E+00-3.06091E+00-8.28206E-01-5.87121E-01-9.83001E-01 1.11137E+00
 -1       268-2.14347E+01-4.33033E+01-6.46225E+00-2.54715E+01 4.89772E+00-1.58666E+00
 -1       269-1.26182E+01-1.04254E+01-5.15051E+00-3.09098E+00-1.69709E-02 2.20427E-01
 -1       270-3.00175E+00-2.21946E+00-6.15990E-01-9.42681E-01-1.01101E+00 6.46405E-01
 -1       271-2.45389E+00 9.12143E-02 6.70144E-01 3.73199E-01-3.60226E-01 2.56891E-01
 -1       272-1.85421E+00-7.08517E-01 1.21832E-01 2.43305E-01-1.13698E+00 1.46065E+00
 -1       273 7.43676E-03-9.23952E-01 4.86000E-01 3.31514E-01-3.17821E-01-1.60264E-01
 -1       274 2.95309E-01-2.09994E-01-3.51199E-01 3.08491E-01-3.21648E-01 7.97918E-01
 -1       275-5.34107E+00-4.99621E+00-3.73439E+00 2.72274E-02-1.89169E+00 1.64430E+00
 -1       276-2.45588E+01-2.65908E+01-1.71250E+01-1.08948E-02 3.46696E+00-6.28717E+00
 -1       277 3.20290E+00 4.83294E+00 3.74722E+00-5.66882E-01-1.84445E+00 3.22540E+00
 -1       278 1.88762E-01 5.48846E-02 4.00857E-01-1.66664E-01 2.06792E-01-2.81477E-01
 -1       279-1.62960E+01-1.90158E+01-9.21659E+00-8.12946E-01 2.61753E+00-3.77060E+00
 -1       280-1.73206E+00-3.51927E+00-9.15995E-01-5.10908E-01-8.37310E-01 1.34574E+00
 -1       281-1.38038E+00-4.85163E-01-3.52613E-01 4.59150E-01-2.95176E-01 6.23049E-01
 -1       282 3.02240E-01 1.17996E-01 4.54112E-01-1.69432E-01 1.97672E-01-3.68979E-01
 -1       283-7.90230E-01-1.49852E+00 9.57282E-01 1.30295E+00 5.49302E-01 1.52492E-01
 -1       284-2.64126E+00 2.89286E-02 1.09710E+00-7.76573E-01-3.95884E-01 5.53561E-01
 -1       285-1.27701E+00-2.43834E+00-2.24124E-01-4.81222E-01-2.65580E-01 1.03527E+00
 -1       286-8.06153E-01 8.16863E-02-6.24906E-02 1.60714E-01 1.08450E-01 6.94759E-01
 -1       287-2.50299E-01 9.08847E-02 1.04297E+00 3.86461E-01-8.22607E-01-1.59584E-02
 -1       288-2.44367E+00-3.57833E+00-1.90307E+00-7.95359E-03-8.04495E-01 2.08496E+00
 -1       289-3.25429E+00-9.90443E-01 6.22425E-01-6.31155E-01-8.88319E-01 7.06256E+00
 -1       290 3.25865E+00 4.78743E+00 3.17037E+00 2.47119E-01-7.05541E+00-1.03507E+00
 -1       291-1.93444E+01-2.41271E+01-1.83015E+01-2.58786E+00-8.27649E+00-3.54454E+00
 -1       292-2.10162E+01-2.78431E+01-2.05698E+01-1.84677E+00-9.34970E+00-1.85416E+00
 -1       293-2.83180E+00-1.72545E+00-3.73202E+00 3.64397E-01 2.45222E+00 4.52439E+00
 -1       294-9.28425E+00-1.51950E+01-1.02584E+01-2.56370E+00 5.72525E+00 5.06221E+00
 -1       295 3.50265E+00-3.61194E+00-3.92217E-01 2.09616E+00 3.38336E+00-6.16858E+00
 -1       296-2.01929E+01-1.62366E+01-1.53368E+01-2.71858E+00 4.99645E+00 9.16129E+00
 -1       297-5.42374E+00-5.60841E+00-6.40244E+00-1.11297E-01 5.59873E+00 8.31915E-01
 -1       298-1.24121E+01-9.32863E+00-9.62138E+00 2.25026E-01 1.21991E-01-8.22064E+00
 -1       299 1.55590E+01 1.74916E+01 1.39143E+01-2.42596E+00 6.95078E+00-4.63118E+00
 -1       300-1.66085E+01-2.06892E+01-1.57023E+01 2.08486E+00 8.32755E+00-4.03167E+00
 -1       301 1.26545E+01 1.67275E+01 1.23699E+01-1.15216E+00 8.48568E+00-1.66967E+00
 -1       302 1.19155E+00 2.76367E+00 4.59893E+00-1.95915E-01 1.25607E+00 5.26059E+00
 -1       303 1.19298E+01 1.59288E+01 1.17285E+01-9.23271E-01-8.08341E+00 1.61758E+00
 -1       304-5.52177E+00-6.07847E+00-6.20914E+00 2.43268E-01-4.63435E+00 2.13721E+00
 -1       305-2.01020E+01-2.52693E+01-1.91013E+01 2.77216E+00-8.53309E+00 4.42971E+00
 -1       306-3.48028E+00-3.98892E+00-6.17220E+00 2.40626E-01-1.92504E+00-5.46298E+00
 -1       307 1.23791E+01 9.92432E+00 9.38976E+00 1.39985E+00-5.53757E+00-8.27218E+00
 -1       308 4.94256E+00 3.60387E+00 3.70032E+00 3.18721E-01 1.35889E-01-7.11572E+00
 -1       309-1.16332E+00-4.32451E-01-6.61833E-01-2.14223E-01-1.34447E+00 8.30608E+00
 -1       310 7.74680E+00 8.23055E+00 8.72793E+00-6.24919E-01-5.23927E+00 3.29550E+00
 -1       311 1.80616E+00 1.00771E+00 4.01828E+00-7.82273E-01 4.35899E+00 3.26135E+00
 -1       312 1.55161E+00-2.86136E-01 4.78959E+00 8.13406E-01-5.27040E+00 4.45404E-01
 -1       313-1.73159E+01-2.29390E+01-1.69473E+01-1.52584E+00 8.64209E+00 1.70162E+00
 -1       314-1.77437E+01-2.44533E+01-1.77649E+01 2.02574E-01-1.10453E+01-3.71944E-01
 -1       315-2.94069E+00-5.04503E+00-2.26280E+00 1.29679E+00 8.48796E+00-6.89004E-01
 -1       316-5.87207E-01-1.27295E+00 3.08424E-01 3.97306E-01 5.67271E+00-4.94920E-01
 -1       317-2.23724E+01-2.16791E+01-1.85457E+01 3.32529E+00 6.52838E+00-6.61883E+00
 -1       318 2.05664E+00 1.82929E+00 4.11146E+00 4.14000E-01 4.71949E+00-3.04550E+00
 -1       319-5.59190E+00-4.92072E+00-3.65081E+00-1.00699E+00-4.39850E+00-5.55202E+00
 -1       320-5.29546E+00-1.52444E+01-9.49731E+00 4.70206E+00 2.95508E+00-5.40813E+00
 -1       321-1.89255E+01-1.47820E+01-1.41909E+01 1.69534E+00 3.55612E+00-8.54692E+00
 -1       322-1.83961E+01-1.45821E+01-1.38838E+01-1.77734E+00-3.13958E+00-7.58684E+00
 -1       323 4.09775E+00 3.63135E+00 5.32754E+00-2.33271E-01-1.05507E+00-5.50947E+00
 -1       324-2.25576E+01-2.26831E+01-1.90463E+01-3.66375E+00-6.91880E+00-7.61252E+00
 -1       325-2.41430E+01-1.83533E+01-1.78909E+01-1.85684E+00 3.49468E+00 8.39266E+00
 -1       326-3.59895E+00-3.33271E+00-6.26566E+00 7.59271E-01 2.10780E+00 4.71289E+00
 -1       327-1.53504E+01-1.98867E+01-1.48348E+01-1.66693E+00 7.89340E+00 3.25601E+00
 -1       328-3.68091E+00-3.90930E+00-2.51191E+00 7.72924E-01-9.20730E-01-1.15456E+00
 -1       329-1.39546E+01-1.92151E+01-7.10630E+00 4.53491E-01 1.90101E+00 2.24659E+00
 -1       330-3.56067E+00-5.43153E+00-1.93447E+00-2.25426E-01-4.73368E-01-8.90338E-01
 -1       331-4.03893E+00-5.55804E+00-3.51828E+00 2.66816E-01-1.35192E-01-1.85268E+00
 -1       332-1.69023E+01-1.69838E+01-9.56399E+00 8.29389E-01 3.09857E+00 3.38569E+00
 -1       333-1.14361E+01-1.32873E+01-7.66161E+00 2.34650E+00-1.85326E-01 3.33454E-01
 -1       334-1.16254E+01-1.44980E+01-8.10843E+00 2.10864E+00-3.18661E-01 4.74881E-01
 -1       335-1.72499E+01-1.30644E+01-7.74205E+00 1.97714E+00 1.93538E+00 3.81219E+00
 -1       336-1.42632E+01-1.09772E+01-5.60409E+00 2.83563E+00 3.81206E-01 5.28372E-01
 -1       337-1.38634E+01-1.18004E+01-5.89866E+00 3.48992E+00 4.35520E-01 2.56397E-01
 -1       338-2.03121E+00-2.27795E+00-3.61211E-01-2.61083E-01 1.40710E+00-1.02171E+00
 -1       339-4.38227E+00-5.88188E+00-3.58633E+00-9.14021E-01 1.84515E+00-1.51821E+00
 -1       340-1.90264E+01-1.57392E+01-9.56271E+00-2.65169E+00-2.94387E+00 2.09639E+00
 -1       341-1.32623E+00-1.02865E+00-4.56560E-01-4.41271E-01 3.51128E-01-3.68705E-01
 -1       342-1.29204E+01-8.58078E+00-5.52087E+00 1.00851E+00 2.42104E-01 9.37327E-02
 -1       343-2.72281E+00-2.12442E+00-1.12306E+00 7.17734E-01-1.02747E+00-6.91468E-01
 -1       344-1.11487E+01-8.32771E+00-6.19888E+00-8.85621E-01-1.05153E-01 2.32567E-01
 -1       345-2.84556E+00-2.00929E+00-1.68130E+00-3.27810E-01-1.07761E+00 4.26069E-01
 -1       346-2.03309E+01-1.62159E+01-7.72205E+00-1.14283E+00 3.64588E+00-5.65400E-01
 -1       347-1.74585E+01-1.71128E+01-8.54218E+00-7.14502E-01 1.10203E+00-2.04288E+00
 -1       348-3.72531E+00-2.85018E+00-9.02321E-01-1.15177E+00-8.86904E-01 8.74663E-01
 -1       349-1.33381E+01-1.52714E+01-7.50749E+00-3.13729E+00-9.13746E-01 2.11753E-01
 -1       350-1.35641E+01-1.51195E+01-7.76367E+00-3.53955E+00-6.73058E-01 4.29186E-01
 -1       351 2.62561E+00 2.05745E+00 1.32178E+00-7.29316E-01-1.62926E+00 2.12017E+00
 -1       352 2.48295E-02-9.47987E-01 1.34245E-01 3.17443E-01-3.34471E-01 1.10257E+00
 -1       353-1.69653E+01-1.83267E+01-9.63001E+00-7.03655E-01 6.12235E-01-4.34200E+00
 -1       354-8.01680E+00-1.34256E+01-6.08921E+00-7.89314E-01 5.00708E-02-2.98678E-01
 -1       355-2.60901E+00-3.99737E+00-2.50012E+00 8.11693E-02-1.81003E-01 2.32890E+00
 -1       356-7.49097E+00-1.23588E+01-5.41869E+00-1.36873E+00 3.15504E-01-3.08189E-01
 -1       357-5.33165E+00-5.79641E+00-4.87898E+00-1.24131E-01 9.71755E-02 1.88116E+00
 -1       358 1.23037E+01 1.32877E+01 1.07740E+01 1.98563E+00 6.63848E+00 4.41937E+00
 -1       359-2.98260E-02 2.50883E+00-4.96908E+00 1.48606E+00 2.45960E+00 1.73454E+00
 -1       360-5.37883E+00-4.64682E+00-4.14975E+00 3.24048E-01 1.20195E+00 1.49512E+00
 -1       361-5.22450E+00-4.67002E+00-3.72715E+00 4.98971E-01 1.69091E+00 3.17045E-01
 -1       362 1.91008E+00 3.33148E+00 2.84827E-02 1.47881E+00 5.20883E+00-1.18175E+00
 -1       363-5.49997E-01-1.47472E+00 4.09416E-01-3.60010E-01 1.87762E+00-2.13787E-01
 -1       364-1.05101E+00-1.49269E+00-1.65552E+00 5.35048E-01 3.08433E+00-1.20712E+00
 -1       365-1.77592E+00 2.99921E-01-3.03914E+00 9.62952E-02 3.61969E+00-2.41995E+00
 -1       366 1.84268E+00 4.05667E+00 2.30553E+00-4.70229E-02 2.26084E+00-2.42290E+00
 -1       367-3.19735E+00-2.67120E+00-1.28816E+00-2.53682E-01 1.14233E+00-1.66167E+00
 -1       368 9.98834E-01 1.32067E+00 5.44038E-02-7.93419E-01 1.35612E+00 2.13554E+00
 -1       369 3.55866E-01-3.17530E-01-1.77458E-01 2.94103E-01 2.19828E+00 1.26907E+00
 -1       370 2.14830E+00 1.01614E+00 1.13658E+00-1.14004E-01 2.50107E+00 2.94581E+00
 -1       371-5.41245E+00-5.11755E+00-2.26508E+00 6.08660E-01 1.25085E+00 1.65073E+00
 -1       372-3.51098E+00-3.99360E+00-2.99756E+00 1.53250E-01 1.30151E+00 2.03177E+00
 -1       373 6.42330E+00 4.12809E+00 3.08499E+00-1.88199E+00-9.54443E-01 8.78515E+00
 -1       374 2.17485E+01 1.60636E+01 1.59189E+01 9.45115E-01 1.71557E+00 8.56483E+00
 -1       375 2.91864E+00 1.34962E+00 1.97308E+00 1.86461E-01-3.30576E-01 2.48396E+00
 -1       376 1.68472E+00 4.45959E-02 9.98317E-01 4.87109E-02-1.20777E+00 4.25219E+00
 -1       377-1.84441E+00-1.13319E+01-4.94862E+00-2.16581E+00 4.78891E+00 4.34852E+00
 -1       378-2.72972E+00-2.59787E+00-2.20862E+00 2.98970E-01-1.77718E-01 1.49041E+00
 -1       379 8.45565E+00 7.69737E+00 7.79459E+00-1.29182E+00-1.45230E+00 7.65814E+00
 -1       380-2.37156E+00-3.75251E+00-2.29494E+00-3.28830E-02-5.45732E-02 1.53123E+00
 -1       381-3.38835E+00-4.89440E+00-2.95088E+00 1.00518E-01-4.72787E-01 1.65166E+00
 -1       382-2.26850E+00 2.63126E+00 1.06739E+00-1.13482E+00-4.10881E+00 6.66408E+00
 -1       383 1.95465E+00 1.76589E+00 1.49330E+00-2.82994E-01-2.68137E+00 1.17513E+00
 -1       384-2.30380E+00-1.91788E+00-1.29627E+00 5.87730E-02-1.11035E+00 1.90611E+00
 -1       385-3.19901E+00-4.09950E+00-2.21396E+00 2.61318E-02-1.96456E-01 1.85760E+00
 -1       386 2.76447E+00 1.43944E+00 1.15643E+00-1.27186E+00-1.13643E+00 2.63516E+00
 -1       387 1.42517E+00 1.58975E+00 1.32635E+00-1.64596E-01-2.10000E+00 2.48720E+00
 -1       388-4.85997E+00-4.25029E+00-3.34653E+00-1.63403E-01-1.45183E+00 1.58925E+00
 -1       389 1.56633E+01 1.73770E+01 1.39100E+01-2.47102E+00-6.57436E+00 4.37324E+00
 -1       390-1.75731E+00-2.69363E+00-1.41002E+00-4.16930E-01-2.16631E+00 5.30683E-01
 -1       391-4.68445E+00-4.38348E+00-3.22604E+00 4.75902E-02-2.30072E+00-5.65335E-01
 -1       392 2.82252E+00 4.20105E+00 3.67735E+00 2.63199E+00-6.46657E+00 2.25922E-02
 -1       393-6.39369E+00-5.15241E+00-9.44308E+00-2.69651E-01-4.61855E+00-2.25953E+00
 -1       394-4.18261E+00-3.05280E+00-2.72558E+00 7.31157E-01-8.92199E-01-1.58748E+00
 -1       395 3.12444E-01-9.47705E-02-2.18688E-01 2.03177E-01-1.41383E+00-1.50182E+00
 -1       396 2.67196E+00 1.88561E+00 1.40815E+00-2.39200E-01-1.41424E+00-2.89338E+00
 -1       397 1.81374E+01 2.01181E+01 1.61056E+01 2.86151E+00-5.94059E+00-3.95811E+00
 -1       398-9.23634E+00-1.53144E+01-5.82970E+00 7.50131E-01 3.35060E-01 2.47406E-01
 -1       399-8.70379E+00-1.32538E+01-4.66810E+00 1.11012E+00 6.26983E-01 2.27332E-01
 -1       400-2.35284E+00-3.01024E+00-4.12755E-01 5.64112E-01 9.52946E-01 6.93402E-01
 -1       401-4.62935E+00-4.20508E+00-2.45053E+00 7.88771E-01 1.27215E+00 1.18620E+00
 -1       402-5.48592E+00-5.57337E+00-5.28848E+00 8.59405E-02 1.31042E+00 2.03860E+00
 -1       403-1.90679E+01-2.08716E+01-1.35950E+01 5.00377E-01-2.43211E-01-2.59206E+00
 -1       404-1.35134E+01-1.58156E+01-6.95468E+00 3.74111E+00 7.90908E-01 1.78664E-01
 -1       405-2.02082E+00-3.24467E+00-1.00312E+00 6.72020E-01 4.47855E-01 8.22863E-01
 -1       406-1.22696E+01-9.53168E+00-6.22474E+00 2.43654E+00-1.01160E+00-4.39337E-01
 -1       407-5.58213E+00-3.79796E+00-9.34868E-01 6.85060E-01-1.97478E-01 6.63695E-01
 -1       408-1.94802E+01-1.69769E+01-8.48276E+00 1.19972E+00-5.36410E+00-2.44635E-01
 -1       409-2.96611E+00-2.24022E+00-9.29044E-01-2.52375E-01 1.04336E+00 1.53425E-01
 -1       410-1.30519E+01-8.50022E+00-4.38630E+00 1.20426E+00 1.18644E-01 4.10314E-01
 -1       411-4.20745E+00-2.63801E+00 2.09207E-02 4.39395E-01 7.72143E-01 8.31877E-01
 -1       412-4.89015E+00-4.08973E+00-3.59045E+00 3.12345E-01 2.50945E+00 3.86959E-01
 -1       413-1.53311E+00-1.11925E+00-4.26743E-01 3.45653E-02 1.79670E+00 2.18031E-01
 -1       414-2.10176E+00-1.45523E+00-1.37565E+00-7.68697E-03 1.07237E+00-3.82742E-02
 -1       415-1.24594E+01-8.54984E+00-5.99224E+00-9.70239E-01-3.40735E-01-1.38694E+00
 -1       416-2.06217E+00-1.36268E+00 2.15130E-01-4.79587E-01 9.04756E-01-1.07449E+00
 -1       417-2.99443E+00-2.87635E+00-6.92103E-01-1.99027E-02-1.67591E+00-2.14573E+00
 -1       418 2.14190E+00 8.41939E-01 1.60394E+00 4.01440E-01-1.64090E+00-2.12747E+00
 -1       419-3.38631E+00-3.51300E+00-2.94569E+00-1.94880E-01 1.07922E+00-1.30839E+00
 -1       420 8.48718E-01-3.33544E-01 1.94542E-01-8.84723E-01 2.15794E+00-1.97224E+00
 -1       421-4.25708E+00-3.71660E+00-5.54804E+00-2.24696E-01 3.71924E+00-3.86594E+00
 -1       422-2.95768E+00-3.51587E+00-4.94836E-01-5.64093E-01 3.19937E-01-8.85639E-01
 -1       423 5.73872E-01 5.93946E-01 1.37137E+00-5.42193E-01-1.62948E-01-2.27893E+00
 -1       424-4.75719E+00-5.59142E+00-4.04183E+00 2.42933E-01-1.01060E-01-2.28923E+00
 -1       425-2.13425E+00-2.72628E+00-1.64208E+00-2.32510E-02 7.00977E-04-1.69650E+00
 -1       426-3.78964E+00-3.76424E+00-3.24817E+00 8.93472E-02 2.96151E-01-1.92702E+00
 -1       427-2.57731E+00-2.63308E+00-9.05438E-01-8.71106E-01 1.00092E+00-6.54287E-01
 -1       428-3.31626E+00-4.51002E+00-2.72157E+00-1.21752E-01 4.56612E-01-1.56322E+00
 -1       429 1.18871E+00-1.50790E-01 8.43593E-01 2.42393E-01-5.87560E-01-4.23642E+00
 -1       430-4.55716E+00-3.98151E+00-7.01855E+00 1.75219E-01-3.19333E+00-4.23041E+00
 -1       431 1.16578E+01 9.02706E+00 8.96612E+00-9.08564E-01 1.38115E+00-8.29891E+00
 -1       432-3.19617E+01-3.40900E+01-2.27740E+01-1.87900E-01-1.28376E+00-6.05650E+00
 -1       433-2.81332E+01-2.84759E+01-1.82278E+01-2.56353E+00-8.55571E+00-5.00257E+00
 -1       434-2.92415E+01-2.65325E+01-1.65441E+01-2.03756E+00 7.72041E+00-6.83125E-01
 -1       435-3.00439E+01-2.90382E+01-1.75491E+01-2.26693E+00 7.52989E+00 2.99287E-01
 -1       436-2.36104E+01-1.92826E+01-1.08110E+01-5.21748E-01-4.68656E+00 1.34263E+00
 -1       437-3.29220E+01-3.18798E+01-2.38871E+01 5.34706E-01-8.44184E+00 5.38145E+00
 -1       438-2.69270E+01-2.26817E+01-1.55352E+01 2.78159E+00 4.88217E+00 6.09298E+00
 -1       439-3.35485E+01-3.23619E+01-2.38600E+01-1.26011E+00 5.33719E+00 6.60877E+00
 -1       440-1.52725E+00-2.57378E+00-5.86283E+00-7.51018E-01 2.15017E+00-4.77472E+00
 -1       441-1.06485E+01-7.68825E+00-8.50596E+00 9.52435E-03 9.66641E-01-5.81666E+00
 -1       442-1.14420E+00-8.88872E-01-9.60034E-01 1.00381E-01-4.97662E+00 5.06231E+00
 -1       443-6.07113E+00-5.67103E+00-5.69288E+00 6.28589E-01-4.77742E+00 4.88932E+00
 -1       444 9.51677E-01 1.09905E+00 2.40774E+00 5.75163E-01-2.17433E+00 5.85246E+00
 -1       445 1.36638E+01 1.08952E+01 1.03393E+01-1.35943E+00-3.21069E+00 7.87842E+00
 -1       446-1.44301E+01-5.16965E+00-7.52231E+00-5.74644E-01-3.37126E+00 6.68651E+00
 -1       447 2.84983E+00 1.74175E+00 8.08484E+00-1.35064E+00-3.34671E+00-1.95918E+00
 -1       448 2.50572E+01 1.88490E+01 1.84845E+01 1.57337E+00-1.67755E+00-8.54117E+00
 -1       449-5.33064E+00-3.32182E+01-4.30979E+00 7.29920E+00 1.94732E+00-2.68013E+00
 -1       450-5.77587E+00-3.43064E+01-7.84265E+00-5.55672E+00-1.63892E+00-9.27398E-01
 -1       451-2.15748E+00-2.15904E+00 3.73937E-01 1.68198E-01 5.41386E-01-5.81060E-01
 -1       452-2.49841E+00-1.27085E+00-2.79185E-01 3.93118E-01 1.35260E-02-7.03381E-01
 -1       453-2.19729E+00-2.47035E+00 4.66615E-01-1.96316E-01-4.90284E-01-6.25873E-01
 -1       454-2.44315E+00-2.47130E+00 1.32695E-01 2.14040E-01 5.00180E-01-3.25193E-01
 -1       455-2.42516E+00-2.67484E+00 4.56304E-02 3.54071E-01 3.99790E-01-5.17266E-01
 -1       456-3.17938E+00-3.07488E+00-8.87684E-01 6.71153E-01-5.00204E-02-8.55206E-01
 -1       457-8.70094E+00-8.97683E-01 1.00847E+00 2.55098E-01 3.23613E-02-2.33786E-02
 -1       458-7.32711E+00-1.65760E+00 6.29202E-02 4.23730E-02-8.48562E-01 3.67956E-01
 -1       459-8.35203E+00-2.37147E+00 4.41683E-01-3.57943E+00 1.52214E-02 3.75273E-01
 -1       460-6.81706E+00-1.72870E+00 1.07134E+00-2.00086E+00 2.18461E-01 3.07599E-01
 -1       461-1.97488E+00-3.25418E+00-7.10716E-01-3.79018E-01-7.38245E-01 2.00493E-01
 -1       462-6.12767E+00-2.06348E+00 1.16099E+00 1.91991E+00-3.85474E-01 5.42832E-01
 -1       463-9.05839E+00-3.38178E+00-4.42717E-01 3.21051E+00-7.32331E-01-8.35643E-01
 -1       464-1.86715E+00-3.15586E+00-8.85066E-01 4.37180E-01 6.47435E-01 2.50626E-01
 -1       465-1.75820E+00-2.49960E+00 7.47175E-01-2.88556E-01 6.19712E-01-2.80273E-03
 -1       466-1.88881E+00-1.88481E+00 8.35567E-02 5.92980E-02 1.19212E+00 4.63881E-01
 -1       467-1.13154E+00-1.58415E+00-7.71097E-03-2.44075E-01 8.95047E-01 2.38055E-01
 -1       468-2.99771E+00-7.69056E+00-2.46760E-02-4.06926E+00-2.44439E-01 1.70658E-01
 -1       469-2.80276E+00-8.02074E+00 8.54116E-01-2.69879E+00-1.77721E-01 3.97391E-01
 -1       470-1.13616E+00-1.67440E+00-2.78540E-01-6.88064E-01 3.85607E-01 3.25749E-01
 -1       471-5.82524E+00-5.59461E+00 1.06472E-01-3.98883E+00-4.95798E-01 3.24105E-01
 -1       472-4.10040E+00-4.14951E+00 8.48994E-01-2.97434E+00-4.05244E-01-2.42850E-01
 -1       473-6.81175E+00-2.72671E+00 5.52961E-01-2.31968E+00-6.62717E-01-4.07995E-02
 -1       474-9.07302E+00-3.06785E+00 4.98085E-01-3.15994E+00 2.73527E-01 6.89324E-02
 -1       475-7.17717E+00-1.37387E+00 7.24189E-01-9.95521E-03 1.70245E-01-4.04679E-01
 -1       476-9.08129E+00-5.41362E-01 9.28414E-01 7.37426E-01-2.44527E-01 8.07630E-03
 -1       477-2.66686E+00-1.72897E+00 9.27383E-02-5.39322E-02 3.39260E-01 7.84666E-01
 -1       478-1.81530E+00-2.92431E-01 2.80992E-01 1.87270E-01-1.41945E-01 7.25951E-01
 -1       479-2.16200E-01-1.65993E-01-3.90172E-01 5.11178E-02-1.18225E-01 9.18541E-01
 -1       480-6.40826E-01 4.74704E-02-6.22535E-01 6.44204E-02-9.93190E-02 1.12113E+00
 -1       481-3.00923E+00-2.56844E+00 3.16692E-02 1.70943E-01-5.11116E-01 3.79483E-01
 -1       482-1.58571E+00-9.92607E-01-3.91757E-01 2.78211E-01 1.01955E+00 6.92515E-01
 -1       483-8.25352E-01-1.86351E-01 1.20855E-02-3.66077E-01 7.89126E-01 5.61418E-01
 -1       484-7.08125E-01-1.05813E+00-2.98483E-01 1.17786E-01 4.26450E-01 1.05470E+00
 -1       485-1.14121E+00-3.29553E-01 1.00661E-03-2.08943E-01 3.91452E-01 1.28527E+00
 -1       486-2.96104E+00-2.35768E+00 1.96417E-01-2.32721E-01-7.26025E-02 8.20219E-01
 -1       487-1.30683E+00-5.03249E-01 2.54029E-01-8.61594E-01 3.47149E-01 4.71640E-01
 -1       488-2.18166E+00-1.97834E+00 2.39191E-01-4.63859E-01 4.56892E-01 3.35293E-01
 -1       489-2.45297E+00-2.67343E+00-5.58369E-01-5.71589E-01 8.59212E-01 7.24830E-02
 -1       490-1.37226E+00-1.58450E+00-5.26361E-01 1.23704E-01-1.19206E+00 6.85622E-01
 -1       491 3.17391E-01-3.26581E-01 4.89194E-02 3.06276E-01-9.67561E-01 4.18037E-01
 -1       492-1.60447E+00-6.65955E+00 9.96151E-01 2.38777E+00 2.10205E-01 1.98060E-01
 -1       493-2.30546E+00-7.66487E+00 7.31348E-01 3.01943E+00-8.63715E-01-2.09565E-02
 -1       494-1.45956E+00-8.74127E+00 1.09155E+00 4.90289E-01-2.26394E-01-1.15175E-01
 -1       495-2.55286E+00-1.03205E+01 3.61575E-02 2.58231E-02 5.54250E-02-8.10752E-03
 -1       496-5.41264E-01-1.02519E+00-2.88946E-01-1.15647E-01-1.28076E+00-1.02201E-02
 -1       497 3.87594E-02-8.58514E-01-1.27329E-01-1.43917E-01-1.31717E+00 3.86610E-04
 -1       498-6.17640E+00-2.41383E+00 6.20427E-01 2.37826E+00 6.26128E-01-3.90937E-01
 -1       499-7.24129E+00-2.51104E+00 1.02821E+00 3.96977E+00-1.13048E-01-2.64780E-01
 -1       500-1.97057E+00-1.61823E+00 5.23211E-01 4.03037E-01-1.60751E-01 8.69586E-01
 -1       501-1.04954E+00-6.93395E-01 1.98860E-01 7.88738E-01-4.49480E-01 5.75548E-01
 -1       502-5.58878E-01-2.06348E+00-8.26007E-01-7.28371E-01 6.18483E-02 1.02629E+00
 -1       503-3.43421E-01-5.87870E-01 2.48616E-01-2.89113E-01-5.07044E-01 9.78092E-01
 -1       504-5.41683E+00-6.13908E+00-1.27450E-01 3.90125E+00 3.54476E-01 6.79647E-02
 -1       505-4.99757E+00-5.83392E+00 6.16152E-01 3.30869E+00 4.44617E-02 2.03561E-01
 -1       506-1.74521E+00-2.04831E+00 4.82366E-01 4.17396E-01-3.74092E-01 6.35103E-01
 -1       507-1.11343E+00-1.93367E+00-1.81866E-01 4.21518E-01-7.15744E-01 4.23278E-01
 -1       508-9.92024E-01-5.92853E-01-3.45825E-01-3.35296E-01-7.54359E-01 7.78099E-01
 -1       509-3.30205E-02 2.63782E-01 7.94135E-02-5.02489E-02-7.05744E-01 8.45115E-01
 -1       510-2.02768E+00-2.94331E+00-8.22204E-01 5.37523E-01-6.28217E-01-1.99911E-01
 -1       511-1.70011E+00-2.30658E+00 4.90308E-01 4.35504E-03-6.13864E-01 1.34873E-01
 -1       512-3.20722E+00-8.20027E+00-3.83097E-01-2.90405E+00 2.06513E-01-3.89227E-01
 -1       513-2.54985E+00-7.83530E+00 6.31952E-01-2.96866E+00 3.68896E-01-6.09361E-01
 -1       514-6.81760E-01-2.97170E-01-1.12514E-01-2.19431E-01-1.11543E+00-3.11597E-01
 -1       515-1.21635E+00-1.40480E+00-1.75944E-01-3.31818E-01-1.06136E+00-4.54078E-01
 -1       516-1.59851E+00-2.80342E+00 1.91709E-01-2.34467E-02 7.67760E-01-3.39412E-01
 -1       517-8.84062E-01-9.34207E-01-3.43757E-01 1.55461E-01 1.48040E+00 9.17975E-02
 -1       518-2.21386E+00-1.00854E+01 1.54011E+00 2.04215E-01-3.56004E-01-1.31044E-01
 -1       519-1.39762E+00-9.50564E+00 1.95326E+00 5.47034E-01-1.84270E-01-1.56971E-01
 -1       520 1.20231E-02-4.07154E-01 7.96662E-02 7.12606E-02 1.50013E+00 1.30555E-01
 -1       521-1.68008E+00-5.83929E+00 6.83908E-01 2.47648E+00 1.62543E-01 1.86048E-01
 -1       522-2.14704E+00-7.95696E+00 6.45813E-01 3.30747E+00 4.45823E-02-2.61292E-01
 -1       523-1.92319E-01-5.19006E-01-8.27237E-02 6.86822E-02 1.09493E+00-7.69265E-01
 -1       524-9.28781E-01-1.04057E+00-1.61641E-01 9.82011E-02 1.11434E+00-7.40317E-01
 -1       525-1.22686E-01-1.80483E+00 4.92028E-01-4.00907E-01 6.36999E-01 2.78224E-01
 -1       526-1.93195E+00-3.18151E+00-4.95683E-01 1.23725E-01-5.46623E-01 4.14598E-01
 -1       527-4.34716E+00-4.47723E+00 8.69992E-01-1.62014E+00 3.47643E-01 6.09940E-01
 -1       528-2.87053E+00-3.10412E+00 1.38116E+00-2.56470E+00 6.01735E-01 7.48318E-01
 -1       529-5.02050E+00-5.26161E+00 6.02442E-01 4.00380E+00 2.11411E-01 2.05126E-02
 -1       530-6.00549E+00-5.90923E+00 7.91052E-01 3.76342E+00 1.61556E-01-4.59559E-01
 -1       531-2.04331E+00-1.99620E+00 6.08635E-01-6.42605E-01-5.73556E-01-2.89258E-01
 -1       532-1.83966E+00-1.69563E+00-3.55434E-01-6.01589E-01-2.75338E-01-6.47691E-01
 -1       533-2.34034E+00-2.54797E+00 3.19938E-01-2.55263E-01-2.40846E-01-4.52544E-01
 -1       534-2.78044E+00-1.62681E+00-5.11416E-01-5.74324E-01 1.91750E-01-6.13634E-01
 -1       535-1.72103E-01-8.18968E-01-6.78131E-01 1.37124E-01-6.66019E-03-1.52051E+00
 -1       536 3.55044E-01 2.03404E-02-3.39317E-01 6.95321E-02 4.69651E-02-1.58280E+00
 -1       537-1.81351E+00-1.93746E+00-5.44480E-01-2.37174E-01 7.77620E-01-1.26052E+00
 -1       538-3.69034E-01-2.91210E-01-1.07639E-01-1.32176E-01 4.70893E-01-8.03450E-01
 -1       539-9.11411E-01-9.27782E-03-2.32719E-01 2.04225E-01 8.91922E-01-9.24664E-01
 -1       540-8.84225E-01-2.67493E-01-2.97796E-01 6.21140E-01 9.70606E-01-9.61420E-01
 -1       541-2.45449E+00-1.78599E+00 1.83237E-01 2.03148E-01-5.46413E-02-8.05358E-01
 -1       542-2.80816E+00-1.41625E+00-2.97763E-01-1.48441E-01-4.88767E-01-7.45370E-01
 -1       543-9.88897E-01-8.83558E-01-2.45135E-01-1.58141E-01-9.24633E-01-8.48134E-01
 -1       544-2.94630E-01-6.20376E-02 3.12554E-01-1.75068E-01-9.85090E-01-9.05267E-01
 -1       545-1.50113E+00-1.38592E+00-3.12591E-01-2.26378E-01-6.86650E-01-1.20012E+00
 -1       546-8.43025E-01-1.42126E-01-5.72860E-03-3.84382E-01-4.81816E-01-1.01073E+00
 -1       547 5.03266E-01 3.04335E-02-3.03767E-01 2.24876E-01-1.31624E-01-1.75611E-01
 -1       548 3.10476E+00 3.10599E-02 3.71587E-01 3.01620E-01-4.97111E-01-8.66581E-01
 -1       549-1.36884E+01-5.60681E+01-1.94074E+01-5.93290E+00-3.16021E+00-2.17881E+00
 -1       550-4.27315E+00-6.70886E+00-2.46100E+00-1.13589E-01-1.64097E-01 1.62319E+00
 -1       551-3.46585E+00-2.03471E+00 4.46150E-01 1.82095E-01-2.39710E-01 3.98713E-01
 -1       552-1.65740E+00-1.19759E+00-2.75078E-02 1.38289E-01-5.39695E-02 1.11101E+00
 -1       553-2.66596E-01-1.11529E-01-1.62086E-01-3.56921E-01-6.37251E-01 2.27714E+00
 -1       554-3.24366E-01 4.14132E-01 2.40092E-01-3.91130E-01-3.58042E-01 2.49020E+00
 -1       555-2.03564E+00-1.21276E+00 1.93969E-01 1.67835E-02 3.80671E-01 1.08947E+00
 -1       556-3.13895E+00-2.21451E+00 3.08280E-01-2.66720E-01 7.79517E-01 5.55476E-01
 -1       557-4.02604E+00-5.07598E+00-2.74462E+00 3.23428E-01 1.88375E-01 1.25134E+00
 -1       558-1.22588E+01-4.62278E+01-1.35882E+01 8.65408E+00 1.89821E+00-2.79384E+00
 -1       559-2.19379E+00-2.24769E+00-1.55783E-01 5.15775E-01-1.58133E+00 2.27291E-01
 -1       560-2.10396E+00-2.76040E+00-2.43589E-01-5.63564E-01 1.30457E+00 3.53528E-01
 -1       561-5.37625E-01-4.98255E-01-3.61176E-01 3.69154E-01 7.20085E-04 1.15738E+00
 -1       562-2.46401E+00-6.75769E-01-7.20165E-01-1.01561E-01 4.01170E-01 1.26963E+00
 -1       563-2.00626E+00-2.19237E+00-1.12729E+00-2.83045E-01 3.52789E-03 1.28154E+00
 -1       564-2.91063E+00-3.07698E+00-2.03352E+00-4.20412E-01-1.51897E-01 1.11808E+00
 -1       565-1.87912E+01-2.89326E+01-7.80381E+00 1.73307E+01-3.98468E+00-1.78055E+00
 -1       566-2.07023E-01-6.46044E-01-7.79431E-01 2.97769E-01 2.87638E-01 2.10957E-01
 -1       567 1.48654E+00 9.95003E-01-3.24631E-03-2.84798E-01 4.34308E-01 1.11538E-01
 -1       568-4.93702E+00-5.97427E+00-2.96166E+00-3.80483E-04 1.08809E-01 1.00615E+00
 -1       569-4.20004E+00-3.06384E+00-6.52684E-03-3.79624E-01-4.98105E-01 5.15349E-01
 -1       570-1.49170E+00-1.04624E+00 1.58670E+00-3.41443E-01 1.08345E-01 1.01521E+00
 -1       571-2.54983E+00-3.43353E+00-1.74204E+00 4.05778E-02 7.72997E-01 1.95122E+00
 -1       572-1.59348E+00-1.18212E+00-1.23962E+00 2.21664E-01 1.02129E+00 1.83691E+00
 -1       573-2.13341E+00-1.68005E+00 4.05305E-01-1.01233E-01 4.91935E-01 7.79874E-01
 -1       574-3.18758E+00-2.71449E+00 6.68533E-03-5.10908E-01 6.28230E-01 6.51566E-02
 -1       575-2.94695E+00-3.75483E+00-1.25727E+00 5.86849E-01 8.17674E-01 1.12452E+00
 -1       576-2.70977E+01-4.52766E+01-1.90559E+01 2.29817E+01-3.89082E+00-2.12483E+00
 -1       577-2.13733E+00-9.43084E-01 4.76073E-01 1.04989E-01-6.46073E-01 4.03502E-01
 -1       578-2.22947E+00-2.08440E+00-1.81791E+00-6.52051E-01 7.58081E-01-6.43926E-01
 -1       579-1.58894E+00-2.44671E+00 2.62581E-01-2.47352E-01-4.28252E-01 8.58770E-01
 -1       580-2.75846E+00-2.94765E+00-1.56945E+00-1.02082E-01 1.74391E+00 8.44165E-01
 -1       581-4.28964E+00-5.05297E+00-2.89562E+00 1.63351E-01 4.05809E-01 9.34057E-01
 -1       582-4.15658E+00-4.81405E+00-1.43991E+00 1.32517E-01 7.56041E-02 1.08283E+00
 -1       583-2.88640E+01-1.66122E+01-9.53545E+00 1.54684E+01-1.08033E+00 2.32439E-01
 -1       584-3.53016E-01-9.12850E-02-2.46186E-01 4.47420E-01-8.47789E-02 4.26167E-01
 -1       585 2.26029E-01-2.74052E-01-1.15048E+00 2.20363E-01-1.27568E-01 7.33344E-01
 -1       586-2.71445E+00-2.22887E+00 8.89892E-01-5.59266E-01 1.10543E-01 6.13411E-01
 -1       587-7.07698E+00-9.01936E+00-2.21472E+00 1.70338E+00 9.18692E-01 8.19959E-01
 -1       588-1.67411E+00-2.05642E+00 7.42394E-01-1.77361E-01 6.71866E-01 7.28830E-01
 -1       589-1.42713E+00-4.74234E-01-1.16257E-01 4.91807E-01 1.29313E+00 2.08903E+00
 -1       590-1.36721E+00-1.29290E+00-3.85671E-01-7.73989E-02 1.32138E+00 1.38802E+00
 -1       591-1.63946E+00-1.65307E+00 2.90477E-01-3.68653E-01 1.06377E+00 6.52187E-01
 -1       592-2.06095E+00-2.56648E+00 4.30757E-01-8.70934E-01 8.98758E-01 3.01060E-02
 -1       593-5.12230E+00-4.42370E+00-2.43594E+00 3.70953E-01 7.87211E-01 8.23914E-01
 -1       594-4.07113E+01-2.40171E+01-1.70813E+01 1.97707E+01-1.60847E-01-2.30697E+00
 -1       595-2.67065E+00-1.94884E+00 6.94118E-01 4.66336E-01-4.98916E-01 8.50116E-01
 -1       596-2.16815E+00-3.64418E+00-1.47852E+00-1.47475E-02 1.26730E+00-1.29703E+00
 -1       597-2.80752E+00-3.11207E+00-5.41433E-01-7.09718E-02 1.41493E-01 1.21022E+00
 -1       598-3.55569E+00-2.77957E+00-1.79279E+00 1.26074E-02 1.18816E+00 3.58602E-01
 -1       599-1.32231E+00-1.73640E+00-1.02396E+00-3.65319E-01 8.59063E-01 5.45950E-01
 -1       600-2.25554E+00-3.43923E+00-5.92488E-01 2.93694E-01 4.33776E-01 7.59988E-01
 -1       601-4.87101E+01-5.72637E+00-1.26149E+01 7.40920E+00-1.61308E+00-3.84310E-01
 -1       602-2.80963E-01-8.86011E-01-2.85928E-01 3.47838E-01 1.06469E+00 2.11593E-01
 -1       603-1.20575E+00-1.64100E+00-1.81328E+00 4.49013E-01 1.45792E+00-8.24332E-02
 -1       604-2.73295E+00-3.35923E+00-2.87191E-01-3.29923E-01-2.97077E-02 3.97974E-01
 -1       605-6.70220E+00-5.60755E+00-4.11530E+00 1.48539E+00 1.04239E+00 1.32806E+00
 -1       606-1.80449E+00-2.10994E+00 3.71347E-01-2.70405E-01 5.73308E-01 5.21871E-01
 -1       607-3.84019E+00-2.09646E+00-7.25527E-01 2.23361E-01 1.88662E+00 2.41722E-01
 -1       608-1.00484E+00-1.09987E+00-1.48327E-02-5.50281E-01 2.09362E+00-5.97651E-03
 -1       609-1.47010E+00-1.64099E+00 1.61433E+00-2.39162E-01 8.92975E-01 2.22729E-01
 -1       610-2.97972E+00-3.57262E+00 4.88060E-01-2.64379E-01 5.29103E-01-6.41989E-01
 -1       611-6.93313E+00-5.19851E+00-2.83947E+00 6.12084E-01 8.53662E-01 7.97587E-01
 -1       612-4.10879E+01-5.10423E+00-9.90512E+00 7.56469E+00-1.44144E+00-7.28513E-01
 -1       613-9.33251E-01-1.49156E+00-1.15283E+00-9.46234E-03-9.05388E-01 5.06028E-01
 -1       614-1.21493E+00-1.89395E+00 5.73819E-01 5.57643E-02 5.32794E-01-7.49051E-01
 -1       615-1.88615E+00-2.04455E+00-6.10247E-01 3.88305E-01 4.36524E-01 6.49760E-01
 -1       616-2.82132E+00-2.37808E+00-3.45287E-02-1.76170E-01 1.17255E+00-3.93900E-01
 -1       617-3.39134E+00-3.08661E+00-6.76331E-01 3.35804E-04 9.39661E-01 5.57973E-01
 -1       618-4.96149E+00-4.30564E+00-2.12894E+00 3.53852E-01 8.59339E-01 8.76189E-01
 -1       619-4.03758E+01-8.14577E+00-1.15870E+01-8.69515E+00-2.00185E+00 4.42478E-04
 -1       620 6.05301E-01 1.09802E+00-2.05895E-01-3.44026E-01 1.15015E-01 5.87460E-02
 -1       621-1.40723E+00 1.42346E-01-1.05409E+00 1.20167E-01-5.28209E-03-1.74062E-01
 -1       622-2.13913E+00-3.70075E+00-1.90789E-01-2.39674E-01 1.41617E-01 3.72235E-01
 -1       623-4.66072E+00-4.22371E+00-3.43390E+00 2.74933E-01 1.29532E+00 2.28885E-01
 -1       624-1.68456E+00-2.38150E+00 2.24967E-02-2.65535E-02 1.06806E+00 1.82169E-01
 -1       625-3.08743E-01-4.59884E-01 4.78215E-01 6.22099E-01 2.93793E+00 7.54026E-01
 -1       626-8.74012E-01-1.46857E+00 1.03913E-01 2.71243E-01 2.99312E+00-1.72165E-01
 -1       627-1.56259E+00-2.06208E+00 5.51631E-01-2.71304E-01 7.89036E-01-3.42490E-01
 -1       628-6.06285E-01-2.78947E+00 1.88874E+00 1.80470E-01 6.93377E-01-4.92619E-01
 -1       629-2.57677E+00-2.12773E+00-7.12645E-01 4.33572E-02 1.36380E+00-3.26114E-01
 -1       630-5.03955E+01-1.04530E+01-1.69678E+01-8.67878E+00-1.23356E+00 2.44164E-01
 -1       631-1.24833E+00-2.25387E+00-6.95728E-01-5.06095E-01-5.98423E-01 4.76758E-01
 -1       632-1.72384E+00-1.87994E+00 1.07272E+00 5.02369E-01 6.39073E-01-1.53638E+00
 -1       633-5.35841E-01-1.62019E+00-5.76362E-01-2.40992E-02 1.09619E+00-4.91289E-02
 -1       634-1.11352E+00-1.72569E+00 3.74605E-01-6.64673E-01 5.66905E-01-7.48156E-02
 -1       635-2.17242E+00-2.06225E+00-9.59455E-01-3.96876E-02 1.16815E+00-2.05170E-01
 -1       636-3.50598E+00-3.62550E+00-2.86318E+00-2.43715E-01 1.18261E+00 7.10487E-02
 -1       637-3.61271E+01-2.06287E+01-1.30638E+01-1.67535E+01-7.24197E-01 2.69774E+00
 -1       638 1.02325E+00 5.80708E-01-3.53078E-01-1.72181E-01 3.23531E-01 2.52509E-03
 -1       639 7.18293E-01-2.62280E-01-4.02924E-01-8.27327E-02 9.33545E-02-1.13225E-01
 -1       640-2.33262E+00-3.44681E+00 1.04458E-01 3.56188E-01 6.48752E-01 4.32132E-01
 -1       641-5.87854E+00-5.26931E+00-1.77085E+00-1.70404E-01 1.34291E+00 3.83278E-03
 -1       642-2.51399E+00-2.59051E+00-9.12859E-01 7.00980E-01 8.27924E-01-1.17812E-01
 -1       643-5.00061E-02-1.58349E+00-4.83947E-02 8.10070E-02 1.94310E+00-7.67228E-01
 -1       644-1.70995E+00-1.52843E+00-7.44943E-01-4.16308E-01 1.65994E+00-8.91333E-01
 -1       645-2.14749E+00-1.96046E+00 4.46255E-01 3.05558E-01 8.29183E-01-3.60423E-01
 -1       646-2.21446E+00-3.16135E+00 2.17589E-01 3.91697E-01 8.78962E-02-3.23442E-01
 -1       647-7.85970E+00-6.41085E+00-4.33399E+00-9.96077E-01 1.66226E+00-3.93523E-01
 -1       648-5.05492E+01-3.18580E+01-2.41050E+01-2.43257E+01-4.92320E-01 3.36222E+00
 -1       649-8.66627E-01-1.41611E+00-7.63668E-02 1.78679E-01 6.80446E-01 8.07138E-01
 -1       650-9.02338E-01-1.62232E+00 2.46273E-01 6.87689E-02-7.73460E-01-4.12682E-01
 -1       651-2.72640E+00-2.09273E+00-1.18936E+00 7.92359E-01 7.11801E-01 1.32760E-01
 -1       652-3.55265E+00-2.88338E+00-8.18371E-01-5.89941E-02 7.85338E-01-1.89337E+00
 -1       653-4.15782E+00-4.02974E+00-2.30795E+00-3.91982E-01 9.83676E-01-9.45719E-01
 -1       654-3.77584E+00-3.26085E+00-1.54303E+00-5.88996E-02 9.27926E-01-6.13440E-01
 -1       655-1.49620E+01-3.08207E+01-9.75883E+00-1.57699E+01 1.73846E+00 3.06296E+00
 -1       656 3.47831E-01 4.23644E-01-2.23841E-01-1.00680E-01 1.33585E-01-4.48957E-01
 -1       657-1.34292E+00-8.05261E-01-1.51105E+00-5.67236E-02 1.86579E-01-7.75650E-01
 -1       658-3.28475E+00-3.34722E+00 1.33795E-01 5.19568E-01 3.61580E-01 3.93487E-01
 -1       659-3.71893E+00-3.76635E+00-1.43354E+00-7.68859E-01 1.61923E+00-1.10046E+00
 -1       660-2.65899E+00-2.49252E+00-1.32696E-01 2.24644E-01 1.03522E+00-6.56817E-01
 -1       661-1.76917E-01 1.66149E+00 8.32438E-01 2.78111E-01 2.31601E+00-2.19976E+00
 -1       662-2.56738E-02 4.91267E-01 1.13933E+00 3.93422E-01 1.85857E+00-2.04507E+00
 -1       663-1.80231E+00-2.07906E+00-2.40280E-02 4.06351E-01 4.83020E-01-8.92873E-01
 -1       664-3.07057E+00-2.20233E+00 2.65270E-01 6.69725E-01-2.76082E-01-5.87796E-01
 -1       665-7.13387E+00-8.22740E+00-2.62294E+00-1.99523E+00 1.20908E+00-9.38161E-01
 -1       666-1.57653E+01-3.35073E+01-1.12572E+01-1.71903E+01-5.19779E-01 3.39467E+00
 -1       667-2.59948E+00-2.03845E+00-1.53378E+00 5.42625E-01 3.27562E-01 1.49231E+00
 -1       668-3.22762E+00-1.70125E+00 1.18416E-02-1.34871E-01-6.73741E-01-8.01098E-01
 -1       669-2.05300E+00-1.77721E+00-3.98277E-01 1.06182E+00 9.43605E-01-9.07650E-01
 -1       670-3.92090E-01-1.27237E+00 2.76690E-01 3.83044E-01 4.18351E-01-2.47989E-01
 -1       671-1.89643E+00-2.16236E+00-7.67507E-01 7.79851E-03 7.85166E-01-7.29169E-01
 -1       672-3.18505E+00-3.63939E+00-2.26230E+00-4.23366E-01 8.58052E-01-9.07797E-01
 -1       673-5.16761E+00-5.11738E+01-1.47109E+01-6.16041E+00-5.54904E-01 1.57605E+00
 -1       674 1.02504E+00 6.79562E-01 2.23320E-01-3.96861E-01-2.99263E-01 2.84685E-01
 -1       675 1.78559E-01 2.99304E-02-2.24361E-01-6.22194E-01-5.34102E-01 1.09520E-01
 -1       676-5.82074E+00-6.92917E+00-3.34511E+00-8.53102E-01 1.12697E+00-1.13435E+00
 -1       677-3.11791E+00-2.71482E+00 3.47779E-02 4.74601E-01 6.41621E-01-2.53615E-01
 -1       678-1.64746E+00-1.15409E+00 6.93414E-01 2.29729E-01 5.06996E-01-7.25148E-01
 -1       679-1.77129E+00-2.23350E+00-5.24941E-01 7.23392E-02 1.29274E+00-2.26965E+00
 -1       680-1.04126E+00-6.76468E-01 2.53718E-01-3.44840E-01 4.62618E-01-2.07763E+00
 -1       681-1.68986E+00-1.26926E+00 3.73855E-01 2.39732E-01 2.11494E-01-9.02428E-01
 -1       682-3.63916E+00-2.50175E+00-1.32777E-01 4.09748E-01-4.80304E-01-6.99666E-01
 -1       683-7.70540E+00-1.11253E+01-6.12112E+00-1.77366E-01 8.93822E-01-1.56092E+00
 -1       684-4.71329E+00-4.62768E+01-1.29867E+01-7.91634E+00-7.08344E-01 1.04255E+00
 -1       685-1.65544E+00-1.84909E+00-3.56433E-01 6.31775E-01 5.87177E-01 4.35534E-01
 -1       686-1.89931E+00-7.61761E-01 1.08760E-01-7.05273E-02-5.37621E-01-3.51503E-01
 -1       687-2.97842E+00-3.64986E+00-1.08815E+00-2.16257E-01 1.10460E+00-9.96098E-01
 -1       688-2.29212E+00-2.35955E+00-8.98099E-01-9.23087E-02-3.25843E-01-1.10840E+00
 -1       689-2.78248E+00-3.27959E+00-6.01071E-01-1.13469E-01 4.04986E-01-8.52145E-01
 -1       690-3.45400E+00-3.67530E+00-2.24252E+00 6.59613E-03 7.28867E-01-1.02732E+00
 -1       691-6.86472E+00-4.12151E+01-1.06719E+01 8.97277E+00 6.23436E-01 3.20161E+00
 -1       692 2.37057E+00 1.05542E+00 4.27159E-01 3.34026E-01 1.77396E-02 8.73600E-01
 -1       693 1.23643E+00-2.86139E-01-3.07865E-01-5.81703E-02-1.43467E-01 9.57486E-01
 -1       694-3.08735E+00-4.47585E+00-1.61360E+00-2.81449E-01 3.18707E-01-1.21962E+00
 -1       695-3.44772E+00-2.62456E+00 2.10896E-01 1.57415E-01 5.04358E-01-2.37353E-01
 -1       696-2.12705E+00-1.71378E+00-5.16940E-02 1.80573E-01 2.66467E-01-1.28473E+00
 -1       697 8.48055E-01 2.95542E-01 3.23263E-01 7.54334E-01-7.64412E-02-2.67240E+00
 -1       698 1.49924E-01 1.59809E-01 4.73184E-01-2.50306E-01-5.85393E-02-2.88611E+00
 -1       699-1.98386E+00-1.19145E+00-3.18803E-02 2.42639E-01-7.12529E-02-9.81238E-01
 -1       700-3.55852E+00-2.64976E+00-4.98389E-01-1.32925E-01-7.09085E-01-1.90859E-01
 -1       701-6.30792E+00-9.76297E+00-2.64740E+00 3.62179E-01-4.16773E-01-8.61699E-01
 -1       702-4.56775E+00-3.85015E+01-1.00062E+01 7.70345E+00 1.12547E+00 3.41505E+00
 -1       703-2.37214E+00-1.46713E+00-8.82065E-02 3.68032E-01 6.61538E-01 3.52093E-01
 -1       704-2.10516E+00-1.39451E+00-8.84425E-01-5.41777E-01-8.56000E-01 1.03385E-02
 -1       705-2.14185E+00-7.97237E-01-3.20459E-01 1.15438E-01-1.01096E-01-1.35918E+00
 -1       706-1.37026E+00-3.80431E-01 2.38607E-01 4.02720E-01 2.29174E-01-5.03301E-01
 -1       707-4.69824E+00-5.85254E+00-3.87384E+00 1.98740E-01 1.55890E-02-1.40131E+00
 -1       708-3.43748E+00-4.49386E+00-2.54391E+00 3.25324E-01 5.31887E-02-1.49563E+00
 -1       709-1.38798E+01-3.05598E+01-1.01255E+01 1.70616E+01-1.02029E+00 1.41310E+00
 -1       710-1.29501E-01 6.59266E-02-1.05138E+00 4.05702E-01 5.34516E-02-6.50883E-01
 -1       711-3.19616E-01-4.99251E-01-8.96708E-01 4.23305E-01-1.38896E-01-6.26060E-01
 -1       712-4.10631E+00-4.26123E+00-1.41599E+00 2.31809E-01 1.53204E-01-1.12195E+00
 -1       713-4.13597E+00-2.54698E+00-6.48523E-01-4.59953E-01 6.39408E-01-5.57815E-01
 -1       714-2.29297E+00-1.82321E+00-2.67581E-01-6.71854E-01-1.21930E-01-1.01671E+00
 -1       715-8.87860E-01-4.51107E-01 9.41488E-02-5.23959E-01-8.87587E-01-2.15724E+00
 -1       716-1.27511E+00-1.31894E+00-1.71537E-01-1.37557E-01-1.44636E+00-1.94322E+00
 -1       717-1.98914E+00-1.82845E+00 7.39762E-01-3.53331E-01-2.79189E-01-7.02196E-01
 -1       718-2.58267E+00-2.14212E+00 6.35848E-01-5.06190E-01-4.70688E-01-2.62321E-01
 -1       719-7.86227E+00-8.93523E+00-6.25206E+00 7.82147E-01-1.32778E+00-8.92343E-01
 -1       720-1.67453E+01-3.00819E+01-1.16341E+01 1.60132E+01 1.75603E+00 8.27832E-01
 -1       721-2.69218E+00-1.19296E+00-1.29444E+00 3.52693E-02 9.02666E-01-3.81114E-01
 -1       722-2.69611E+00-3.88225E+00-1.03271E+00-4.47740E-01-1.34256E+00 6.63389E-01
 -1       723-2.76154E+00-3.82164E+00-1.80653E+00-2.66813E-01 6.06783E-01-1.06086E+00
 -1       724-2.13010E+00-1.49459E+00 2.30653E-01 4.72352E-02-9.17323E-01-6.55006E-01
 -1       725-6.32166E+00-7.14652E+00-4.34527E+00 1.87161E-01-2.15099E-01-1.25782E+00
 -1       726-4.94756E+00-5.74491E+00-3.55743E+00 9.11151E-02-2.10216E-01-9.78424E-01
 -1       727-2.23497E+01-9.03864E+00-3.02991E+00 1.06939E+01 2.77865E-01 1.18183E+00
 -1       728 5.72309E-02-8.22341E-01-9.29131E-01 2.93353E-02-6.04863E-01-4.13682E-01
 -1       729-2.31246E-01-5.85313E-01-9.24305E-01-1.89986E-01-5.55180E-01-3.58633E-01
 -1       730-3.17245E+00-3.92121E+00-1.20536E+00 4.90281E-01-8.99445E-02-5.55432E-01
 -1       731-2.94966E+00-2.93158E+00 4.06032E-01-7.86545E-01-4.61360E-02-4.48422E-01
 -1       732-2.09524E+00-1.95218E+00 9.65437E-02-3.74435E-01-5.86850E-01-7.99728E-01
 -1       733-1.18438E+00-3.76742E-01-7.54978E-01-2.97927E-01-1.55197E+00-1.34922E+00
 -1       734-1.63601E+00-1.26385E+00 9.31085E-01-3.02804E-01-7.41129E-01-5.82443E-01
 -1       735-7.64621E-01-4.29549E-01-2.19306E-01-2.98636E-01-1.83835E+00-1.08427E+00
 -1       736-3.76647E+01-2.23107E+01-1.58102E+01 1.64265E+01 1.04763E+00 6.25570E-01
 -1       737-2.29063E+00-2.94226E+00 1.00904E+00-6.47036E-01-8.84343E-01 5.06509E-01
 -1       738-3.83573E+00-3.85512E+00-2.28674E+00 7.70071E-01-4.19299E-01-7.09844E-01
 -1       739-2.35254E+00-2.81486E+00-1.30524E+00 1.51520E-01 1.59307E+00-1.31461E+00
 -1       740-2.80536E+00-3.97687E+00-6.93094E-01 2.11037E-01-1.22128E+00 1.11028E+00
 -1       741-2.47763E+00-2.87986E+00-1.27630E+00-2.14102E-01-6.94860E-01-1.12774E+00
 -1       742-4.85374E-01-6.14598E-01 1.33318E+00-1.62598E-02-4.45987E-01-4.20273E-01
 -1       743-3.07228E+00-2.84219E+00-7.34789E-01 7.39774E-02-7.36108E-01-8.45734E-01
 -1       744-2.76141E+00-2.46561E+00-1.41269E+00-9.02509E-02-6.75585E-01-8.32828E-01
 -1       745-4.37216E+01-5.64313E+00-8.57712E+00 7.36461E+00 1.87232E+00-1.52060E+00
 -1       746-1.79217E+00-1.29324E+00-1.07626E+00-2.27332E-01-7.42435E-01-4.25937E-01
 -1       747-1.41905E+00-2.85609E-01-7.10164E-01-3.54876E-01-3.61068E-01-3.74318E-01
 -1       748-9.49376E+00-7.18848E+00-4.68644E+00 1.73226E+00-7.49579E-01-1.56979E+00
 -1       749-2.56515E+00-3.02039E+00 4.99548E-01-5.72451E-01-2.67755E-01-5.51136E-01
 -1       750-1.64304E+00-2.09891E+00 7.59711E-01-1.05500E-01-6.98379E-01-6.25568E-01
 -1       751-5.06983E-01-6.81391E-01-1.06056E-01-7.73027E-01-2.02419E+00-8.87928E-01
 -1       752-1.67320E+00-2.17172E+00 1.57486E-01-3.11244E-01-1.04407E+00-2.63448E-01
 -1       753-6.25912E-01-1.04024E-01-3.38837E-02-1.81551E-01-2.54446E+00-6.42650E-01
 -1       754-5.42475E+01-1.22737E+01-1.53220E+01 8.00725E+00 2.41980E+00-1.65531E+00
 -1       755-2.82565E+00-4.19214E+00-2.89819E-01-4.78021E-01-5.10969E-01 5.96124E-01
 -1       756-7.18731E+00-6.26071E+00-4.68711E+00 9.13422E-01-1.41098E+00 1.75634E-01
 -1       757-3.98380E+00-2.62043E+00-4.02730E-01-4.02602E-01 3.93336E-01-1.35595E+00
 -1       758-1.33461E+00-2.13469E+00-1.38334E+00-2.86906E-01-3.43871E-01 1.21680E+00
 -1       759-2.57481E+00-2.87542E+00-7.78132E-01 2.53684E-01-5.57621E-01-1.49846E+00
 -1       760-2.04856E+00-1.68278E+00-8.64505E-01-6.89134E-01-1.09319E+00 6.74737E-02
 -1       761-2.93507E+00-2.68621E+00-1.41620E+00 2.35010E-01-1.00039E+00-3.34524E-01
 -1       762-4.68287E+00-3.85991E+00-2.39273E+00 3.35937E-01-1.16735E+00-5.93589E-01
 -1       763-4.18867E+01-9.20143E+00-9.39320E+00-8.14754E+00 4.92958E+00-2.45608E+00
 -1       764-2.58108E-01-2.70885E-01-7.02387E-01-9.75277E-03-3.96957E-01-8.68267E-02
 -1       765-1.41327E-01-4.63517E-01-7.34924E-01 7.34081E-02-5.02785E-01 1.06677E-02
 -1       766-2.01759E+00-2.35030E+00-1.87334E+00 9.32925E-02-1.36030E+00 1.30076E-01
 -1       767-1.95091E+00-3.07032E+00 9.14393E-01-2.20547E-01-2.48916E-01-2.95221E-01
 -1       768-1.74525E+00-2.14619E+00 6.07587E-01 1.40182E-01-9.75714E-01-1.13697E-01
 -1       769-4.06120E-01-1.27079E+00-6.12869E-01-4.20221E-03-2.31722E+00-5.84068E-01
 -1       770-1.32711E+00-2.28721E+00-3.24909E-03-1.16560E-01-9.76818E-01 1.35407E-01
 -1       771 7.65402E-01 5.33242E-02 9.98818E-01-2.69862E-01-2.58152E+00 3.33475E-02
 -1       772-6.33641E+01-1.66065E+01-2.14082E+01-1.09180E+01 4.79958E+00-2.37784E+00
 -1       773-1.91576E+00-3.23708E+00 2.23909E-01 2.08485E-01-1.63001E-01 7.06194E-01
 -1       774-1.52447E+01-1.00270E+01-6.54019E+00-1.38230E-01-1.80317E+00 4.58149E-01
 -1       775-2.67308E+00-2.61180E+00-5.06607E-02-3.86408E-01 2.94719E-01-1.17951E+00
 -1       776-2.56009E+00-2.61234E+00-1.37196E+00 6.06937E-01 1.03999E-01 1.80518E+00
 -1       777-2.13085E+00-2.61925E+00-3.31128E-01 3.32302E-01-1.15990E+00-2.86398E-01
 -1       778-2.40877E+00-3.18320E+00-1.86301E+00-5.18504E-01-1.36627E+00 5.85197E-01
 -1       779-2.83814E+00-2.97920E+00-1.85281E+00 1.80520E-01-1.05407E+00 2.73579E-01
 -1       780-5.21722E+00-4.02399E+00-3.08908E+00 1.76430E-01-1.25407E+00 8.88093E-03
 -1       781-2.66284E+01-1.40567E+01-1.00666E+01-1.48158E+01 6.77329E-01-7.31109E-03
 -1       782 2.23841E-01 7.09265E-02-6.96379E-01-4.29556E-01-3.23288E-01-2.02394E-01
 -1       783 1.42316E-01-3.82608E-02-3.98871E-01-2.72745E-01-2.61580E-01-1.42226E-01
 -1       784-4.80322E+00-4.13850E+00-3.12205E+00-6.52310E-01-1.35908E+00 9.32192E-01
 -1       785-2.41053E+00-3.81985E+00-4.02788E-01 4.76746E-01-4.69170E-01-6.77162E-01
 -1       786-2.01905E+00-2.24457E+00-2.74049E-01 5.02962E-01-8.70463E-01 1.57197E-01
 -1       787-2.60826E-01-9.81495E-01-3.29918E-01 6.42949E-01-2.18701E+00 7.28515E-01
 -1       788-2.57145E+00-2.43807E+00 1.71844E-01 1.91914E-01-6.44888E-01 3.85625E-01
 -1       789-1.93507E+00-2.22813E+00-1.18318E+00 2.09418E-01-2.24094E+00 1.36342E+00
 -1       790-3.25763E+01-1.96871E+01-1.48603E+01-1.73191E+01 7.10310E-01-1.27160E+00
 -1       791-2.23280E+00-2.62406E+00 6.47565E-01 5.47417E-01-2.89880E-01 3.73893E-01
 -1       792-4.25502E+00-4.69915E+00-2.82331E+00-7.65189E-01-8.34171E-01 9.46227E-01
 -1       793-1.22280E+00-2.66894E+00-1.25652E+00 4.95355E-03-2.92406E-01-8.78092E-01
 -1       794-3.91009E+00-2.68038E+00-5.65998E-01 4.77197E-01 4.87232E-01 1.06261E+00
 -1       795-3.07798E+00-2.19064E+00-1.41245E+00 7.61966E-01-1.04311E+00-4.99553E-01
 -1       796-1.68306E+00-2.36926E+00 8.79922E-02-1.23084E-01-7.94690E-01 6.28808E-01
 -1       797-4.93835E+00-4.33476E+00-2.46871E+00-2.14893E-01-1.08895E+00 4.21839E-01
 -1       798-2.77293E+00-2.75784E+00-1.66762E+00 2.71265E-01-9.49644E-01 3.56078E-01
 -1       799-1.40999E+01-2.89806E+01-9.21850E+00-1.72590E+01 3.39134E-02-1.46982E+00
 -1       800 4.28261E-01-1.95249E-01-1.12079E-01-1.24796E-01 1.12080E-01-1.22573E-01
 -1       801-6.67321E-02-2.61855E-01 1.10914E-01 3.86307E-02 8.97414E-02-2.38208E-01
 -1       802-5.97670E+00-5.58483E+00-2.04753E+00-7.39890E-01-1.06293E+00 9.03374E-01
 -1       803-2.79384E+00-2.87780E+00 5.24533E-02 4.43937E-01-5.56378E-01 2.55417E-02
 -1       804-1.97560E+00-2.43642E+00-2.48000E-02-4.51300E-02-7.63043E-01 5.77328E-01
 -1       805-9.72823E-01-9.25743E-01-4.18830E-01-2.51936E-01-2.50042E+00 1.32667E+00
 -1       806-7.84491E-01-1.33922E+00 1.20963E+00 7.29234E-02-4.60688E-01 6.32978E-01
 -1       807-2.81279E-01-5.87691E-01 1.23718E-01 1.64591E-01-2.30555E+00 2.10315E+00
 -1       808-1.57601E+01-3.32947E+01-1.24597E+01-1.66899E+01-4.51856E-01-2.23344E+00
 -1       809-2.50215E+00-1.82318E+00 1.03128E+00 7.48234E-01 2.10502E-01 8.99338E-01
 -1       810-8.44644E+00-1.20585E+01-4.92473E+00-2.07550E+00-2.00047E+00 9.42090E-01
 -1       811-1.23191E+00-1.77156E+00-4.26021E-01 3.16921E-01-2.62105E-01-6.31319E-01
 -1       812-3.79811E+00-2.52537E+00-8.76716E-01-2.53624E-01 9.19972E-01 1.54501E+00
 -1       813-2.58447E+00-2.19943E+00-1.11741E+00 1.05895E-01-1.28960E+00 6.13308E-01
 -1       814-2.57327E+00-2.69656E+00-3.11960E-01-2.23247E-01-1.16759E-01 7.48727E-01
 -1       815-3.92734E+00-4.32622E+00-1.75893E+00-3.60926E-01-8.36359E-01 7.88611E-01
 -1       816-3.05532E+00-4.14699E+00-1.58806E+00-2.56727E-01-9.41288E-01 7.55939E-01
 -1       817 8.12401E-01 3.52585E-01 4.56432E-01-3.20027E-01 3.16415E-01-5.58879E-01
 -1       818 1.33159E+00 4.48829E-01 2.63905E-01-6.78887E-01 4.11627E-01-5.89742E-01
 -1       819-2.40597E+00-3.04197E+00-6.78837E-01-8.09114E-01-1.05129E+00 1.10046E+00
 -1       820-2.43808E+00-2.17918E+00 5.51464E-01 5.04219E-01-7.45550E-01 2.99068E-01
 -1       821-1.87074E+00-1.65180E+00-1.68429E-01 2.43897E-01-5.89068E-01 9.57114E-01
 -1       822-8.97700E-01-1.84818E+00-3.77384E-01 7.19034E-02-8.76814E-01 1.91398E+00
 -1       823 1.87058E-03-1.04559E+00 1.11601E+00-8.96074E-01-2.82926E-01 3.22276E+00
 -1       824-1.25962E+00-9.68398E-01 6.32342E-01 1.73875E-01-3.90115E-01 1.06390E+00
 -1       825-3.22881E+00-1.99473E+00 1.20439E+00 5.77428E-01-3.69477E-03 6.19788E-01
 -1       826-3.01482E+00-3.32750E+00-1.26278E+00 8.48775E-02 3.85475E-02 1.25373E+00
 -1       827-2.32227E+00-3.23388E+00-8.04675E-01 2.55231E-01-1.64210E+00-3.95566E-01
 -1       828-2.07564E+00-1.70002E+00 8.66866E-01-4.63830E-01 9.41125E-01 1.05894E+00
 -1       829-1.04183E+00-6.07666E-01-5.09042E-01 3.28890E-01-2.88989E-01 9.53585E-01
 -1       830-1.03211E+00-5.51731E-01 7.03877E-01 1.78507E-01-4.86733E-01 6.63982E-01
 -1       831-2.78381E+00-3.65828E+00-8.78700E-01-6.57518E-02-6.44893E-01 9.78985E-01
 -1       832-3.51310E+00-3.69323E+00-2.65071E+00-1.59779E-02-4.47111E-01 1.26617E+00
 -1       833 2.98815E+00 4.25220E+00 2.33952E+00 9.49111E-01 5.17534E+00 4.83034E+00
 -1       834-1.01912E+01-8.65680E+00-7.78538E+00-1.99221E+00 5.18827E+00 3.92778E+00
 -1       835 5.09806E+00 2.39462E+00 3.38209E+00 2.65352E+00-9.11025E-01 8.08310E+00
 -1       836-3.05532E+00-4.27703E+00-2.71144E+00 4.42983E+00-8.76539E-01 7.24634E+00
 -1       837 2.01337E+01 2.54955E+01 1.92099E+01 2.47602E+00-9.33695E+00-2.83237E+00
 -1       838 3.02933E+00 2.07643E+00 5.62053E+00-4.11914E-01-5.15486E+00-6.75263E-01
 -1       839-3.13322E-01 7.28527E+00 2.88851E+00 1.71701E+00 5.58889E+00 6.61709E+00
 -1       840-1.19060E+01 2.42840E-01-4.97949E+00 8.68182E-01 5.06311E+00 5.88195E+00
 -1       841-1.13616E+01-1.22552E+01-1.32115E+01 9.46399E-01 6.09276E+00-1.14754E+00
 -1       842-2.18702E+01-2.70949E+01-2.06143E+01 3.05294E+00 8.47461E+00-2.57078E+00
 -1       843-2.55584E-01 3.10840E+00 1.17919E+00-9.20279E-01 2.45660E+00-5.28977E+00
 -1       844 2.70794E+01 2.26555E+01 2.09384E+01-3.24747E+00 4.53241E+00-8.47922E+00
 -1       845 7.91636E+00 1.31223E+01 8.80939E+00 4.39064E+00 3.91834E+00 7.04446E+00
 -1       846-1.02720E+00 8.78429E+00 3.18059E+00 4.99838E+00 3.52101E+00 6.11267E+00
 -1       847-6.95415E+00-8.83797E+00-8.40485E+00-2.45279E-01 4.67442E+00 3.33546E+00
 -1       848-2.13123E+01-2.76960E+01-2.06325E+01-2.52372E+00 7.95822E+00 4.25392E+00
 -1       849 4.39862E+00 5.49822E+00 3.75654E+00-3.45113E+00 7.98781E+00 6.69404E-01
 -1       850-4.79885E+00-7.31722E+00-5.77693E+00-5.52538E+00 6.75543E+00 5.22500E-01
 -1       851-3.81110E+00-3.19638E+00-2.79785E+00 2.16126E+00 9.51885E-01-8.33829E+00
 -1       852 5.91809E+00 3.64233E+00 4.26459E+00 3.16941E+00 9.35856E-01-7.48566E+00
 -1       853-2.32495E+00 2.12872E+00 1.68036E+00 2.92303E-01 5.01734E+00-4.83786E+00
 -1       854 8.02836E+00 1.51690E+01 9.44186E+00-2.66626E+00 4.79105E+00-5.43574E+00
 -1       855 8.80857E-01 3.89803E+00 1.18492E+00 3.19640E-01 7.41494E+00-3.48237E+00
 -1       856-3.96187E+00-2.89524E+00-8.76819E-01 2.11576E+00 6.06375E+00-1.45539E+00
 -1       857 4.69130E-02 8.48503E-02 1.85498E-01-2.44925E+00 5.97010E+00-1.96780E-01
 -1       858-9.84023E+00-1.46396E+01-1.00116E+01-3.76566E+00 6.55553E+00-5.12985E-01
 -1       859 2.79449E+00-9.98513E-01 2.88724E-01-1.49482E-01 6.34110E+00-5.43736E+00
 -1       860-5.57218E+00-1.22784E+01-8.33418E+00 1.29382E+00 5.36394E+00-4.70893E+00
 -1       861-8.65623E+00-7.25560E+00-8.77789E+00 2.34653E-01 9.30599E-01 5.45971E+00
 -1       862-3.20653E+01-2.32091E+01-2.32705E+01-1.21077E-01 8.49501E-01 8.62574E+00
 -1       863-1.86142E+00-1.04401E+00-1.01205E+00 3.90330E+00-7.82115E+00 9.64233E-01
 -1       864-1.07407E+01-1.23930E+01-9.46532E+00 6.15777E+00-7.39691E+00 1.01654E+00
 -1       865 1.44721E+00-2.02227E+00-2.36701E-02 1.67161E+00-2.56194E+00 7.61127E+00
 -1       866-1.31448E+01-1.42130E+01-1.11683E+01 3.29909E+00-2.38973E+00 7.10607E+00
 -1       867 1.41354E+01 1.81564E+01 1.35949E+01-1.58285E+00-8.97387E+00 2.72223E+00
 -1       868-1.19421E+00-3.97145E+00 2.49903E+00 1.13717E+00-4.23135E+00 4.99057E-01
 -1       869-3.47560E+00 4.99843E+00 3.77351E-01 3.28990E-01-7.16037E+00 3.14203E+00
 -1       870-1.29697E+01-4.78231E-01-6.07998E+00 1.90676E+00-6.63376E+00 2.49448E+00
 -1       871 1.80641E+01 2.45064E+01 1.79222E+01 1.04462E+00-1.00632E+01-9.91073E-01
 -1       872-1.94105E+00-6.02691E+00-1.89244E+00 2.46738E+00-6.12777E+00 8.98590E-02
 -1       873 1.91564E+01 2.06689E+01 1.67664E+01 3.05740E+00-7.00580E+00-5.74937E+00
 -1       874-4.34049E-01-1.06971E+00 3.43311E+00-1.28620E+00-3.13585E+00-2.92356E+00
 -1       875-6.50785E+00-7.81867E+00-5.08468E+00-2.24418E+00-3.32857E+00-6.36490E+00
 -1       876 5.66474E+00-9.27629E-02 2.51833E+00-1.59533E+00-3.34300E+00-5.99574E+00
 -1       877-3.38730E+00-2.38719E+00-1.86218E+00-3.11162E+00 1.39438E-01-7.14539E+00
 -1       878 1.17873E+01 6.62289E+00 7.30294E+00-4.89887E+00-4.30011E-01-7.86374E+00
 -1       879 1.59477E+00-3.52538E+00-2.65306E-01-3.14326E+00 2.67551E+00 7.31528E+00
 -1       880 3.54217E+00 4.20238E+00 5.40267E+00-1.93064E-01-3.62986E+00 6.72193E+00
 -1       881-5.96759E+00-2.92570E+00-3.47289E+00 7.10105E-01-4.58719E+00 4.96384E+00
 -1       882-2.52194E+00-6.08259E+00-3.79912E+00 5.11274E-01-6.20586E+00 5.10574E+00
 -1       883 6.43482E+00 7.24107E+00 7.11857E+00 6.15544E-01 7.02320E+00 1.86935E+00
 -1       884-3.34721E+00-1.42330E-01-1.18423E+00-1.48874E+00-6.44204E+00-3.60790E+00
 -1       885-4.78734E+00 6.51144E-01-1.43354E+00 3.71441E-01-4.51712E+00-5.68713E+00
 -1       886-1.75648E+00-4.53640E+00-3.38713E+00-2.13858E+00-1.67673E+00-7.29206E+00
 -1       887-3.06838E+01-2.34683E+01-2.27980E+01 2.30083E+00 2.90219E+00-9.56710E+00
 -1       888 5.59185E+00 1.32284E+01 8.34341E+00 2.53358E+00-3.97603E+00-5.13466E+00
 -1       889 1.58045E+01 4.65542E+00 9.30618E+00-3.92094E+00 2.71840E+00 6.60683E+00
 -1       890 1.92023E+01 2.43991E+01 1.83562E+01 2.31115E+00 1.00815E+01 3.05823E+00
 -1       891 1.52068E+01 1.32980E+01 1.20005E+01-2.07058E+00-4.71801E+00 8.82644E+00
 -1       892 3.53132E+00 8.46190E+00 4.57866E+00-1.51901E+00-4.70673E+00 5.44133E+00
 -1       893 6.27939E+00 1.20366E+00 2.86246E+00-8.56014E-01-5.61101E+00 4.61084E+00
 -1       894 4.52902E+00 1.13287E+01 7.00510E+00-8.59704E-01-6.10924E+00-3.51385E+00
 -1       895-5.90046E+00-3.36293E+00-5.09793E+00-1.74845E+00 2.39311E+00-6.17521E+00
 -1       896 1.06964E+01 3.46028E+00 5.02001E+00-2.23605E+00-1.39567E+00-7.19131E+00
 -1       897-1.06643E+00-2.25945E+00 3.26634E-01-3.21435E-01-4.71086E-01-4.53628E-01
 -1       898-9.01772E-01-8.93129E-01 1.03564E+00 1.00033E+00 4.99976E-01-4.46260E-01
 -1       899-7.10730E+00-2.73725E+00-2.63345E-01 2.87092E-01-8.89665E-02 9.11267E-02
 -1       900-8.94127E+00-3.56652E+00 9.62435E-01-2.18723E-01-2.14775E-01 1.15965E+00
 -1       901-6.59752E+00-2.81851E+00-5.46606E-01-1.68933E+00 2.59592E-01 3.12814E-01
 -1       902-1.10540E+00-3.46638E+00 6.40457E-01-8.27442E-01-5.40034E-01 6.99488E-02
 -1       903-1.28694E+00-2.12673E+00-3.16255E-01 7.49728E-01 4.85916E-01 7.27752E-02
 -1       904-1.74248E+00-2.97883E+00 3.51124E-01-1.83227E-01 9.80692E-01 4.93660E-01
 -1       905-9.35796E-01-1.40414E+00-3.25173E-01-5.14576E-01 4.69695E-01 5.02047E-01
 -1       906-4.93305E+00-5.18914E+00 1.39319E-01-2.17699E+00-5.36395E-01 6.67302E-02
 -1       907-6.29741E+00-6.16445E+00 5.74385E-01-3.58679E+00-1.00131E+00-2.72794E-03
 -1       908-8.49175E+00-1.99316E+00 2.73751E+00-1.47252E+00-7.85954E-01-1.26659E+00
 -1       909-6.81223E+00-1.82595E+00 2.83040E-02 4.33659E-02-7.45709E-02-1.46569E-01
 -1       910-3.22472E+00-1.10402E+00 7.65540E-01-3.03262E-01 5.51314E-01 6.13636E-01
 -1       911-1.47252E+00-8.29953E-01-2.19065E-01 4.08731E-01-7.56290E-02 9.86630E-01
 -1       912 1.99759E-01-7.00343E-02-5.30741E-01 2.38551E-01-1.15132E-01 9.02261E-02
 -1       913-1.15339E+00-2.13708E+00 1.26492E+00 8.38377E-01-3.51524E-01 4.33550E-01
 -1       914-2.57492E-01-8.12340E-01-5.36526E-01 9.39140E-02 3.71577E-01 2.78035E-01
 -1       915-1.31328E+00-6.03572E-01 2.87642E-02-3.05870E-01 3.63697E-01 7.52698E-01
 -1       916-1.98275E+00-1.12670E+00 3.63730E-01-1.25149E+00 3.75752E-01 2.49931E-01
 -1       917-2.17424E+00-2.48731E+00 3.17580E-01-1.28522E+00 7.46347E-01-8.21917E-02
 -1       918-3.12057E+00-6.02611E+00-1.78596E-01 1.24703E+00-3.94902E-01 4.61479E-02
 -1       919 9.47003E-01-2.67465E+00 5.19236E+00 6.71560E-01 1.64570E+00-6.31188E-02
 -1       920 6.47404E-03-3.74708E-01-5.33086E-01-7.38328E-02-5.80281E-01-9.46568E-02
 -1       921-6.91779E+00-3.70799E+00-5.82738E-01 1.82324E+00-2.45650E-01 1.05200E-01
 -1       922-8.52864E-01-1.54722E-01 5.99968E-01-2.29052E-01-5.21043E-01 1.13740E+00
 -1       923 1.52252E-01-5.05983E-01-3.89203E-01-5.17499E-01 2.75978E-01 1.26546E-01
 -1       924-5.29259E+00-7.01891E+00 1.11044E+00 1.77512E+00 1.11848E+00-1.27733E-01
 -1       925-4.46351E+00-5.25824E+00 2.18895E-01 2.57801E+00 1.29993E-01-2.96859E-01
 -1       926-2.06036E+00-1.96666E+00-3.35433E-01 3.14483E-02-9.10578E-01 6.01900E-01
 -1       927-2.17474E-01-2.14902E-01-6.58965E-01-2.11812E-01-1.06470E-01 1.40069E-01
 -1       928-8.09114E-01-3.34840E+00 6.03860E-01 7.70475E-01-5.46327E-01-1.55178E-01
 -1       929-1.20330E+00-1.83796E+00-1.19293E-01 6.51126E-01-4.23727E-01 7.44855E-02
 -1       930-6.54240E-01-1.90610E+00 8.10550E-01 1.73675E-01-5.42943E-01 1.37303E-02
 -1       931-2.85262E+00-7.14282E+00-3.00395E-01-1.23888E-01-2.81915E-01 1.09085E-01
 -1       932 7.07313E-01-3.97794E+00 2.73071E+00 1.97254E+00-1.23589E+00-5.65377E-01
 -1       933-1.81536E+00-9.13069E-01-5.72060E-02-8.03582E-01-3.88443E-01-8.67034E-01
 -1       934-1.69818E+00-1.03932E+00 4.71495E-01 3.88462E-01 5.09022E-01-1.20289E+00
 -1       935-1.83064E-01 2.03403E-01-3.63583E-01-3.02040E-02 2.44739E-01-5.26290E-01
 -1       936-1.62325E+00-2.44568E-02 8.31517E-01 1.12716E-01-9.18699E-02-8.00757E-01
 -1       937-2.02711E+00-2.42071E+00-2.81294E-01-8.56590E-01-8.17887E-01-8.39332E-01
 -1       938-6.53813E-01-8.34104E-01-6.48494E-01 3.45631E-02-4.65885E-01-5.66206E-01
 -1       939-3.53984E-01-7.05380E-02-4.23293E-01-4.84085E-02-1.80972E-01-5.54930E-01
 -1       940-4.33700E+00-4.60703E+00-3.31535E-01 4.54549E-01-6.01690E-01 1.04102E+00
 -1       941-2.10153E+00-1.03474E+00-9.60560E-01 3.36090E-01-2.80563E-01 2.00484E+00
 -1       942-2.71068E-01-8.37999E-01-8.09917E-01 2.60150E-01-8.37954E-01 2.43302E+00
 -1       943-2.18322E+00-2.26835E+00-1.83006E+00 2.29177E-01-1.20144E-01 1.65954E+00
 -1       944-5.96558E+00-7.89638E+00-3.52449E+00 8.74127E-02 9.75424E-01 1.95729E+00
 -1       945-2.58332E+00-2.08439E+00-1.98887E+00-1.23800E-01 2.59247E-01 1.43913E+00
 -1       946-3.73372E+00-4.57450E+00-2.59006E+00 1.04975E-01 2.26433E-01 1.02696E+00
 -1       947-2.59007E+00-3.01176E+00-1.21271E+00-9.48728E-03-6.06472E-01 7.28246E-01
 -1       948-2.62619E+00-3.23609E+00-2.18403E+00 8.33321E-02-1.83024E-01 1.53383E+00
 -1       949-1.90970E+00-2.17572E+00-6.36721E-01-1.53315E-01 5.06621E-01 1.75829E+00
 -1       950 4.60825E-02-7.73579E-02-4.89667E-02 1.00243E-01 7.44306E-01 1.79031E+00
 -1       951-2.00376E+00-1.39269E+00-7.57914E-01-1.47690E-01 7.80464E-01 1.91643E+00
 -1       952-7.17236E+00-7.43645E+00-2.97295E+00 9.46159E-01 6.92463E-01-1.31284E-01
 -1       953-2.40407E+00-1.31542E+00-1.34325E-01-2.11762E-01 9.58455E-01 1.18036E+00
 -1       954-4.90053E+00-6.96013E+00-3.56439E+00 5.99812E-01 5.92245E-01 3.21102E-01
 -1       955-3.15791E+00-3.75563E+00-1.31702E+00 4.96405E-01 2.81249E-01 9.55629E-01
 -1       956-2.87736E+00-3.83740E+00-8.06555E-01 4.03158E-02 1.50540E-01 1.06495E+00
 -1       957-4.27110E+00-4.51180E+00-1.11056E+00 7.25724E-01 4.41801E-01 8.70389E-01
 -1       958-1.47671E+00-1.09953E+00 9.22163E-02 1.87147E-01 1.62410E+00 1.43124E+00
 -1       959 3.85373E-01 1.14212E+00 3.94435E-01 5.31670E-01 1.13813E+00 1.99744E+00
 -1       960-8.68635E-01-1.52753E+00-4.89422E-01-3.90084E-01 1.62457E+00 1.78639E+00
 -1       961-6.83445E+00-7.01932E+00-3.82369E+00 1.09832E+00 6.62737E-01 1.05554E+00
 -1       962-3.65483E+00-3.26220E+00-2.79638E+00-1.47425E-01 1.03351E+00 8.54249E-01
 -1       963-3.32807E+00-3.56441E+00-2.94745E+00-3.07170E-01 1.01450E+00 5.55122E-01
 -1       964-4.98191E+00-4.31453E+00-2.01712E+00 8.23707E-01 4.84045E-01 9.10475E-01
 -1       965-2.27450E+00-2.63060E+00 2.26485E-01-5.70914E-02 8.79528E-01 9.33748E-01
 -1       966-5.96362E+00-5.20820E+00-1.20161E+00 3.36451E-01 2.03307E-01 1.11627E+00
 -1       967-3.06964E-01-3.46389E-01 1.22547E+00-4.41314E-01 2.02576E+00 3.49928E-01
 -1       968-2.23689E+00-2.31224E+00-7.18821E-01 9.69581E-02 1.39556E+00 6.21545E-01
 -1       969-1.14522E+01-8.84903E+00-2.89598E+00 1.31645E+00 2.06771E-01 1.23031E+00
 -1       970-3.61348E+00-2.67582E+00-9.78770E-01-1.67394E-01 1.25780E+00 6.14467E-01
 -1       971-5.83462E+00-4.55296E+00-2.45979E+00 5.63058E-01 9.57022E-01 5.47441E-01
 -1       972-4.89467E+00-4.10187E+00-2.06981E+00 6.81687E-01 6.15555E-01 5.19067E-01
 -1       973-3.11811E+00-2.88075E+00-4.94134E-01 6.55383E-01 5.96084E-01 1.13806E+00
 -1       974-5.52172E+00-4.95907E+00-2.74507E+00 1.63346E-01 1.04904E+00 2.70957E-01
 -1       975 5.43323E-02-9.03689E-01 1.03026E-01-5.54568E-02 2.82979E+00 7.91212E-02
 -1       976-1.47824E+00-1.73571E+00-2.06521E-01 5.89013E-02 1.98045E+00 7.38793E-02
 -1       977-1.22159E+01-8.90716E+00-5.20971E+00-4.84600E-01 9.53853E-01 8.13191E-02
 -1       978-3.77579E+00-3.40705E+00-1.50795E+00-9.57770E-01 1.15451E+00-2.23373E-01
 -1       979-1.77563E+00-2.80556E+00-1.23716E+00 2.74838E-01 1.49564E+00-3.06512E-01
 -1       980-3.47788E+00-3.08461E+00-2.83931E+00 1.33603E-01 9.23309E-01 4.12558E-01
 -1       981-2.72362E+00-2.90013E+00-1.28121E+00 1.88153E-01 1.52468E+00 4.40100E-01
 -1       982-4.82847E+00-4.27565E+00-2.01544E+00 8.81787E-02 1.08980E+00-3.16936E-01
 -1       983-2.41933E+00-2.69223E+00-1.39853E+00 1.89692E-01 1.09484E+00-6.54591E-01
 -1       984 3.42168E-01 2.35634E-01 6.94855E-03 2.90903E-01 1.33488E+00-7.62028E-01
 -1       985-1.36381E+00-1.74148E+00-6.63565E-01 1.78040E-01 1.67638E+00-8.52681E-01
 -1       986-1.04301E+01-7.96352E+00-2.71410E+00-1.78594E+00 5.82332E-01-4.18661E-01
 -1       987-4.11994E+00-3.81769E+00-2.16432E+00-2.38271E-01 9.67363E-01-1.34230E+00
 -1       988-4.85556E+00-3.81676E+00-1.64171E+00-3.51422E-01 6.48079E-01-7.50076E-01
 -1       989-6.49660E+00-5.08521E+00-2.57741E+00-4.46191E-01 1.22213E+00-5.20906E-01
 -1       990-4.27805E+00-3.64665E+00-1.25839E+00-2.18105E-01 8.77531E-01-5.29027E-01
 -1       991-5.39866E+00-3.68317E+00-1.38199E+00 1.59875E-01 8.82903E-01-3.03048E-01
 -1       992 5.90454E-01 1.55544E+00 1.52980E+00 3.10133E-01 2.28631E+00-2.58424E+00
 -1       993-1.91505E+00-1.25353E+00-1.93116E-01 7.52422E-02 1.52800E+00-1.55015E+00
 -1       994-1.07047E+01-1.09935E+01-4.42839E+00-2.23806E+00 1.63126E+00-3.11521E-01
 -1       995-2.11381E+00-2.29426E+00-1.45912E+00 2.54250E-01 1.02571E+00-8.47712E-01
 -1       996-4.41405E+00-4.16015E+00-2.70729E+00-2.64884E-01 8.93214E-01-7.80298E-01
 -1       997-4.30433E+00-4.37249E+00-2.58372E+00-3.78959E-01 7.00993E-01-6.31271E-01
 -1       998-3.59545E+00-3.41892E+00-2.46945E+00 1.66021E-02 1.34415E+00-1.27378E+00
 -1       999-3.52939E+00-3.18753E+00-1.20575E+00-5.56576E-02 2.20167E-01-9.87992E-01
 -1      1000 2.19074E-01 2.93908E-01 1.86996E-01-6.91956E-01 1.18562E+00-1.45678E+00
 -1      1001-1.44468E+00-1.37497E+00-5.91606E-01 3.73082E-01 5.88162E-01-1.65271E+00
 -1      1002-1.02079E+01-1.30119E+01-5.25334E+00-9.76516E-01 7.39742E-02-6.84264E-01
 -1      1003-2.67843E+00-2.71013E+00-6.33150E-01-1.53697E-01 3.56353E-01-1.13859E+00
 -1      1004-5.24225E+00-6.07948E+00-2.61208E+00-7.92060E-01 6.17745E-01-8.17197E-01
 -1      1005-3.46428E+00-4.45102E+00-2.81878E+00 5.67152E-02 8.01974E-01-8.68217E-01
 -1      1006-2.79514E+00-2.57561E+00-6.56201E-01-3.35710E-01 7.68107E-01-1.20481E+00
 -1      1007-3.41945E+00-3.73022E+00 5.92955E-01-8.54654E-01 2.99300E-01-1.19003E+00
 -1      1008 6.29770E-01 9.58770E-01 1.01023E+00 5.84808E-01 1.77079E-01-2.37922E+00
 -1      1009-1.17082E+00-1.46622E+00-6.11940E-01-1.04015E-01 6.19774E-02-2.40691E+00
 -1      1010-8.90801E+00-1.31842E+01-2.88788E+00-5.34551E-02 3.14448E-01-1.54724E+00
 -1      1011-3.32361E+00-3.78587E+00-1.74982E+00 3.24712E-01 3.71884E-01-1.36183E+00
 -1      1012-2.85264E+00-4.11458E+00-2.53964E+00-7.51479E-02-1.91736E-01-1.16533E+00
 -1      1013-2.79532E+00-3.74120E+00-1.47124E+00-2.00664E-01 5.44480E-01-8.86908E-01
 -1      1014-2.35191E+00-2.54829E+00-1.68469E+00 8.20238E-02 4.50694E-02-2.12673E+00
 -1      1015-4.43724E+00-4.78033E+00-1.90777E+00-5.07144E-02-3.46420E-01-8.21932E-01
 -1      1016-3.13678E-01-5.31555E-01 3.31515E-02 1.87160E-02-8.57551E-01-2.26721E+00
 -1      1017-1.83281E+00-2.16356E+00-3.95948E-01-2.40719E-01-9.34078E-01-1.76018E+00
 -1      1018-6.24386E+00-6.43339E+00-3.82420E+00 1.13890E-01-5.23439E-01-1.02395E+00
 -1      1019-2.67292E+00-2.69454E+00-7.54983E-01 1.80388E-01-6.19152E-01-1.14303E+00
 -1      1020-3.87872E+00-4.92410E+00-2.75522E+00 4.02114E-01-4.93982E-01-4.93911E-01
 -1      1021-5.33431E+00-6.35226E+00-4.58561E+00 3.63087E-01-2.24616E-01-1.13401E+00
 -1      1022-2.28275E+00-2.99332E+00-7.58451E-01-1.23778E-01 8.27012E-02-1.03160E+00
 -1      1023-4.20364E+00-4.87821E+00-1.81031E+00-5.18991E-01-5.25029E-01-7.71121E-01
 -1      1024-1.63134E+00-1.38087E+00-1.02829E+00-3.29019E-01-1.32794E+00-1.12261E+00
 -1      1025-9.59021E-01-1.48975E+00-1.13558E+00 4.04419E-02-1.61092E+00-1.75583E+00
 -1      1026-2.79122E+00-2.67899E+00-1.58803E+00 6.41394E-02-1.49167E+00-1.45107E+00
 -1      1027-1.07082E+01-9.60763E+00-3.81829E+00 1.57468E+00-4.02868E-01-2.13575E-01
 -1      1028-3.37899E+00-3.07870E+00-1.82371E+00 1.48985E-01-1.09089E+00-1.07820E+00
 -1      1029-3.32106E+00-3.88662E+00-1.43448E+00 2.37473E-01-1.01485E+00-7.35982E-02
 -1      1030-3.77757E+00-4.46986E+00-3.08022E+00 4.33719E-01-2.85496E-01-6.90928E-01
 -1      1031-3.52089E+00-3.84675E+00-2.65971E+00-6.49006E-02-7.65898E-01-1.24460E+00
 -1      1032-4.95999E+00-4.78215E+00-1.47447E+00 5.86304E-01-8.12214E-01-5.60435E-01
 -1      1033-4.86996E-01-1.18835E+00 6.82882E-02-2.06970E-01-1.96051E+00-7.64829E-01
 -1      1034-1.52904E+00-1.63622E+00-4.51601E-01-3.75287E-01-1.96063E+00-8.25427E-01
 -1      1035-1.18066E+01-9.11666E+00-2.84765E+00 1.58463E+00-6.43310E-01 6.51729E-02
 -1      1036-3.11240E+00-2.31401E+00-6.50155E-01-1.33535E-01-1.13941E+00-4.19196E-01
 -1      1037-6.37850E+00-5.79651E+00-3.40904E+00 4.77473E-01-1.31572E+00-3.54748E-01
 -1      1038-6.83899E+00-5.89582E+00-3.23243E+00 4.51501E-01-8.39932E-01-2.11426E-01
 -1      1039-4.16177E+00-4.21514E+00-2.09016E+00 4.93780E-01-1.20413E+00-1.37509E+00
 -1      1040-3.50235E+00-3.82494E+00-8.20392E-01 8.28318E-01-9.09139E-01-2.81732E-01
 -1      1041-1.51995E+00-2.16331E+00-1.18756E+00-7.79979E-02-1.73793E+00-4.24629E-01
 -1      1042-3.24874E-01-9.27133E-01-5.49671E-01 2.32086E-01-2.31252E+00-2.86815E-01
 -1      1043-1.95140E+00-2.36178E+00-1.08550E+00 1.26171E-02-2.02394E+00-3.44462E-01
 -1      1044-1.03041E+01-7.81283E+00-1.99104E+00-6.00346E-01-1.51740E+00-6.91140E-01
 -1      1045-2.25388E+00-2.75127E+00-2.02140E+00-2.74456E-01-1.36237E+00 7.16234E-02
 -1      1046-8.42614E-01-1.50831E+00-1.54667E+00 3.26083E-01-7.15185E-01 7.05234E-01
 -1      1047-3.44113E+00-3.00468E+00-1.36160E+00-1.70789E-02-8.47251E-01-2.69535E-01
 -1      1048-2.24344E+00-2.21080E+00-1.17004E+00 3.79860E-01-1.71624E+00-2.90606E-01
 -1      1049-4.59910E+00-4.72401E+00-3.47578E+00-5.33208E-01-1.75461E+00 9.77499E-01
 -1      1050 3.35788E-01-9.03348E-02 1.70745E-01 2.79469E-01-1.80319E+00 5.14915E-01
 -1      1051-2.22836E+00-2.63474E+00-8.42371E-01 8.23094E-02-1.78690E+00 8.32116E-01
 -1      1052-4.44395E+00-5.08087E+00-2.95686E+00-1.15791E+00-2.58643E+00 1.40261E+00
 -1      1053-3.50361E+00-3.86287E+00-2.11720E+00-2.82410E-01-1.21953E+00 1.00467E+00
 -1      1054-5.60089E+00-4.46276E+00-2.13373E+00-3.78483E-01-6.60375E-01 3.04720E-01
 -1      1055-4.48937E+00-4.25666E+00-3.08725E+00-1.99981E-01-8.88072E-01 2.57563E-01
 -1      1056-3.63051E+00-2.83318E+00-1.69754E+00 3.89184E-01-1.20495E+00 2.43388E-02
 -1      1057-1.79055E+00-2.24585E+00-5.96619E-01-3.72424E-02-1.68642E+00 1.02534E+00
 -1      1058-5.46793E-02-1.67025E-02-5.38052E-02 4.07907E-01-1.58503E+00 7.44848E-01
 -1      1059-2.43420E+00-1.95450E+00-6.28875E-01-3.68057E-01-1.44968E+00 1.42183E+00
 -1      1060-7.49873E+00-8.79316E+00-2.08454E+00-1.16414E+00-1.16045E+00 1.21016E+00
 -1      1061-3.00430E+00-3.35344E+00-1.04706E+00-1.97241E-01-8.26143E-01 8.76476E-01
 -1      1062-6.20797E+00-5.38168E+00-3.15649E+00-7.45239E-01-6.17787E-01 7.97798E-01
 -1      1063-3.39550E+00-3.64079E+00-1.72278E+00-6.26147E-01-1.03288E+00 6.10152E-01
 -1      1064-3.14804E+00-3.19769E+00-2.00557E+00-8.11703E-02-1.11292E+00 1.05090E+00
 -1      1065-1.90047E+00-1.68886E+00-1.01531E+00 3.39676E-01-6.63682E-01 1.57003E+00
 -1      1066 1.22766E+00-5.04412E-01 7.00529E-01-1.06439E+00-5.51307E-01 1.87648E+00
 -1      1067-1.00481E+00-1.52701E+00-5.41366E-01-7.88035E-03-3.83837E-01 2.20866E+00
 -1      1068-7.37597E+00-1.01068E+01-2.85951E+00-1.58886E+00-8.25798E-02 1.63213E+00
 -1      1069-2.02953E+00-2.58781E+00-6.23213E-01 6.21602E-02-6.39143E-01 1.51157E+00
 -1      1070-3.42086E+00-4.10594E+00-1.88140E+00-1.29629E-01-8.07256E-01 1.13801E+00
 -1      1071-4.53646E+00-5.98703E+00-3.16874E+00-6.79334E-01-1.13631E+00 5.91686E-01
 -1      1072-2.53770E+00-2.34407E+00-1.09777E+00-4.48746E-02-5.89719E-01 1.38174E+00
 -1      1073 1.89099E+01 1.89722E+01 1.59484E+01 3.04513E+00 6.91997E+00 5.67894E+00
 -1      1074 2.41975E+00 2.46926E+00 2.17194E+00 3.54541E-01 5.11060E+00 3.47359E+00
 -1      1075-7.94297E+00-1.11677E+01-6.80320E+00-1.52266E+00 6.36065E+00 4.80204E+00
 -1      1076-1.36438E+00-2.07923E+00-4.65540E+00 9.83732E-01-6.05652E+00-1.51813E+00
 -1      1077 9.14569E+00 3.99788E+00 6.46002E+00-1.63223E-01 5.22793E+00 5.54286E+00
 -1      1078-1.84462E+00-2.84886E+00-5.04520E+00-8.81906E-01 5.44804E+00-2.90655E-01
 -1      1079 3.19132E+00 1.35853E+00-9.11272E-02 6.79177E-02 3.75066E+00 5.49353E+00
 -1      1080-2.48746E+00-2.31163E+00-4.83473E+00 7.39508E-01 3.51602E+00 2.68287E+00
 -1      1081 5.05049E+00 6.71578E+00 3.25122E+00 1.28954E+00 3.88366E+00 3.50279E+00
 -1      1082-1.96042E+01-2.54397E+01-1.89635E+01-2.02243E+00 7.82893E+00 4.03837E+00
 -1      1083 7.62148E-01 1.66631E+00 2.80094E+00 5.60419E-01 3.18653E+00-4.27623E+00
 -1      1084-9.07301E+00-8.91931E+00-8.00708E+00 1.30336E+00 4.07300E+00-4.96785E+00
 -1      1085 1.50794E+01 1.76480E+01 1.37782E+01-2.34748E+00 7.83041E+00-4.76167E+00
 -1      1086-5.33365E+00-5.61098E+00-7.71677E+00-4.64270E-01 4.68629E+00-2.94226E+00
 -1      1087 3.06227E+00 2.44220E+00 4.79247E+00 2.03442E-01 5.40725E+00-3.09525E+00
 -1      1088 1.81586E+01 2.51795E+01 1.82454E+01 9.89307E-02 8.45980E+00-8.33159E-01
 -1      1089-8.54345E+00-1.07137E+01-7.81303E+00 1.82697E+00 7.12305E+00-1.32136E-01
 -1      1090-3.71333E+00-3.87275E+00-5.72391E+00-5.50621E-01 4.10798E+00-2.15865E+00
 -1      1091 3.94623E+00 6.94208E+00 5.27209E+00 3.74738E-02 6.64838E+00-4.34290E+00
 -1      1092-2.63133E+01-2.57384E+01-2.19138E+01 4.24985E+00 7.12632E+00-5.84828E+00
 -1      1093 1.13664E+01 7.13155E+00 5.74877E+00 6.78471E-01 1.41838E+00 6.50181E+00
 -1      1094-1.66180E+01-1.20036E+01-1.20434E+01-1.33543E+00 8.39147E-01 6.91818E+00
 -1      1095 6.43333E+00 8.41739E+00 6.40160E+00-1.95191E+00-6.03298E+00 1.15795E+00
 -1      1096 1.45967E+01 1.13987E+01 1.09441E+01-1.30338E+00-2.62588E+00 8.65622E+00
 -1      1097 3.03973E+00 2.71678E+00 1.33914E+00-1.80924E+00-4.65878E+00-6.33897E-02
 -1      1098 1.21145E+01 1.64216E+01 1.20137E+01-1.31949E+00-8.60195E+00 2.18700E+00
 -1      1099-4.68021E+00-8.84263E+00-2.96606E+00 3.97882E-01-6.88320E+00 1.93481E+00
 -1      1100-4.11193E+00-6.06812E+00-5.07708E+00 3.17721E-02-4.93504E+00 1.82556E+00
 -1      1101 7.59678E-01-6.41065E-01 6.78136E-01 5.04124E-01-4.73298E+00 1.94855E+00
 -1      1102 1.81423E+00 2.94083E+00 2.87825E+00-1.14469E+00-6.67604E+00-1.64359E+00
 -1      1103 1.26777E+00 1.25600E+00 2.26230E+00 9.89599E-01-6.72174E+00-3.66288E-01
 -1      1104-2.27712E+00-4.76583E+00-1.62327E+00-1.01842E+00-6.64433E+00-5.95220E-01
 -1      1105-1.79139E-02-1.65570E+00-2.07508E+00 6.32465E-01-5.86953E+00-3.23311E+00
 -1      1106 5.86732E-01 1.90591E+00 4.07998E+00 6.95282E-02 2.89747E-02-5.41541E+00
 -1      1107-8.42266E+00-3.88232E+00-4.03255E+00 5.28639E-01 1.36776E+00 5.04711E+00
 -1      1108-1.18486E+01-7.36932E+00-7.28280E+00 1.61258E+00 2.18237E+00 7.32261E+00
 -1      1109-8.90482E+00-6.10486E+00-3.20352E+00 1.08376E+00-2.49202E+00 6.28842E+00
 -1      1110 3.13830E-01 1.28242E+00 3.20326E+00 9.49735E-01-3.07548E+00 4.90481E+00
 -1      1111-1.85098E+01-1.80091E+01-1.53745E+01 2.89173E+00-5.82882E+00 7.10261E+00
 -1      1112-2.02108E+01-2.07413E+01-1.72408E+01 3.24585E+00-7.14260E+00 5.86165E+00
 -1      1113-7.84591E+00-8.57053E+00-6.03414E+00 1.58629E+00-5.16296E+00 3.56961E+00
 -1      1114-8.07471E+00-1.00496E+01-6.26730E+00-1.55469E+00 6.44657E+00 8.27285E-01
 -1      1115-5.98180E+00-1.00509E+01-4.96810E+00-2.31734E-01 5.07809E+00 2.17067E+00
 -1      1116-1.94683E+01-2.34530E+01-1.80699E+01-2.74681E+00-8.04611E+00-4.30090E+00
 -1      1117 2.35259E+00 5.64713E-01 5.14598E+00-5.72165E-01-3.76641E+00-1.66255E+00
 -1      1118-2.57018E+01-2.46595E+01-2.12021E+01-3.95284E+00-5.89462E+00-7.18278E+00
 -1      1119 7.55338E-01-9.33686E-01 5.81874E-01-5.20039E-01-4.30698E+00-3.62827E+00
 -1      1120-1.07503E+01-6.80861E+00-7.36655E+00 5.58385E-01-1.96167E+00-6.34801E+00
 -1      1121-2.42893E+01-1.89591E+01-1.82075E+01 2.24036E+00 2.98932E+00-9.08664E+00
 -1      1122 2.24708E+01 1.85295E+01 1.72611E+01 3.01875E+00-6.15821E+00-6.94447E+00
 -1      1123 1.90420E+00 1.88677E+00 2.40559E+00 1.88375E+00 1.64371E+00 6.67630E+00
 -1      1124 2.84250E+00 3.85722E+00 4.73656E-02 1.54402E+00 6.45288E+00 1.96803E+00
 -1      1125 4.62559E+00 3.88187E+00 4.24280E+00-6.87048E-01-3.31296E+00 7.45535E+00
 -1      1126 1.50025E+01 9.50457E+00 1.19009E+01-7.87226E-01-4.46493E+00 4.84777E+00
 -1      1127-2.20843E+00-1.96595E+00-2.11943E+00 2.08068E-01-4.03851E+00 2.95904E+00
 -1      1128-5.40839E+00-5.84257E+00-5.88632E+00-1.27827E-01-5.23411E+00-3.55309E+00
 -1      1129 2.56675E+01 1.93107E+01 1.89358E+01-1.63894E+00 3.15187E+00-1.03902E+01
 -1      1130 1.26903E+01 1.12935E+01 9.13404E+00 2.43433E+00-2.44006E+00-7.43457E+00
 -1      1131-1.10755E+00-4.89614E-01 7.97958E-01 2.45528E-01 3.15762E-01-4.41128E-01
 -1      1132-1.70173E+00-1.28577E+00 1.21464E+00 1.07222E+00 6.77966E-01-6.03945E-01
 -1      1133-3.17688E+00-1.03768E+00 8.16690E-01 8.56900E-01 6.68870E-02-5.04233E-01
 -1      1134-1.90312E+00-8.92085E-01-1.93883E-02 4.44428E-01 1.65552E-01-5.43248E-01
 -1      1135-1.52326E+00-2.40996E+00 1.08058E+00-9.89059E-01-2.63211E-01-4.91321E-01
 -1      1136-6.61993E-01-1.48605E+00 1.48625E+00 8.23354E-01 4.75312E-01-3.90699E-01
 -1      1137-7.40898E-01-1.02854E+00 9.29002E-01 3.92849E-01 5.65956E-01-3.39331E-01
 -1      1138-6.33059E-01-1.90093E+00 1.62581E+00 1.28374E+00 5.45845E-01-2.50239E-01
 -1      1139-2.92872E+00-2.56311E+00 3.45129E-01 1.30559E+00-1.20929E-01-5.11857E-01
 -1      1140-1.63643E+00-1.99438E+00-1.35289E-01 8.92065E-01 3.53896E-01-4.29465E-01
 -1      1141-7.92574E+00-2.51401E+00 2.90137E+00-1.23574E+00-3.32511E-01 2.04910E+00
 -1      1142-7.70057E+00-2.06576E+00-7.84738E-01 2.55724E-01-9.43755E-03 1.08249E-01
 -1      1143-4.93936E+00-1.50179E+00 2.82563E+00-1.89223E+00 9.07347E-01 1.82157E+00
 -1      1144-6.95063E+00-2.60616E+00-8.28696E-01-2.10083E+00 1.46333E-01 2.31491E-01
 -1      1145-4.11842E+00-1.69906E+00 2.43987E+00-1.34582E+00 1.60157E+00 1.44235E+00
 -1      1146-1.23624E+00-2.57928E+00-2.30503E-01-4.63925E-01-6.31059E-01-9.03106E-02
 -1      1147-7.28339E+00-4.38821E+00 3.15520E-01 1.83750E+00-1.27675E+00 7.01460E-01
 -1      1148-6.41706E+00-2.85946E+00 1.96237E-02 2.51060E+00-2.68555E-01-2.89615E-01
 -1      1149-8.28955E+00-3.36198E+00 1.98752E+00 8.23688E-01-8.56780E-01 1.42681E+00
 -1      1150-6.23055E+00-3.17057E+00 2.72029E-01 1.90199E+00-7.50212E-01 1.21364E-01
 -1      1151-1.05342E+00-3.42294E+00 5.73116E-01 7.41188E-01 5.50484E-01 4.81205E-04
 -1      1152-9.04160E-01-3.38999E+00 1.16756E+00-5.73428E-01 5.69715E-01 1.22055E-01
 -1      1153-1.30570E+00-1.96321E+00 6.91869E-01-6.41776E-01 4.42339E-01 1.52689E-01
 -1      1154-1.65341E-01-6.09321E-01 1.81093E-01 3.85874E-02 6.27046E-01 3.08766E-01
 -1      1155-1.26728E+00-2.82362E+00 2.97678E-01-4.91192E-01 9.68996E-01 6.75339E-01
 -1      1156-3.72656E-01-8.45715E-01-1.18567E-01 1.09993E-01 8.45606E-01 2.53516E-01
 -1      1157 1.11657E+00-2.53064E+00 5.22400E+00-3.57218E-01-1.96641E+00-4.80310E-01
 -1      1158-2.79632E+00-6.40307E+00-3.66174E-01-2.31522E+00-3.24710E-01-3.24597E-02
 -1      1159-1.41051E+00-2.63492E+00 2.57007E+00-1.23691E+00-1.88125E+00 5.30513E-02
 -1      1160-3.12579E+00-6.02758E+00 3.39633E-01-1.57803E+00-2.24809E-01-2.95691E-01
 -1      1161-6.17261E-01-1.75396E+00 6.89554E-01-7.43925E-01 2.19736E-01 3.50810E-01
 -1      1162-4.67835E+00-5.55600E+00 2.25803E+00-2.74298E+00-1.49986E+00-7.70750E-01
 -1      1163-4.57608E+00-5.16648E+00-2.95827E-01-2.88950E+00-6.77588E-02 2.52188E-01
 -1      1164-6.37879E+00-3.10147E+00-2.41327E-01-1.85236E+00-3.40704E-01-2.80269E-01
 -1      1165-9.10923E+00-4.15252E+00 1.44328E+00-1.84678E+00-7.48454E-01-1.02446E+00
 -1      1166-7.18634E+00-3.19686E+00-8.01159E-01-2.19128E+00-1.27629E-01-1.01269E-01
 -1      1167-2.68478E+00 8.73773E-01 3.71862E+00-7.41009E-01 6.03996E-01-2.29913E+00
 -1      1168-6.72737E+00-1.70720E+00 4.42448E-03 1.29737E-01 6.92069E-02-1.32959E-01
 -1      1169-6.22458E+00-2.09691E+00 2.39064E+00-9.21446E-01 4.75756E-02-1.59525E+00
 -1      1170-1.96404E+00-4.01300E-01 4.00854E-01-2.85713E-02 1.61622E-01 6.51879E-01
 -1      1171-1.56051E+00-8.48180E-02-5.69672E-02 1.12328E-01 1.44049E-01 7.38456E-01
 -1      1172-3.34641E+00-7.62756E-01 1.62187E-01 2.06497E-01-3.26568E-01 1.67239E-01
 -1      1173 2.14367E-01 4.78711E-02-1.53781E-01 1.41433E-01-1.13696E-01 3.16200E-02
 -1      1174-1.39252E+00-5.88299E-02-1.95510E-01 5.56048E-01-8.85092E-02 8.63429E-01
 -1      1175-9.36121E-01-1.48329E+00 6.83256E-01 4.68769E-01-3.77800E-01 2.49368E-01
 -1      1176-4.88623E-01-6.93669E-02-5.10633E-01 9.29211E-02-1.04112E-01 4.96861E-01
 -1      1177-6.70609E-01-7.55561E-01 1.18666E+00-4.83405E-01 1.23884E+00 6.58346E-01
 -1      1178-2.11862E+00-2.22222E+00-2.05557E-01-3.96322E-01 1.33896E+00 8.79035E-01
 -1      1179-9.31660E-01-3.24825E-01-4.37503E-01 4.11346E-01 1.27471E-01 5.52878E-01
 -1      1180-1.68784E+00-3.66366E-01 3.53525E-01-8.18409E-01 4.82124E-01 1.01656E+00
 -1      1181-2.39146E+00-1.40047E+00-7.41274E-02-7.00459E-01 5.02736E-01 1.13480E+00
 -1      1182 1.02991E-01-2.00502E-01-5.25840E-01-3.79068E-03 2.98952E-01 7.79988E-01
 -1      1183-2.09136E+00-1.09407E+00 5.47855E-01-4.03586E-01-9.82146E-02 5.20613E-01
 -1      1184-3.14843E+00-9.40215E-01 1.33993E+00-8.24616E-01-9.87549E-03 7.13529E-01
 -1      1185-1.71627E+00-2.02358E+00-1.69723E-01-7.20345E-01 6.94367E-01 2.04524E-01
 -1      1186-1.12975E+00-1.65733E+00 6.66569E-01-6.16844E-01 2.46478E-01 4.86873E-01
 -1      1187-2.38413E+00-1.58964E+00 1.10097E+00-9.57840E-01 2.37610E-01 4.09185E-01
 -1      1188-1.16600E+00-2.19148E+00 7.79447E-02 5.59239E-01-1.16812E+00 6.60493E-01
 -1      1189 2.51793E-01-4.12267E-01-6.22101E-01 1.18289E-01-3.78380E-01 7.98280E-02
 -1      1190 6.36349E-02-1.30081E-01-4.41932E-01-5.91141E-02-2.98248E-01 3.92764E-02
 -1      1191-1.33156E+00-2.16738E+00 1.19917E-01 4.38470E-01-1.20901E+00 5.09888E-01
 -1      1192-3.77199E+00-9.28780E+00 7.49737E-01 2.04335E+00 2.03036E+00-3.21541E-01
 -1      1193-2.25789E+00-6.36511E+00-4.23648E-01 1.85604E+00-4.25641E-01-4.77312E-02
 -1      1194-4.29498E+00-6.30095E+00 1.52859E+00 2.44533E+00 1.28105E+00-8.69465E-01
 -1      1195-2.39875E+00-7.05188E+00-3.16748E-01 2.18838E-01 1.11040E-01 2.72146E-01
 -1      1196-1.59089E+00-2.86043E+00-3.11007E-01-7.31573E-02-1.21221E+00 9.45136E-02
 -1      1197-6.25190E-01-7.36405E+00 1.86454E-01 1.20025E-01-2.74318E-01 2.06840E-01
 -1      1198 9.72351E-01 5.23044E-01 6.20965E+00 2.26599E-01 2.09453E+00-2.46556E-03
 -1      1199 7.52401E-02-3.31328E-01-3.82940E-01-1.74750E-02-4.91001E-01-5.89786E-02
 -1      1200-9.90782E-02-1.87114E+00 4.56276E-01-1.32087E-01-8.98511E-01 1.42860E-01
 -1      1201-5.74300E+00-6.76567E+00 3.02794E+00 5.02926E-03 1.29059E+00-1.02262E+00
 -1      1202-5.82755E+00-1.63827E+00 3.82185E-01 2.34735E+00-2.52403E-01 3.50932E-01
 -1      1203-3.56845E+00-1.16791E+00 2.71674E+00 2.20377E+00 3.86472E-01-1.87169E+00
 -1      1204-3.40699E+00-1.49297E+00 9.21908E-01 7.61025E-01 6.25605E-02 8.75945E-01
 -1      1205-1.39951E+00-7.23341E-01 4.99900E-01 4.60587E-01-3.94343E-01 5.46394E-01
 -1      1206-1.00613E+00-2.86686E-01 5.12204E-02 4.96603E-01-2.69561E-01 7.38655E-01
 -1      1207-2.32706E+00-1.35162E+00 5.59262E-01 9.20717E-01-3.89529E-01 1.19168E-01
 -1      1208 2.64488E-01-1.32135E-01-1.83779E-01-2.31879E-01 2.74300E-01-2.63644E-01
 -1      1209-1.91793E+00-6.13416E-01 3.13209E-04-1.14949E-02-6.61034E-01 8.57693E-01
 -1      1210-4.50526E+00-4.93930E+00-3.70850E-01 2.74945E+00 1.29910E-01-4.13977E-01
 -1      1211-6.52587E+00-6.49226E+00 1.17149E+00 3.75318E+00 1.06547E+00-9.64586E-01
 -1      1212-2.62370E+00-2.08043E+00 7.50804E-01 1.19948E+00-1.68815E-01 7.84738E-01
 -1      1213-1.04799E+00-1.94067E+00 3.33566E-01 4.14165E-01-3.30696E-01 1.87714E-01
 -1      1214-4.85430E-01-1.79634E+00-1.65582E-01 5.16276E-01-9.29074E-01 4.10970E-01
 -1      1215-9.55458E-01-1.47354E+00 1.01878E+00 9.76166E-01-3.93413E-01 2.32562E-01
 -1      1216 5.65283E-02 4.25093E-02-3.45386E-01-8.82670E-02-4.68701E-02 6.19463E-02
 -1      1217-8.67018E-01-7.64744E-01 1.97488E-03 5.22622E-01-6.29748E-01 4.78725E-01
 -1      1218-8.39204E-01-2.88409E+00 1.34602E+00-3.49714E-01-3.95546E-01-2.71755E-01
 -1      1219-3.14455E+00-7.05104E+00-6.33433E-01-2.16821E+00 2.87474E-01 1.21964E-01
 -1      1220-3.42522E+00-7.75377E+00 1.68835E+00-2.78912E+00 1.04986E+00 2.84677E-01
 -1      1221-3.20462E+00-6.31352E+00 1.55848E-01-1.40788E+00 4.75418E-01 3.57259E-01
 -1      1222-3.48928E+00-8.94700E+00 1.32832E+00-1.87285E+00 1.49182E+00-2.03762E-01
 -1      1223-6.48969E-01-1.05831E+00-3.64230E-01-8.56753E-03-7.85189E-01-4.19473E-01
 -1      1224-5.43102E-01-2.12964E+00-7.51881E-02-5.48955E-01-1.14511E+00-3.05953E-01
 -1      1225-6.42832E-01-2.58152E-01-2.75227E-01 4.03354E-02-7.05836E-01-2.15448E-01
 -1      1226-1.66631E+00-2.86838E+00-3.21644E-01-4.32945E-01-1.11725E+00-4.00762E-01
 -1      1227-1.05191E+00-4.11567E+00 8.19690E-01 3.31449E-01 7.42521E-01-4.38658E-01
 -1      1228-9.60165E-01-2.36706E+00 2.35713E-01-1.70816E-01 4.63347E-01-1.99588E-01
 -1      1229 4.24086E-02 3.09292E-02-4.32012E-01 6.87306E-03 3.00876E-01-8.35523E-02
 -1      1230-1.44384E+00-2.50326E+00 2.24252E-01-1.06581E-01 1.26090E+00 2.00329E-01
 -1      1231-7.03592E+00-8.04407E+00 3.59622E+00 2.43582E+00-2.59686E+00-5.35028E-01
 -1      1232-2.31801E+00-8.00157E+00-5.88128E-01 1.10266E-01-1.23972E-01-4.37941E-02
 -1      1233-8.52129E-01-2.26445E+00 7.49620E-01-4.28429E-02 1.16798E+00 8.38510E-02
 -1      1234-6.17959E-02-1.06328E-01-6.14025E-01 2.17131E-02 4.00945E-01-1.29798E-01
 -1      1235-1.19977E-01-1.96130E+00-3.32023E-02-1.22506E-01 7.43515E-01 9.15881E-05
 -1      1236-1.66327E+00-5.52577E+00 1.64999E-01 2.48331E+00 4.12819E-01-1.23947E-01
 -1      1237-5.10683E+00-7.51438E+00 5.78986E-01 2.43494E+00-1.06113E+00 7.67861E-01
 -1      1238-2.56264E+00-6.24931E+00 2.53480E+00 1.55438E+00-2.12194E+00-2.11450E-01
 -1      1239-3.24723E+00-6.38270E+00-4.49149E-01 1.93327E+00 2.17839E-01-1.22814E-01
 -1      1240 1.86087E-01-1.08640E-01-3.15553E-01 9.50337E-02 2.53098E-01-3.06208E-01
 -1      1241-7.43889E-01-1.46792E+00 3.00773E-01 9.03003E-01 5.31166E-01-6.06448E-01
 -1      1242-1.98842E+00-2.04053E+00-2.65658E-01 9.05914E-01 9.15803E-01-6.03848E-01
 -1      1243 1.61622E-01-2.41455E-01-7.47539E-01 2.36824E-01 3.43151E-01-4.08694E-01
 -1      1244-3.35424E-01-2.96047E+00 8.11039E-01-3.76778E-01 2.06740E-01 5.17305E-02
 -1      1245-1.84787E+00-1.80124E+00 6.12088E-01-1.26319E+00 1.45108E-01-5.04308E-01
 -1      1246-1.25196E+00-3.62854E+00 3.01180E-01 8.67402E-02-3.18188E-01 4.73006E-01
 -1      1247-8.97499E-01-2.28291E+00-2.07611E-02 1.16356E-01-5.93535E-01 2.20115E-01
 -1      1248-4.80595E+00-4.52693E+00 1.74243E+00 2.95450E+00-5.31147E-01 4.43849E-01
 -1      1249-4.59493E+00-4.26325E+00-1.46545E-01-3.12528E+00-3.17052E-01-2.11622E-01
 -1      1250-4.38909E+00-4.44462E+00 2.60686E+00-2.37735E+00 4.12189E-01 2.47926E-01
 -1      1251-5.79289E+00-5.09588E+00-2.56971E-01-2.36693E+00-2.72726E-01-4.97802E-02
 -1      1252-4.64071E+00-5.30199E+00 5.87437E-01-2.41368E+00 1.72782E+00 6.88516E-01
 -1      1253-3.76548E+00-4.33805E+00-6.29261E-01 2.80104E+00 4.35140E-02 1.35367E-02
 -1      1254-5.41097E+00-2.71997E+00 1.79207E+00 2.56192E+00-5.91945E-01 1.71603E+00
 -1      1255-5.09178E+00-5.31388E+00-6.72677E-01 2.27371E+00-1.54084E-01 1.17636E-02
 -1      1256-2.15293E+00-3.05067E+00 1.17298E+00-1.34446E+00-6.42680E-01 3.36350E-02
 -1      1257-2.15924E+00-1.38350E+00 5.19218E-01-8.28230E-01-7.89559E-02-3.59151E-01
 -1      1258-2.08221E+00-1.19592E+00 1.29214E+00-8.62631E-01-4.85699E-01-3.14532E-01
 -1      1259-1.70896E+00-1.04404E+00 7.32308E-01-4.54358E-01-2.07809E-01-2.68820E-01
 -1      1260 3.79819E-01 1.30788E-01-2.04800E-01-3.32673E-01 7.78526E-02 3.16565E-02
 -1      1261-2.05554E+00-1.23205E+00-3.33841E-02-7.91722E-01-2.50141E-02-4.44280E-01
 -1      1262-3.43845E+00-8.95546E-01 6.18194E-01-7.89385E-01 1.50964E-01-5.81762E-01
 -1      1263 9.28905E-01 9.43673E-02-2.80190E-01 2.50362E-02-1.40839E-01 3.82940E-01
 -1      1264-1.85902E+00-8.22499E-01 1.05028E-01 1.10536E-03 4.53092E-02-1.20195E+00
 -1      1265-1.75457E+00-4.78563E-01 7.26707E-02-9.53265E-02 1.22928E-01-1.32396E+00
 -1      1266 4.83972E-01-3.77712E-01-1.08788E+00 2.59922E-02-9.13100E-02 1.46109E-01
 -1      1267-1.69951E+00-7.52320E-01 4.36503E-01 5.91509E-01 4.66640E-01-1.14028E+00
 -1      1268-4.18937E-02-1.58275E-01-4.94896E-01-2.72241E-01-1.15383E-01-4.77725E-02
 -1      1269-2.61200E+00-1.98647E+00-4.13917E-01 3.89338E-01 9.57840E-01-8.27637E-01
 -1      1270-2.01964E+00-1.38542E+00-9.12124E-02 7.97932E-01 1.00056E+00-9.01550E-01
 -1      1271-6.14952E-01-2.74507E-01-6.17879E-01 1.01113E-01 2.96217E-01-6.61819E-01
 -1      1272-2.44642E+00-2.99572E-01 1.74745E+00 5.20019E-01 1.82029E-01-5.77123E-01
 -1      1273-3.60950E+00-1.02479E+00 5.03889E-01-2.79743E-01-2.66916E-01-4.85549E-01
 -1      1274-2.35074E+00-7.24768E-01-1.93662E-01 1.53250E-01-4.70636E-03-6.57273E-01
 -1      1275-7.22549E-02-1.29217E-01-3.07206E-01-1.97113E-01-3.63766E-01-3.59356E-01
 -1      1276-9.57698E-01-1.30736E+00 3.85536E-01-9.92584E-01-7.34602E-01-6.08455E-01
 -1      1277-2.39265E+00-1.15757E+00 5.99681E-02-8.86413E-01-7.33087E-01-1.52141E+00
 -1      1278-6.46355E-01-2.06755E-01-4.18239E-01-1.35490E-01-2.91890E-01-5.47300E-01
 -1      1279-2.60488E+00-1.99692E+00-2.41704E-01-4.72101E-01-5.44003E-01-1.25391E+00
 -1      1280-5.80729E+00-8.82627E+00-2.57823E+00-7.95263E-01-1.55921E-01 1.80307E+00
 -1      1281-1.30900E+00-6.65929E-01-1.22240E+00-9.14051E-02-6.22160E-01 2.33742E+00
 -1      1282-4.84512E+00-4.54181E+00-3.99999E-01 1.05083E+00 2.75688E-01 7.12709E-01
 -1      1283-4.79032E+00-4.37667E+00-1.79729E+00-8.98283E-02 6.60056E-01 6.47008E-01
 -1      1284-6.37685E+00-8.52783E+00-3.99673E+00 1.20603E+00-8.01792E-02 1.39620E+00
 -1      1285-8.76495E-01-1.91406E+00-8.41753E-01 1.66938E-01 9.68628E-01 1.67596E+00
 -1      1286-5.71600E+00-5.29906E+00-1.61923E+00-3.23005E-02 5.79336E-01 4.97415E-01
 -1      1287-9.07524E+00-9.68711E+00-3.18275E+00 1.63478E+00 8.01830E-01 1.12641E-01
 -1      1288-5.86055E-01 9.75860E-01 6.59810E-01 1.05116E+00 1.13143E+00 1.08752E+00
 -1      1289-1.66264E+00-1.66288E+00-4.51620E-01-6.34860E-01 6.05049E-01 6.77587E-01
 -1      1290-1.01511E+01-8.48613E+00-3.85531E+00 7.80524E-01 7.35365E-01 9.20201E-01
 -1      1291-1.57511E+00-1.95033E+00 2.59938E-01-4.94483E-03 1.28537E+00 5.14120E-01
 -1      1292-5.09753E-01 2.30372E-02 9.19594E-01-1.32807E-01 2.38700E+00 9.67318E-02
 -1      1293-2.74913E+00-2.04507E+00-1.32202E-01-2.06921E-01 6.84877E-01 5.69166E-01
 -1      1294-8.84885E+00-7.47865E+00-2.85415E+00 1.04459E+00-1.73883E-01 3.65456E-01
 -1      1295-1.70988E+00-2.00125E+00-1.25036E+00-9.04941E-02 2.37996E+00 3.71696E-01
 -1      1296-8.02421E-01-3.81692E-01-3.75948E-01 4.66225E-04 2.27504E+00-8.79212E-02
 -1      1297-3.40277E+00-4.05120E+00-8.16540E-01 1.97644E-01 5.46314E-01-1.39365E-01
 -1      1298-5.76428E+00-4.12558E+00-2.19317E+00-1.78891E-01 1.62778E+00 3.56972E-01
 -1      1299 2.26228E-01-8.09505E-01 1.63904E-01 4.53290E-01 2.15394E+00-1.22678E+00
 -1      1300-4.74579E+00-4.30297E+00-3.10364E+00-1.93897E-01 1.14543E+00-7.47056E-01
 -1      1301-7.35840E+00-7.06850E+00-2.51966E+00-1.46271E+00 7.36834E-02-1.99409E-01
 -1      1302-1.77775E+00-1.77204E+00-1.06443E+00-2.33880E-01 1.47594E+00-1.93216E+00
 -1      1303-8.29017E-01-7.57148E-01-3.17262E-01 5.51458E-01 1.69251E+00-2.07932E+00
 -1      1304-5.62365E+00-6.17214E+00-8.76467E-01-6.71406E-01 5.95239E-01-2.24229E-01
 -1      1305-9.59863E+00-1.12268E+01-4.69473E+00-1.41081E+00 5.79073E-01-2.56830E-01
 -1      1306-2.13085E+00-1.94678E+00-3.53666E-01 1.96303E-01 6.88248E-01-1.66571E+00
 -1      1307 3.64886E-01 5.07934E-01 1.91144E-01-3.02881E-01 7.66674E-02-1.44015E+00
 -1      1308-4.37983E+00-5.01400E+00-2.53337E+00-2.39556E-01 1.01399E+00-6.61655E-01
 -1      1309-6.73275E+00-7.91873E+00-3.69700E+00-7.42631E-01 6.15314E-01-9.14692E-01
 -1      1310-5.26005E-01-3.08857E-02 7.66174E-05 4.07033E-01-3.02316E-01-2.24339E+00
 -1      1311 6.59530E-01 6.82516E-02 1.06403E+00 3.43148E-01-1.34038E-01-2.48024E+00
 -1      1312-3.62525E+00-4.04012E+00-1.58801E-01 8.67408E-02-2.10834E-01-6.45320E-01
 -1      1313-4.91252E+00-7.93796E+00-2.65234E+00 4.14269E-01 1.02086E+00-1.19256E+00
 -1      1314-1.21400E+00-1.64048E+00-5.82230E-01-2.91365E-01-8.38037E-01-1.75648E+00
 -1      1315-3.80979E-01 1.96719E-01 5.05723E-01-2.71903E-01-1.21667E+00-1.84741E+00
 -1      1316-3.56253E+00-3.25114E+00-1.87477E+00-1.88702E-01-6.17134E-01-7.39880E-01
 -1      1317-8.75587E+00-1.03973E+01-3.11652E+00 1.42253E+00-2.94246E-01-7.74812E-01
 -1      1318-1.10034E+00-1.86493E+00-9.77416E-01 7.94632E-02-1.36617E+00-1.08498E+00
 -1      1319-4.65306E+00-4.56928E+00-1.73108E+00 3.32577E-01-9.32488E-01-4.38631E-01
 -1      1320-1.00059E+01-7.67294E+00-2.62893E+00 6.76638E-01-8.97536E-01-2.61744E-01
 -1      1321-2.05989E+00-2.20463E+00-5.80871E-01 4.90865E-02-1.52407E+00-1.09373E+00
 -1      1322-1.87156E-01 7.17004E-01 1.30654E+00-2.34223E-01-2.62797E+00-6.22865E-01
 -1      1323-3.14398E+00-3.04568E+00-1.62226E+00 1.24235E-01-1.21144E+00-3.82556E-01
 -1      1324-9.28205E+00-8.13126E+00-4.20267E+00 1.33498E-01-9.03851E-01-7.81102E-01
 -1      1325 7.20133E-01 1.51573E-02 9.08176E-01 1.60640E-02-2.06442E+00-5.20524E-02
 -1      1326-4.52029E+00-3.77174E+00-2.41652E+00-2.81522E-02-8.03903E-01 4.99159E-01
 -1      1327-1.24239E+01-8.62781E+00-3.78985E+00-1.10024E+00-7.68280E-01 1.19497E+00
 -1      1328-1.20673E+00-1.39211E+00-8.60473E-01 4.19064E-01-1.84810E+00 6.33648E-01
 -1      1329 1.27188E+00-3.18627E-01 7.85747E-01 1.38836E-01-1.59255E+00 1.24630E+00
 -1      1330-3.92161E+00-4.41192E+00-1.51760E+00-3.81703E-02-7.67874E-01 6.60103E-01
 -1      1331-1.57190E+00-5.59956E-01 3.27981E-02 3.00612E-02-9.06192E-01 7.33259E-01
 -1      1332-9.31605E+00-9.41790E+00-2.01536E+00-1.47151E+00-9.75091E-01 1.11764E+00
 -1      1333-7.33745E-01-7.40593E-01-1.19595E+00-4.70257E-01-1.85645E+00 1.05154E+00
 -1      1334-3.39412E+00-4.00754E+00 1.00680E-01-2.73774E-01-7.22838E-01 5.85828E-01
 -1      1335-4.62710E+00-5.42621E+00-1.25833E-01-2.30796E-01-6.71680E-01 1.21779E+00
 -1      1336-7.94716E+00-9.17274E+00-3.97168E+00-7.65874E-01-5.61620E-01 5.78709E-01
 -1      1337 2.09635E+00 2.76817E+00 2.18843E+00-4.95921E-01-5.28351E-01 2.56393E+00
 -1      1338-5.03925E+00-4.37054E+00-2.13473E+00 6.54454E-01-4.29367E-01 1.08503E+00
 -1      1339 6.17308E+00 5.42848E+00 4.04827E+00 1.27025E+00 5.15061E+00 3.43552E+00
 -1      1340 2.04884E+01 1.56776E+01 1.52259E+01-5.17508E-01-1.01003E+00 9.08921E+00
 -1      1341-4.28094E+00-4.06446E+00-4.35216E+00 9.42043E-02-9.65773E-01 5.92290E+00
 -1      1342-2.43939E+01-1.78343E+01-1.77781E+01 6.11152E-01-9.55958E-01 9.70669E+00
 -1      1343-2.56117E+00 2.33242E-01 7.76207E-01 1.46193E-01-6.01913E-01 5.22391E+00
 -1      1344 1.78885E+01 2.33251E+01 1.73509E+01 2.11554E+00-9.30727E+00-2.78866E+00
 -1      1345 4.89274E-01 1.87826E+00 2.39250E+00-1.25094E+00-5.92586E+00-1.02035E+00
 -1      1346-1.02790E+00-4.00917E+00 2.87253E-01 2.03107E-03-5.88685E+00-1.72675E+00
 -1      1347-2.04565E-02-5.40943E-02-1.72911E+00 3.99697E-01 3.57097E+00 2.97876E+00
 -1      1348-2.46127E+01-2.29597E+01-2.00280E+01-3.81225E+00 6.63906E+00 7.30630E+00
 -1      1349-5.99101E+00-7.82149E+00-5.74652E+00-1.61870E+00 5.27069E+00 5.73937E+00
 -1      1350-2.27355E+00-1.06187E+00-4.43677E+00-7.92211E-01 4.34069E+00-2.21299E-01
 -1      1351-2.10919E+01-2.51008E+01-1.94472E+01 2.69495E+00 9.09801E+00-2.33508E+00
 -1      1352-9.28112E+00-1.48232E+01-9.68585E+00 4.24685E-01 7.80415E+00-2.09321E+00
 -1      1353-6.83053E+00-6.64518E+00-5.72340E+00 2.17293E+00 1.77179E+00-4.25575E+00
 -1      1354-2.82452E+01-2.50464E+01-2.24358E+01 3.25951E+00 4.44277E+00-7.30000E+00
 -1      1355-2.22321E+00-5.97223E-01-1.72364E+00-1.01323E+00 2.35973E+00-3.73123E+00
 -1      1356 7.50699E+00 4.28905E+00 2.82132E+00-7.14394E-01 3.92468E+00-5.99502E+00
 -1      1357 3.80026E+00 3.58189E+00 2.96425E+00 6.79607E-01 2.78732E+00 4.72450E+00
 -1      1358-1.76143E+01-1.40459E+01-1.33289E+01-1.81595E+00 4.37577E+00 8.18618E+00
 -1      1359-5.87336E-01-1.35810E+00-9.27837E-01-1.07271E+00 3.12766E+00 5.39213E+00
 -1      1360-9.02934E+00-1.24678E+01-6.74941E+00-2.42660E+00 5.57488E+00 2.79279E+00
 -1      1361 8.50531E+00 9.83245E+00 6.87872E+00 3.02403E+00 7.33401E+00 9.78273E-01
 -1      1362-3.16865E+00-2.32503E+00-4.00782E+00-3.02991E-01 4.66774E+00 1.76063E+00
 -1      1363-2.15436E+01-2.90100E+01-2.12831E+01 2.36149E-01 9.80080E+00 1.45367E+00
 -1      1364-2.31502E+00-4.99470E+00-3.90627E+00 1.28117E+00 6.28840E+00 1.18632E+00
 -1      1365-2.32274E+01-1.68318E+01-1.68649E+01 1.44972E-01 9.68905E-01-9.83815E+00
 -1      1366 2.26391E+00 2.28354E+00 2.39527E+00-1.99364E-01 4.98176E-01-5.65052E+00
 -1      1367 2.35636E+01 1.73489E+01 1.72242E+01-9.45504E-01 9.44879E-01-9.59419E+00
 -1      1368-4.33725E+00-3.29995E+00-3.02382E+00-7.24402E-02 9.20207E-01-6.18824E+00
 -1      1369-2.23873E+01-2.13938E+01-1.84318E+01 3.42766E+00 5.56395E+00-6.77986E+00
 -1      1370 2.04171E+01 1.89984E+01 1.65939E+01-3.00044E+00 5.68312E+00-7.04123E+00
 -1      1371-1.77549E+01-2.16894E+01-1.66060E+01 2.43322E+00 7.31094E+00-3.90792E+00
 -1      1372-2.47021E+00-9.46418E-01-1.45338E+00 1.83015E+00 6.59689E+00-2.91574E-01
 -1      1373 3.32790E+00 2.93640E+00 4.38690E+00 3.62396E-01 4.84964E+00-1.11934E+00
 -1      1374-3.09682E+00-1.87235E+00-1.87795E+00 1.08304E+00 5.42516E+00-4.09684E+00
 -1      1375 1.10664E+01 6.97086E+00 5.43218E+00 1.10049E-02 1.29337E+00 5.26279E+00
 -1      1376-1.12581E+01-6.42796E+00-3.89585E+00 8.42593E-01 1.97697E+00 5.76264E+00
 -1      1377 1.32667E+01 1.83924E+01 1.33285E+01-9.58136E-01-8.76881E+00 1.31308E+00
 -1      1378 3.11352E+00 2.27332E+00 4.40913E+00 3.24301E-02-5.74237E+00 2.75893E-01
 -1      1379-6.09141E+00-8.17721E+00-5.77601E+00 8.33957E-01-7.06092E+00 1.27809E+00
 -1      1380 2.34040E+00 1.10491E+00 2.44291E+00 3.48933E-01-1.54508E+00 6.46490E+00
 -1      1381-1.86383E+01-1.49174E+01-1.41269E+01 1.98712E+00-2.91292E+00 9.60246E+00
 -1      1382-2.92420E+00-1.87389E+00-1.12267E+00 3.74844E-01-1.64884E+00 6.23169E+00
 -1      1383 3.18534E+00 3.47373E+00 5.64409E+00 3.87129E-01-6.02926E+00 1.33865E+00
 -1      1384 1.71395E+01 1.86018E+01 1.50471E+01-2.34890E+00-7.32263E+00 4.19395E+00
 -1      1385-2.06837E+01-2.50352E+01-1.92477E+01 2.89010E+00-7.64052E+00 4.08410E+00
 -1      1386-8.96848E+00-1.28567E+01-9.38957E+00-8.91259E-01-7.79071E+00-7.65739E-01
 -1      1387 1.88082E+01 2.03636E+01 1.64913E+01 2.97688E+00-6.78248E+00-4.66846E+00
 -1      1388 3.01165E+00 2.87570E+00 7.04819E+00-9.50418E-01-3.64175E+00-2.68965E+00
 -1      1389-2.85488E+00-4.52340E+00-3.91365E-01-1.44293E+00-5.06798E+00-3.99028E+00
 -1      1390-7.18439E+00-6.38590E+00-4.73318E+00-1.83334E+00-3.90355E+00-7.05441E+00
 -1      1391-2.13777E+01-1.68541E+01-1.60956E+01-2.26851E+00-3.76850E+00-8.03036E+00
 -1      1392-4.13738E+00-2.68929E+00-5.07136E+00 6.24176E-01-2.27314E+00-4.15645E+00
 -1      1393 4.15236E+00 3.41043E+00 3.71484E+00-4.56440E-01-4.16280E+00-7.70497E+00
 -1      1394-2.47395E+01-1.80123E+01-1.79985E+01-4.01896E-01-9.90062E-01-1.00530E+01
 -1      1395-5.30378E+00-4.28511E+00-4.30840E+00-1.30495E-01-6.20536E-01-6.05260E+00
 -1      1396 2.57805E+01 1.87083E+01 1.87298E+01 1.20234E+00-1.34790E+00-9.64731E+00
 -1      1397-8.41320E+00-1.24718E+01-8.40618E+00 2.61272E+00-5.30940E+00 5.94702E+00
 -1      1398-1.10396E+01-7.69661E+00-9.42828E+00 1.87626E-01-1.71871E+00-5.23365E+00
 -1      1399-6.01972E-01 4.53171E-01-1.04120E+00-1.73020E+00 2.53416E+00-6.93962E+00
 -1      1400-6.65912E+00-6.86998E+00-7.21252E+00-3.97279E-01-3.19592E+00-4.71512E+00
 -1      1401 3.12622E+00 2.99515E+00 1.35186E-03 1.75556E+00 1.45722E+00 6.48774E+00
 -1      1402 5.75853E+00 9.95365E+00 5.28647E+00 1.78791E-01 8.18271E+00 1.94800E+00
 -1      1403 1.84153E+01 1.56392E+01 1.43369E+01-1.98697E+00-4.73667E+00 8.29459E+00
 -1      1404-1.09733E+00-1.14786E+00-1.54148E+00-1.99060E-01-2.97003E+00 4.01973E+00
 -1      1405 7.16451E+00 7.46173E+00 6.91964E+00-9.94582E-01-6.58870E+00 4.42453E+00
 -1      1406 1.68310E+01 1.98479E+01 1.54418E+01 2.71588E+00-7.00159E+00-4.21967E+00
 -1      1407-5.91468E+00-6.12939E+00-7.73693E+00 1.89548E-01 1.71566E+00-5.35626E+00
 -1      1408 3.18428E+00 2.74064E+00 1.54972E+00 1.24907E+00-1.66985E+00-6.22295E+00
 -1      1409-3.55772E+01-3.14004E+01-8.69088E+00-2.00567E+01 3.58034E+00-3.55319E+00
 -1      1410-1.47435E+01-4.40938E+01-4.37054E+00-1.62082E+01-1.42689E+00 2.58667E+00
 -1      1411-5.14269E+01-6.33173E+00-4.89205E+00 1.25141E-01 2.95898E+00-4.23709E-01
 -1      1412-8.34528E+00-1.39749E+01-3.20230E+00 3.33104E-02 4.35941E-01 1.34388E+00
 -1      1413-1.31029E+01-1.56060E+01-5.01577E+00 1.97839E+00 3.27967E-01-9.95505E-02
 -1      1414-4.26733E+01-8.93640E+00-8.76299E-01 1.80413E+01-1.71996E+00 8.44505E-01
 -1      1415-1.80241E+01-1.30937E+01-6.26935E+00-8.30517E-01-4.60555E-01-1.31228E+00
 -1      1416-3.61852E+00-2.70453E+01-8.06771E+00-5.56328E+00 2.42297E-01-2.91326E+00
 -1      1417-2.31063E+00-2.44536E+01-7.02573E+00-5.20788E+00 6.83483E-01-1.66184E+00
 -1      1418-2.74891E+01-2.18538E+01-1.48593E+00 2.05999E+01 1.79808E+00 1.70908E+00
 -1      1419-1.39128E+01-1.34688E+01-4.97444E+00-1.93254E+00 7.27404E-01 6.28748E-01
 -1      1420-3.54201E+01-3.24034E+01-6.03487E+00-2.16154E+01-3.17912E+00 2.22427E+00
 -1      1421-1.43042E+01-2.22779E+01-1.30071E+01-1.25147E+01 1.91449E+00-1.97692E+00
 -1      1422-1.06590E+01-1.74367E+01-8.89811E+00-1.37047E+01 2.22189E+00-1.16802E+00
 -1      1423-2.27096E+01-2.35636E+01-1.18327E+01 4.97065E-01-1.77745E+00 1.95205E-01
 -1      1424-1.62831E+01-1.63595E+01-9.09236E+00 3.97754E-01-1.11908E+00-7.53690E-01
 -1      1425-1.86057E+01-1.66112E+01-5.46534E+00 1.89574E-01-8.52730E-01-1.20652E-01
 -1      1426-2.93031E+01-1.79356E+01-1.50875E+01 1.32188E+01-4.35604E+00-8.00250E-01
 -1      1427-1.82109E+01-6.37132E+00-7.29597E+00 8.67792E+00-4.05055E+00-2.11379E+00
 -1      1428-6.84276E+01-1.42031E+01-1.63332E+01-1.11398E+01 2.25340E+00-5.35029E+00
 -1      1429-5.07372E+01-9.28426E+00-6.74219E+00-8.69353E+00-3.43075E-01-3.94507E+00
 -1      1430-3.12754E+01-3.02488E+01-3.93045E+00 2.19041E+01-3.45417E+00-2.30993E+00
 -1      1431-1.21783E+01-5.29876E+01-6.61631E+00-1.20289E+00-7.23617E-01 6.20199E+00
 -1      1432-2.24444E+01-1.12359E+01-9.81724E+00-1.05525E+01 3.03802E+00-2.23213E+00
 -1      1433-1.90205E+01-7.58401E+00-6.47437E+00-1.15855E+01 2.63490E+00-2.52816E+00
 -1      1434-1.00106E+01-3.89780E+01-1.65842E+00-1.46779E+01 1.14844E+00-1.41372E+00
 -1      1435-2.24179E+01-2.14648E+01-1.21472E+01-2.43095E-01 9.25058E-01 9.00360E-01
 -1      1436-2.65131E+01-2.69591E+01-1.82195E+01-4.87464E-01-5.55199E+00-1.68068E+00
 -1      1437-1.48638E+01-5.61747E+01-7.11311E+00-2.30258E+00 1.15332E-01-5.29674E+00
 -1      1438-1.24903E+01-6.56822E+01-1.38874E+01-1.20634E+01-1.04024E+00 3.31915E+00
 -1      1439-9.45050E+00-4.96850E+01-8.05936E+00-1.17647E+01-2.89026E-01 7.00091E-01
 -1      1440-3.47199E+01-5.81609E+00-1.19412E+01-4.22548E+00 3.83109E+00-2.04921E+00
 -1      1441-2.79168E+01-2.75908E+00-7.56173E+00-3.30408E+00 2.23156E+00-1.48127E-01
 -1      1442-4.67988E+01-2.65933E+01-1.21342E+01 2.65318E+01 4.11558E-01-1.79063E+00
 -1      1443-4.26893E+01-1.86028E+01-4.65400E+00 2.39217E+01 1.46780E+00 6.79688E-01
 -1      1444-4.57651E+01-8.39424E+00-2.56120E+00-2.85096E-01-3.84346E+00-5.63297E-03
 -1      1445-1.41393E+01-1.33236E+01-4.15385E+00-1.37671E+00 1.13979E-01 7.44649E-02
 -1      1446-1.25151E+01-1.86869E+01 1.36674E+00-9.60020E+00-3.51832E-01 7.45186E+00
 -1      1447-1.30086E+01-1.41602E+01-4.49309E+00 1.67912E+00 1.45870E+00-1.48769E-01
 -1      1448-1.41354E+01-1.62970E+01-6.03382E+00-7.36195E-02 3.73631E-01-1.17282E+00
 -1      1449-1.44530E+01-2.78263E+01-1.29813E+01 1.44176E+01 6.43646E-01-3.61874E+00
 -1      1450-1.13002E+01-2.02089E+01-8.51604E+00 1.16716E+01 5.68401E-01-2.84381E+00
 -1      1451-1.59725E+01-4.64287E+01-4.38458E+00 1.52406E+01-7.68963E-01 5.12981E+00
 -1      1452-1.71246E+01-1.75319E+01-8.38307E+00 2.73088E-01 8.78853E-01 1.58561E+00
 -1      1453-4.80770E+01-1.66374E+01-5.86338E+00-1.68723E+01 4.68845E+00-4.36503E+00
 -1      1454-1.46687E+01-2.78175E+01-1.22453E+01 1.38016E+01 7.06534E-01 2.21154E+00
 -1      1455-1.07856E+01-2.27072E+01-8.88885E+00 1.11601E+01 4.65645E-01 1.43970E+00
 -1      1456-1.92214E+01-2.30076E+01-9.69413E+00 3.50257E-01 1.77337E+00 1.25227E+00
 -1      1457-2.26274E+01-4.33115E+01-1.33135E+01-2.16711E+01-1.77322E+00 1.63339E+00
 -1      1458-1.30841E+01-3.65828E+01-5.63712E+00-1.95075E+01-1.71747E+00 1.36663E+00
 -1      1459-1.28390E+01-1.62721E+01-6.80372E+00-1.51260E+00-4.81111E-01 3.25134E-01
 -1      1460-1.50350E+01-3.96875E+01-4.16859E+00 1.40456E+01-5.59604E-01-1.44290E+00
 -1      1461-1.64475E+01-9.66346E+00 1.92605E+00-7.18012E+00-3.61708E-01 4.53218E+00
 -1      1462-6.34089E+01-7.97934E+00-1.34026E+01 9.61665E+00 2.62346E+00 1.36485E+00
 -1      1463-6.19348E+01-5.10933E+00-1.00540E+01 8.66339E+00 2.61333E+00 6.50490E-01
 -1      1464-1.21804E+01-6.51857E+01-1.09332E+01 1.01799E+01-2.30855E+00 1.30369E+00
 -1      1465-8.67713E+00-5.22375E+01-4.39424E+00 7.14930E+00-1.76214E+00-5.56533E-01
 -1      1466-3.18951E+01-6.65826E+00-1.65308E+01 4.71157E+00 2.84408E+00 2.02572E+00
 -1      1467-2.88683E+01-1.16870E+00-1.35151E+01 3.05809E+00 2.68698E+00 4.82994E-02
 -1      1468-1.92937E+00-2.37153E+01 9.49496E-01-4.56052E+00 2.66874E+00 5.48991E+00
 -1      1469-4.68871E+01-3.11488E+01-1.40961E+01-2.75392E+01 5.69583E-02-3.43426E+00
 -1      1470-3.84956E+01-1.92264E+01-6.12661E+00-2.11738E+01 1.09255E+00-1.75959E+00
 -1      1471-3.08369E+01-1.46410E+01-1.40743E+01 1.52443E+01 1.73818E+00 3.09355E+00
 -1      1472-2.47548E+01-1.00603E+01-1.04495E+01 1.11675E+01 6.03707E-01 2.63879E+00
 -1      1473-8.70442E+00 3.86314E+00 4.91711E+00 1.92552E+00 5.73736E+00-3.32706E+00
 -1      1474-4.77762E+01-2.29342E+01-1.24167E+01-2.15782E+01 1.09358E+00 1.17973E+00
 -1      1475-3.63470E+01-1.38891E+01-2.56266E+00-1.70591E+01 2.07621E+00 1.43162E+00
 -1      1476-7.18435E+00-3.62401E+01-1.30732E+01 6.98383E+00 8.19012E-01-2.21270E+00
 -1      1477-4.57564E+00-2.88990E+01-8.22400E+00 5.82285E+00 8.62494E-01-1.64260E+00
 -1      1478-1.31231E+01-9.91734E+00 1.31768E+00-8.78752E+00 3.90968E+00-4.76415E-01
 -1      1479-2.86492E+01-4.99614E+01-1.63118E+01 2.57284E+01 3.56548E+00-4.96970E+00
 -1      1480-1.92663E+01-3.47511E+01-5.66704E+00 2.02703E+01 3.21549E+00-3.57724E+00
 -1      1481-2.01511E+01-2.58332E+01 3.93428E-01 1.87214E+01 2.28189E+00 3.24964E+00
 -1      1482-3.26595E+01-4.19652E+01-1.39401E+01 2.59145E+01 1.65718E+00 4.21190E+00
 -1      1483-5.79094E+01-6.35682E+00-1.65847E+01 8.19993E+00 1.59163E+00 9.23404E-01
 -1      1484-6.05507E+01-4.93007E+00-1.56692E+01 9.06549E+00 9.75503E-01 7.69078E-01
 -1      1485-5.22605E+01-2.90169E+01-2.10541E+01-2.35079E+01-1.58799E+00 2.53142E-01
 -1      1486-3.62195E+01-1.87318E+01-7.29845E+00-1.76620E+01-4.33781E-01-2.83940E-01
 -1      1487-2.01665E+01-3.92448E+01-1.29923E+01-2.07906E+01-5.40058E-01 1.77248E+00
 -1      1488-1.53424E+01-3.59831E+01-8.78399E+00-1.79108E+01 5.95762E-02 1.29116E+00
 -1      1489-1.17915E+01-4.02666E+01-1.52689E+01 8.25134E+00-9.94525E-01-6.93459E-01
 -1      1490-3.00438E+00-3.46211E+01-7.82827E+00 5.84354E+00 3.38729E-01-8.37043E-01
 -1      1491-3.20606E+01-4.81591E+01-1.93687E+01 2.29288E+01-2.21377E+00-1.68409E-01
 -1      1492-2.66524E+01-3.01633E+01-8.72745E+00 1.96535E+01-2.23644E+00-2.16597E-01
 -1      1493-1.05439E+01-1.96469E+01-6.89573E+00-1.04907E+01 4.36046E-01 3.13747E+00
 -1      1494-1.59658E+01-2.72207E+01-1.28928E+01-1.54015E+01 6.38808E-01 3.69978E+00
 -1      1495-4.10886E+01-1.82084E+01-6.43664E+00 2.06774E+01 2.28604E+00-1.45950E+00
 -1      1496-4.71089E+01-2.37918E+01-1.26340E+01 2.22122E+01 2.65239E+00-3.07008E-01
 -1      1497-1.16257E+01-6.23490E+01-1.22321E+01-1.19358E+01-1.84524E-01-5.73696E+00
 -1      1498-8.96794E+00-5.06912E+01-7.12809E+00-1.12268E+01-9.65637E-01-3.84726E+00
 -1      1499-5.13550E+01-1.78401E+01-9.98521E+00 1.60278E+01 6.33943E+00 2.74754E+00
 -1      1500-7.34332E+01-1.58017E+01-1.84075E+01-1.30085E+01-2.05544E+00 3.76812E+00
 -1      1501-5.90271E+01-9.59010E+00-9.16862E+00-8.70105E+00-1.35488E+00 2.80679E+00
 -1      1502-3.45109E+01-2.00398E+01-1.59050E+01 1.58374E+01-1.16261E+00-1.84122E+00
 -1      1503-2.09714E+01-1.31579E+01-6.92586E+00 1.19999E+01-1.65763E+00-7.22445E-01
 -1      1504-5.25482E+01-9.33558E+00-1.01330E+01 9.17232E+00-6.13885E-01-2.13523E+00
 -1      1505-4.99480E+01-4.64379E+00-7.05349E+00 1.01962E+01 1.30223E+00-2.75827E+00
 -1      1506-1.70033E+01-3.46286E+01-1.41289E+01 1.74781E+01 3.94206E+00 2.86892E+00
 -1      1507-1.01631E+01-3.28691E+01-9.56823E+00 1.67830E+01 1.42611E+00 4.33190E+00
 -1      1508-1.97974E+01-2.07690E+01-1.04893E+01-5.12800E-01 3.80415E+00-3.26689E+00
 -1      1509-1.51814E+01-6.79762E+00-6.21166E+00 6.28661E+00-3.02808E+00-2.44667E+00
 -1      1510-1.93429E+01-1.38680E+01-1.38429E+01 4.25300E+00-6.07797E+00-3.69863E+00
 -1      1511-1.78289E+01-2.04450E+01-1.04589E+01-5.36680E-01 2.31125E+00-2.25134E+00
 -1      1512-2.59074E+01-1.43998E+01-1.53860E+01-1.27083E+01-1.54931E+00 3.32459E+00
 -1      1513-2.04368E+01-9.42822E+00-1.05780E+01-1.14453E+01-1.07367E+00 2.59186E+00
 -1      1514-1.77476E+01-3.15303E+01 1.05252E+00-1.72097E+01 3.52144E+00 1.12494E+00
 -1      1515-3.36003E+01-5.44918E+01-1.70694E+01-2.42621E+01 4.94864E+00-1.45388E+00
 -1      1516-3.18477E+01-3.53247E+00-1.03814E+01 6.50663E+00-8.30916E-01-9.09003E-01
 -1      1517-3.03096E+01-5.16761E+00-1.02105E+01 6.17913E+00-9.93539E-01-1.16529E+00
 -1      1518-2.16183E+00-2.10317E+01-6.95243E+00-4.56042E+00 8.90530E-02 1.26680E+00
 -1      1519-8.98672E+00-2.89654E+01-1.29210E+01-5.71160E+00-1.59879E-01 1.92112E+00
 -1      1520-1.77170E+01-1.99657E+01-9.66409E+00 1.28521E-01-3.37229E+00 8.96149E-01
 -1      1521-3.49281E+01-2.34441E+01-1.85378E+01-1.65592E+01-2.40903E+00 1.15149E+00
 -1      1522-2.43945E+01-1.25566E+01-9.76846E+00-1.20620E+01-1.63923E+00 1.72413E+00
 -1      1523-2.25194E+01-2.26682E+01-1.19822E+01 2.05195E-01 3.09535E+00 3.80318E+00
 -1      1524-1.55123E+01-3.02000E+01-1.58802E+01 1.51317E+01 8.89730E-01-2.94915E+00
 -1      1525-1.37803E+01-2.36938E+01-1.24249E+01 1.51506E+01 4.23334E-01-1.79183E+00
 -1      1526-2.64871E+01-1.46480E+01-9.64963E+00 1.35307E+01 6.16338E-01 3.66888E+00
 -1      1527-2.10929E+01-1.00562E+01-3.49401E+00 9.98467E+00 1.99922E-01 2.37297E+00
 -1      1528-3.44099E+01-2.20980E+01-1.75856E+01-1.51976E+01 5.93416E-01-1.44130E+00
 -1      1529-2.12040E+01-1.13871E+01-7.54152E+00-1.16685E+01 1.20514E+00-1.83273E+00
 -1      1530-1.80277E+01-2.21401E+01-1.12662E+01-1.38333E+00-1.38187E+00 2.58142E+00
 -1      1531-4.41757E+01-1.15192E+01-3.79487E+00-1.91183E+01-2.45505E+00 2.28270E+00
 -1      1532-9.59247E+00-1.68630E+01-6.10647E+00 8.30459E+00-1.30764E+00-2.37805E+00
 -1      1533-5.85551E+00-1.76101E+01-7.83753E+00 9.04152E+00-1.99157E-01-3.38715E+00
 -1      1534-4.67708E+01-2.50893E+01-6.67042E+00-2.67724E+01-2.59283E+00 9.52710E-01
 -1      1535-4.00722E+01-2.06238E+01 2.54726E-01-2.42206E+01-1.23403E+00-7.07636E-01
 -1      1536-2.16875E+01-1.89400E+01-1.08019E+01-1.65451E+00 2.03522E+00-1.57699E+00
 -1      1537-4.61347E+01-2.53636E+01-2.07767E+01-1.90483E+01-9.58273E-01 2.07391E+00
 -1      1538-2.85867E+01-1.35000E+01-9.29116E+00-1.29760E+01-2.22465E+00 2.92587E-01
 -1      1539-3.12164E+01-1.87870E+01-7.78629E+00 1.84158E+01-1.83073E+00-1.50281E+00
 -1      1540-4.24297E+01-2.72695E+01-1.68038E+01 2.21871E+01-1.93616E+00-1.65987E+00
 -1      1541-5.73021E+01-1.17416E+01-1.80062E+01-7.06310E+00 7.68198E-01-2.55275E+00
 -1      1542-4.00865E+01-5.97250E+00-5.40379E+00-5.31090E+00 1.47889E+00-2.59636E+00
 -1      1543-2.12899E+01-2.20314E+01-1.03640E+01 7.58314E-01 3.23296E+00-8.78705E-01
 -1      1544-1.16855E+01-2.72254E+01-1.50492E+01-4.92836E+00-2.13595E-01 3.46311E+00
 -1      1545-1.12515E+00-1.92046E+01-9.45856E+00-2.76680E+00-1.96950E-01 7.89160E-01
 -1      1546-1.91808E+01-2.75756E+00 1.75061E-01-3.11258E+00 2.83650E+00-4.15210E+00
 -1      1547-2.11046E+01-3.21131E+01-9.92722E+00-1.72935E+01 2.40620E+00-1.32760E+00
 -1      1548-1.60457E+01-2.60167E+01-5.56902E+00-1.47798E+01 1.99528E+00-4.34054E-01
 -1      1549-8.54708E+00-2.11488E+01-9.72215E+00-2.73276E+00 5.64045E-01-3.14932E+00
 -1      1550-1.40856E+00-1.97011E+01-9.48120E+00-3.29345E+00 4.42827E-01-3.00284E+00
 -1      1551-4.77367E+01-2.55502E+01-2.04212E+01-2.36054E+01-3.90877E+00 9.28222E-01
 -1      1552-3.64313E+01-1.90846E+01-1.16750E+01-1.79991E+01-3.00580E+00 3.89508E-01
 -1      1553-5.20092E+01-1.20741E+01-7.78938E+00 9.78274E+00-3.60165E+00-1.33898E+00
 -1      1554-5.14558E+01-7.92342E+00-4.39992E+00 1.24182E+01-1.29482E+00-2.59507E+00
 -1      1555-3.85610E+01-2.20722E+01-1.55407E+01-2.01446E+01 2.70960E+00 7.88764E-01
 -1      1556-3.09533E+01-1.42419E+01-7.95318E+00-1.82607E+01 1.14390E+00-2.01587E+00
 -1      1557-3.43602E+01-6.37270E+00-1.03397E+01-7.67464E+00-1.65941E+00 8.91331E-01
 -1      1558-2.96278E+01-5.36258E+00-7.73834E+00-6.18542E+00-3.59425E-01 9.98271E-01
 -1      1559-6.27551E+01-1.43411E+01-1.95580E+01-7.99479E+00-4.55964E+00-5.67100E-01
 -1      1560-4.23345E+01-8.64348E+00-8.79252E+00-6.48893E+00-3.40745E+00-8.93231E-01
 -1      1561-4.84934E+00-1.17858E+01 5.94905E-01 8.71015E+00 5.82075E+00 5.44261E-01
 -1      1562-6.74826E+01-1.22788E+01-1.22914E+01-1.04661E+01-3.04428E+00-2.85602E-01
 -1      1563-5.49009E+01-7.91130E+00-2.88949E+00-8.74901E+00 7.85623E-01-1.26585E+00
 -1      1564-3.95382E+00-2.99140E+01-7.27431E+00 6.25617E+00 6.96757E-01 1.57832E+00
 -1      1565-2.57119E+00-2.49713E+01-5.45810E+00 4.98590E+00 2.58788E-01 5.13497E-02
 -1      1566-6.68166E+01-1.39346E+01-1.12153E+01-1.71516E+01-7.52615E+00 6.60813E+00
 -1      1567-1.52802E+01-5.41242E+01-6.98220E+00-2.59694E+01 1.73690E+00-6.69221E+00
 -1      1568-1.50393E+01-2.06849E+01-8.31243E+00 1.84124E+00-1.23077E+00-6.72480E-01
 -1      1569-2.07944E+01-1.68516E+01-1.27061E+01 8.19351E-01-1.43018E+00-2.53970E+00
 -1      1570-4.90695E+01-1.36762E+01-6.47607E+00 4.25848E+00-7.64447E-01 1.09974E+00
 -1      1571-6.36609E+01-1.57836E+01-4.59166E+00 1.64483E+01-5.03965E+00 4.80711E-01
 -1      1572-2.04677E+01 1.07471E+00 1.34433E+00 2.23918E+00-5.38684E+00 3.94727E+00
 -1      1573-3.71908E+01-6.49631E+00-1.31293E+01-7.64045E+00-1.15724E+00 3.09288E-01
 -1      1574-3.52508E+01-5.09818E+00-1.05025E+01-7.97196E+00-1.25054E+00 7.13628E-01
 -1      1575-6.20597E+01-3.77871E+01-8.29577E+00-2.84817E+01-5.89222E+00 8.68743E-01
 -1      1576-2.12794E+01-6.44854E+00-6.27022E+00-3.15834E+00 2.70690E+00-1.91628E+00
 -1      1577-2.57522E+01-9.28713E+00-1.07455E+01-2.68675E+00 5.52116E+00-1.52394E+00
 -1      1578-1.50750E+01-7.08382E+01-1.03079E+01-1.32488E+01-1.16351E+00 1.89276E+00
 -1      1579-1.07976E+01-6.24663E+01-2.17029E+00-1.06604E+01-9.44817E-01 2.78145E-01
 -1      1580-2.12243E+01-2.08464E+01-9.28533E+00-3.46378E-01 2.69549E+00-1.14724E+00
 -1      1581-3.76845E+01-5.09380E+00-9.77206E+00 7.90794E+00-1.80358E+00 6.03715E-01
 -1      1582-3.99111E+01-3.80452E+00-9.81968E+00 8.65159E+00-7.02240E-01 1.40242E+00
 -1      1583-1.40303E+01-4.51321E+01-1.68490E+01 8.94222E+00-2.73236E+00 8.24785E-02
 -1      1584-6.90039E+00-3.65982E+01-1.04281E+01 7.21960E+00-1.39200E+00 4.40304E-01
 -1      1585-7.86985E+01-7.29758E+00-9.71544E+00-7.73169E+00-8.50456E+00-2.62563E+00
 -1      1586-1.38009E+01-3.50116E+00 4.57202E-01-6.54356E+00-5.97086E+00-1.00127E+00
 -1      1587-6.88293E+01-5.99711E+00-7.25194E+00-6.23853E+00-1.66798E+00-6.19024E+00
 -1      1588-5.36118E+01-1.21448E+01-1.40314E+01 9.17079E+00-1.69186E+00-1.85537E+00
 -1      1589-4.83151E+01-2.11622E+00-4.62304E+00 8.63458E+00-2.19954E+00-8.89518E-01
 -1      1590-2.09157E+01-1.18068E+01-6.40637E+00 1.19618E+01-1.65374E+00 2.58941E+00
 -1      1591-3.21512E+01-1.89061E+01-1.52654E+01 1.70489E+01-1.11118E+00 4.43492E+00
 -1      1592-1.39070E+01-5.38380E+01-1.80542E+01 1.14131E+01 2.50831E+00 1.67591E+00
 -1      1593-8.43550E+00-3.98224E+01-6.44331E+00 9.66772E+00 2.73200E+00 2.75779E+00
 -1      1594-3.83860E+00-2.15725E+01-7.75257E+00 3.69213E+00-4.91988E-01-1.52943E+00
 -1      1595-2.67636E+00-2.40995E+01-1.08936E+01 4.30251E+00 8.34412E-01-2.36250E+00
 -1      1596-4.48204E+01-2.14826E+01-2.79311E+00 2.47172E+01-2.45570E-01 1.97620E+00
 -1      1597-4.12822E+01-1.91560E+01 1.58813E+00 2.25799E+01-8.30591E-01 2.25805E-01
 -1      1598-1.06146E+01-6.39193E+01-8.60800E+00 1.49811E+01 3.20434E+00 1.28746E+00
 -1      1599-6.74034E+00-5.51252E+01-1.03501E+00 1.57513E+01 1.37952E+00-1.68380E+00
 -1      1600-1.79500E+01-1.72165E+01-7.89313E+00 1.98033E+00-3.59369E+00 1.24180E+00
 -1      1601-2.83566E+01-5.11027E+01-6.67256E+00 2.90891E+01-7.63832E-01 4.26377E-01
 -1      1602-2.22329E+01-4.05953E+01 1.19420E+00 2.56597E+01-9.76569E-01 1.04815E+00
 -1      1603-1.90470E+01-1.22681E+01-9.25084E+00-9.11489E+00-1.34010E+00 2.15863E+00
 -1      1604-2.31750E+01-1.65412E+01-1.47474E+01-8.17681E+00-3.96779E+00 3.72348E+00
 -1      1605-6.16584E+00-6.76796E+01-8.17644E+00 3.66155E+00-6.63705E-01 8.96826E+00
 -1      1606-2.72387E+01-6.37104E+01-7.52277E+00 3.20491E+01-2.97592E+00-7.55924E+00
 -1      1607-2.12010E+01-2.05119E+01-1.36299E+01-9.17642E-02-6.69961E+00-2.22474E+00
 -1      1608-1.43635E+01-6.37197E+01-1.76771E+00-1.67798E+01-3.74930E+00 5.85959E+00
 -1      1609-8.69772E+00-5.82839E+01-2.17177E+00 1.92892E+01 2.09390E+00 1.87447E+00
 -1      1610-3.78069E+01-7.25475E+00-1.31437E+01-7.12783E+00-4.15233E-01 9.57672E-01
 -1      1611-3.65570E+01-6.49606E+00-1.10171E+01-7.42469E+00-2.16512E-01 1.01441E+00
 -1      1612-5.17987E+01-2.58436E+01-9.87542E+00 2.78689E+01-1.17304E+00-1.05181E+00
 -1      1613-5.19988E+01-2.25442E+01-7.13261E+00 2.71062E+01 1.36988E+00 5.65877E-01
 -1      1614-2.62505E+01-7.76596E+00-9.53295E+00-3.60927E+00-3.04699E+00 1.35088E+00
 -1      1615-2.29485E+01-8.11184E+00-1.00094E+01-3.48871E+00-5.27060E+00 1.44167E+00
 -1      1616-1.14812E+01-1.99462E+01-9.65572E+00 1.14306E+01 2.23037E+00 5.21321E+00
 -1      1617-9.68755E+00-1.63750E+01-8.28150E+00 9.97879E+00 2.05144E+00 4.18345E+00
 -1      1618-1.92797E+01-1.82650E+01-8.49767E+00 1.99475E+00 1.40020E+00 1.63801E+00
 -1      1619-4.77539E+01-3.63036E+01-8.76127E+00-2.66296E+01 3.84353E-02-5.08123E+00
 -1      1620-3.23910E+01-2.16155E+01 6.75592E+00-2.22276E+01-1.83054E+00-1.09174E+00
 -1      1621-4.06128E+01-2.02085E+01-1.17201E+01 1.95256E+01 3.73288E-01 1.69366E-01
 -1      1622-3.24121E+01-1.30676E+01-4.96137E+00 1.53620E+01-1.76189E+00-4.53997E-01
 -1      1623-3.78293E+01-7.60108E+00-1.43568E+01 6.32995E+00 1.36849E+00 6.91128E-01
 -1      1624-3.47523E+01-3.43142E+00-9.80685E+00 3.66253E+00 1.07285E+00-1.32934E-01
 -1      1625-7.12137E+00-5.12251E+01-9.27819E+00 1.03344E+01 6.32688E-01-2.33869E+00
 -1      1626-6.15643E+00-4.68568E+01-4.73443E+00 7.60453E+00 3.62702E+00-1.94421E+00
 -1      1627-2.09028E+01-6.41136E+00-8.77216E+00 4.64708E+00-2.11666E+00-8.04682E-01
 -1      1628-2.08073E+01-2.84263E+00-1.01339E+01 5.82863E+00-1.47519E+00-1.34831E+00
 -1      1629-3.55819E+01-2.26235E+01-2.33375E+00-2.16497E+01-3.97520E-01-3.78623E+00
 -1      1630-5.69694E+01-4.92758E+00-1.45067E+01 9.34852E+00 1.32528E+00 7.78013E-01
 -1      1631-6.50870E+01-8.92648E+00-1.85339E+01 1.05198E+01 6.96195E-01 2.68031E-01
 -1      1632-9.01507E+00-1.55349E+01-8.08840E+00-9.31241E+00 4.61492E-01-3.46501E+00
 -1      1633-1.07183E+01-1.39797E+01-1.13935E+01-1.26677E+01 5.58860E-01-1.59566E+00
 -1      1634-2.06146E+01-1.77846E+01-8.95418E+00 1.55477E+00 2.71667E+00 1.89385E-01
 -1      1635-2.91446E+01-4.56245E+01-1.73319E+01 2.35813E+01 9.78521E-01-1.45904E+00
 -1      1636-2.24731E+01-2.98181E+01-7.11201E+00 1.80550E+01 1.44447E+00-1.76855E+00
 -1      1637-9.61916E+00-3.83964E+01-4.35603E+00 4.37675E+00-2.91438E+00-3.23354E+00
 -1      1638-7.95344E+00-4.72470E+01-8.21711E+00 9.82659E+00 2.34262E-01-2.20602E+00
 -1      1639-7.23969E+00-3.56627E+01-4.02021E+00 8.37953E+00 2.75849E-01 5.32095E-01
 -1      1640-1.91571E+01-2.85834E+01-1.29040E+01 1.37884E+01 2.05657E+00 7.62635E-01
 -1      1641-1.03744E+01-2.41870E+01-6.98095E+00 1.42728E+01 2.43265E+00 7.10104E-01
 -1      1642-2.33664E+01-2.47567E+01-1.36037E+01 9.06589E-02 2.79723E+00 3.42817E+00
 -1      1643-6.07640E+01-1.43322E+01-2.05324E+01-9.18670E+00 1.49792E+00-9.56246E-01
 -1      1644-4.48224E+01-1.01931E+01-1.26703E+01-6.16579E+00-2.80685E-01-3.76296E-01
 -1      1645-2.30506E+01-4.26746E-02 9.84365E-01 5.58956E+00-3.93189E+00-4.83253E+00
 -1      1646-4.14948E+01-1.04284E+01-1.72499E+01-5.21538E+00 6.31691E-01 4.39194E-01
 -1      1647-3.15673E+01-4.79730E+00-9.68060E+00-4.49096E+00 4.37898E-01 2.48226E-01
 -1      1648-6.26178E+01-1.08790E+01-7.37034E+00-1.49171E+01-1.32871E-01 5.14350E+00
 -1      1649-6.20908E+00-7.22498E+00 3.27998E+00 4.86245E+00 6.73706E-01-1.92048E+00
 -1      1650-2.09106E+01-1.68133E+01-8.22037E+00 4.31483E-01-1.80045E+00 1.39835E+00
 -1      1651-2.29210E+01-2.26679E+01-1.06245E+01-1.00293E+00-5.67054E+00-1.03399E+00
 -1      1652-2.71243E+01-4.34400E+01-7.41522E+00 2.64488E+01 1.06156E+00 5.11653E-01
 -1      1653-1.94942E+01-3.00636E+01 1.46686E+00 2.11570E+01-8.31591E-01-3.00883E+00
 -1      1654-2.21444E+01-2.23989E+00-4.48034E-01-6.05216E-01-2.34494E+00 3.04206E+00
 -1      1655-2.02101E+01-1.29722E+01-9.68034E+00 6.73276E+00 1.44380E+00 2.54607E+00
 -1      1656-1.83705E+01-1.02204E+01-9.70480E+00 7.75668E+00 2.43237E+00 4.13745E+00
 -1      1657-4.88313E+00-1.74523E+01 2.60093E+00 8.02205E+00-3.55615E+00-2.61133E+00
 -1      1658-1.40062E+01-1.51083E+01-7.68266E+00 4.05747E+00-1.33984E+00-3.15380E+00
 -1      1659-6.92036E+00-1.40996E+01-7.55767E+00 7.94399E+00-1.05120E+00-2.62826E+00
 -1      1660-2.32981E+01-2.08374E+01-1.43021E+01 2.21768E+00-1.41912E+00-3.58213E+00
 -1      1661-5.08824E+01-1.29024E+01-6.16150E-01 2.60153E+01-1.42942E+00 1.05732E+00
 -1      1662-1.74182E+01-3.12812E+01-1.44128E+01 1.58044E+01 2.23295E+00-2.65519E+00
 -1      1663-1.18366E+01-2.19595E+01-8.08966E+00 1.32888E+01 1.42855E+00-8.67787E-01
 -1      1664-5.76795E+01-2.89990E+01-2.71975E+00-2.68431E+01 5.21066E+00-6.72017E-01
 -1      1665-2.29329E+01-1.95314E+01-1.31909E+01-1.09510E+00 2.75380E+00-2.23432E+00
 -1      1666 1.80628E+00-2.25911E+01-4.59288E-01 1.03308E+00-3.20341E+00 5.59136E+00
 -1      1667-2.19932E+01-5.54989E+01-8.06004E+00 2.81353E+01 5.01080E-01 9.86468E+00
 -1      1668-2.07021E+01-1.81146E+01-9.80957E+00 4.72757E-01-6.35000E+00-2.06486E+00
 -1      1669-6.49388E+01-9.24368E+00-9.87469E+00 1.19855E+01 1.61800E+00-1.35723E-02
 -1      1670-6.14403E+01-5.86820E+00-4.26314E+00 9.54402E+00 9.25933E-01 1.02720E+00
 -1      1671-6.55924E+01-1.21701E+01-4.83982E+00 1.47587E+01 3.94709E+00 4.43075E+00
 -1      1672-3.56377E+01-2.24041E+01-1.69633E+01 1.90798E+01-6.88862E-01-1.36672E+00
 -1      1673-3.04704E+01-1.84969E+01-1.02791E+01 1.79156E+01-6.02705E-01 7.00074E-01
 -1      1674-1.93274E+01-7.79105E+01-9.16670E+00-1.15425E+01 2.63558E-01 7.75933E+00
 -1      1675-2.20636E+01-2.04057E+01-9.69301E+00-1.99250E+00 4.30726E+00 2.50470E-01
 -1      1676-6.46201E+00-1.04558E+01-4.54060E+00-6.29559E-01-9.90277E-01 2.09951E-01
 -1      1677-5.22143E+00-7.47067E+00-3.47241E+00-1.09739E+00 6.10852E-01 9.00131E-01
 -1      1678-2.65128E+01-8.27615E+00-1.10021E+01 3.56180E+00 1.61419E+00-1.47391E-01
 -1      1679-3.21667E+01-1.41685E+01-1.58400E+01 2.55555E+00 4.56506E+00 1.08521E-01
 -1      1680-3.05117E+01-2.49767E+01-1.92314E+01-5.27066E-02-5.53198E+00 3.13513E+00
 -1      1681-6.56363E+01-1.08099E+01-8.75760E+00-1.89694E+01 6.97521E+00-4.08182E+00
 -1      1682-2.00003E+01-3.49058E+01-1.37794E+01-1.86369E+01 1.22834E+00-2.46840E+00
 -1      1683-1.37520E+01-2.67198E+01-7.45593E+00-1.68022E+01 3.15217E+00-3.88895E+00
 -1      1684-5.77986E+00-5.87986E+00 3.57094E+00 3.16719E+00 8.81348E-01 3.07975E+00
 -1      1685-3.28737E+01-5.24747E+01-2.03299E+01 2.67730E+01-4.29788E+00-1.79306E+00
 -1      1686-2.22970E+01-3.48579E+01-7.53779E+00 2.01635E+01-2.91813E+00-7.26068E-01
 -1      1687-3.46839E+01-7.15380E+00-1.34759E+01 7.17426E+00 2.46118E+00 8.10224E-01
 -1      1688-3.45612E+01-5.66159E+00-1.32562E+01 4.55953E+00 2.73684E+00 8.14220E-01
 -1      1689-2.10372E+01-2.10812E+01-1.07183E+01-2.93234E-01-6.79312E-01-3.36195E+00
 -1      1690-3.13757E+01-3.86867E+01-4.65260E+00 3.03070E+01 6.56244E+00 3.81162E+00
 -1      1691-6.90464E+01-5.39239E-01-7.52068E+00 5.46439E+00 5.90795E-01-4.42382E+00
 -1      1692-5.29985E+00-4.03404E+01-1.16154E+01 7.50457E+00 3.45978E+00 8.52245E-01
 -1      1693-7.98422E+00-4.07045E+01-1.21736E+01 7.26024E+00 4.50609E+00-5.75331E-02
 -1      1694-1.64369E+01-2.43708E+01-1.34108E+01 1.40937E+00-2.41463E-01-1.94167E+00
 -1      1695-4.99214E+01-1.59726E+01-2.23610E+00-2.33680E+01-2.60458E+00-6.55852E-01
 -1      1696-1.64359E+01-2.00458E+01-9.15928E+00 1.24347E+00 4.85575E-01-2.74596E-02
 -1      1697-1.66254E+01-2.32034E+01-9.27458E+00-6.95419E-01 2.67801E+00 2.57564E+00
 -1      1698-2.27997E+01-7.53127E-01-3.26148E-01-4.25368E+00 5.32052E+00 2.53654E+00
 -1      1699-5.06277E+01-1.98265E+01-7.11280E+00 2.09334E+01 8.90218E+00 8.49741E-01
 -1      1700-3.21920E+01-2.12273E+01-1.71866E+00 2.86155E+01-3.49174E-01 1.24075E+00
 -1      1701-9.56691E+00-5.66585E+01-9.44024E+00 9.91031E+00-2.59351E+00-2.51216E+00
 -1      1702-5.69715E+00-4.95058E+01-2.69939E+00 6.56440E+00-1.12184E+00-6.82656E-01
 -1      1703-1.36598E+01-1.77713E+01-9.18643E+00-1.48146E+00-8.18080E-01 2.24811E+00
 -1      1704-4.93952E+01-3.42893E+01-2.11494E+01-2.68123E+01 1.68360E+00-3.87260E+00
 -1      1705-3.11161E+01-1.90071E+01-6.33173E+00-1.98806E+01 2.36431E+00-5.14865E+00
 -1      1706-7.41928E+00-2.57048E+01-1.08372E+01 3.26741E+00 1.29649E+00 4.02257E+00
 -1      1707 6.29804E-01-2.31932E+01-8.39926E+00 1.84074E+00 3.58571E-01 2.79805E+00
 -1      1708-2.02960E+01-2.12813E+01-1.06007E+01 1.17380E+00 7.64596E-01 4.59282E+00
 -1      1709-2.40644E+00-2.35330E+01 4.02312E+00 6.40458E+00-1.10871E+00-3.05583E+00
 -1      1710-3.13997E+01-4.04393E+01-5.04619E+00 2.90052E+01-2.81455E+00-4.36341E-01
 -1      1711-4.42746E+01-3.13101E+01-4.39162E+00 3.09347E+01-2.60878E+00-5.78007E+00
 -1      1712-1.96083E+01-1.94396E+01-1.14166E+01-3.98898E-01-2.63766E+00 1.68695E+00
 -1      1713-5.37789E+01-6.51384E+00-1.48227E+01 1.06821E+01-1.00998E+00 1.52426E-01
 -1      1714-5.25293E+01-6.55935E+00-1.37080E+01 9.13184E+00 3.69984E-01-3.46277E-01
 -1      1715 3.71509E+00-2.91238E+00 6.02805E+00 4.01094E+00 9.93133E-01 5.03537E+00
 -1      1716-1.51006E+01-2.76004E+01-1.08861E+01 1.40382E+01-1.44767E+00 1.63241E+00
 -1      1717-1.25055E+01-2.49005E+01-8.33260E+00 1.29274E+01-4.16765E-01-1.70492E-01
 -1      1718-2.57525E+01-6.05314E+01-8.21563E+00 3.10249E+01 1.79518E+00-3.56583E+00
 -1      1719-4.00823E+01-2.29915E+01-1.76216E+01 1.92482E+01 6.17099E-01-2.06091E+00
 -1      1720-2.55970E+01-1.26388E+01-7.62549E+00 1.24454E+01 1.15638E+00-2.71045E+00
 -1      1721-1.81360E+01-3.61778E+01-1.37922E+01 1.79696E+01-3.34245E+00-1.61157E+00
 -1      1722-1.49949E+01-2.73060E+01-1.01302E+01 1.64867E+01-1.87993E+00-1.73711E+00
 -1      1723-6.50999E+00-6.46575E+00-3.27896E+00-1.47583E+00 6.73755E-01-1.43031E-01
 -1      1724-6.33468E+00-9.45374E+00-5.16650E+00-1.46677E+00 5.98817E-01 1.00056E+00
 -1      1725-2.92598E+01-1.83769E+01-1.53340E+01-1.48011E+01-4.75598E-01 2.74615E+00
 -1      1726-2.18007E+01-1.26661E+01-1.00105E+01-1.23126E+01-7.69788E-01 3.53890E+00
 -1      1727-4.63667E+01-2.60245E+01-1.07473E+01 2.28808E+01-1.96494E+00-3.03458E+00
 -1      1728-3.81862E+01-1.86214E+01-6.27473E+00 1.95980E+01-2.47779E-01-1.53431E+00
 -1      1729-7.79914E-01-1.87965E+01-5.61038E-01 5.75730E+00 4.10096E+00 2.31408E+00
 -1      1730-8.08657E+00-1.71613E+01-6.33700E+00-7.99765E+00 9.49921E-01 2.17553E+00
 -1      1731-5.00941E+00-1.52101E+01-5.72871E+00-9.10621E+00 1.13270E+00 1.38425E+00
 -1      1732-1.18123E+01-9.29364E+00-5.65136E+00-1.99246E+00 2.92959E-01 1.21451E+00
 -1      1733-8.66530E+00-6.97863E+00-4.17494E+00-1.20544E+00-7.18511E-01-6.87090E-01
 -1      1734-3.67917E+00-3.06553E+01-9.61514E+00 6.12055E+00 1.65130E+00 6.42455E-01
 -1      1735-4.33598E+00-2.97644E+01-1.00948E+01 5.95654E+00 2.48377E+00-3.49055E-01
 -1      1736-1.67462E+01-1.34972E+01-5.48327E+00-1.61987E+00-2.17753E-01 2.08953E+00
 -1      1737-2.34936E+00-1.33137E+01 4.75526E+00-9.25428E+00-2.46241E+00 2.56809E+00
 -1      1738-1.51982E+01-3.30946E+01-1.09638E+01 1.70511E+01-1.52920E+00 2.39606E+00
 -1      1739-1.20733E+01-3.37411E+01-1.05569E+01 1.71915E+01-2.16373E+00 3.13742E+00
 -1      1740-4.36417E+01-1.96796E+01-9.28814E+00-2.32634E+01 2.90854E+00 5.76294E+00
 -1      1741-3.35369E+01-1.53252E+01-2.58671E+00-1.91970E+01 6.03354E-01 2.22544E+00
 -1      1742-3.21369E+01-4.88740E+00-8.70888E+00-3.29413E+00 2.12987E+00 6.70104E-01
 -1      1743-4.10860E+01-8.08966E+00-1.47718E+01-4.21879E+00 2.56567E+00-9.80342E-01
 -1      1744-1.67458E+01-7.43997E+01-1.41412E+01 1.37067E+01-3.01915E-01 6.91739E-01
 -1      1745-8.98252E+00-5.47808E+01-2.09914E+00 1.29795E+01 6.60949E-01-1.20986E+00
 -1      1746-1.63391E+01-2.63667E+01-1.13128E+01-1.47915E+01 1.04331E+00 2.58000E+00
 -1      1747-1.36791E+01-1.96266E+01-7.49195E+00-1.27854E+01 8.86210E-01 7.02112E-01
 -1      1748-4.33710E+01-9.45754E+00-1.49523E+01-9.84262E+00-2.81197E+00-1.35429E+00
 -1      1749-3.56016E+01-6.93687E+00-1.10468E+01-1.03309E+01-2.27490E+00-6.65562E-01
 -1      1750-7.70318E+00-9.58192E+00-5.66608E+00 1.74963E+00 6.75004E-01-4.23512E-01
 -1      1751-7.64427E+00-1.11681E+01-6.34550E+00 1.52030E+00-1.08820E+00 9.34990E-01
 -1      1752-1.44855E+01-2.98893E+01-1.28010E+01-1.76047E+01 5.11552E-01-8.87405E-01
 -1      1753-2.02896E+01-3.60762E+01-1.81146E+01-1.95154E+01 1.28710E+00-1.88867E-01
 -1      1754-1.36000E+01-7.10183E+00-4.81500E+00-7.38773E+00 2.18441E+00 7.64636E-01
 -1      1755-1.87215E+01-8.75449E+00-9.56873E+00-1.11651E+01 8.81826E-01-1.10268E-01
 -1      1756-4.75732E+01-8.08595E+00-1.41529E+01 7.14744E+00 2.20459E+00-1.69193E+00
 -1      1757-3.93080E+01-3.59152E+00-9.25417E+00 4.18939E+00 1.66784E+00-1.41520E+00
 -1      1758-1.91898E+01-1.60935E+01-5.74341E+00-2.34937E-01-1.64712E+00 4.70003E-01
 -1      1759-4.80201E+01-2.56698E+01-5.99413E+00 2.62881E+01 4.06556E+00-2.22262E-01
 -1      1760-3.82050E+01-2.04353E+01 8.71928E-01 2.41010E+01 8.63956E-01 4.93353E-01
 -1      1761-1.58156E+01-3.00639E+01-1.19151E+01-1.57020E+01 1.40707E+00 2.75154E+00
 -1      1762-1.45870E+01-2.88278E+01-1.03806E+01-1.41865E+01 2.95682E+00 1.80799E+00
 -1      1763-1.54461E+01-2.88010E+01-1.16387E+01-1.42346E+01 1.71808E+00 1.52125E+00
 -1      1764-7.78215E+00-1.92782E+01-4.44649E+00-9.02324E+00 1.03568E+00 3.89541E-01
 -1      1765-1.84016E+01-2.26697E+01-1.27234E+01-7.78786E-01 1.28192E-01 2.78525E+00
 -1      1766-2.15612E+01-4.31386E+01 2.25162E+00 2.53579E+01-4.22351E-01 3.34876E+00
 -1      1767-2.37607E+01-4.45118E+01-4.53735E+00 2.76812E+01-1.46136E+00-1.19612E+00
 -1      1768-4.66877E+01-3.54338E+01-7.40643E+00-2.58682E+01 3.67932E+00-3.63636E+00
 -1      1769-3.12370E+01-2.16183E+01 7.59752E+00-2.01908E+01-1.47544E+00-1.82409E+00
 -1      1770-7.26647E+01-1.63861E+01-2.20106E+01-1.14112E+01-1.95788E+00 3.04721E+00
 -1      1771-5.18577E+01-1.00502E+01-9.83082E+00-8.79835E+00-1.46673E+00 3.38128E+00
 -1      1772-2.47224E+01-5.87763E+01-6.81741E+00 2.97083E+01-4.07303E+00 3.32326E+00
 -1      1773-1.61098E+01-2.21571E+01-1.13657E+01 1.92173E+00-1.07444E+00-3.05818E+00
 -1      1774-8.49383E+00-5.48837E+01-4.70933E-01 1.01025E+01-2.73959E+00-3.76657E+00
 -1      1775-4.43176E+00-7.43548E-01 8.71208E+00 4.70266E+00 4.64640E+00 1.82140E-01
 -1      1776-2.29001E+01-4.27072E+01-1.58717E+01 2.04091E+01 1.60553E+00 2.31216E+00
 -1      1777-1.10978E+01-3.61223E+01-8.23232E+00 1.70657E+01 2.77530E+00 2.39948E+00
 -1      1778-6.41321E+00 6.83638E-01 8.14228E+00 1.70459E+01-3.29845E+00-8.80936E+00
 -1      1779-1.71023E+01-2.36885E+01-1.09518E+01-2.20903E+00 2.20383E+00 4.94233E+00
 -1      1780-9.94645E+00-4.72914E+01-1.02928E+01 8.69159E+00 1.54411E+00-2.12341E+00
 -1      1781-7.08336E+00-5.08892E+01-1.25969E+01 9.97685E+00 9.16577E-02-3.66785E+00
 -1      1782-2.47119E+01-2.26081E+01-1.30897E+01 4.50483E-01 3.71563E+00 5.18456E+00
 -1      1783-4.55983E+01-1.08182E+01-1.68956E+01-8.47577E+00 2.22206E+00-9.38181E-01
 -1      1784-3.32009E+01-5.39551E+00-1.11362E+01-6.62369E+00 1.51372E+00-1.17672E+00
 -1      1785-3.47394E+01-3.46520E+01-2.40216E+01 1.15814E+00-1.00070E+01-2.38712E+00
 -1      1786-9.26621E+00-1.92651E+01-6.61543E+00 3.02637E+00-2.25348E+00-2.99589E+00
 -1      1787-1.18410E+01-2.46140E+01-1.43854E+01 2.75716E+00-2.05800E+00-5.80602E+00
 -1      1788-4.46702E+01-2.43531E+01 2.50787E+00-2.15658E+01 7.40865E+00 2.87669E+00
 -1      1789-1.14341E+01-5.29190E+01-1.71653E+01-8.05211E+00-1.28064E+00-1.02096E+00
 -1      1790-7.81862E+00-4.53154E+01-1.07127E+01-6.93024E+00-2.13506E+00-5.62218E-01
 -1      1791-7.86549E+00-1.05218E+01 3.56907E+00 8.54221E+00-1.94817E+00-6.06762E+00
 -1      1792-7.41519E+01-1.57582E+01-1.27126E+01-1.19459E+01-2.33219E-01 1.41273E+00
 -1      1793-6.72704E+01-1.12360E+01-3.67550E+00-9.89898E+00-1.03679E+00 6.50282E-01
 -1      1794-3.76580E+01-2.38272E+01-2.00850E+01 1.60332E+01-5.71019E+00-3.29956E-01
 -1      1795-2.13891E+01-1.37766E+01-7.81265E+00 1.08559E+01-5.19590E+00 4.49205E-01
 -1      1796-4.47907E+00-8.17409E+00-3.56967E+00-7.03054E-02 6.94841E-01 2.72743E-01
 -1      1797-7.43848E+00-1.18455E+01-5.53721E+00 1.43257E+00-3.04773E-01-5.29391E-02
 -1      1798-6.52818E+00-3.93536E+01-1.09639E+01 7.63727E+00 1.07502E+00 1.84688E+00
 -1      1799-4.14044E+00-3.51573E+01-8.84307E+00 7.32456E+00 1.19636E+00 8.95666E-01
 -1      1800-3.29003E+01-1.44325E+01-4.18010E+00 6.92416E+00-4.12264E+00 1.20825E+00
 -1      1801-3.83121E+00-7.19379E+01-6.18890E+00 2.71489E+00-8.85461E-01-2.76154E+00
 -1      1802-1.90979E+00-5.61538E+00 4.25889E+00-4.94707E+00 4.88295E+00-2.75335E+00
 -1      1803-7.62703E+01-1.50933E+01-1.74302E+01-1.26107E+01 1.91537E+00-1.52418E+00
 -1      1804-6.27357E+01-1.14166E+01-7.13925E+00-9.50852E+00 3.15683E-02-5.05134E-01
 -1      1805-3.88739E+01-3.38971E+01-2.31698E+00-3.01552E+01 2.81617E+00-2.32412E+00
 -1      1806-6.94802E+00-4.90828E+00-6.12980E+00 4.75340E-01 3.67640E-01 1.55450E+00
 -1      1807-1.04509E+01-7.17196E+00-6.69181E+00-9.50232E-01-6.45060E-02-6.30001E-01
 -1      1808-6.82468E+00-5.63556E+01-5.07272E+00 1.35976E+01 1.37941E+00 3.12544E+00
 -1      1809-9.35079E+00-6.07110E+01-5.35111E+00 1.30348E+01 3.29987E-01 2.94202E-01
 -1      1810-6.26551E+00-3.50545E+01-9.91903E+00-7.60155E+00-1.17743E+00 1.85143E+00
 -1      1811-5.85622E+00-3.18410E+01-8.06956E+00-6.56244E+00-1.14108E+00 1.01545E+00
 -1      1812-1.67754E+01-1.06466E+01-4.19925E+00 2.27035E+00-7.16903E+00-7.65290E-02
 -1      1813-2.38917E+01-1.47041E+01-1.42388E+01 2.93873E+00-8.79692E+00-1.81220E+00
 -1      1814-2.63866E+01-2.35736E+01-1.26459E+01-4.79667E-01-1.01289E+01-1.01336E+00
 -1      1815-1.34316E+01-6.68405E+01-6.88791E-01-2.36830E+01-3.82888E+00 5.12884E+00
 -1      1816-8.23619E+00-5.98135E+01-2.25193E+00 1.90843E+01 1.18933E+00-1.34924E+00
 -1      1817-2.26865E+01-2.21582E+00 1.17203E+00 1.83212E+00 4.21527E+00 2.52523E+00
 -1      1818-1.66191E+01-2.51905E+01-7.83448E+00-1.57132E+01 3.33490E+00-2.86295E+00
 -1      1819-1.93555E+01-2.97355E+01-1.20238E+01-1.56069E+01 1.85678E+00-2.43024E+00
 -1      1820-2.92507E+01-4.41493E+01-2.39662E+00 3.03928E+01 3.26293E+00-3.27463E+00
 -1      1821-1.46816E+01-1.96951E+01-1.12507E+01-2.84569E+00-4.34985E-01 3.56044E+00
 -1      1822-6.12481E+00-1.63409E+01-9.91108E+00-6.70157E+00 1.39647E+00 2.28965E+00
 -1      1823-3.68815E+01-4.89904E+01-1.16926E+01-3.26748E+01 6.38764E+00-7.80285E+00
 -1      1824-2.55957E+01-2.13195E+01-1.47620E+01-2.29588E+00 2.71467E+00 4.18818E+00
 -1      1825-6.48171E+01-1.18987E+01-4.74766E+00-1.26476E+01 3.53963E+00 1.14085E+00
 -1      1826-1.18358E+01-6.18291E+01-1.51348E+01-9.52714E+00-6.81298E-01-3.01623E+00
 -1      1827-9.97787E+00-5.11718E+01-9.24398E+00-7.78063E+00-1.37224E+00-2.03955E+00
 -1      1828-4.46450E+01-3.14169E+01-9.79875E+00 3.15255E+01 2.30440E+00 2.36738E-01
 -1      1829-2.87260E+01-2.70982E+01-1.87601E+01 1.29339E+00 5.50208E+00-3.28293E+00
 -1      1830-2.66985E+01-2.62754E+01-1.77284E+01-3.94709E-01-4.63682E-02 8.96563E+00
 -1      1831-1.22870E+01-6.63977E+01-8.78989E+00-7.79046E+00-4.89191E-01-3.45187E+00
 -1      1832-2.19546E+01-2.23638E+01-1.03805E+01-1.71350E+00-1.96852E+00 3.66726E+00
 -1      1833-2.93482E+01-4.63798E+01-1.52795E+01-2.13141E+01 5.24876E+00-1.70080E+00
 -1      1834-1.63895E+01-2.89298E+01-4.49628E+00-1.47793E+01 4.50082E+00-4.52694E+00
 -1      1835-3.27563E+01-3.11403E+01-2.15504E+01 2.22473E+00-3.67306E+00 2.23538E+00
 -1      1836-5.00861E+01-2.95673E+01-9.89804E+00-2.84891E+01-1.65809E+00 5.65227E-01
 -1      1837-4.24957E+01-2.35448E+01 1.20203E-01-2.53924E+01-1.23366E+00-2.67073E+00
 -1      1838-5.34309E+01-3.05655E+01-1.00144E+01-2.70140E+01-2.14660E+00-1.03387E+00
 -1      1839-7.62257E+01-4.00722E+00-5.91392E+00 9.91126E+00 2.37121E-01-3.03043E+00
 -1      1840-1.98778E+01-2.56760E+01-1.39191E+01 2.26470E+00-5.42564E-01-2.82135E+00
 -1      1841-1.95745E+01-1.51139E+01-1.18901E+01-3.34147E+00 3.75197E+00-1.41887E+00
 -1      1842-1.30806E+01-5.19288E+00-9.19614E+00-7.77576E+00 3.32135E+00-9.13735E-01
 -1      1843-1.29981E+01-5.61061E+01-7.83778E+00-1.45350E+01 2.05326E+00 5.04304E+00
 -1      1844-6.52929E+01-3.15309E+01-2.65524E+01-1.82365E+01-1.89950E+00 5.89245E+00
 -1      1845-1.32684E+01-1.66931E+01-7.88274E+00 4.23995E+00 3.40804E+00 5.01451E+00
 -1      1846-1.59145E+01-1.99152E+01-1.51069E+01 5.58132E+00 4.54446E+00 6.52920E+00
 -1      1847-8.50577E+00-3.98046E+01-1.42229E+01-5.64011E+00-4.92936E-01-1.13797E+00
 -1      1848-4.75620E+00-3.14704E+01-8.06743E+00-6.50487E+00-1.36289E-01-9.53555E-01
 -1      1849-1.07109E+01-5.33317E+01-4.15194E+00-8.41055E+00-4.75668E+00-3.22704E+00
 -1      1850-8.50762E+00-7.40590E+01-7.31651E+00 9.34873E+00-2.34182E+00 2.34896E+00
 -1      1851-1.29581E+01-6.27491E+01-1.11701E+01-9.23019E+00 3.02891E+00-1.72007E+00
 -1      1852-6.43740E+00-4.90481E+01-1.40804E+00-4.05879E+00 3.55703E+00-8.10582E-01
 -1      1853-5.40145E+01-1.88933E+01-5.03793E+00-2.45848E+01-1.02141E+00 3.86163E-01
 -1      1854-2.50604E+01-4.96254E+01-8.93537E+00-2.50390E+01 8.17043E-01-1.82985E+00
 -1      1855-1.66494E+01-3.83332E+01 3.59501E-01-1.98472E+01-1.91124E+00 1.82976E+00
 -1      1856-1.97299E+01-7.93162E+01-1.81700E+01-1.49022E+01-3.81245E+00 1.70265E+00
 -1      1857-1.66255E+01-6.54714E+01-8.06715E+00-1.38355E+01-2.65726E+00-6.81124E-01
 -1      1858-8.58150E+00-4.56905E+01-1.43031E+01-5.85278E+00 1.46004E+00-1.70830E+00
 -1      1859-5.19005E+00-3.49827E+01-8.41702E+00-2.97393E+00 2.05948E+00-2.26591E+00
 -1      1860-3.14055E+01-3.11856E+01-1.96570E+01 3.93435E-01-1.11401E+01-4.16255E+00
 -1      1861-2.59351E+01-2.59833E+01-1.77767E+01 1.55884E+00 5.31561E+00 6.85389E+00
 -1      1862-2.76932E+01-5.28675E+01-1.47868E+01 2.58621E+01 4.60523E+00-4.50704E+00
 -1      1863-1.81257E+01-3.79463E+01-2.67919E+00 2.05580E+01 4.52446E+00-2.41345E+00
 -1      1864-4.43476E+00-3.03406E+01-8.40559E+00-5.05591E+00-6.07004E-01-2.14509E+00
 -1      1865-8.87878E+00-3.75245E+01-1.43339E+01-5.77874E+00-1.13280E+00-2.57527E+00
 -1      1866-2.59692E+01-2.29209E+01-1.62367E+01-2.55307E-01 4.52218E+00-3.74630E+00
 -1      1867-2.49708E+01-2.14418E+01-1.29070E+01-7.02774E-01 8.35510E-01-4.18296E+00
 -1      1868-2.01444E+01-2.70551E+01-1.74710E+01-5.02797E-02-2.00182E+00 7.28782E+00
 -1      1869 4.95832E+00-7.37429E+00 1.03672E+01 1.67172E+01 4.27186E+00 8.38885E+00
 -1      1870-7.83864E+00-4.88734E+00 2.19305E+00-9.10752E+00 2.87208E+00-5.99732E+00
 -1      1871-6.67681E+01-8.44992E+00-6.47889E+00 1.20891E+01-7.66587E-01-5.44195E-01
 -1      1872-6.04101E+01-7.88849E+00-7.47794E+00 1.39340E+01 8.17697E-01-1.18779E+00
 -1      1873-9.88016E+00-4.79649E+01-1.65057E+01-8.72595E+00-1.43141E+00-2.03558E+00
 -1      1874-7.91682E+00-3.79096E+01-1.08921E+01-9.55121E+00-1.94111E-01-1.50695E+00
 -1      1875-1.88035E+01-2.13406E+01-7.90629E+00 4.58730E-01 3.38901E-01 4.71248E+00
 -1      1876-6.22658E+01-1.51240E+01-3.35832E+00 1.74949E+01-3.69239E+00-5.26485E-01
 -1      1877-1.25720E+01 3.15488E+00 6.50515E+00-4.96128E+00-5.57359E+00-7.28538E-01
 -1      1878-2.36957E+01-2.52514E+01-1.70633E+01 1.12006E+00 5.59737E+00 6.83474E+00
 -1      1879-4.78851E+01-2.27445E+01-3.43610E+00 2.89315E+01-5.34002E-01-1.97641E+00
 -1      1880-4.62041E+01-2.28578E+01-6.01254E+00 2.57330E+01-2.16239E+00-1.88767E+00
 -1      1881-2.03843E+01-3.50998E+01-1.35789E+01-1.80021E+01-9.35271E-01-1.46453E+00
 -1      1882-1.49606E+01-2.53585E+01-6.23649E+00-1.60377E+01-1.02776E+00 4.86411E-01
 -1      1883-4.32232E+01-2.28018E+01-5.76876E+00 2.58343E+01 2.26882E+00 9.08218E-01
 -1      1884-4.26107E+01-2.31665E+01-3.95693E+00 2.60048E+01 8.21478E-01-1.31915E+00
 -1      1885-1.92034E+01-3.62808E+01-1.18038E+01-1.80666E+01-1.53562E+00 3.03532E+00
 -1      1886-1.69349E+01-2.79932E+01-6.88179E+00-1.65366E+01 9.05796E-01 3.49308E+00
 -1      1887-2.49346E+01-4.34287E+01-5.89974E+00 2.71896E+01 1.26457E+00 1.63453E+00
 -1      1888-2.31731E+01-4.14958E+01-5.92426E-01 2.35012E+01-9.00412E-01-1.47066E+00
 -1      1889-2.44861E+01-2.76602E+01-1.47729E+01-2.44672E+00 7.77061E+00-1.02532E+00
 -1      1890-1.28657E+01-1.84361E+01-7.28338E+00-4.24435E+00 2.70478E+00-5.07834E+00
 -1      1891-7.62371E+00-1.21984E+01-8.54073E+00-9.53559E+00 1.19383E+00-4.64453E+00
 -1      1892-2.03812E+01-2.33333E+01-1.31822E+01-1.40713E+00 6.05967E+00-6.40858E+00
 -1      1893-6.07886E+00 2.81083E+00 1.06645E+01 1.74427E+01 4.25242E+00 7.30244E+00
 -1      1894-2.51262E+01-2.88543E+00-1.36409E+01 4.21730E+00 2.00092E+00 1.90258E+00
 -1      1895-2.96785E+01-4.62321E+00-1.62267E+01 3.32415E+00 2.22972E+00 8.25690E-01
 -1      1896-1.08719E+01-5.60488E+01-1.69963E+01-8.61710E+00-3.59974E-01 1.58407E+00
 -1      1897-4.95984E+00-4.50750E+01-7.81434E+00-6.98236E+00-6.94981E-01 1.55420E+00
 -1      1898-9.52481E+00-1.28330E+01 1.57104E+00-6.00044E+00 9.94723E-02-3.24218E+00
 -1      1899-5.56625E+01-9.76014E+00-1.68966E+01-5.93776E+00-2.07895E+00 2.76139E+00
 -1      1900-4.30018E+01-5.79186E+00-8.42919E+00-2.54623E+00-3.53122E+00 1.34121E+00
 -1      1901-8.19495E+00-4.43757E+01-9.54686E+00-5.43133E+00 1.54395E-01 2.79537E+00
 -1      1902-1.69270E+01-6.40822E+01-2.09418E+01-9.82534E+00 8.12197E-01 2.42292E+00
 -1      1903-6.32357E+01-8.99774E+00-3.59110E+00 1.92630E+01-2.26946E-02 1.07252E+00
 -1      1904-5.30435E+01-2.37649E+01-9.44352E+00 2.53974E+01 4.75193E+00-5.76111E-01
 -1      1905-3.07289E+01-2.60957E+01-1.61495E+01 9.31961E-02 8.03554E+00 2.08175E+00
 -1      1906-7.46829E+00-2.38914E+01 3.76714E+00-1.26479E+00 4.93265E-01-1.78923E+00
 -1      1907-4.64312E+00-4.29558E+01-1.14383E+01-8.27529E+00-1.02749E+00 1.70975E+00
 -1      1908-1.04350E-02-3.87940E+01-7.43719E+00-7.33789E+00-9.52461E-01 1.46639E+00
 -1      1909-5.74936E+00-5.73218E+01-2.73006E+00-1.28676E+01 2.46814E+00-3.50399E+00
 -1      1910-5.46027E+00-2.28053E+01-1.38520E+00-6.06187E+00 4.70528E+00-8.81602E-01
 -1      1911-7.08246E+00-1.19452E+01-6.53752E+00 6.03823E-01-1.20572E+00 1.63792E-01
 -1      1912-7.44568E+00-1.16159E+01-6.73797E+00 9.84432E-01 1.17274E+00-4.80216E-01
 -1      1913-3.20389E+01-4.14405E+01-1.18698E+01-2.99344E+01-4.87298E+00 5.37157E+00
 -1      1914-2.36674E+01-4.38206E+01-7.28681E+00-2.37357E+01-2.10859E+00 2.17063E+00
 -1      1915-1.63235E+01-3.84594E+01-7.66937E-01-2.18016E+01-2.40109E+00 1.54021E-01
 -1      1916 2.72040E+00-1.55117E+01 4.14270E+00-4.94143E+00-2.84612E+00 4.31713E+00
 -1      1917-9.56233E+00-6.19923E+01-1.37676E+01-1.15781E+01 2.20819E+00-2.60909E+00
 -1      1918-9.49306E+00-5.10172E+01-6.90718E+00-9.11085E+00 1.80204E+00-1.14289E+00
 -1      1919-2.29285E+01-3.90663E+01 2.04378E+00-2.87403E+01 6.09662E+00-4.10876E-01
 -1      1920-2.34415E+01-1.91222E+01-1.11368E+01 1.50481E+00-3.95509E+00 1.77778E+00
 -1      1921-9.69100E+00-1.03024E+01-5.55213E+00-2.65652E+00 3.95741E-01 1.15344E+00
 -1      1922-7.63704E+00-1.03098E+01-4.66365E+00-2.60379E+00-1.16920E+00 2.48447E-01
 -1      1923-9.64656E+00-6.60683E+00-5.78983E+00 2.03494E-01-2.68414E-01 1.17822E+00
 -1      1924-1.33000E+01-7.53899E+00-5.69633E+00 1.17341E+00 9.20580E-02-4.96745E-01
 -1      1925-7.33778E+01-1.27078E+01-8.62675E+00-9.48532E+00 2.37526E+00 6.28224E-01
 -1      1926-6.41800E+01-8.65963E+00-4.12381E-01-1.12612E+01-1.23366E+00-3.76898E-01
 -1      1927-1.93864E+01-4.92893E+01-4.90290E+00-2.37549E+01 5.58377E-01 4.22935E+00
 -1      1928-6.52067E+01-1.03210E+01-3.11584E+00-1.03912E+01 1.48874E+00 1.12322E+00
 -1      1929-1.04264E+01-9.25950E+00-5.24713E+00 2.52261E+00-6.41663E-01 9.99833E-01
 -1      1930-1.11463E+01-7.72657E+00-4.36181E+00 2.17088E+00 3.77189E-01-5.57015E-01
 -1      1931-7.77799E+01-1.58399E+01-8.59447E+00-1.90157E+01 2.29556E+00-2.83624E+00
 -1      1932-2.66620E+01-2.18207E+01-1.55658E+01 6.90542E-01 2.86068E+00 5.64230E+00
 -1      1933-4.28287E+01-2.21805E+01-6.41754E+00-2.40304E+01 2.65054E+00-4.97738E+00
 -1      1934-2.18103E+01-5.97127E+01-1.26660E+01-2.54329E+01-1.55819E+00-3.62423E+00
 -1      1935-8.56482E+00-7.17430E+01-5.63248E+00-5.65457E+00-1.81048E+00-2.91632E-01
 -1      1936-3.23620E+01-4.67909E+01-9.60811E+00 2.74361E+01 2.84787E+00 3.47459E+00
 -1      1937-1.65375E+01-2.97066E+01 4.69618E+00 1.87106E+01-6.06182E-01 4.64379E-01
 -1      1938-1.81198E+01-2.05541E+00 7.53317E+00 1.68475E+01 3.51890E+00-2.63999E+00
 -1      1939-3.59647E+00-3.03345E+01-5.73612E+00 4.91483E+00-1.77365E+00 5.34443E+00
 -1      1940-4.94638E-01-2.40601E+01-2.34169E+00 3.24491E+00-1.01164E+00 4.54062E+00
 -1      1941-1.26583E+01-6.45181E+01-5.04484E+00-1.09853E+01 6.60685E-01-9.68063E-01
 -1      1942-8.36409E+00-4.91596E+01 3.29379E+00-7.29844E+00 1.32767E+00 2.05495E-01
 -1      1943-6.57438E+00-9.39598E+00-4.64373E+00-6.86387E-01 1.77106E+00 6.36634E-01
 -1      1944-7.25506E+00-1.16769E+01-4.88746E+00-1.50055E+00 8.92988E-02-3.09864E-02
 -1      1945-5.77112E+01-1.67625E+01-4.10480E+00 2.75863E+01-6.78166E-01 4.70379E-01
 -1      1946-1.54050E+01 2.02425E+01 1.51921E+01 6.44989E+00 1.20677E+01-5.26863E-01
 -1      1947-2.49310E+01-2.42339E+01-1.12871E+01 1.45007E+00 5.34011E+00-1.00194E+00
 -1      1948-1.80055E+01-2.59058E+01-1.16852E+00-2.17956E+01 1.19941E+01-3.25355E+00
 -1      1949-3.04309E+01-2.83759E+01-2.13010E+01-3.81453E+00 8.81129E+00-2.92288E+00
 -1      1950-3.52742E+01-5.20513E+01-1.24307E+01-2.99482E+01-1.87140E+00 2.25536E+00
 -1      1951-6.32515E+00-7.14797E+00-5.57533E+00 1.18331E+00 7.08762E-01-1.13762E+00
 -1      1952-1.12394E+01-8.67077E+00-6.48218E+00 2.47579E+00-9.25013E-01-3.06130E-01
 -1      1953-8.00424E+00-8.49551E+00-4.41437E+00 2.53197E+00 2.38971E-01 7.56240E-01
 -1      1954-9.68761E+00-1.27368E+01-6.09695E+00 3.10115E+00 1.00445E+00-4.03022E-01
 -1      1955-9.80359E+00-8.10043E+00-4.62636E+00-2.41122E+00-5.00997E-01-6.25666E-01
 -1      1956-1.07950E+01-7.54527E+00-4.30905E+00-1.78312E+00 3.59408E-01 5.87721E-01
 -1      1957-7.65166E+00-5.10407E+00-3.49083E+00 2.61104E-02 3.68686E-01-1.24449E+00
 -1      1958-1.16716E+01-7.35420E+00-5.08089E+00 1.02278E+00-1.39451E-01 6.08544E-01
 -1      1959-4.70857E+01-1.62357E+01-5.89945E+00-1.66685E+01 5.21216E+00 2.23680E+00
 -1      1960-1.52825E+01-6.17478E+01-2.80459E+00-1.89028E+01 3.94701E+00-8.13800E-01
 -1      1961-8.10434E+00-5.75746E+01-5.74303E+00-1.23646E+01-1.27558E+00-3.69405E+00
 -1      1962-7.12690E+00-5.10239E+00-3.49092E+00-2.03094E-01 6.28380E-01-1.65361E+00
 -1      1963-9.79082E+00-6.24097E+00-3.71908E+00-8.51590E-01 4.50850E-01-2.90896E-01
 -1      1964-2.55640E+01-2.65658E+01-2.32995E+00-2.27276E+01-1.18124E+00 5.57934E+00
 -1      1965 8.88201E-01-2.59152E+00 1.87815E+00-1.95369E+00-2.58640E+00-4.25239E-01
 -1      1966 7.43015E-01-4.70273E-01-8.36347E-01-2.40609E-02 4.48765E+00 5.74059E-02
 -1      1967-2.66056E+00-2.29413E+00-3.29314E+00 1.64203E+00 3.38485E+00-2.98457E+00
 -1      1968-2.70149E-02-2.56002E+00-3.12898E+00 2.51994E-01-3.23251E+00-1.61292E-01
 -1      1969 2.47549E+00 2.65269E+00 2.39184E+00 5.18802E-01-1.11494E+00 1.01237E+00
 -1      1970 8.56433E-01 1.56008E+00 1.47024E+00-8.53396E-01-1.56218E+00-3.10672E+00
 -1      1971-1.42811E+00 3.71099E-02 8.13115E-01-9.53393E-01 1.97683E+00 2.50091E+00
 -1      1972-1.23117E+00 3.38787E-01 1.55444E-01 3.71342E-01-1.41697E+00 3.50447E+00
 -1      1973-5.06327E+00-3.36656E+00-2.42143E+00-8.84133E-01-2.35958E+00-3.73886E+00
 -1      1974-1.11142E+00-3.48741E+00 6.99014E-01 1.07441E+00 3.20722E+00-8.50788E-01
 -1      1975 2.84000E+00 2.28931E+00 2.30419E+00 8.28608E-01 3.34962E+00 2.59812E+00
 -1      1976 5.82497E-01 1.19841E+00-1.58195E+00 1.67844E+00 2.74060E+00 2.91385E+00
 -1      1977-2.70220E-01 1.04211E+00-2.32200E+00 3.03571E-01 3.49098E+00 1.22192E+00
 -1      1978-4.79028E-01 1.73353E+00 2.34853E+00 6.58492E-02 5.47911E+00 9.05499E-01
 -1      1979 2.67928E+00 4.92549E+00-9.81645E-03-3.81086E-01 3.67595E+00 8.82012E-02
 -1      1980-6.88912E-01 9.56831E-01 1.85544E-01-1.87467E-01 4.08371E+00-2.91560E-01
 -1      1981 8.44385E-01 1.29287E+00-2.43491E+00-9.00732E-01 3.38347E+00-1.50962E+00
 -1      1982-8.50875E-02 9.23626E-01 1.62724E+00-8.40919E-02 2.76908E+00-4.59978E-01
 -1      1983 2.32737E+00 3.46181E+00 3.21669E+00-1.08726E+00 3.80247E+00-2.35966E+00
 -1      1984 5.44575E+00 4.27632E+00 2.07460E+00 1.13699E+00 7.13906E-01 2.22513E+00
 -1      1985-1.40145E+00-1.94029E+00-2.47781E+00-1.52593E-03 1.54907E+00 1.60648E+00
 -1      1986 2.72943E+00 2.04988E+00 4.13405E+00-3.48290E-01-2.78725E-01 4.83176E+00
 -1      1987 7.54798E-01-8.14561E-01-9.81021E-01-4.40063E-02-1.26901E+00 3.38599E+00
 -1      1988 4.56815E-01 6.21645E-01 2.24979E+00 4.81878E-01 1.08936E+00 3.36893E+00
 -1      1989 4.17760E+00 3.92334E+00 1.81956E+00-6.23779E-01-1.94241E+00 5.77037E+00
 -1      1990 1.95102E+00 3.86851E-01 2.47496E+00-1.87547E-01-1.71485E+00 2.27787E+00
 -1      1991 2.66366E+00 2.13959E+00 3.26161E+00-3.46991E-01-2.97238E+00 3.35247E+00
 -1      1992 5.60749E+00 5.47696E+00 6.13678E+00 1.42176E+00-2.43489E+00-3.23224E+00
 -1      1993 1.84096E+00 9.84323E-01 3.83865E+00-6.53688E-02-4.19898E+00 2.29764E+00
 -1      1994 2.87670E+00 5.93897E+00 9.05608E-01-2.44732E-01-1.98773E+00 2.27357E-01
 -1      1995-5.58877E-01-2.28668E+00 8.40005E-01-5.01679E-01 4.26621E+00 1.13868E+00
 -1      1996 3.50385E+00 4.94203E+00 3.35530E+00-1.16125E+00-3.97699E+00-3.31559E-01
 -1      1997 5.90647E-01-1.10757E+00 1.15499E-01-1.28345E+00 1.86434E+00 7.64345E-01
 -1      1998 2.43025E+00 3.53800E+00 3.23709E+00 4.41687E-01-4.25951E+00 8.84422E-02
 -1      1999 2.40823E+00 1.63707E+00 5.06172E+00-3.70315E-01-5.54565E+00-5.47457E-01
 -1      2000-9.76750E-02 1.18598E+00-1.06684E+00 5.06664E-01-3.74775E+00-1.77180E+00
 -1      2001 2.76406E+00 2.18375E+00 1.16968E+00 1.24747E+00-3.09676E+00-1.79466E+00
 -1      2002 1.66259E+00 2.44064E+00 9.02387E-01 3.20431E-01-2.40611E+00-2.55637E+00
 -1      2003-6.10070E-01-8.46878E-01 2.21513E+00 6.53669E-01-3.34751E+00 3.08324E+00
 -1      2004 2.04118E+00 1.84471E+00 1.37841E+00-9.57989E-02-1.80764E+00-2.51357E+00
 -1      2005 4.76795E+00 4.18861E+00 2.16880E+00-1.25296E+00 3.20726E+00-1.95090E+00
 -1      2006-3.44989E+00-2.75714E+00-2.31370E+00-9.27827E-01 2.86411E+00 4.11949E+00
 -1      2007 2.48192E-01 1.09126E+00 2.57239E+00 3.20194E-01 3.80290E+00-4.43861E+00
 -1      2008 3.28255E+00 2.56094E+00 1.71289E+00-7.24675E-01 1.57417E+00-2.83495E+00
 -1      2009 1.13385E-01-2.70737E-01 2.93379E+00-1.03613E+00-6.06032E-01-3.27308E+00
 -1      2010 2.37409E+00 2.42207E+00 2.20833E+00 3.78600E-01-4.90663E-01-3.66074E+00
 -1      2011-1.47125E+00 1.41381E-01 1.82596E-01-3.50631E-01 3.04144E-01 2.91853E+00
 -1      2012 4.58468E+00 2.92348E+00 5.19772E+00-6.05427E-01 7.49543E-01-5.12627E+00
 -1      2013-4.99214E+00-6.18971E+00-4.35174E+00 1.87090E-01 4.32778E-01-4.46591E-01
 -1      2014-3.72103E+00-5.06627E+00-1.72277E+00 1.11598E+00-3.53764E+00 1.82007E+00
 -1      2015-7.37134E+00-8.84161E+00-7.46797E+00 8.53325E-01 4.71368E+00-2.27290E+00
 -1      2016-1.98081E+00-4.44625E+00-1.23645E+00 8.09130E-01-2.40688E+00 3.98669E-01
 -1      2017 5.10084E+00 4.49313E+00 5.32336E+00-3.47306E-01 2.08666E+00-4.34123E+00
 -1      2018-2.38842E+00-2.39365E+00-2.57023E-01 4.69550E-01 1.65275E+00 2.71375E+00
 -1      2019-2.65086E+00-2.37902E+00-1.81221E+00 3.53491E-01 1.70987E+00 7.02892E-01
 -1      2020 2.55347E+00 7.53279E+00-1.57628E+00-1.21367E+00 3.24039E+00 3.44337E-01
 -1      2021-1.73687E+00-3.40532E+00-2.93498E-01-5.07432E-01-4.57867E-01 3.02180E+00
 -1      2022-1.40722E+00-8.17250E-01 8.65726E-01-5.31684E-01-3.19909E+00 1.10820E+00
 -1      2023-5.44271E+00-9.11652E+00-6.52269E+00-1.10372E+00 4.29636E+00 1.78086E+00
 -1      2024-5.88521E+00-7.02788E+00-6.62271E+00 7.92118E-01 3.82043E+00-2.68579E+00
 -1      2025-4.90608E+00-2.46745E+00-1.32574E+00 1.93579E+00 3.21662E+00-3.27408E+00
 -1      2026 6.81608E+00 5.97365E+00 3.63609E+00-6.19023E-02 1.04794E+00-1.66825E+00
 -1      2027-4.79261E+00-2.06558E+00-3.54647E+00 8.70592E-01-1.95257E+00 4.17516E+00
 -1      2028 4.07302E+00 4.26445E+00 2.98548E+00-1.07664E+00-1.26261E+00 2.91934E+00
 -1      2029-5.57330E+00-1.49649E+00 3.05961E-02-3.73836E-03 1.83612E+00 2.31787E+00
 -1      2030-3.35549E+00-3.66476E-01 9.31071E-01 1.52060E-01-7.28715E-01-3.37720E+00
 -1      2031 4.98496E+00 4.35508E+00 2.74185E+00 1.47313E+00 1.38704E+00 1.70537E+00
 -1      2032 2.24295E+00 3.07012E+00 3.61032E+00-6.21845E-01-5.25261E+00-1.77797E+00
 -1      2033-7.12894E+00-4.44886E+00-1.48039E+00-1.64736E+00-5.89674E-01-2.22254E+00
 -1      2034 3.92460E+00 4.46603E+00 5.55357E+00-4.88614E-01-4.70312E+00 5.96477E-01
 -1      2035-3.74102E+00-2.28747E+00-3.46302E-01 1.55190E+00 1.57436E+00-4.36557E+00
 -1      2036-4.24267E+00-6.40826E+00-4.49252E+00 3.89366E-01 4.24879E+00 1.03537E+00
 -1      2037-2.42798E+00-1.76459E+00-1.51927E+00 6.00394E-01 2.66057E+00-2.42003E+00
 -1      2038 6.71445E+00 5.18144E+00 5.97455E+00-6.26934E-01-7.92519E-01 4.94938E+00
 -1      2039-3.46136E+00-5.62715E+00-1.93732E+00 9.47288E-01 3.89751E+00-1.51815E+00
 -1      2040 2.70633E+00-1.64054E-01 2.84412E+00 1.95015E-01-3.02516E+00-4.21996E+00
 -1      2041-1.03545E+01-5.54802E+00-2.25656E+00-2.03580E+00-1.73975E+00-3.38481E+00
 -1      2042 5.43757E+00 6.33027E+00 7.39399E+00 3.44943E-01-5.55569E+00-1.43706E+00
 -1      2043-4.23405E+00-5.18697E+00-4.06469E+00 1.04811E+00-3.75609E+00 1.12089E+00
 -1      2044-3.85121E+00-2.11240E+00-9.89144E-01-2.57804E-01 5.52057E-01-5.32571E+00
 -1      2045 1.47593E+00 4.13502E-01 3.60590E-01-1.26878E+00-1.95602E+00 1.86815E+00
 -1      2046 8.56177E+00 7.80071E+00 4.07731E+00-1.35717E+00-9.64939E-01-1.00672E+00
 -1      2047 1.65849E+00 3.51643E+00 3.66809E+00 1.08819E+00-3.66653E+00-1.20795E+00
 -1      2048-8.33521E-01 2.01673E-01-6.55981E-01 2.62206E-01 4.01514E+00-3.02795E+00
 -1      2049 3.20242E+00 3.23337E+00 3.22721E+00-8.79971E-01 3.38253E+00-2.55725E+00
 -1      2050-3.53052E+00-2.70414E+00-1.44388E+00 1.01779E+00 3.15234E+00-2.54995E+00
 -1      2051 8.91023E-01 1.17992E+00 2.13027E+00 5.51168E-01-2.27086E+00-2.72102E+00
 -1      2052 8.62949E-01 1.08353E+00 2.97466E+00 6.10601E-01-3.18682E+00 2.66316E+00
 -1      2053 1.01401E+00-2.41832E-01 1.21408E+00 4.85737E-01 2.26919E+00 1.02947E+00
 -1      2054 1.16622E-01-1.22194E+00 1.20874E+00-1.12107E+00 1.99460E+00-2.72239E+00
 -1      2055-2.11425E+00-2.31986E+00-1.50553E-01-7.74474E-02-2.34725E-02-2.59334E+00
 -1      2056 5.49084E+00 5.27561E+00 5.41575E+00-5.49628E-01-3.38527E+00 2.97054E+00
 -1      2057 2.74560E+00 6.61629E-01 3.43304E+00-1.79884E-01 6.19125E-02-2.96658E+00
 -1      2058 7.26268E+00 7.91708E+00 7.67582E+00-1.01969E+00 3.73251E+00-3.69636E+00
 -1      2059 1.07182E+00-4.89423E-01 6.76912E-01-8.43651E-02 2.23788E+00 3.68607E-01
 -1      2060-4.98919E+00-5.42474E+00-5.39894E+00-9.55175E-01 3.14506E+00 3.23029E+00
 -1      2061 1.81452E+01 1.57245E+01 6.81387E-01 1.54603E+00-2.39654E-02 1.52204E+00
 -1      2062-5.19232E+00-5.54128E+00-2.61804E+00 1.83800E+00-2.75658E+00 3.31745E+00
 -1      2063-4.72704E+00-8.26681E+00-3.17274E+00-1.07289E+00-4.62846E+00-6.83134E-01
 -1      2064-2.66213E-02 1.43373E+00-1.19408E+00-2.14441E-01 4.66238E+00-1.03068E+00
 -1      2065 7.29549E+00 6.08352E+00 5.06838E+00 1.58243E+00 1.62925E+00-4.30201E+00
 -1      2066 8.51457E+00 8.86527E+00 7.08505E+00 1.68048E+00 3.05205E+00 2.94148E+00
 -1      2067 1.81854E+00 1.04333E+00 2.66164E+00 6.01886E-01-1.31940E+00 3.63002E+00
 -1      2068 2.84146E+00 3.65847E+00 2.97443E+00 4.51896E-01 3.63900E-01-1.13186E+00
 -1      2069 2.81048E+00 2.07933E+00 1.47162E+00-6.53702E-01-4.23442E+00 2.83308E+00
 -1      2070 2.19300E+00 2.95152E+00 3.57190E+00 1.21952E+00-2.16293E+00-2.49848E+00
 -1      2071 1.02422E+00 1.46698E+00 7.31804E-01 3.58341E-01 4.11240E-01-3.88259E+00
 -1      2072-8.33281E-02 1.93001E+00 2.45530E+00-6.79901E-02 4.81006E+00 1.42198E+00
 -1      2073-8.40047E-01 7.27492E-02 1.59622E+00 2.80441E-01 4.75780E+00 3.60102E-01
 -1      2074 3.30117E+00 1.74691E+00-4.78200E-01-9.38739E-02-1.41750E+00-4.35781E-01
 -1      2075 6.37512E-01 8.22752E-01 1.91688E+00 5.16990E-02-2.76373E+00 6.36375E-01
 -1      2076-3.70800E+00-3.95026E+00-4.66676E+00 6.54264E-02 3.60052E+00 2.27820E+00
 -1      2077-3.38955E+00-1.72555E+00-1.93499E+00 9.18547E-01 5.30249E-01-3.57422E+00
 -1      2078-7.47352E+00-5.73226E+00-6.29204E+00 1.24197E+00 2.27735E+00-4.96586E+00
 -1      2079 1.48428E+00 2.34153E+00 9.42330E-01-2.96253E-01-2.76044E-01-1.31018E+00
 -1      2080-8.38760E-01-2.76953E+00-2.03789E+00 1.49618E+00-3.01252E+00 2.30340E+00
 -1      2081-3.87986E+00-4.23468E+00-2.89143E+00 5.82924E-02 4.03777E+00-9.64727E-01
 -1      2082-3.43639E+00-2.57751E+00-4.67085E-01 2.51818E-01 2.92937E+00 4.98054E-01
 -1      2083-1.30847E-01 1.37326E+00 1.87395E+00-7.66850E-02 5.20139E-01 2.83086E+00
 -1      2084-3.83148E+00-2.46127E+00-2.20432E+00-1.63013E+00-2.36523E+00-2.60301E+00
 -1      2085-3.09261E+00-4.58637E+00-3.69274E+00 1.01047E+00-4.37376E+00 1.59599E+00
 -1      2086-6.32362E+00-1.06454E+01-4.85109E+00 4.90505E-01-5.34885E+00-2.37557E-01
 -1      2087 4.42624E-01 6.16759E-01 1.59746E+00 5.87458E-01 3.74450E+00 2.00395E+00
 -1      2088 4.53285E+00 1.74807E+00 2.32362E+00 5.88581E-02-4.78885E-01 3.76978E+00
 -1      2089 2.19657E+00 3.02061E+00 3.29496E+00-1.18421E+00 3.18260E+00-1.98932E+00
 -1      2090-6.52006E+00-5.11888E+00-4.78564E+00 9.21741E-01 4.15911E+00-4.55193E+00
 -1      2091-4.23212E+00-1.48992E+00 6.52095E-01-5.90962E-01-7.17403E-01 3.83931E+00
 -1      2092 7.32925E-01-7.18653E-01-1.11189E+00 6.36367E-01 3.43358E+00 1.55861E+00
 -1      2093-3.92425E+00-9.00177E+00-1.49254E+00 9.14641E-01-3.55391E+00-4.57934E-01
 -1      2094-6.27563E+00-4.17038E+00-1.13631E+00 1.53486E+00 3.24354E+00-3.98292E+00
 -1      2095 1.96092E+00 2.30335E+00 3.07015E+00-6.78423E-01-4.22171E+00 3.35961E-01
 -1      2096-1.03937E+00-4.29695E+00 1.54304E-01-3.07989E-01 3.09213E+00-9.31710E-02
 -1      2097-8.72867E+00-7.88845E+00-4.95085E+00 1.70049E+00-2.88049E+00 3.21470E+00
 -1      2098-4.44570E+00-4.91501E+00-4.48177E+00 8.61233E-01 4.10208E+00-2.67603E+00
 -1      2099-1.18157E+01-9.17058E+00-9.22262E+00 1.33242E+00-1.49866E+00 4.06265E+00
 -1      2100 6.20467E+00 4.95872E+00 7.87698E+00-6.61153E-01 2.01020E+00-4.46068E+00
 -1      2101-8.60040E+00-6.82055E+00-6.96675E+00-1.51310E+00-2.40879E+00-4.17236E+00
 -1      2102 4.40229E+00 7.49035E+00 2.59285E+00 1.14164E+00 3.69478E+00 2.83368E+00
 -1      2103 9.64244E-01 3.65683E+00 1.33295E+00 1.13684E-01-3.45020E+00-5.99357E-02
 -1      2104-5.77487E+00-8.74026E+00-6.77421E+00-3.65398E-02 4.59072E+00-3.17739E-01
 -1      2105 4.94444E+00 4.05997E+00 1.86967E+00-1.10201E+00 7.99248E-01 6.39586E-01
 -1      2106-6.67170E+00-7.72567E+00-4.08835E+00 2.13105E+00-5.02893E+00 2.53632E+00
 -1      2107-2.70773E-01 1.85861E+00 3.91851E-01 1.15272E+00 1.35537E+00-2.01127E+00
 -1      2108 6.38008E+00 5.02981E+00 5.58209E+00 7.52239E-01-1.74778E+00-4.38820E+00
 -1      2109-5.80366E+00-2.81223E+00-2.14499E+00 4.31046E-01-1.25075E+00 4.27161E+00
 -1      2110 1.42517E+00-9.78232E-02 1.86909E+00-2.89613E-02-9.83316E-01-2.89064E+00
 -1      2111-7.97651E+00-5.47238E+00-4.40981E+00 1.51689E-01 5.25931E-01-5.16950E+00
 -1      2112-1.19157E+01-1.02637E+01-7.24856E+00 1.93852E+00 1.62703E+00-3.72718E+00
 -1      2113-7.79904E+00-3.33745E+00-1.16710E+00 1.46658E+00 3.64351E-01-3.48941E+00
 -1      2114 3.21470E+00 4.03103E+00 2.95474E+00 5.47561E-01-5.15215E+00 4.34743E-02
 -1      2115-2.85469E+00-6.74080E+00 2.43468E-01-7.43182E-01-3.75435E+00-3.27702E-01
 -1      2116 5.94618E-01 1.67713E+00 7.32966E-01 6.83105E-01-1.05376E-01-2.25850E+00
 -1      2117 4.43928E+00 3.81328E+00 5.75559E+00 2.54521E-01 7.55625E-01-4.04619E+00
 -1      2118-4.33646E+00-2.12608E+00-1.38951E+00-1.52822E+00 1.70801E+00 4.38556E+00
 -1      2119-6.92851E+00-1.07114E+01-6.87654E+00 7.60990E-01-5.11057E+00 5.92285E-01
 -1      2120-7.43213E+00-6.00505E+00-6.70693E+00-7.91773E-02 1.18273E+00-3.85873E+00
 -1      2121 1.04218E+01 6.86155E+00 4.92269E+00-9.91556E-01 1.23662E+00-4.17477E+00
 -1      2122 7.92562E+00 5.87515E+00 5.79461E+00 1.36119E-01 8.08002E-01-4.80326E+00
 -1      2123 4.61241E+00 5.35359E+00 6.94138E+00-1.47692E-01-2.40909E+00 3.94326E+00
 -1      2124-6.88493E-02 7.10486E-01 2.56057E+00-8.59994E-01-9.89190E-01-3.42405E+00
 -1      2125-6.62979E+00-7.20845E+00-3.89514E+00 2.56874E+00 4.42384E+00-2.81274E+00
 -1      2126-1.71964E+00 1.00662E-01 3.45635E-01-1.12594E+00-2.02811E+00-2.97849E+00
 -1      2127 2.40397E+00 1.65799E+00 4.44899E+00 9.34051E-02-3.94139E+00-2.20920E+00
 -1      2128-5.31757E-01 1.24851E-01-2.60525E-01 1.27115E+00-2.25582E+00-1.74165E+00
 -1      2129 1.37179E+00 2.76081E-01 2.98954E+00 5.12770E-02-4.32751E+00 1.78551E-01
 -1      2130 1.25688E-01-2.17384E+00 6.40257E-01-1.29704E-01 3.55906E+00 2.50399E-01
 -1      2131 4.88523E-01-1.35325E+00 7.55365E-01 4.55629E-01 3.15469E+00-3.02149E-01
 -1      2132-2.54609E+00-2.66506E+00-3.12967E+00-3.44874E-01 4.29443E+00-3.41342E-01
 -1      2133 4.76260E-01-9.83460E-01 1.46202E-01 1.05435E+00 1.95015E+00-1.44050E+00
 -1      2134 1.59793E+01 1.58060E+01 8.57949E-01-4.62976E-01 6.61286E-01-5.58249E-01
 -1      2135 4.26523E+00 6.73036E+00 2.73688E+00 1.56869E-02 2.15194E-01 1.22052E+00
 -1      2136-6.54477E+00-7.92598E+00-6.46456E+00-1.42504E+00-4.53198E+00-1.77292E+00
 -1      2137 4.23594E+00 5.17457E+00 4.36361E+00-2.13924E-01 4.09545E+00-3.10149E+00
 -1      2138 5.06566E+00 4.55684E+00 1.34208E+00 2.58953E-01 2.17898E+00 6.40174E-01
 -1      2139-1.01783E+00 1.04705E+00-1.15667E+00 1.79138E+00 1.18350E+00-4.15724E+00
 -1      2140 5.01550E+00 6.21848E+00 5.29556E+00-6.48246E-01-4.17945E+00 3.42528E+00
 -1      2141 1.16232E+00 8.04438E-01 4.71206E-01-4.86098E-01 8.63067E-01-1.30994E+00
 -1      2142-8.49912E+00-5.61184E+00-5.19275E+00 3.15306E-01 7.41210E-01-5.33474E+00
 -1      2143 1.93499E+00 1.10512E+00-8.29035E-01-2.54813E-01 1.81707E+00-5.35476E-01
 -1      2144 3.28742E+00 1.78222E+00 3.01360E+00 3.64148E-01-5.31471E+00 2.38273E+00
 -1      2145 2.42223E+00 2.59167E+00 7.44470E-01 8.66485E-01 1.08595E+00-1.52103E+00
 -1      2146 4.62450E-01 2.54871E-01 8.70958E-01-4.68804E-01-2.06224E+00 4.68386E+00
 -1      2147-7.83723E+00-4.40105E+00-5.04793E+00 4.22204E-01 9.92168E-01 3.94583E+00
 -1      2148-9.12363E+00-1.50196E+01-7.02378E+00-1.04521E+00-4.16775E+00 7.17537E-01
 -1      2149-3.04430E+00-6.77141E+00-3.98582E+00-3.45376E-01-4.91314E+00 3.41823E-01
 -1      2150 6.42357E+00 3.10229E+00 6.08002E+00-6.44475E-01 1.30994E+00 4.58330E+00
 -1      2151-6.38247E+00-6.56421E+00-5.40378E+00-2.06594E+00-4.41156E+00-3.74229E+00
 -1      2152 8.45927E+00 5.28340E+00 4.97527E+00 3.71703E-01-1.22596E+00-5.04433E+00
 -1      2153 2.96359E+00 2.48674E+00 2.19898E+00-4.24942E-02 2.41362E-02-1.43913E+00
 -1      2154 3.16558E+00 1.76409E+00 4.78480E-02 1.18537E+00-1.45512E+00 6.20002E-01
 -1      2155 2.90371E+00 4.07885E+00 2.89195E+00 1.12694E+00 2.35606E+00 3.85628E+00
 -1      2156-7.32139E+00-2.04657E+00-2.64609E+00 4.05486E-02 3.29535E+00 6.03778E+00
 -1      2157 4.72885E+00 6.23930E+00 4.97576E+00-7.44443E-01 5.27539E+00-2.08686E+00
 -1      2158 7.03297E+00 4.69632E+00 3.05439E+00 2.80246E-02 1.29989E+00-2.00824E-01
 -1      2159-9.77368E-01-1.67061E+00 1.43766E+00-2.15176E-01-4.46851E-01-3.17013E+00
 -1      2160 1.06796E+00-3.07493E-01-6.12228E-01-3.18587E-02 2.09282E+00 1.04020E-01
 -1      2161 1.07450E+01 1.04795E+01 1.83904E+00-8.48297E-01 1.33974E+00 5.14737E-01
 -1      2162 1.23243E+01 1.44816E+01 1.01496E-01-2.04837E+00 2.08153E+00-1.35493E+00
 -1      2163-3.39786E+00-2.57726E+00-3.12652E-01-5.39371E-02 2.76764E+00-1.79292E-01
 -1      2164 2.33066E+00 3.04417E-01 2.45557E+00-5.86993E-01-3.31504E+00 2.43734E+00
 -1      2165 2.29754E+00 2.56090E+00 3.24495E+00-1.81044E+00-1.10466E+00 4.99850E+00
 -1      2166 1.98818E+00 1.98074E+00 1.85357E+00 2.46570E-01 3.96265E+00 3.17042E+00
 -1      2167-1.03235E+01-9.04058E+00-6.21362E+00-2.47964E+00-2.74053E+00-3.38024E+00
 -1      2168 5.23370E+00 5.37558E+00 5.89713E+00 4.02077E-01-3.16056E+00-3.43710E+00
 -1      2169-5.00999E+00-2.32438E+00-1.43762E-01-8.44488E-02 2.68087E-01-3.70589E+00
 -1      2170 5.40023E+00 6.02766E+00 2.96680E+00 6.29532E-01-4.52043E-02 2.32083E+00
 -1      2171-6.37766E+00-5.75765E+00-1.81158E+00-1.60788E+00 1.88441E+00 4.72096E+00
 -1      2172-1.87551E+00 6.52241E-01-2.09282E+00 7.99028E-01 1.21294E+00-2.31507E+00
 -1      2173-8.76497E+00-6.59763E+00-6.44479E+00-1.03905E+00 1.89110E+00 4.38697E+00
 -1      2174-5.35090E+00-1.03683E+01-4.48950E+00 8.87799E-01-4.74828E+00 2.30823E-01
 -1      2175 7.29093E+00 5.63638E+00 2.12014E+00 6.78512E-01-1.66734E+00 1.01512E+00
 -1      2176 2.14516E+00-2.31844E-01 5.66992E-02 3.62248E-01-5.06779E-01 2.31159E+00
 -1      2177-3.27677E-01 1.20917E+00 1.09529E+00-7.68353E-01-1.27621E+00-2.86167E+00
 -1      2178-5.29350E+00-3.13012E+00-2.46625E+00-5.48564E-01 8.50180E-01 3.96995E+00
 -1      2179 3.90800E+00 6.23208E+00 4.73748E+00 3.92328E-01 5.39996E+00 1.09368E+00
 -1      2180 2.82825E+00 5.67874E+00 1.98129E+00-1.17948E-01 5.18261E+00-3.25331E-02
 -1      2181-5.15751E+00-2.82169E+00-2.18924E+00-2.08479E+00-2.61514E+00-2.51672E+00
 -1      2182-8.60774E+00-7.36091E+00-7.89171E+00 9.95810E-01-4.45330E+00 1.68616E+00
 -1      2183-9.06559E+00-6.23239E+00-4.69095E+00-2.67448E-01-9.95880E-01 5.03792E+00
 -1      2184-6.21457E+00-7.21031E+00-7.75161E+00 4.14075E-01 4.43730E+00-8.58792E-01
 -1      2185 7.07680E+00 6.53177E+00 4.60731E+00-2.52548E-01-6.04630E-01 1.38587E-01
 -1      2186-2.00894E-01-5.05477E-01 2.88802E+00 3.60449E-01-3.05307E+00 3.17131E-01
 -1      2187-4.94026E+00-4.56680E+00-3.61718E+00-1.61524E+00 4.27679E+00 3.37347E+00
 -1      2188-1.89132E+00 8.66483E-01 4.38984E-02 6.90505E-01-3.43749E-01-2.23698E+00
 -1      2189 7.81558E+00 5.66088E+00 2.79271E+00 1.44493E-01 1.67015E+00-5.61694E-02
 -1      2190 1.80401E+00 1.80046E+00 2.10099E+00-9.25563E-01 2.64843E+00-2.68594E+00
 -1      2191-6.30372E+00-9.02066E+00-3.12018E+00-8.93702E-01 2.49953E+00 1.03777E-01
 -1      2192-6.10723E-01-1.11033E-01-1.20241E+00-3.66038E-02 4.71030E+00 1.08362E+00
 -1      2193-2.50096E+00-6.24484E+00-5.04981E+00-7.87432E-01-3.94361E+00-1.60097E-01
 -1      2194 1.15125E+01 1.10942E+01-7.70516E-01-8.98543E-01-1.15144E+00 1.93418E+00
 -1      2195-6.86398E-01 7.34597E-01-6.93519E-02-8.41221E-01-1.69483E+00-2.41103E+00
 -1      2196-8.72094E-01 1.44082E-01 6.10396E-01-1.26755E+00-1.81751E+00-2.49529E+00
 -1      2197-4.37908E+00-8.38465E+00-1.69548E+00 1.44587E+00-4.94152E+00 2.55906E+00
 -1      2198-2.37164E+00-2.41234E+00-5.52986E-01 3.77036E-01-1.96389E+00-2.11625E+00
 -1      2199 2.58359E+00 5.11362E+00 4.13292E+00 4.47295E-01-3.83533E+00 1.05523E-01
 -1      2200-8.22010E+00-6.89801E+00-5.92203E+00-1.19444E+00-3.12227E+00-4.15416E+00
 -1      2201 6.32768E+00 5.49907E+00 3.63627E+00-6.61590E-01 1.23054E+00 9.80560E-01
 -1      2202-5.09953E+00-8.11996E+00-5.43017E+00-4.65576E-01 5.02922E+00 9.72758E-01
 -1      2203 5.48360E+00 7.66254E+00 4.64669E+00-6.81772E-01 5.04943E+00-1.08777E+00
 -1      2204 1.89017E+00 2.16711E+00-1.02711E+00-4.61536E-01 1.02420E+00 1.15775E-01
 -1      2205 4.68160E+00 4.37421E+00 1.59049E+00-4.78051E-01 2.64162E+00-3.40603E-01
 -1      2206 2.58817E+00 1.21142E+00 2.13353E+00-2.35101E-01 1.17914E+00-5.62275E-01
 -1      2207-6.48337E+00-6.19075E+00-6.85311E+00 8.41388E-01 4.53846E+00-2.24077E+00
 -1      2208 4.71498E+00 7.58283E+00 1.17665E+00-1.51913E-02 1.12113E+00-1.50900E+00
 -1      2209-2.87159E-01 8.50111E-01-1.05829E+00-1.04623E-01 3.57074E-02-2.39200E+00
 -1      2210 1.60705E+00-5.38816E-01 3.20899E+00-1.21342E+00 3.04926E+00 3.34484E-01
 -1      2211 5.52756E-01 2.46813E+00 8.29469E-01 7.77544E-01 2.74457E-01-2.14976E+00
 -1      2212-7.26249E+00-5.63109E+00-5.14663E+00-7.90594E-01 3.64509E+00 3.44107E+00
 -1      2213 1.39854E+00 1.25046E+00 5.07793E-01-9.10923E-01 4.49164E+00-2.77512E+00
 -1      2214 5.32697E+00 7.06981E+00 2.63679E+00-7.15767E-01-8.37325E-01-1.14506E+00
 -1      2215-1.75618E+00-1.64469E-01 4.99819E-01 6.00946E-01-1.22397E+00 3.44750E+00
 -1      2216 5.16326E+00 7.28466E+00 2.38942E+00 2.85496E-01-2.61968E-01-1.74385E+00
 -1      2217-9.33148E-01-3.22849E+00 2.37859E-01-1.16206E+00-5.03877E+00-1.90940E+00
 -1      2218 1.04127E+01 9.33598E+00 6.78881E-01-3.56413E-01-9.42039E-01-1.96640E+00
 -1      2219-7.48325E-02-1.33460E+00-2.90468E-01 7.00342E-01-2.16912E+00 1.55877E+00
 -1      2220 3.42960E+00 3.03478E+00 3.46488E-01-3.57115E-01 1.11202E+00 1.15360E+00
 -1      2221 5.89226E-01-1.80998E+00 1.44180E-01 2.60650E-01 2.77047E+00-3.79850E-01
 -1      2222-4.86196E+00-5.04719E+00-7.15164E+00-5.62403E-01 1.81887E+00-5.53309E-02
 -1      2223 1.24839E+00-2.79271E-01 5.88174E-01 7.57607E-01 1.98181E+00 1.30457E+00
 -1      2224-1.18661E-01-1.40493E+00 2.72127E-02-4.33530E-01-4.60874E+00-1.27803E+00
 -1      2225-1.67984E+00-7.42163E-01-1.19399E+00 2.09046E-01 1.85572E+00-2.46161E+00
 -1      2226 5.17812E-01 2.30821E+00 4.47743E-02-8.57520E-01 1.55846E+00 2.41224E+00
 -1      2227-6.45879E+00-5.95515E+00-4.19778E+00 1.40900E+00-3.49256E+00 3.50613E+00
 -1      2228-7.52998E+00-8.49068E+00-6.32092E+00 7.34048E-02-1.07641E+00 5.03417E-02
 -1      2229 2.10357E+00-3.11656E-01 6.15322E-01-2.14334E-01-2.61443E+00-5.69816E-01
 -1      2230 2.05496E+00 2.25632E+00 1.29365E+00 8.46214E-01 1.46540E-01 1.40356E+00
 -1      2231 4.70583E+00 4.40269E+00 3.31531E+00 5.80698E-01-2.67619E+00-3.04114E+00
 -1      2232 7.91188E+00 1.10939E+01 1.02946E+00 5.71036E-01-2.85034E-02 1.22451E+00
 -1      2233 2.21358E+00 1.73952E-01 6.55745E-01-8.53124E-01-2.10815E+00-6.98555E-01
 -1      2234 1.07553E+00 1.91247E+00 9.12823E-01-8.76213E-01-1.00005E+00-2.12095E+00
 -1      2235-2.63121E+00-9.77461E-01-9.93731E-02-2.25986E-02-8.15125E-01-3.37604E+00
 -1      2236-2.87678E+00-3.45063E+00-9.04991E-01 2.47706E-01-2.30658E+00 2.10110E+00
 -1      2237-2.32737E-01 1.46217E+00 1.58792E-01-2.18553E-01 4.09779E-01 1.78781E+00
 -1      2238-2.93345E+00-3.61286E+00-1.34046E+00 4.99829E-02-2.89638E+00 1.27363E+00
 -1      2239 5.91116E+00 2.76473E+00 2.57464E+00 2.18192E-01 9.10915E-01 3.28041E+00
 -1      2240-9.23694E-01 2.15591E+00 5.29720E-01 6.90200E-01 6.21385E-01-4.62112E+00
 -1      2241 9.99011E+00 9.57013E+00 2.27578E+00-8.15246E-01-2.45045E+00 1.62785E+00
 -1      2242 5.84598E+00 6.89275E+00 1.46590E+00 1.44376E+00 2.17055E-01-1.56852E+00
 -1      2243 3.31051E+00 3.31966E+00-4.99856E-01 2.57225E-01 7.52550E-01-1.82741E+00
 -1      2244-1.28767E+00-5.80017E+00-2.87911E-01-5.35775E-01-4.30357E+00-1.25840E+00
 -1      2245-1.43427E+00-4.21811E+00-1.80267E+00-8.50660E-01 3.10073E+00 2.38933E+00
 -1      2246 6.83973E+00 6.38738E+00 4.31279E+00-3.66249E-02 1.00974E-01 9.21567E-01
 -1      2247 9.07007E+00 7.79414E+00 3.66007E+00-6.92551E-01-1.70304E-01-2.75524E-01
 -1      2248-5.05508E-03 1.82723E+00-3.34541E-01 3.76660E-01-1.84494E-01 1.75982E+00
 -1      2249 7.46709E-01 1.60890E+00-7.19068E-01-3.47015E-01 3.53147E-01 1.49268E+00
 -1      2250 1.44816E+01 1.37058E+01-1.01257E+00 7.91268E-01-2.81061E+00-1.28462E+00
 -1      2251-4.16238E+00 9.61203E-01-1.80015E+00-8.28576E-02-5.09448E-01 3.55591E+00
 -1      2252-1.67292E-01 2.32722E+00 3.54090E-01 3.21349E-01 5.67406E-02-3.11906E+00
 -1      2253-2.61272E-01 1.01696E+00 1.01105E+00 7.32852E-01 1.65545E+00-2.05698E+00
 -1      2254 6.16751E-01 3.07991E-01 7.40175E-02 1.36340E+00-2.39245E+00 2.13099E+00
 -1      2255 3.31419E+00 4.09051E+00 2.10965E+00-3.85149E-01-3.59529E-01 1.08826E+00
 -1      2256-8.15795E+00-6.82709E+00-5.71462E+00-1.09390E+00-1.01456E+00-4.11949E+00
 -1      2257 3.67178E+00 4.12353E+00 5.91917E-01-2.61388E-01-1.79644E+00 1.23107E+00
 -1      2258 4.82046E+00 4.29034E+00 2.49289E+00 3.11553E-02-1.24041E+00 1.12647E+00
 -1      2259 1.46085E+00 5.65982E-01 9.95029E-01-2.89662E-01 1.48558E+00-1.07455E-01
 -1      2260-1.24242E+01-6.65771E+00-3.28292E+00-7.51249E-01 9.40439E-01-2.52829E+00
 -1      2261 7.23877E+00 6.60586E+00 2.14145E+00 9.57653E-01-9.14517E-01 1.45284E+00
 -1      2262-6.59246E-02-9.98686E-01-7.94984E-01-7.66789E-02-2.45802E+00-1.90037E+00
 -1      2263-2.70444E+00-1.37762E+00 4.08064E-01 2.82085E-01-2.96943E+00-1.14168E+00
 -1      2264-4.45636E+00-6.03302E+00-3.46354E+00-2.49230E+00-2.84014E+00-4.34088E+00
 -1      2265 1.74175E-02 5.39915E-01-2.86368E-01-1.82698E+00-1.29162E+00-2.20432E+00
 -1      2266-1.64651E+00 3.79720E-01 3.35282E-01 7.79350E-01 4.87251E-01-3.03939E+00
 -1      2267-1.86743E+00 7.29932E-01 3.47629E-01 1.16540E+00-1.71010E+00 3.13776E+00
 -1      2268 2.11853E+00 3.95771E+00 7.85940E-01-1.69529E-01 2.63484E-03 1.54157E+00
 -1      2269 2.34673E+00 3.10229E+00 2.80776E+00-7.69214E-01 1.29040E+00 1.81899E+00
 -1      2270 4.82645E+00 5.26271E+00 3.05834E+00 7.38553E-01 1.03930E+00-6.27877E-01
 -1      2271 1.00697E+00 2.38625E+00 1.04767E+00 5.10357E-01 4.64362E-01-1.60305E+00
 -1      2272 2.89901E+00 4.73657E-01 1.55080E+00-1.22642E+00-3.22290E+00 3.49870E-01
 -1      2273 4.12924E+00 3.36785E+00 9.59476E-01 1.39396E-01-1.60002E+00-4.96224E-01
 -1      2274 4.84073E+00 1.72342E+00 3.14835E+00-6.48160E-01-5.01601E+00-5.64417E+00
 -1      2275 1.03807E+00 9.57419E-01 6.19653E-01-1.06802E-01 1.18313E+00 6.95265E-01
 -1      2276-4.01839E+00-4.32763E+00 8.11104E-01-8.88153E-01 1.30160E+00-2.59989E+00
 -1      2277-2.67829E-01-2.41893E+00-7.74407E-01 1.58234E-01-3.05563E+00-8.26419E-02
 -1      2278 1.82066E+00-3.96219E-01-3.80671E-01 1.15774E-01 1.82980E+00-8.78101E-01
 -1      2279 8.90092E-02-2.05713E+00-9.87534E-02 1.22811E+00 2.62194E+00-1.37345E+00
 -1      2280 1.35525E+00-1.96124E+00 2.30295E-01 2.02176E-01 3.24108E+00 4.64053E-01
 -1      2281 3.93578E-01 8.66391E-01 1.32867E+00 8.71930E-01 2.17804E+00-2.52773E+00
 -1      2282 3.86558E+00 4.95198E+00 2.41436E-01 2.12081E-01 3.50609E-01 1.87007E+00
 -1      2283 2.15892E+00 1.93414E-01 2.27786E+00 3.86215E-01-2.54239E+00 7.32825E-01
 -1      2284 1.07376E+00 1.82196E+00 7.73632E-01 7.94912E-01-6.04575E-01 1.82897E+00
 -1      2285 1.32726E+01 1.32676E+01 5.22166E-01 1.94972E-01 1.90301E+00 2.19555E+00
 -1      2286-2.83220E+00-2.94681E+00-3.00810E-01-1.70002E+00 3.23446E+00 2.33827E+00
 -1      2287-6.74342E+00-2.82965E+00-2.61338E+00-1.25447E+00-9.52256E-01 4.27195E+00
 -1      2288-9.26001E+00-1.05529E+01-5.19354E+00 7.65354E-01-4.84137E-01 1.59192E+00
 -1      2289-5.54016E+00-7.05995E+00-6.94392E+00-9.24736E-02 3.94979E+00 3.02211E+00
 -1      2290 6.16777E+00 5.15391E+00-1.05674E+00-7.81347E-01 1.62588E+00 1.25749E+00
 -1      2291 4.40769E+00 4.49012E+00 2.85573E+00-1.64026E-02 1.30731E+00 1.22631E+00
 -1      2292 1.21333E+01 1.19976E+01 2.67210E+00-4.89203E-01 7.64671E-01-2.23194E+00
 -1      2293-6.44929E-01-1.27846E+00 1.55154E+00 4.24276E-02-9.19451E-01 3.68164E+00
 -1      2294 1.91223E+00 7.64205E-01 2.78876E+00-1.25391E-01 2.00165E+00 2.96919E+00
 -1      2295-7.88341E+00-4.20445E+00-1.17285E+00 1.71077E+00-1.76842E+00 4.78251E+00
 -1      2296-5.70098E+00-6.59513E+00-2.68950E+00-2.23405E+00 2.62510E+00 3.71472E+00
 -1      2297 2.21684E-01 7.78875E-01-8.02388E-01 5.10007E-01 1.04634E+00-1.05535E+00
 -1      2298-2.06894E+00-1.00793E+00-9.93229E-01-6.68100E-01-2.02855E+00-3.82794E+00
 -1      2299 4.81448E+00 4.36830E+00 6.59792E+00 2.60613E-01-3.71825E+00-2.85572E+00
 -1      2300 1.84114E+00-5.80498E-01 9.69397E-01-1.14234E+00-2.50680E+00-1.17154E+00
 -1      2301-2.18544E+00-1.67292E+00 3.09305E-01 4.43177E-02-2.56031E+00 4.15559E-01
 -1      2302 1.62907E-01-3.50126E+00 1.64720E-01 7.27156E-01-2.89979E+00 7.76516E-01
 -1      2303 4.17893E-01-6.78952E-01 1.61245E+00-5.58021E-01 3.17696E+00-3.92790E-03
 -1      2304 1.59763E+00 2.91488E+00 1.11009E+00-7.14728E-01-7.90220E-01-2.14124E+00
 -1      2305-1.60016E+00-4.23220E+00-7.71488E-01-5.19067E-01-4.73969E+00-1.82192E+00
 -1      2306 1.62746E+00 1.27582E+00-3.60260E-02-8.46195E-01 1.96996E+00 2.20443E+00
 -1      2307 1.09081E-01-4.02473E+00 9.90432E-02-1.59939E+00 3.42423E+00 9.05906E-01
 -1      2308-6.07623E+00-7.96105E+00 1.30768E+00-2.87818E+00-1.72705E+00-1.61200E+00
 -1      2309 4.31119E-01-2.47140E-01 4.69795E-01-7.74498E-01-2.31939E+00-1.04545E+00
 -1      2310-4.73585E-01-1.30793E+00 9.49623E-01 1.26349E+00 1.80437E-01-4.09554E+00
 -1      2311-5.29318E+00-4.44467E+00-3.59234E+00-2.16256E+00 3.86252E+00 2.79948E+00
 -1      2312 1.71354E+00 2.57808E+00-1.59773E+00 5.09560E-01 1.26825E+00-1.13976E+00
 -1      2313 4.27978E+00 3.41653E+00 4.56320E+00 9.49278E-01 1.55700E+00 4.61762E+00
 -1      2314 4.31235E+00 4.03177E+00 1.91193E+00-4.35739E-01-7.85425E-01 2.14427E+00
 -1      2315 5.23678E+00 9.29165E+00 5.04892E+00-1.59312E+00-4.90521E+00 1.73485E+00
 -1      2316 2.30905E+00 3.61673E+00 1.45761E+00-3.15989E-01-4.08925E-03-1.67233E+00
 -1      2317 8.77701E-01 1.99284E+00 3.63554E-01 4.05597E-01 3.24921E-01-1.76142E+00
 -1      2318-1.65149E+00-8.01431E-01-1.35482E+00-8.63755E-01 1.48269E+00 2.17517E+00
 -1      2319 1.33903E+00 2.88052E+00-4.24043E-01-2.78582E-01 9.34862E-01-1.21965E+00
 -1      2320 9.92404E-01 1.54054E+00 2.89458E-02 1.13334E+00 1.65155E+00-2.09314E+00
 -1      2321 2.08292E+00 8.40891E-01-2.18620E-02-2.64421E-01 1.74033E+00-6.83099E-02
 -1      2322-1.04651E+01-1.05912E+01-4.74297E+00-7.63185E-01 5.80997E-02 1.09499E-01
 -1      2323-1.78608E+00-5.59907E+00-3.87539E+00 1.62421E+00 3.80825E+00-2.43630E+00
 -1      2324 2.14525E+00 9.02013E-02 1.88666E+00 2.66362E-01 2.93254E+00-1.55630E-01
 -1      2325 4.87640E+00 4.35330E+00 6.18742E+00-8.14538E-02-2.31097E+00 5.38922E+00
 -1      2326-2.72997E+00-2.64155E+00-6.17600E-01-3.81288E-01 2.15157E+00-1.32369E+00
 -1      2327-4.10969E-01-6.06126E-01-6.61616E-01 2.05300E+00 2.33962E+00-3.22135E+00
 -1      2328-7.55685E-01 3.13660E+00 9.47211E-01 6.08978E-02-2.08698E+00 5.47112E+00
 -1      2329-2.08581E+00-2.29242E+00 2.69456E-01 2.07589E-01-2.22552E+00-1.43449E+00
 -1      2330-8.45376E+00-9.95866E+00-8.87617E+00 1.10118E+00 4.11909E+00-3.31954E+00
 -1      2331 2.00354E+00 2.33541E+00 5.51787E-01-1.36062E+00-1.60957E+00-1.25376E+00
 -1      2332-1.47506E+00-2.19147E-01-5.89243E-01 5.27775E-01-1.89091E+00 2.89052E+00
 -1      2333 5.50936E+00 6.50464E+00 7.94197E+00-1.36407E-01-6.11356E+00 6.58170E-01
 -1      2334-5.48161E+00-8.05201E+00-5.44095E+00 1.74906E+00 2.41923E+00-4.13181E+00
 -1      2335 4.83018E+00 3.90027E+00 2.45412E+00 7.29862E-01-1.07311E+00 4.19319E-01
 -1      2336-9.20028E+00-5.19664E+00-3.74760E+00 1.97470E+00 1.18992E-01-4.63143E+00
 -1      2337 2.39534E+00 1.08675E+00 1.26298E+00 4.37365E-01 1.36319E+00-1.82290E+00
 -1      2338-4.28554E+00-3.31094E+00-1.74045E+00 8.80934E-01-1.40248E+00 6.24017E+00
 -1      2339 3.74632E+00 4.83451E+00 3.85846E-01 1.71366E+00 1.65023E+00-6.02961E-01
 -1      2340 1.98654E+00 1.84348E+00-1.13894E+00-1.42634E+00 1.33294E+00 1.30083E+00
 -1      2341-7.69807E+00-8.02342E+00-5.95290E+00 1.46851E+00-3.55608E+00 3.54220E+00
 -1      2342 5.14712E+00 4.85129E+00 2.67840E+00 1.66254E-01-1.41958E+00-3.69947E-01
 -1      2343 1.82485E+00 5.81519E-01-2.29900E+00 5.68472E-01 1.22686E+00-1.01751E+00
 -1      2344-4.83812E+00 7.42462E-01 4.22352E-02 4.81782E-01 1.24566E+00 2.82234E+00
 -1      2345 1.61366E+00 2.71512E+00 3.14227E+00-7.78244E-01-6.10901E-01 4.74090E+00
 -1      2346 6.46672E-01 9.32793E-01 1.04976E+00 2.57681E-02-2.21129E+00 5.28341E+00
 -1      2347-5.12469E+00-2.37781E+00-2.69165E+00 3.72462E-01-1.01646E+00 4.22462E+00
 -1      2348 2.26438E+00 3.15067E+00 1.51063E+00-3.62505E-01-8.37725E-01-1.32399E+00
 -1      2349-5.66779E-01-4.84105E-01 4.99896E-01 1.21848E+00-3.15328E+00 1.14027E+00
 -1      2350-1.09202E+00-6.42814E-01 8.06675E-01 8.92181E-01 1.47695E+00-2.62279E+00
 -1      2351-2.93950E-01 1.24690E+00 1.39214E+00 1.86699E+00 2.77586E+00-3.47792E+00
 -1      2352-8.22981E+00-5.88046E+00-7.70934E+00-4.12781E-02-1.99433E+00-4.78634E+00
 -1      2353 6.88295E+00 5.73171E+00 7.08874E+00 7.92416E-01-8.99329E-01-5.51538E+00
 -1      2354-1.26964E+00-4.35875E-01-5.18710E-01-8.09299E-01 2.05942E+00 3.22065E+00
 -1      2355 3.17291E+00 3.03545E+00 1.56775E+00 4.94279E-01-2.32047E+00-9.64547E-02
 -1      2356 8.00759E+00 9.78061E+00 4.13019E+00-4.12644E-01 9.89274E-01 1.33978E+00
 -1      2357 3.24741E+00 2.53905E+00 2.02614E+00 1.84021E+00-4.41681E+00-1.65204E+00
 -1      2358 4.59693E+00 6.31321E+00 5.88529E+00-7.97524E-01-5.32038E+00-1.83092E-01
 -1      2359 1.45375E+00 2.79243E+00 2.10557E+00 1.55205E+00-1.72165E+00 2.22191E+00
 -1      2360-2.03574E+00-2.60994E+00-1.17278E+00 2.98537E-01 3.02203E+00-1.97299E+00
 -1      2361 4.04082E+00 3.42350E+00 3.00569E+00-6.25085E-01-1.18780E+00-1.14296E+00
 -1      2362 7.84745E-01 6.11702E-01 1.84179E+00-1.14636E+00 2.15153E+00 5.71555E-02
 -1      2363 2.14455E+00 3.82872E+00 1.62563E+00-1.00780E+00 7.49853E-01 1.72995E+00
 -1      2364 2.75767E+00-1.32532E+00-9.24577E-02 2.50188E-01-2.92350E+00 1.06956E-01
 -1      2365 9.50621E-01 2.36542E+00-2.50573E+00 1.52970E-01-3.53253E-01-1.45639E+00
 -1      2366 5.18486E+00 4.21491E+00 5.68186E+00-2.89168E-01 5.12511E+00-3.07252E+00
 -1      2367 1.24049E+01 1.06267E+01 1.01659E+00-2.88632E-01-2.15572E+00 3.07441E-01
 -1      2368 6.75990E+00 9.66813E+00 1.43288E+00 2.95537E+00 1.22204E+00 2.42995E+00
 -1      2369 8.41357E+00 4.40565E+00-2.09372E-01 7.80168E-01-9.82207E-01-7.68672E-02
 -1      2370 8.69110E+00 9.38957E+00 1.20111E+00-1.75719E+00 7.21066E-01 1.25201E+00
 -1      2371-3.88204E-01 2.30268E+00 7.25000E-01 2.11216E-02-1.08638E-01 2.24880E+00
 -1      2372 7.53522E-01-8.13064E-01 3.21304E-01 8.64464E-01-2.67271E+00 2.29845E+00
 -1      2373 3.95862E+00 4.58683E+00 3.44032E+00-6.13915E-01 4.39871E+00 1.18429E+00
 -1      2374-3.05296E+00-6.19820E+00-4.69187E+00 1.20492E+00 3.70689E+00-1.74149E+00
 -1      2375 3.37481E+00 1.49301E+00 1.25773E+00-2.44533E-03-1.88142E+00-4.95003E-01
 -1      2376-4.39989E+00-6.58790E+00-4.55219E+00-2.84948E-01 5.59031E+00 7.43502E-01
 -1      2377 5.58156E+00 2.15417E+00-9.37355E-01 3.60461E-01-1.30232E+00 5.50763E-01
 -1      2378-2.66771E+00 1.59889E+00-1.50839E+00 2.75977E-01-1.09207E+00 3.07757E+00
 -1      2379-2.28099E+00-2.29425E+00-1.92943E+00 1.67511E+00-3.67016E+00 2.39725E+00
 -1      2380-1.57379E+00 1.16783E+00-1.26956E-01-1.50796E+00-1.43520E+00-2.62796E+00
 -1      2381 2.14279E+00 3.27393E+00 5.60196E-01-1.16684E+00-1.39867E+00-9.19278E-01
 -1      2382-2.43331E+00-1.02724E+00-1.70311E+00-5.03524E-01 6.53532E-01 2.55159E+00
 -1      2383 5.11708E+00 5.97837E+00 1.87399E+00-6.82365E-01 1.73686E+00 1.01317E+00
 -1      2384 1.06810E+00 4.72059E-01 9.84933E-01 8.69226E-01 1.55796E+00-1.50627E+00
 -1      2385 2.13970E-01-2.97834E+00 1.02979E-01 1.51562E-01 3.25600E+00-5.38016E-02
 -1      2386 5.67174E+00 5.02256E+00 3.06834E+00 7.55683E-01 1.98117E+00-1.04681E+00
 -1      2387 1.22959E+01 1.32475E+01-2.25060E+00-1.38683E+00 2.27987E+00 8.04610E-01
 -1      2388 6.23974E+00 7.16042E+00 2.53596E+00-9.95498E-01-9.25623E-01-1.62801E+00
 -1      2389-9.80478E-01 5.68682E-01 2.01380E+00-6.63727E-01-9.41054E-02 2.84278E+00
 -1      2390 4.54378E+00 5.49529E+00 3.86084E+00 1.08953E-01 6.91302E-02-1.81210E+00
 -1      2391 2.61413E+00 2.06074E+00 1.53979E+00-1.16580E+00 1.58399E+00 1.89407E+00
 -1      2392-3.45065E+00-4.92098E+00 2.50419E-02-9.49482E-01-3.51560E+00-3.82606E+00
 -1      2393-5.85404E+00-7.22651E+00-5.98457E+00-1.48579E+00 4.44781E+00 3.12173E+00
 -1      2394-2.78858E+00-4.74587E+00-1.10353E+00-1.08441E+00 3.49901E+00 9.57128E-01
 -1      2395 2.40143E+00 1.72540E-01 4.48568E-01 3.22310E-01 1.61689E+00-7.00778E-01
 -1      2396 5.75149E+00 5.75497E+00-1.10290E+00-1.87063E-01-1.97938E+00-1.72937E+00
 -1      2397 2.40836E+00 1.16995E+00 1.52174E+00-4.73871E-01 1.58648E+00 3.95759E-01
 -1      2398 1.62915E+00 4.18946E-01 1.36706E+00-4.63462E-01-2.28110E+00-7.87438E-01
 -1      2399 7.57280E-01 9.03599E-01 7.30251E-01-8.02307E-01-1.11613E+00-1.93629E+00
 -1      2400-1.29654E+00-2.24181E+00-4.38680E-01-5.58955E-01-2.21736E+00-1.52716E+00
 -1      2401-4.45290E+00-2.92261E+00-7.93218E-02 2.87602E+00-2.07420E+00 2.28490E+00
 -1      2402-8.09353E+00-9.44310E+00-6.52157E+00-1.65771E+00-4.34348E+00-2.59275E+00
 -1      2403 9.65047E+00 7.65390E+00-1.63384E-01-2.06812E+00 1.45371E+00-1.26322E-01
 -1      2404-2.56455E+00-3.07811E+00-8.36619E-01-2.52652E-02 2.15548E-01 2.48444E+00
 -1      2405 1.54213E+00 5.06564E-01 9.52390E-01-6.50228E-01-2.05191E+00-1.04122E+00
 -1      2406 4.07885E+00 3.97452E+00 1.68494E-01-1.72700E-01 1.22454E+00-1.69684E+00
 -1      2407 1.06263E+01 1.14877E+01 4.44249E+00-1.07911E-01 2.37113E-03-6.13404E-01
 -1      2408 5.27088E+00 3.53374E+00 2.22496E+00-4.10136E-02-1.58081E+00 4.04719E-01
 -1      2409 3.57401E+00 2.27051E+00 2.92282E-01-8.20097E-01 1.07082E+00 6.47429E-01
 -1      2410-7.53559E-01-8.33445E-01-2.60688E-01-6.76179E-01 1.79783E+00 1.29285E+00
 -1      2411-2.02598E+00-6.83048E-01 1.94495E-01 5.36972E-01-1.60099E+00 3.06473E+00
 -1      2412 3.29099E+00 2.63266E+00 1.84818E+00 1.75846E-01 1.49178E+00-7.85307E-01
 -1      2413-6.00230E-01-4.56835E-01-1.67972E-01-5.96754E-01 2.35527E+00 1.19371E+00
 -1      2414-6.25432E+00-8.11957E+00-2.51091E+00 2.24670E+00-3.57402E+00 3.41599E+00
 -1      2415 3.17454E+00 4.85841E+00-1.95109E-01 5.09076E-01-7.18888E-01 9.16572E-01
 -1      2416 1.58498E+00 1.86876E+00 4.90881E-01 9.44730E-01-8.21440E-01 1.21062E+00
 -1      2417 2.82053E+00 3.61972E+00 2.10345E+00-5.22801E-01 6.42250E-01 6.55182E-01
 -1      2418 4.19477E+00 8.87226E-01-6.25242E-01-5.65450E-02-1.89481E+00-2.55610E-01
 -1      2419 3.72724E-01-9.20919E-01 2.73050E-01-2.08673E-01-3.43432E+00-7.81282E-01
 -1      2420-7.44606E-01 1.67731E-01 4.74491E-01-4.82223E-01 6.77281E-01 2.33288E+00
 -1      2421 9.90421E-01 5.16598E-01-2.66898E+00-9.69628E-01 1.68842E+00 2.93757E-01
 -1      2422 1.38027E+00 1.97508E+00 7.21211E-01 1.08635E+00-1.37997E+00 1.15270E+00
 -1      2423 3.15940E+00 4.12990E+00 2.45484E+00 4.35817E-01-8.44853E-01 1.38385E+00
 -1      2424-7.21192E-01 8.83398E-01 9.05642E-01 5.23597E-01-3.27855E-01 3.36374E+00
 -1      2425 9.64443E-01 1.56546E+00 5.71309E-01-6.92936E-01 8.59270E-01 1.48692E+00
 -1      2426-4.84584E-01 1.12501E+00 8.55215E-01 5.34798E-01-5.42566E-01 2.80319E+00
 -1      2427 8.57650E-01-4.27334E-01 1.18719E+00 9.85517E-01-2.29079E+00 1.22707E+00
 -1      2428-1.09172E+00 5.84632E-01 1.49760E-01 1.12578E+00-6.76446E-01 2.10011E+00
 -1      2429 8.24644E+00 7.26562E+00 2.22122E+00 4.57310E-01 1.06437E+00-6.69752E-01
 -1      2430-3.09748E+00-9.88609E-01 2.91058E-01 4.91157E-01-1.33192E+00 6.17338E+00
 -1      2431 2.48224E+00 3.27907E+00-8.12805E-01 1.19923E+00 1.24873E+00-9.05869E-01
 -1      2432 5.67560E-01 8.69632E-01 1.08351E+00 1.27545E+00-2.22124E+00 2.26655E+00
 -1      2433 2.79495E+00 1.22333E+00 7.02358E+00-8.91752E-01-3.24242E+00-1.47971E+00
 -1      2434-7.17908E+00-7.10286E+00-2.52081E+00 2.34617E+00-3.50380E+00 3.42690E+00
 -1      2435-2.41979E+00-1.37558E+00-1.47393E+00 3.43892E-01-1.79422E+00 3.47388E+00
 -1      2436-1.02840E+01-1.69402E+01-5.10921E-01-4.52761E+00-1.57712E+00 2.50251E-02
 -1      2437-2.16293E+00-3.08764E+00-2.10321E+00-1.73695E+00 2.89118E+00 3.12625E+00
 -1      2438-3.47269E+00-8.64989E+00-3.90479E+00-6.57823E-01-3.60760E+00-1.54833E+00
 -1      2439-1.11871E+00 8.93523E-01 3.17166E-01-7.21194E-01-4.81074E-02-3.04983E+00
 -1      2440 3.51903E+00 4.41376E+00 1.96622E+00 6.45658E-01-5.01246E-01 1.75260E+00
 -1      2441 2.47449E+01 1.67744E+01 3.03867E+00-9.69106E-01-1.05325E+00 4.23385E-01
 -1      2442 3.43449E-01 9.37508E-01-2.35235E+00-6.89965E-01-1.00129E+00-8.59919E-01
 -1      2443 1.77540E+00 3.52647E+00 2.80305E-01-1.18868E-01-5.90008E-01-1.96927E+00
 -1      2444 1.03138E+00-3.35527E-01 1.42905E+00 3.58831E-01 2.04952E+00-3.34454E-01
 -1      2445 1.78443E+00 2.76672E-01 5.62028E-01 4.30482E-01-2.07609E+00 3.83271E-01
 -1      2446 6.96616E+00 5.12691E+00 3.83855E+00-4.33512E-01-1.38645E+00-6.36475E-01
 -1      2447 2.59486E+00 2.31997E+00 1.26794E+00-8.10846E-01 1.00140E+00 7.61811E-01
 -1      2448-1.30222E+00-1.99933E+00 1.90290E+00-1.27846E+00-3.03192E+00-1.57166E+00
 -1      2449-6.22769E+00-2.09171E+00-2.38790E+00 1.05690E+00-8.08289E-01-4.66620E+00
 -1      2450 3.73676E+00 2.94776E+00 2.82794E+00-8.84652E-01-1.49191E+00-3.12418E-01
 -1      2451 6.79515E+00 3.53947E+00 4.21785E+00 3.47222E-01 2.93277E+00-4.47262E+00
 -1      2452 2.26870E+00 1.00092E+00 1.32571E+00 5.83877E-01-1.51241E+00 8.57875E-01
 -1      2453 1.69245E+00 9.19473E-01-1.75526E+00 8.33528E-01-1.23505E+00 1.25301E+00
 -1      2454 8.02015E+00 7.12147E+00 2.66557E+00 9.03826E-01-1.23574E+00 4.56867E-01
 -1      2455-2.35629E+00-1.61847E+00-8.37994E-01 1.04667E+00-2.07557E+00 2.36007E+00
 -1      2456-3.88061E+00-1.12409E+00-9.34827E-01 1.31208E+00-1.08724E+00 2.47165E+00
 -1      2457-1.64310E+00-7.32363E-01 1.10996E-01-1.19894E-01-1.14271E-01 3.74638E+00
 -1      2458 5.93314E+00 7.38811E+00 4.12011E+00-8.85982E-01 4.18047E-01 1.79307E+00
 -1      2459-4.51130E+00-8.55641E+00-4.58808E+00-1.17938E+00-5.09979E+00-8.76187E-02
 -1      2460 1.28772E-01-1.36343E+00 1.77119E+00 8.93281E-01 2.56959E+00-1.92943E+00
 -1      2461 8.62784E-01 1.01447E+00 9.36268E-01-8.29239E-01 5.77613E-01 1.56988E+00
 -1      2462 2.06233E+00 2.78384E+00 1.75180E+00 9.11246E-01-9.37511E-02 1.86924E+00
 -1      2463-6.13078E+00-8.72311E+00-7.28755E+00-1.66162E+00 4.16319E+00 9.63579E-01
 -1      2464 2.82823E+00-3.92963E-03 3.95104E-01 6.59739E-02-2.14349E+00-3.41568E-01
 -1      2465 4.60140E+00 1.92330E+00-7.49558E-01 5.49043E-01-1.59122E+00-6.62527E-01
 -1      2466 2.21999E-01 6.72670E-01-1.44872E+00-5.48490E-01-1.34324E+00-1.27626E+00
 -1      2467 1.21966E+00 9.96541E-01-3.00535E-01-4.99504E-01-2.02139E+00-6.59038E-01
 -1      2468 1.69335E+00-1.32427E+00 2.38133E-02 1.89606E+00-2.15363E+00 1.70037E+00
 -1      2469 9.57087E-01 2.88684E-01-2.71065E-01-1.34809E+00-1.75475E+00-1.45650E+00
 -1      2470 5.30607E+00 4.24515E+00 4.84854E+00-2.38877E-01 1.23478E+00 6.93316E-01
 -1      2471 1.77293E+00 2.27107E+00-1.42044E-01-3.03288E-01-7.00793E-01-1.11797E+00
 -1      2472 5.52078E+00 4.44446E+00 3.13411E+00 8.71864E-01 4.77490E+00 3.48460E+00
 -1      2473 2.46978E+00 5.21194E-01 1.04175E+00 1.14166E+00-2.34732E+00 7.41659E-01
 -1      2474-5.99944E+00-4.11824E+00-1.86160E+00 1.95929E-01 1.98797E+00 1.03503E+00
 -1      2475 6.98198E+00 8.28216E+00 3.58924E+00 5.66311E-01-1.56255E+00 1.04482E+00
 -1      2476 9.48984E-01 1.62580E+00 3.64791E-01 2.24544E-01-7.31375E-01 1.64580E+00
 -1      2477 1.98256E+00-8.42577E-01 2.56151E+00 8.10485E-01-1.96692E+00 1.30963E+00
 -1      2478 7.77650E+00 6.78861E+00 3.31620E+00-3.94417E-01-1.70574E+00-1.01238E+00
 -1      2479 7.28518E+00 7.18175E+00 3.62740E+00-8.99346E-01-1.22004E+00-1.08412E+00
 -1      2480 1.47614E+00 8.88427E-01-1.05820E-01 9.81086E-01-1.34570E+00 1.48765E+00
 -1      2481-3.76085E-01 9.09080E-01 5.61385E-01-7.80878E-01 1.87472E+00 2.86249E+00
 -1      2482 3.70663E+00 4.90572E+00 2.11858E+00-8.39779E-01-4.44911E-01-1.19030E+00
 -1      2483 8.92985E+00 6.09232E+00 1.41564E+00 6.48437E-01-8.80416E-01 1.51080E+00
 -1      2484 1.79407E+00 2.76957E-01 3.66347E-01 9.74757E-01-2.12008E+00 1.10911E+00
 -1      2485 4.98962E+00 2.88416E+00-8.21638E-02-5.08330E-01 1.54016E+00 8.02288E-01
 -1      2486 2.03110E+00 1.14053E+00 2.01674E+00 9.99071E-01-2.10284E+00 1.43150E+00
 -1      2487 9.39704E+00 1.17620E+01-1.72967E+00-3.01814E-01 2.58923E+00 1.93305E-01
 -1      2488 1.01087E+01 7.64056E+00 3.82294E-01 2.12231E+00 3.57972E-01-1.16535E+00
 -1      2489-2.35945E+01-8.52467E+00-1.00546E+01-1.02774E+01-4.35312E-02 7.79777E-01
 -1      2490-3.14307E+01-2.78333E+01-1.27129E+01-1.81270E+01 9.01024E-01 7.13768E-02
 -1      2491 1.20844E+01 1.23740E+01 4.63704E+00-6.02950E-01-9.66401E-01 1.13569E+00
 -1      2492-2.40588E+01-3.21930E+01-1.04024E+01 2.12722E+01-6.60040E-01 7.65861E-02
 -1      2493-2.48772E+01-1.00465E+01-1.04164E+01 8.20143E+00-3.11018E-02-1.03447E-01
 -1      2494-3.69018E+01-8.82879E+00-7.78546E+00 1.30089E+01-3.63264E-01 5.56057E-01
 -1      2495-1.84333E+01-2.19127E+01-1.04099E+01 1.41313E+01 1.03095E+00-2.36855E-01
 -1      2496-2.04833E+01-1.59363E+01-7.53338E+00 1.25095E+01-6.97278E-03 4.81719E-02
 -1      2497-1.19410E+01-1.35358E+01-3.00588E+00-2.57958E+00 3.50383E-01-6.72619E-01
 -1      2498 5.72491E+00 7.70735E+00 2.55607E+00-8.49502E-01-3.31817E-01-1.36677E+00
 -1      2499-1.27079E+01-2.63295E+01-1.05956E+01 7.82934E+00 8.62141E-01-3.19903E-01
 -1      2500 1.69148E+00 3.57664E+00-2.09462E-01 3.89482E-01-9.97955E-01 1.05770E+00
 -1      2501-9.90798E+00-8.90862E+00-3.21720E+00 4.59763E-01 4.52224E-01-1.30466E+00
 -1      2502 1.66746E+01 1.54875E+01 5.04220E+00 1.43608E+00 1.31403E+00 9.66004E-01
 -1      2503-1.52246E+01-1.23942E+01-7.28599E+00-1.88714E+00 5.59350E-01 3.42405E-01
 -1      2504 4.93052E+00 3.08771E+00-9.26838E-01-1.25632E-01-1.30149E+00 5.37139E-01
 -1      2505-1.94742E+01-8.45370E+00-6.86669E+00 8.87995E+00 1.31712E-01 1.97390E-01
 -1      2506-3.44059E+01-1.12530E+01-7.78809E+00-1.09920E+01-7.24451E-01 3.87390E-01
 -1      2507 6.54526E+00 5.77344E+00 3.96505E+00 9.91641E-01 1.15971E+00-4.19038E-01
 -1      2508-1.72783E+01-1.68779E+01-6.86654E+00-1.20211E+01-7.11184E-01 1.82810E+00
 -1      2509-1.68935E+01-1.54246E+01-1.03369E+01-1.22809E+01-7.87495E-01 3.57234E-01
 -1      2510-4.85321E+00-3.62415E+00 1.76555E+00 6.09596E-01-7.76564E-01 3.49188E-01
 -1      2511 1.56191E+01 1.71257E+01 2.45085E+00 5.87913E-01-2.57536E+00-1.22983E+00
 -1      2512-4.25222E+00-4.62731E+00 1.27553E+00-1.64916E+00-5.36168E-01 2.57489E-01
 -1      2513-3.14259E+01-1.71358E+01-1.46068E+01-1.62159E+01-3.29875E-01-7.90961E-01
 -1      2514 1.55827E+01 1.57481E+01 3.12174E+00 4.07481E-01 2.22503E+00 1.12671E+00
 -1      2515-3.18401E+01-1.02534E+01-1.32321E+01-9.09093E+00-1.48679E-01-1.66268E+00
 -1      2516 1.32164E+00 3.00327E+00 1.47036E-01 8.24174E-01 8.89430E-01-1.43082E+00
 -1      2517-1.21099E+01-3.62839E+01-7.22247E+00-1.40552E+01 1.41821E+00-4.83460E-01
 -1      2518-4.18680E+01-7.27667E+00-5.89655E+00-1.96472E+00-7.36822E-01 9.70285E-01
 -1      2519-1.20319E+01-1.22695E+01-7.79628E+00-9.99162E+00 1.77114E+00 1.04133E+00
 -1      2520 1.73661E+01 1.46922E+01 1.70656E+00 1.03892E-01 1.97008E-01-1.70364E+00
 -1      2521-2.28883E+01-2.63376E+01-6.37100E+00-1.95450E+01-1.80447E+00 2.48120E+00
 -1      2522 1.17074E+01 1.13033E+01-2.34541E+00-3.11998E-01 1.44303E+00 1.61806E+00
 -1      2523-2.77107E+01-5.14766E+00-8.90417E+00-1.09155E+01-2.06644E-01 6.79180E-01
 -1      2524-1.93077E+00-4.43528E+00 1.84624E+00-1.87781E+00 5.67574E-01 3.78233E-01
 -1      2525 5.28158E+00 5.82700E+00 1.52603E+00 5.90676E-01-6.87944E-01 1.41719E+00
 -1      2526-3.18813E+01-5.09272E+00-8.98132E+00 7.62095E+00 7.03253E-01 3.15712E-01
 -1      2527-1.71227E+01-2.84989E+01-9.49058E+00 1.75452E+01 8.25135E-01-6.40241E-01
 -1      2528-1.16456E+01-3.46681E+01-7.75999E+00 1.12980E+01 1.87691E-01 2.00351E-01
 -1      2529-3.13604E+01-4.35793E+00-5.95306E+00 4.52282E-01-5.99456E-02-3.96322E-01
 -1      2530-3.91617E+01-1.00941E+01-9.53280E+00-1.20916E+01-2.70376E+00-1.86908E+00
 -1      2531-1.59629E+00-4.19000E+00 1.70064E+00 1.44233E+00 6.42371E-01-4.37756E-02
 -1      2532 1.40063E+01 1.47096E+01 2.11571E+00 8.93656E-01-2.34699E+00-6.60908E-01
 -1      2533-1.25833E+01-3.64695E+01-7.85582E+00 1.34108E+01-8.32934E-01-1.56380E+00
 -1      2534-2.67363E+01-2.79090E+01-1.17907E+01-1.67485E+01 1.10828E+00-1.86760E+00
 -1      2535-1.61671E+01-1.73592E+01-1.09136E+01 1.04307E+01 1.56207E+00-1.54035E+00
 -1      2536-6.32704E+00-1.85765E+00 3.79408E+00-2.48040E-02-8.63950E-01 1.90598E+00
 -1      2537-6.13321E+00-2.75764E+01-8.13129E+00-3.91319E-01-1.45274E+00 4.33290E-02
 -1      2538-8.09331E+00-3.62555E+01-9.93071E+00-1.43756E+00-9.69852E-01 8.26725E-01
 -1      2539 1.93546E+01 1.99296E+01 2.18879E+00-5.31634E-01 2.85533E+00 2.10591E+00
 -1      2540-5.78049E+00-5.65212E+00 5.54122E-01 1.02565E+00 9.04059E-01 1.11045E+00
 -1      2541-1.23042E+01-7.00911E+00-5.89258E+00-9.77916E+00 2.01646E+00 7.46069E-01
 -1      2542-2.33242E+01 1.55090E-01-5.72020E+00 2.16294E-01 7.20118E-01 1.16528E+00
 -1      2543 8.72818E+00 1.05540E+01 2.39842E+00-1.80874E+00-1.14524E+00-9.65339E-01
 -1      2544-2.14456E+00-4.65502E+00 1.48315E+00 1.45442E+00-3.99491E-01-7.86148E-02
 -1      2545-1.57831E+01-1.12362E+01-5.97813E+00 9.57294E-01 2.59633E-01 3.36641E-01
 -1      2546 5.00480E+00 6.52584E+00 3.43389E+00-7.34432E-01 1.87581E+00-3.40727E-02
 -1      2547 9.66595E+00 9.10903E+00 5.47137E-01-1.84123E-01 1.27451E+00 2.42401E+00
 -1      2548 8.12965E+00 8.06993E+00 2.23150E+00 5.89880E-01 9.47090E-01-6.96581E-01
 -1      2549-8.55353E+00-3.32567E+01-7.72665E+00-9.69393E+00 2.20672E-01 2.72451E-02
 -1      2550-1.08364E+01-1.50343E+01-7.33635E+00 9.71692E+00-2.35098E-03-1.16068E+00
 -1      2551-3.95200E+01-1.56718E+01-1.40979E+01-1.53847E+01-8.15702E-01 7.15352E-01
 -1      2552-1.01042E+01-1.34357E+01-1.63918E+00-1.14327E+00 6.99095E-01-2.09874E-01
 -1      2553-4.03455E+01-3.59989E+00-2.23105E+00-1.52847E+00 1.55407E+00 2.56326E-01
 -1      2554-3.17198E+00-1.37948E+00 5.27939E+00-2.11727E+00 1.91014E+00 1.18100E+00
 -1      2555 2.94399E+00 3.21191E+00 1.21484E+00-2.26289E-01 6.88457E-01 9.99870E-01
 -1      2556-5.40302E+00-2.75732E+00 1.66241E+00-5.66651E-01-3.03256E-01 3.28902E-01
 -1      2557-2.62635E+01-3.80828E+01-1.56866E+01-2.16851E+01 4.71678E-01 7.11803E-01
 -1      2558 4.83555E+00 5.94290E+00-1.77922E-02 1.13835E+00 1.64452E+00-1.17547E+00
 -1      2559-4.01611E+00-4.04469E+00 1.36286E+00 1.77216E+00-2.16603E-01 1.96299E-01
 -1      2560-4.35141E+01-3.18682E+01-1.18663E+01-2.58599E+01 1.04015E+00 3.28492E+00
 -1      2561-1.73565E+01-5.06208E+01-1.12350E+01 1.77018E+01 2.42517E+00-2.48980E+00
 -1      2562-5.45672E+00-2.35179E+00 1.94842E+00-1.12463E+00-4.28963E-01-6.95825E-01
 -1      2563-6.17853E+00-6.09179E+00-3.89537E+00-1.25457E-01-8.87918E-01 1.83801E+00
 -1      2564-7.36167E+00-2.89918E+01-6.58602E+00 8.82061E+00 1.22558E+00-6.08186E-01
 -1      2565-3.57825E+01-9.60579E+00-8.12683E+00 1.18803E+01-9.82835E-01 1.04425E+00
 -1      2566-3.34826E+00-4.70627E+00 1.48547E+00-1.30502E+00-2.97030E-01 2.00959E-02
 -1      2567-3.86658E+01-1.06421E+01-1.04651E+01-9.28366E+00 1.79570E+00 6.17604E-01
 -1      2568-4.90175E+01-1.11169E+01-1.14896E+01-9.55500E+00 5.55397E-02-2.79315E+00
 -1      2569-4.61134E+00-6.70426E+00 2.04395E+00-4.49973E-01-9.92310E-01 2.27707E-01
 -1      2570-6.53549E+00-6.03890E+00-4.85034E+00-1.65063E-01 1.04073E+00 8.84249E-01
 -1      2571-2.09603E+01-2.86855E+01-8.06403E+00-1.80761E+01 2.40179E+00 2.59504E+00
 -1      2572-4.71998E+01-1.77726E+01-1.82755E+01-1.74383E+01-4.40527E-01 2.35961E+00
 -1      2573-6.08551E+00-6.03028E+00-1.72824E-01-5.27387E-01-1.34266E+00 7.66381E-02
 -1      2574 1.26568E+01 1.28194E+01 3.54549E+00-1.13684E+00-1.36899E+00 9.75279E-01
 -1      2575 8.50249E+00 1.19760E+01 3.71443E+00 1.23487E+00-5.22008E-01 1.61410E+00
 -1      2576-8.28316E+00-2.34572E+01-9.05181E+00-6.93364E+00 1.08329E+00 7.60736E-02
 -1      2577-8.93981E+00-1.62207E+01-7.37455E+00 5.38263E+00 4.11216E-01 7.79284E-01
 -1      2578 1.13194E+01 7.96489E+00 2.91381E+00-2.43439E-01-1.38225E+00-1.48155E+00
 -1      2579-1.82831E+01-2.51854E+01-1.11463E+01 1.92060E+01 2.13152E+00-3.31547E+00
 -1      2580-5.86522E+00-4.25754E+01-7.29984E+00 2.30266E-01 8.59524E-01-1.33895E+00
 -1      2581-2.54311E+01-3.66325E+01-6.68912E+00 2.76721E+01-1.74053E+00-2.09450E+00
 -1      2582-5.39502E+00-1.95380E+00 2.73982E+00 2.14207E-01 1.62380E+00-9.19677E-01
 -1      2583-2.92115E+01-2.48063E+01-6.15452E+00 1.83648E+01-1.31908E+00-1.88795E+00
 -1      2584 1.35517E+01 1.30526E+01 2.31636E+00-2.29423E-01 2.86305E+00-9.05973E-01
 -1      2585 8.79529E+00 6.74542E+00 2.76372E+00-7.91688E-01 1.60903E+00-6.67253E-01
 -1      2586-1.08209E+01-1.13409E+01-5.88865E+00-5.66647E-01-1.07618E+00-5.29287E-01
 -1      2587-3.54598E+01-1.54472E+01-1.14996E+01 1.43843E+01-9.17944E-01 2.94457E+00
 -1      2588-6.26560E+00-7.33435E+00-1.40289E-02-2.76344E-01 1.30253E+00 5.59040E-01
 -1      2589-1.68709E+01-4.71585E+01-1.01621E+01-1.15933E+01-7.10902E-01 2.54574E+00
 -1      2590-1.08963E+01-4.15419E+01-5.59347E+00-1.35742E+01-1.00823E+00 2.40972E+00
 -1      2591 1.12231E+01 1.42168E+01 7.32468E+00-7.17403E-01 6.85271E-01 1.33964E+00
 -1      2592-1.49192E+01-3.27523E+01-1.53269E+01 7.91889E+00 1.68003E+00 5.55538E-01
 -1      2593-6.92088E+00-3.42954E+01-1.02281E+01 3.10458E+00-1.51866E+00-5.58519E-01
 -1      2594-3.92492E+00-4.09689E+00 1.33806E+00 1.61937E+00 6.30727E-01 4.08250E-03
 -1      2595-5.42853E+01-6.92686E+00-2.76987E+00 1.73661E+00 5.43328E-01-7.78146E-02
 -1      2596-1.70159E+01-2.99768E+01-1.14290E+01 1.11438E+01-2.20030E-01-1.14779E-01
 -1      2597-3.96016E+01-1.52386E+01-1.41278E+01-1.28109E+01 1.92551E+00-1.42805E-01
 -1      2598-1.49494E+01-1.04969E+01-6.39190E+00 1.39981E+00-6.29860E-01-6.71929E-01
 -1      2599 8.96454E+00 1.38763E+01 2.96758E+00 3.63333E-01 1.52208E-01-2.34587E+00
 -1      2600 1.46178E+01 1.53618E+01 1.67060E+00-7.24870E-01-2.66961E+00 1.37464E+00
 -1      2601 5.05810E+00 7.68946E+00 2.40692E+00 5.24293E-03-4.95813E-01 2.02708E+00
 -1      2602-2.98249E+01-3.01285E+01-1.14793E+01 1.79464E+01-2.98185E-01-5.89935E-01
 -1      2603 3.38518E+00 1.31025E+00-1.75959E+00 7.94060E-01-1.06780E+00 1.37271E+00
 -1      2604-1.29137E+01-1.05295E+01-3.53636E+00 1.34707E+00-5.45800E-01 5.97969E-01
 -1      2605 9.92166E+00 9.18087E+00 9.77746E-01-3.03921E+00 1.77864E+00-1.58644E-01
 -1      2606-9.27287E+00-1.97682E+01-9.20247E+00-4.20195E+00 4.61342E-01-2.83408E+00
 -1      2607-5.09453E+01-7.40769E+00-1.10609E+01 1.70327E+01 2.83524E+00 1.73883E+00
 -1      2608 6.66489E+00 4.25086E+00 2.50372E+00 5.05057E-01 1.48467E+00 3.69370E-02
 -1      2609 5.42562E+00 4.93202E+00 3.33513E+00 5.70098E-01 9.25610E-01-6.68511E-01
 -1      2610-1.90793E+01-1.99671E+01-3.16115E+00 1.17884E+00 2.09279E+00-1.24403E+00
 -1      2611-1.46921E+01-2.78818E+01-1.15653E+01-1.36391E+01-1.46016E+00-2.19928E-02
 -1      2612 4.01495E+00 2.60487E+00 4.80641E-03-1.40869E+00-1.87696E+00-3.98991E-01
 -1      2613 1.29310E+01 1.01818E+01 7.37752E-01 2.51909E+00-1.22047E+00 3.55947E-01
 -1      2614 1.87179E+00 2.68410E+00-3.43331E-01 1.43330E-01-1.06512E+00 7.65432E-01
 -1      2615 5.72848E+00 4.58423E+00 2.52304E+00-2.93735E-01-1.00796E+00 2.40074E-01
 -1      2616-1.29889E+01-1.50781E+01-6.95053E+00 1.86357E+00 1.60954E-01-5.18515E-01
 -1      2617 2.48227E+00 1.22448E+00 2.39339E+00-2.44451E-01-1.43938E+00 1.27520E+00
 -1      2618 6.28771E+00 5.30962E+00 1.58995E+00-9.61021E-02-1.34733E+00-9.27393E-01
 -1      2619-2.15865E+01-1.37665E+01-1.12040E+01-4.28277E+00 2.62737E+00-8.17972E-01
 -1      2620-1.49206E+01-4.14388E+01-5.38997E+00-1.88612E+01 5.86074E-01-3.58856E+00
 -1      2621-2.46045E+01-2.32639E+01-7.47490E+00-1.87915E+01-3.86849E-01-7.40309E-01
 -1      2622-5.27006E+01-5.48090E+00-6.41625E+00 5.40240E+00 5.43075E-02-3.85018E+00
 -1      2623-5.15116E+00-3.05457E+00 1.34843E+00 1.07058E+00 5.98827E-01-3.23032E-01
 -1      2624-1.22458E+01-3.68012E+01-1.32749E+01 8.74772E+00 2.81477E+00-1.16612E+00
 -1      2625-2.12002E+01-8.36268E+00-7.09225E+00-1.49895E+00 1.26721E+00-1.30062E+00
 -1      2626-1.46149E+01-1.50553E+01-9.08744E+00-2.13954E+00 7.64045E-01 1.00603E+00
 -1      2627-7.82354E+00-4.51363E+01-1.22417E+01 8.91630E-01-5.91873E-01-7.74185E-01
 -1      2628-1.33885E+01-2.30062E+01-9.83983E+00 5.65988E+00 2.86139E-01-1.05450E+00
 -1      2629-5.17159E+01-3.57580E+00-5.22548E+00-4.87472E+00-3.65986E+00-4.56934E-01
 -1      2630-4.35450E+00-3.20469E+00 1.99192E+00 9.84950E-01-1.23114E+00 2.67039E-01
 -1      2631-4.15318E+01-1.53744E+01-1.32164E+01-1.58675E+01 5.80650E-02-1.21090E+00
 -1      2632-5.64861E+00-2.61659E+00 1.04165E+00-6.98908E-02-3.24342E-01-7.88508E-01
 -1      2633-4.84517E+01-1.56000E+00-7.96602E+00 2.34338E+00 1.82900E+00 5.84935E-01
 -1      2634-4.04474E+00-4.96024E+00 1.02132E+00 1.59445E+00-7.58778E-01 2.19519E-02
 -1      2635-2.31221E+01-1.61100E+01-6.73565E+00-1.50052E+01 7.16071E-01 8.59873E-01
 -1      2636-2.84537E+01-2.37444E+01-3.27938E+00 2.37993E+01 4.22164E-02 1.18141E+00
 -1      2637-5.82093E+00-4.83867E+00 3.50565E-01-2.57386E-01-5.19903E-01-1.06189E+00
 -1      2638-3.71276E+01-1.54331E+01-1.37994E+01 1.17426E+01-2.22246E+00 4.36686E-01
 -1      2639-1.76343E+01-2.01351E+01-1.05008E+01-1.59396E+01-1.50750E+00 1.31521E+00
 -1      2640-6.46758E+00-1.25680E+00 1.01701E+00 1.44342E+00-1.02611E+00 1.63845E+00
 -1      2641-2.56870E+00-2.68699E+00 2.31965E+00 1.57612E+00 4.62722E-01-2.73749E-01
 -1      2642-1.62228E+01-1.28005E+01-7.91121E+00-6.18006E+00-6.54234E-01 8.67795E-01
 -1      2643-4.16639E+00-3.15618E+01-8.17361E+00 9.67021E-01 1.21520E+00 8.11410E-02
 -1      2644-1.01896E+00-4.62207E+00 2.45798E+00 2.38106E-01 7.68956E-01-2.15330E-01
 -1      2645-8.58283E+00-2.72622E+01-8.99346E+00 9.43235E+00-6.48778E-01 2.14823E+00
 -1      2646-1.25956E+01-2.11215E+01-8.87059E+00 5.19142E+00-7.50919E-01-1.74167E+00
 -1      2647-1.29543E+01-2.17928E+01-9.70622E+00 9.99665E+00 1.77468E-01-1.05980E+00
 -1      2648-1.13462E+01-1.96901E+01-7.77855E+00 6.94871E+00-2.03770E+00-1.37130E+00
 -1      2649 1.02573E+01 9.01284E+00 2.77947E+00 1.58503E+00 1.10200E+00-6.33256E-01
 -1      2650-4.99715E+00-5.30574E+01-8.16331E+00-3.75907E+00 8.96552E-01 2.14454E+00
 -1      2651 1.18004E+01 1.29932E+01 2.24444E+00-4.57423E-01 1.84269E+00-1.54538E+00
 -1      2652-2.21850E+01-1.17072E+01-1.01669E+01 5.64049E+00 1.43918E+00 8.15095E-01
 -1      2653-5.40350E+01-1.22889E+01-1.35211E+01-1.05984E+01 3.40173E-01-5.06608E+00
 -1      2654-1.88812E+00-4.61509E-01 4.59992E+00 3.54196E-01 1.16164E+00-1.55420E+00
 -1      2655-2.04804E+00-4.51062E+00 2.25839E+00-9.41814E-01-4.48904E-01-1.86593E-01
 -1      2656-6.70391E+00-4.51281E+00 1.41261E+00 2.17261E+00-6.43868E-01-2.46523E+00
 -1      2657-3.73325E+00-6.07510E+00 1.91236E+00 4.68611E-01 4.65859E-01 3.52893E-01
 -1      2658-2.22816E+01-1.06206E+01-9.02726E+00-4.08946E+00-6.43396E-01-2.92707E-01
 -1      2659-4.02356E+01-2.49658E+01-7.13299E+00-2.64605E+01 2.66591E+00 4.61168E+00
 -1      2660-4.29077E+00-6.23198E+00 6.85250E-01 3.53556E-01 1.68275E+00-3.25863E-01
 -1      2661 1.39322E+01 8.03500E+00 5.67806E-01 1.25080E+00-9.88893E-01 1.63834E+00
 -1      2662-3.75294E+01-1.83945E+00-8.89892E+00-4.88633E+00-1.58994E+00-1.08968E+00
 -1      2663-2.26316E+01-1.19330E+01-1.00656E+01-6.35768E+00-5.74713E-01 2.93716E+00
 -1      2664-3.78754E+01-2.32177E+01-1.16869E+01-2.43017E+01-2.63303E+00 1.08108E+00
 -1      2665-2.11760E+00-5.15190E+00 1.40377E+00 9.02972E-02-7.37855E-01-1.94926E-01
 -1      2666-9.77849E+00-1.30830E+01-6.72855E+00 6.44398E+00-3.25221E-01-3.05624E+00
 -1      2667-5.20101E+00-2.51926E+00 1.99528E+00-1.19580E+00-7.40240E-03 8.12738E-01
 -1      2668-3.38735E+01-1.46762E+01-6.76379E+00-1.41974E+01 2.04133E+00-1.66822E+00
 -1      2669-2.33163E+01-7.31654E+00-9.41270E+00 2.54206E-01 2.81748E+00 1.10618E+00
 -1      2670-4.67093E+00-2.95868E+00 2.56287E+00-4.91591E-03-5.64425E-01 1.12647E+00
 -1      2671-1.35326E+01-1.82464E+01-9.84402E+00 7.21547E+00 6.65244E-01 2.96493E+00
 -1      2672-6.33667E+00-3.74648E+01-1.15658E+01-4.92476E+00 1.62435E+00-1.39448E+00
 -1      2673 1.87946E+01 2.00835E+01 3.66681E+00-2.22528E-02 5.48090E-01-2.57552E+00
 -1      2674-4.19554E+01-1.30439E+01-8.32609E+00 1.25460E+01 1.65139E+00 1.28974E+00
 -1      2675-5.13663E+01-1.86925E+01-1.89691E+01 1.78291E+01 4.84975E-01-1.66665E+00
 -1      2676-5.57048E+00-7.00349E+01-9.39239E+00-4.87246E+00-8.34404E-01 1.42212E+00
 -1      2677-8.91536E+00-4.33393E+01-7.09637E+00 5.10835E+00 8.59896E-03 3.89433E+00
 -1      2678-2.51169E+01-1.10628E+01-1.12576E+01 5.07761E+00 2.35342E+00 6.36412E-01
 -1      2679-1.17595E+01-9.87760E+00 1.22935E+00-3.51081E-01-2.08346E+00 8.01704E-01
 -1      2680-4.70781E+01-5.78850E+00-6.32746E+00-7.91673E+00-5.46230E+00-1.75189E+00
 -1      2681-3.94870E+00-5.84593E+00 1.80048E+00-6.08666E-01 1.09944E+00 2.95760E-02
 -1      2682-2.52407E+00-3.26382E+00 3.70851E+00-2.94893E-01 1.04487E+00 1.33781E+00
 -1      2683-2.55526E+01-1.59694E+01-8.33747E+00-1.48603E+01-2.67058E-01-1.58040E+00
 -1      2684-2.90893E+01-7.72403E+00-1.11236E+01-1.12284E+01-5.55053E-01 3.78110E-01
 -1      2685-4.42825E+01-1.09846E+01-5.44140E+00 1.64027E+01-1.57809E+00 4.94489E-02
 -1      2686 1.83597E+01 2.20098E+01 5.56961E+00-1.50739E-01-2.06195E+00-1.18450E+00
 -1      2687-5.47047E+00-5.41751E+00 9.97268E-01 3.96857E-01-7.17649E-01 4.31688E-02
 -1      2688-3.61803E+01-1.41778E+01-1.21400E+01 1.80545E+01-7.90163E-02 4.32060E+00
 -1      2689 9.27750E+00 1.03249E+01 4.53886E+00-6.99321E-01-4.70945E-01 1.78990E+00
 -1      2690-1.04291E+01-1.48354E+01-5.46519E+00 9.20819E-01-9.71227E-01-9.20909E-01
 -1      2691-4.06639E+00-5.37119E+00 3.74201E+00-1.55932E+00-1.91588E+00-3.80809E-01
 -1      2692-3.92573E+01-1.60147E+01-1.35658E+01 1.69362E+01-1.30905E+00 1.51492E+00
 -1      2693-1.19562E+01-2.46986E+01-1.30532E+01 1.58406E+01 2.79106E+00-3.66656E+00
 -1      2694-1.29176E+01-4.13791E+01-4.81007E+00 1.36985E+01-2.56548E-01 1.79069E+00
 -1      2695-3.54779E+00-4.85144E+01-7.86786E+00 4.38583E+00 4.23870E+00-1.18494E+00
 -1      2696-4.58242E+01-1.70833E+01-6.99944E+00-2.44462E+01-1.63199E+00 2.08351E+00
 -1      2697 1.46450E+01 1.36448E+01-8.85062E-01-1.35648E+00-4.79262E-01 1.66870E+00
 -1      2698-1.80817E+01-1.07763E+01-5.11094E+00 7.39188E+00 1.79783E+00 3.25967E-01
 -1      2699-1.41161E+01-8.79619E+00-8.26116E+00 7.60262E+00 6.40263E-01-6.91622E-05
 -1      2700-4.81483E+00-7.62622E+00 2.05185E+00 1.38274E+00 2.26902E+00 1.05061E-01
 -1      2701-1.11197E+01-2.28377E+01-1.17040E+01 2.99034E+00-6.55735E-01 2.59976E+00
 -1      2702-5.91097E+01-1.43984E+01-8.17869E+00 5.56559E+00-8.38551E-01 4.08035E-02
 -1      2703-2.36894E+00-2.15959E+00 4.49449E+00 1.27223E+00-2.25206E+00-5.06606E-05
 -1      2704-2.83653E+01-3.71795E+01-1.15649E+01 2.49279E+01 2.00531E-01-3.38417E+00
 -1      2705-4.82962E+00-2.63619E+01-9.79363E+00 6.02798E-01 1.84603E+00 8.55969E-01
 -1      2706-2.34762E+01-1.77931E+01-9.05589E+00 1.04682E+01 9.89021E-01-1.63734E+00
 -1      2707-3.36512E+00-3.44927E+00 3.18444E+00 2.60937E+00-2.21726E+00-1.65596E-02
 -1      2708-2.40825E+00-5.25783E+00 1.84794E+00 3.89677E-01 6.43233E-01 2.50735E-01
 -1      2709-3.12590E+01-1.92639E+01-9.26809E+00-2.68669E+01 2.06383E+00-6.00881E-01
 -1      2710-7.62834E+00-2.39601E+00 2.75389E+00-2.79434E-01 1.02661E+00-1.83638E+00
 -1      2711-1.84965E+01-3.49196E+01-1.03299E+01 1.81518E+01-3.21298E+00-3.19379E-01
 -1      2712-2.77082E+01-1.30996E+01-1.13460E+01-1.25066E+01 1.26813E+00 3.39858E+00
 -1      2713-2.00164E+01-1.17713E+01-8.50478E+00 1.32319E+01 2.71326E-01 4.41705E-01
 -1      2714-2.14125E+01-1.73721E+01-1.17453E+01 5.59040E+00-3.46561E+00-1.58640E+00
 -1      2715-1.63978E+01-1.16187E+01-7.59145E+00 4.21351E+00-4.07098E+00-6.79265E-01
 -1      2716-4.90286E+01-4.76620E+00-3.03300E+00 3.29799E+00-2.44902E+00-1.96562E+00
 -1      2717-1.83573E+01-5.97878E-01 3.13579E+00-9.77014E-01 2.02010E+00-2.24030E+00
 -1      2718-1.32171E+01-1.51790E+01-7.11627E+00-6.81169E+00 8.19613E-01 1.35427E+00
 -1      2719-9.38504E+00-2.05368E+01-8.00012E+00-7.60036E+00 5.87223E-01 5.98590E-01
 -1      2720-6.12372E+00-1.89097E+00 3.17351E+00 2.75596E+00-9.63986E-02-2.46805E+00
 -1      2721-4.20237E+00-5.18175E+00 7.85230E-01-5.92953E-01 4.19879E-01-1.02077E-01
 -1      2722-3.26585E+00-8.72301E+00 2.07929E+00 4.43361E-01-3.73935E-01 1.14930E+00
 -1      2723-2.37425E+01-1.45130E+01-1.13973E+01-1.14817E+01-6.45841E-01-1.31890E+00
 -1      2724-2.29024E+01-1.52341E+01-1.20177E+01 1.22512E+01 6.22609E-01 2.70273E-01
 -1      2725-5.31913E+00-2.61393E+00 3.04565E+00-2.33246E-01 5.73882E-01 8.88391E-01
 -1      2726-5.94604E+00-3.69144E+00 2.05624E+00-5.24800E-01-7.45769E-01 7.62439E-01
 -1      2727-1.26352E+01-3.80987E+01-1.26802E+01 1.91401E+01-1.24595E+00 7.39432E-01
 -1      2728-5.53418E+00-5.38989E+00-2.80754E-01-5.21124E-01-1.00383E+00 6.78382E-01
 -1      2729-6.74472E+00-1.21478E+01-3.48251E+00 1.48755E+00 1.51924E+00 6.76067E-01
 -1      2730-6.44005E+00-3.39814E+00 3.70298E-01 7.01898E-01 1.39012E+00-1.26960E+00
 -1      2731-4.84806E+01-1.44476E+01-1.41795E+01-1.23269E+01 2.67655E+00 3.03844E+00
 -1      2732-3.36863E+00-3.95063E+01-1.10653E+01 6.54741E+00 2.99592E+00 5.42884E-02
 -1      2733-3.58243E+00-4.91446E+00 1.26253E+00 9.72439E-01 3.11801E-01-1.13517E+00
 -1      2734 2.03232E+01 2.20445E+01 3.03476E+00-1.40626E+00 1.49475E+00-1.30941E+00
 -1      2735-3.73681E+01-2.70445E+01-1.88205E+01 2.33288E+01-6.19047E-01 2.32429E-01
 -1      2736-3.29240E+01-9.49762E-01-7.50707E+00 1.39386E+00 4.92945E-01-8.50597E-01
 -1      2737-2.03080E+01-1.41079E+01-7.81421E+00-1.37264E+01 7.45460E-02 1.84315E+00
 -1      2738-2.42770E+01-1.63119E+01-7.35953E+00-1.39720E+01-7.84495E-01 2.36361E+00
 -1      2739-1.93424E+01-1.16255E+01-8.60286E+00-1.24144E+01 2.28095E+00 1.69778E+00
 -1      2740-2.56104E+01 3.00472E+00-3.47029E+00-1.78721E-01 8.32168E-01-3.38789E+00
 -1      2741-3.79078E+01-2.71166E+01-6.79491E+00-1.91715E+01 1.20493E+00-2.08488E-01
 -1      2742-2.46548E+01-8.50247E+00-1.26439E+01-1.00611E+01-5.47565E-01 5.83927E+00
 -1      2743-2.67431E+01-5.16748E-01-9.34374E+00 2.07084E-01 2.59685E-01 7.98235E-01
 -1      2744-1.84336E+01-1.18784E+01-8.81594E+00 7.60912E+00-6.74112E-01-9.82259E-01
 -1      2745-2.35381E+00-6.10385E+00 3.64921E+00-1.23883E+00 8.71045E-01 1.66255E+00
 -1      2746-1.80347E+01-2.51355E+01-4.69411E+00 1.92955E+01 2.58399E+00 2.83954E+00
 -1      2747-2.13661E+01-2.95894E+01-8.08420E+00 1.58489E+01-1.28196E+00 2.01522E+00
 -1      2748-9.74873E+00-3.09333E+01-8.89574E+00 1.14550E+01-9.43774E-01 7.14715E-01
 -1      2749-3.02239E+00-3.91403E+00 3.11048E+00 2.28438E-01-9.16235E-01 9.65750E-01
 -1      2750-1.75681E+01-2.36711E+01-1.32097E+01-1.41082E+01 2.15764E+00 2.17745E+00
 -1      2751-4.56914E+01 2.27234E+00-7.73336E+00 4.69552E+00 2.28912E-01-9.05001E-01
 -1      2752 1.86390E+01 1.54974E+01 9.22171E-01 2.28347E+00-1.21563E+00-1.18349E+00
 -1      2753-9.12722E+00-3.91805E+00 4.54146E-01 2.97371E+00-3.99355E-01-1.33814E+00
 -1      2754-3.13473E+01-2.14602E+01-1.07924E+01 2.17566E+01-9.25810E-01-3.56123E+00
 -1      2755-5.33803E+01-6.86100E+00-1.08851E+01-3.24234E+00-6.65714E-01 2.00132E+00
 -1      2756-3.68324E+01-1.71974E+01-7.35735E+00-1.78742E+01-1.58359E+00-9.39586E-01
 -1      2757-3.54282E+01-1.04389E+00-1.02660E+01 2.64259E+00 1.39103E+00 1.86653E+00
 -1      2758-9.14505E+00 1.41041E-01 2.10371E+00-4.07664E+00-1.98367E-01 1.43422E+00
 -1      2759-9.61714E+00-9.82366E+00 4.50858E-01-5.51541E-01-8.91210E-01 2.07370E+00
 -1      2760-2.70357E+01-2.90737E+01-1.05450E+01-1.68500E+01 4.64678E-01 1.48107E-02
 -1      2761-2.41771E+01-2.68877E+01-1.38557E+01 1.43625E+01 8.81027E-01-7.53785E-01
 -1      2762-2.01295E+01-1.44566E+01-1.09287E+01 9.09649E+00-1.89301E+00 3.62168E-01
 -1      2763-2.87303E+01-8.76677E+00-3.79672E+00-1.78651E+01-1.92430E+00 1.07898E+00
 -1      2764-6.00423E+00-2.62233E+01-1.07583E+01 6.44013E+00 1.92475E+00-2.67687E+00
 -1      2765-6.68424E+00-9.20911E+00-1.38683E+00-4.24640E+00-1.24769E+00 1.25144E+00
 -1      2766 6.72675E+00 1.04000E+01 9.32849E-01 1.39148E+00-1.58052E+00 6.85562E-01
 -1      2767-3.63657E+01-4.08592E+01-1.86437E+01 2.44825E+01-3.12701E-01-1.07456E+00
 -1      2768-2.35859E+01-5.78835E+00-6.92839E+00-1.75856E+00-1.52750E+00 2.29161E-01
 -1      2769-6.08331E+01-4.44910E+00-1.76676E+01 3.79710E+00 6.24055E-02 3.89884E-01
 -1      2770-5.25780E+00-2.15423E+00 1.44835E+00-3.97046E-01 8.13383E-01 1.10535E+00
 -1      2771-3.50692E+01-1.24085E+01-5.13028E+00-1.08145E+01-9.58689E-01-2.79820E-01
 -1      2772 1.31687E+01 1.22627E+01 6.63752E+00-3.14770E-01-2.12181E+00-1.15432E+00
 -1      2773-3.65709E+01 9.98391E-02-9.24135E+00-1.61971E+00 1.42181E+00-2.69435E+00
 -1      2774-1.49842E+00-5.60067E+00 1.46246E+00 3.93711E-01-1.16037E+00-5.74131E-01
 -1      2775-2.86580E+01-2.27466E+01-1.22706E+01-2.05272E+01-8.18972E-01 1.78758E-01
 -1      2776-1.43228E+01-2.87980E+01-1.34918E+01 1.03136E+01-2.00560E+00-7.29165E-01
 -1      2777 7.32761E+00 6.80040E+00 1.14144E+00 8.56948E-01-1.09155E+00-1.03327E+00
 -1      2778-3.96665E+01-8.11294E+00-1.40103E+01-1.34072E+01-1.21498E+00-1.24184E+00
 -1      2779-2.51352E+01-1.81120E+01-1.16305E+01 1.20376E+01 6.95959E-01 1.03655E+00
 -1      2780-2.16670E+01-1.70177E+01-5.81390E+00-2.90775E+00-8.06578E-02-1.24346E+00
 -1      2781-4.89841E+00-5.07624E+00 7.59026E-01-4.34904E-01 1.67215E+00-7.25925E-01
 -1      2782-1.53435E+01-1.71000E+01-7.19317E+00-8.08559E-01 7.18015E-01 1.78001E-01
 -1      2783-5.04258E+01-6.10952E+00-1.23312E+01-7.14282E+00 1.28182E+00-3.96680E+00
 -1      2784-6.37768E+00-4.61690E+00 1.66243E+00-1.82198E+00 2.28097E+00 7.25275E-01
 -1      2785-5.95025E+01-2.22811E+01-1.96384E+01 2.35818E+01-1.73505E+00 1.69301E+00
 -1      2786-8.85410E+00-4.75286E+00-6.92478E-01-3.43859E-01 1.26253E+00-2.87632E-01
 -1      2787-2.79037E+01-2.52961E+01-7.46251E+00 2.15646E+01-5.55728E-01 3.46698E+00
 -1      2788-4.22267E+01-9.95395E+00-5.85907E+00-9.43594E+00 2.32133E+00-1.71344E+00
 -1      2789-7.36596E+01-7.65603E+00-1.46580E+01-7.28710E+00-5.33271E+00-2.70566E+00
 -1      2790-9.79043E+00-6.41087E+00-1.06998E+00-7.95929E-01 8.73989E-01 1.83403E-01
 -1      2791-7.04514E+00-3.94989E+01-8.61295E+00 1.12614E+00 1.02040E-01-9.89096E-01
 -1      2792-1.19932E+01-2.64748E+01-1.26040E+01 9.87343E+00-2.01284E+00-3.54095E+00
 -1      2793-5.37432E+01-2.87117E+00-2.59093E+00 5.38963E+00-4.79553E-01-2.44234E+00
 -1      2794-2.55975E+00-5.88547E+00 3.34352E+00 9.04076E-01-1.35482E+00-4.43185E-01
 -1      2795-2.95343E+01-1.93320E+01-9.38796E+00-1.32795E+01-1.27957E+00-5.07797E-01
 -1      2796-4.82787E+00-5.37395E+00 1.02415E+00 4.06464E-01-1.01962E+00-5.07962E-01
 -1      2797-3.88266E+00-5.23857E+01-4.63686E+00 1.70740E+00-1.28141E+00-3.41435E+00
 -1      2798-4.72854E+01-9.44524E+00-6.98674E+00-8.59821E+00-4.90253E+00 2.86683E+00
 -1      2799-5.69711E+01-9.50484E+00-1.27854E+01 1.70850E+01 5.47240E-01-1.86605E+00
 -1      2800-1.58870E+01-3.22329E+01-1.63962E+01 1.15148E+01 1.88760E+00 2.55577E-01
 -1      2801-1.99097E+00-3.99326E+00 2.44252E+00-1.73667E+00 1.91209E+00 8.83337E-01
 -1      2802-3.68968E+00-6.50918E+00 3.36254E+00-2.20908E+00 2.05754E+00-2.63948E-01
 -1      2803-3.14612E+00-4.82166E+00 1.80686E+00-4.43418E+00 1.91782E+00-1.21147E+00
 -1      2804-3.27832E+01-1.37777E+00-1.14569E+01 4.62117E+00-1.93442E+00-1.22894E+00
 -1      2805-2.02564E+01-2.79481E+01-1.02075E+01 2.05269E+01 6.34427E-02-1.37918E+00
 -1      2806-8.89467E-01-1.12597E+01 1.60875E+00 4.84064E+00-5.66424E-02-1.62248E+00
 -1      2807-2.67233E+01-1.57343E+01-1.30816E+01 1.23791E+01-9.87711E-01-1.35892E+00
 -1      2808-3.00857E+01-1.26958E+01-1.46005E+01 1.23920E+01 7.44637E-01 2.56226E+00
 -1      2809-2.84979E+01-1.92803E+01-1.00213E+01 1.41133E+01 7.13206E-01-7.80500E-02
 -1      2810-2.49334E+01-1.11591E+01-1.11828E+01 8.61364E+00 7.93313E-01-3.48381E-01
 -1      2811-3.48836E+01-1.22881E+01-9.71033E+00 1.08370E+01-1.05436E-01 9.86528E-01
 -1      2812-3.42727E+01-6.47647E+00-4.71600E+00 9.86237E+00-2.29695E+00 7.41846E-01
 -1      2813-2.08526E+01-1.05668E+01-1.09988E+01-1.22194E+01-1.97066E+00-8.87235E-01
 -1      2814-3.57433E+01-2.38517E+01-4.00896E+00-2.47930E+01 1.31999E-02 1.06211E+00
 -1      2815-6.32014E+01-1.76814E+01-1.05203E+01 2.49545E+01-2.33775E-01 2.91314E+00
 -1      2816-5.13673E+00-3.12005E+01-9.20099E+00-2.89602E+00 1.22726E+00-1.46057E+00
 -1      2817-7.94612E+00-7.73518E+00 7.64895E-01 1.50622E+00-1.79158E+00 1.90463E+00
 -1      2818-3.12234E+01-1.50321E+01-5.20625E-01-1.25858E+01-3.41114E+00 1.79166E+00
 -1      2819-2.25585E+01-2.28258E+01-8.73342E+00-1.68588E-01 3.08873E-01-9.86456E-01
 -1      2820-7.72001E+00-8.72948E+00-1.14816E+00-1.64939E+00-8.58277E-01-1.76658E-01
 -1      2821-1.20136E+01-2.64159E+01-1.10621E+01-1.19101E+01-1.59121E+00 4.16067E-01
 -1      2822-1.63370E+01-1.08930E+01-8.94905E+00 9.17867E+00-5.11229E+00-1.97285E-01
 -1      2823-1.96782E+01-3.40480E+01-4.68787E+00 1.93869E+01-1.04638E+00-3.75637E+00
 -1      2824-2.65730E+01-4.84358E+01-1.39785E+01 1.99800E+01 2.37376E+00-9.82571E-01
 -1      2825-1.94246E+01-1.07729E+01-7.67596E+00-4.99851E+00-1.62647E+00 2.35221E+00
 -1      2826-1.62173E+01-4.94407E+01-1.62679E+01 1.42732E+01 2.27396E+00 3.15091E+00
 -1      2827-1.36035E+01-2.03158E+01-9.01270E+00 1.32450E+01-1.18875E+00 2.49999E+00
 -1      2828-5.71501E+00-8.70230E+00 1.33076E+00 6.19463E-02-2.07865E+00-5.28204E-01
 -1      2829-3.54650E+01-4.41730E+00-7.88552E+00-1.28336E+00-6.11523E-01-1.50420E+00
 -1      2830-2.14139E+01-2.17338E+01-1.12138E+01-1.03603E+00 1.07047E+00 4.85280E-01
 -1      2831-1.79238E+00-8.36683E-02 6.15343E+00 2.35130E+00 6.73678E-01 2.57247E+00
 -1      2832-2.59329E+01-1.32766E+01-1.22831E+01 1.05814E+01 1.88012E+00 2.56788E+00
 -1      2833-4.22908E+00-3.20774E+00 3.91671E+00-1.93324E+00 1.03376E+00-3.16392E-01
 -1      2834-4.44516E+01-3.14514E+01-5.78154E+00-2.46085E+01 8.58130E-01-3.21604E+00
 -1      2835-3.66837E+01-3.65113E+00-8.92262E+00-5.62249E+00-8.40913E-01-2.01014E+00
 -1      2836-4.79336E+01-1.47630E+01-1.64674E+01-1.18219E+01 3.86012E+00 5.05906E-01
 -1      2837-3.05716E+01-1.96161E+00-1.10172E+01-2.83311E+00 1.95294E+00-4.58060E+00
 -1      2838-2.25897E+01-1.10701E+01-1.08139E+01-4.42609E+00 3.47105E+00 1.04415E+00
 -1      2839-2.93250E+01-5.00065E+00-8.95378E+00-7.93697E+00-2.39371E+00-1.35609E+00
 -1      2840-1.69238E+01-4.88296E+01-1.84239E+01 2.02636E+01 1.66816E+00 3.22393E-01
 -1      2841 1.38454E+01 1.69209E+01 5.48696E+00 3.54453E-01-8.83447E-01 1.87520E-01
 -1      2842-3.82370E+00-9.93071E+00-4.56800E-01-2.36935E+00-3.22649E-01-5.46786E-03
 -1      2843-3.24441E+01-2.30449E+01-1.66167E+01 2.27723E+01-9.94143E-01-1.42408E+00
 -1      2844-1.46374E+01-1.83803E+01-7.17919E+00-1.45928E+01-5.20891E-01 4.08841E-01
 -1      2845-2.35087E+01-2.80417E+01-1.29709E+01-1.85038E+01-1.78696E-01-1.47045E+00
 -1      2846-1.85298E+01-2.37423E+01-1.36429E+01-1.11153E+00 1.47176E+00 5.42822E-01
 -1      2847-4.34932E+01-1.26853E+01-1.37948E+01 9.86745E+00-1.97926E+00 8.63611E-01
 -1      2848-1.35406E+01-5.35733E+01-9.36154E+00-1.06633E+01-2.43386E+00 2.86888E+00
 -1      2849-1.74705E+01-1.74353E+01-2.04327E+00-1.03489E+00-7.58993E-01 3.00526E-01
 -1      2850-2.54400E+00-4.61810E+00 3.71422E+00 2.71355E+00 1.11687E+00 2.47269E+00
 -1      2851-1.69742E+01-5.06501E+01-1.09521E+01 1.70313E+01 2.53868E+00 3.37231E-01
 -1      2852 1.57627E+01 1.35417E+01 1.64260E+00-1.68528E-03 6.91501E-01-2.03951E+00
 -1      2853-3.17082E+01-1.65572E+01-5.99675E+00 1.37944E+01 2.53305E+00-8.56660E-01
 -1      2854-5.36216E+01-1.46723E+01-9.20074E+00 2.26705E+01-2.12676E+00-3.60612E-01
 -1      2855-6.41081E+01-2.15393E+00-8.38415E+00 2.61804E+00 3.05928E+00 9.33962E-01
 -1      2856-3.60322E+01-4.56816E+01-1.31676E+01 3.14402E+01 1.84876E+00-3.41580E+00
 -1      2857-2.16490E+01-1.12109E+01-7.83606E+00-8.93368E+00 1.35651E+00-7.34411E-01
 -1      2858-4.30589E+01-1.72044E+01-1.44337E+01 1.59504E+01-8.86977E-01-2.40965E+00
 -1      2859-1.22819E+01-7.39237E+00-2.73490E+00 3.85534E+00-2.00661E+00-1.06426E+00
 -1      2860-2.30582E+01-1.56833E+01-1.03692E+01-3.59466E-02 5.38305E+00-3.18452E+00
 -1      2861-3.14566E+00-3.13526E+00 4.79997E+00-2.69530E+00-1.95573E-01 1.39438E+00
 -1      2862-7.26021E+00-2.59150E+00 3.01599E+00-1.20308E+00-2.29368E+00-8.09731E-01
 -1      2863-3.53166E+01-7.35895E+00-9.01158E+00 1.14203E+01-1.50801E+00 1.44985E+00
 -1      2864-4.47557E+01-1.09563E+01-1.22118E+01 1.18455E+01-8.24448E-01 2.49965E+00
 -1      2865-1.07097E+01-1.71088E+00 1.01056E-01-1.39587E+00-1.47821E+00 3.49103E-01
 -1      2866-7.77199E+00-6.93884E+01-4.15699E+00-8.25257E+00-4.39469E-02 1.93465E+00
 -1      2867-1.33238E+01-3.43087E+01-1.39779E+01 9.55113E+00 1.64883E+00 9.80841E-02
 -1      2868-1.07019E+01-4.69914E+01-1.39535E+01 3.77909E+00-3.62666E+00-7.88055E-01
 -1      2869-2.93938E+01-1.58756E+01-1.56151E+01-1.18279E+00 4.76760E+00-1.29251E+00
 -1      2870-3.12307E+01-5.00666E+00-1.56593E+01 2.86688E+00 2.75535E+00 1.32324E+00
 -1      2871-1.86225E+00-2.19281E+01-6.40812E+00 2.73147E+00-2.04012E+00-8.57541E-01
 -1      2872-1.20474E+01-8.31678E+00 6.17135E-01-1.06007E+00 2.65899E+00 9.09735E-01
 -1      2873-5.20370E+00-5.29464E+00 1.31130E+00 1.35781E+00 6.96143E-01-6.62686E-01
 -1      2874-5.95091E+01-1.01610E+01-1.61458E+01 1.62931E+01 9.42473E-01-5.67900E-01
 -1      2875-3.00614E+01-7.26766E+00-4.66829E+00 1.33548E+01-1.03366E+00 4.13811E+00
 -1      2876-1.64193E+01-3.82138E+01-4.20640E+00 1.80058E+01-9.79907E-01 5.08730E+00
 -1      2877-2.23541E+01-3.77501E+01-1.53372E+01 2.00003E+01 8.31086E-01-1.28034E+00
 -1      2878-7.71958E+00-9.64767E+00 1.23221E+00 1.19829E+00-2.84727E+00-5.74569E-01
 -1      2879-2.26694E+01-8.03834E+00-1.07112E+01-5.65365E+00 1.11561E+00-1.38193E-01
 -1      2880-2.77932E+01-1.34446E+01-8.71207E+00 1.61421E+01-1.49363E+00 7.68021E-01
 -1      2881-3.72451E+01-1.13074E+01-5.48258E+00-1.13030E+01-1.48851E+00 1.28323E+00
 -1      2882-8.28123E-02-6.02190E+00 2.72206E+00-6.91893E-01 7.38486E-01 8.54041E-02
 -1      2883-1.08097E+01-7.74857E+00-1.41519E+00 8.27870E+00 1.05583E+00 6.67977E-01
 -1      2884-7.53469E+00-2.13956E+01-7.10048E+00-6.08796E-01-2.10408E-01-1.32851E+00
 -1      2885-5.22723E+00-4.02907E+00 2.29141E+00 7.25531E+00-1.63021E+00-1.52192E+00
 -1      2886-2.74034E+01-1.99381E+01-1.44161E+01 1.78977E+01-5.13885E+00 2.40293E+00
 -1      2887-2.35073E+01-2.78684E+01-1.55979E+01 1.95999E+01 2.69407E+00-3.56868E+00
 -1      2888-4.12777E+01-6.29720E+00-7.49583E+00-9.39068E+00-1.77799E+00-4.22431E-01
 -1      2889-2.46801E+01-5.27588E+01-1.13877E+01 2.44019E+01 1.34595E+00-4.25917E+00
 -1      2890-1.34327E+01-6.27771E+01-7.05670E+00 1.80575E+01 2.61825E+00 2.85677E-01
 -1      2891-5.15396E+01-8.20092E+00-1.43932E+01 1.17164E+01 2.59503E+00-1.52589E+00
 -1      2892-2.33258E+01-3.19491E+01-1.25131E+01 2.27411E+01 1.53270E+00-1.12345E-01
 -1      2893-1.56688E+01-3.45434E+01-1.02953E+01 1.64145E+01-2.24255E+00-9.34890E-01
 -1      2894-1.43379E+01-3.70196E+01-5.67146E+00 1.96740E+01 9.62655E-01 5.59307E-01
 -1      2895-3.41687E+01-3.94756E+01-1.50818E+01 2.37915E+01 1.37075E+00 4.38855E+00
 -1      2896 1.05360E+00-1.20802E+01 1.61976E+00-4.05051E+00-3.84351E-01-8.44449E-01
 -1      2897-7.72191E+00-6.60659E+00 2.52169E+00 4.19821E-01 2.07565E+00 1.42511E+00
 -1      2898-4.65553E+01-2.03344E+01-1.25866E+01-2.30707E+01-2.61946E+00 4.09088E+00
 -1      2899-5.47634E+00-9.06310E+00-2.08835E-01-3.39665E-01-1.01744E+00-6.28232E-01
 -1      2900-6.74542E+00-4.62703E+01-8.39153E+00 7.28102E+00 1.73763E-01-9.88987E-01
 -1      2901-4.82431E+01-3.64018E+00-1.32604E+01 2.91396E+00 4.15200E-01-8.87260E-01
 -1      2902-4.99377E+00-3.85795E+01-8.10252E+00 2.76719E+00-1.06110E+00-6.08666E-01
 -1      2903-3.52779E+01-2.47879E+01-1.31180E+01-2.49482E+01-4.88673E+00-8.16685E-01
 -1      2904-1.88664E+01-1.10349E+01-9.43080E+00 1.12445E+01 2.69705E+00 1.40293E+00
 -1      2905-6.51231E+00-5.24550E+00 1.63199E+00 8.81912E-02-7.36182E-01 6.74366E-01
 -1      2906-1.16065E+01-1.79538E+01-9.66685E+00 1.26323E+01-5.72201E-01 5.28410E+00
 -1      2907-3.71716E+01-2.87942E+01-3.91493E+00 2.77427E+01 1.77322E+00-3.35925E-01
 -1      2908-3.35578E+01-7.45526E+00-1.61364E+00 6.51068E+00 3.86148E+00 2.68536E+00
 -1      2909-4.04647E+01-1.26872E+00-9.78215E+00 4.17438E+00-7.43359E-01-7.89275E-01
 -1      2910-3.92004E+00-3.26648E+00 2.68660E+00 4.84923E-02-9.33951E-01 1.36803E+00
 -1      2911-5.28157E+01-1.57534E+01-2.80431E+00-2.50902E+01-3.24334E+00-6.02704E-01
 -1      2912-3.16841E+00-9.71250E-01 3.95477E+00-1.02269E+00 7.68173E-01-1.69896E+00
 -1      2913-2.05526E+01-8.15989E+00-1.17856E+01 6.34725E+00-4.61554E+00-9.71832E-02
 -1      2914-1.60194E+01-6.89792E+01-1.83310E+01 8.00329E+00-2.12239E+00 8.96382E-01
 -1      2915-1.13948E+01-7.38760E+01-1.47230E+01 9.81578E+00 2.17343E+00 4.19221E+00
 -1      2916-1.92102E+01-4.76592E+01-1.62702E+01 1.03637E+01 2.70613E-02-1.59897E-01
 -1      2917-6.00001E+01-1.31419E+01-1.86970E+01 9.87008E+00-1.97282E+00 1.59800E+00
 -1      2918-3.41090E+01-1.99700E+01-1.49840E+01-2.11650E+01 4.26450E+00 8.86331E-01
 -1      2919-3.09624E+01-2.68243E+01-1.00428E+01-2.46363E+01 4.49091E-01 3.69846E+00
 -1      2920-1.43296E+01-2.55784E+01-1.42747E+01 6.79026E-01 1.53920E+00 4.23230E+00
 -1      2921-3.80311E+00-2.95644E+01-9.78875E+00 4.08831E+00-3.53588E+00 5.07560E+00
 -1      2922-4.09585E+01-1.40238E+01-1.92632E+01-7.01618E+00 2.61585E+00 1.77184E+00
 -1      2923-4.27565E+01-2.20443E+01-1.61682E+01 1.78011E+01 2.84548E-01-7.38573E-01
 -1      2924-6.00832E+00-4.22672E+01-9.71922E+00 4.03510E+00 2.39553E-01-3.38583E-01
 -1      2925-9.61257E+00-2.48329E+00 3.80005E+00 8.70048E+00-1.54847E+00-8.98952E-01
 -1      2926-3.20103E+01-1.81034E+01-1.39255E+01 1.58146E+01-8.50516E-01-2.85373E-01
 -1      2927-2.01127E+01-1.85350E+01-6.65508E+00 2.06608E-01 6.12994E-01 8.56296E-01
 -1      2928-4.36117E+01-2.78221E+01-1.03111E+01 3.06057E+01 3.38604E-01-3.30910E+00
 -1      2929-2.43769E+01-1.25850E+01-1.14744E+01 1.47093E+00-1.68953E+00-7.38128E-01
 -1      2930-2.30957E+01-1.11827E+01-1.05987E+01 1.60208E+00-4.74152E+00-2.36131E+00
 -1      2931 1.06506E+01 7.65217E+00 2.63092E+00 4.17595E-01-2.23980E-01 1.63728E+00
 -1      2932-2.26556E+01-1.34214E+01-1.45797E+01-1.43176E+01-2.19529E+00 3.76733E-01
 -1      2933-2.49816E+01-1.88219E+01-8.35867E+00 1.19210E+01 2.25358E+00-3.64260E-01
 -1      2934-2.55242E+01-1.78644E+01-1.42454E+01-1.48117E+01-3.13983E+00-2.41941E-01
 -1      2935-7.29978E+00-2.60659E+01-1.29646E+01-3.87072E+00-6.07842E-01 2.06608E+00
 -1      2936-6.20317E+00-2.96020E+01-1.11606E+01 2.01438E+00 2.78807E+00 3.21745E+00
 -1      2937-1.68792E+01-5.05294E+01-2.04020E+01 1.34051E+01 7.65390E-01 1.35084E+00
 -1      2938-1.27561E+01-4.31527E+01-1.33498E+01 1.50351E+01-1.52276E+00 8.35281E-01
 -1      2939-5.60931E+01-1.53239E+01-1.48089E+01-1.42110E+01-3.57508E+00 8.61615E-02
 -1      2940-3.13165E+00-1.44624E+01-2.18723E+00 4.36305E+00-5.29589E-01-2.33238E-01
 -1      2941-1.73624E+00-6.11525E+00 2.97384E+00-1.94019E+00-1.60552E-01-1.52186E+00
 -1      2942-9.37406E+00-5.56212E+01-1.51278E+01 1.63044E+01-1.73370E+00-1.12474E+00
 -1      2943-2.93509E+01-7.78620E+00-1.32110E+01 5.37043E+00 4.67856E-01-2.98056E-01
 -1      2944-3.50475E+01-1.26584E+01-1.26137E+01 1.53913E+01-6.14245E-01 5.87229E+00
 -1      2945-1.63420E+01-3.24050E+01-1.65884E+01 1.46354E+01-8.29814E-01-1.40289E+00
 -1      2946-7.24801E+00-6.21375E+00 1.68482E+00-1.60840E+00 7.23275E-01 2.06561E+00
 -1      2947-4.46675E+00-2.85646E+00 2.73980E+00 1.06382E+00-4.30345E-01-1.54861E+00
 -1      2948-2.40161E+01-3.43065E+01-1.52094E+01 1.65670E+01-2.15603E+00 2.55931E+00
 -1      2949-1.71421E+01-3.67765E+01-1.54498E+01 1.42962E+01 4.92437E+00 1.24194E+00
 -1      2950-3.37447E+01-2.50990E+01-1.15222E+01 1.78076E+01 1.33899E+00 6.76295E-01
 -1      2951-1.54998E+01-6.93035E+00-4.74095E+00-7.51719E+00-2.67686E+00-3.02570E-02
 -1      2952-2.86171E+01-1.56500E+01-1.25690E+01-1.60148E+01-8.62113E-01-3.59720E-01
 -1      2953-4.12646E+01-1.96037E+01-1.32428E+01-2.14092E+01-7.18304E-01-8.91988E-01
 -1      2954-3.07472E+00-1.63812E+01-2.52407E+00 5.44102E+00 1.30303E+00-7.28005E-01
 -1      2955-1.09200E+01-3.01246E+00-3.51478E+00 7.44461E+00 2.38190E+00-1.87505E-01
 -1      2956-1.96471E+01-4.51592E+01-1.20703E+01 1.96513E+01-1.53078E+00-2.26329E+00
 -1      2957-3.18382E+01-1.43198E+01-1.29212E+01-1.41137E+01 7.21606E-01 5.70252E-01
 -1      2958-2.79138E+01-9.01854E+00-1.15145E+01-1.01020E+01 9.37989E-01 5.16046E+00
 -1      2959-8.14650E+00-4.92918E+00-1.11111E+00 9.27569E+00 1.24511E+00 9.75438E-01
 -1      2960-8.55374E+00-1.86862E+00 2.12233E+00-1.21013E+00-8.94217E-01-1.28455E+00
 -1      2961-2.43147E+01-1.77745E+01-1.02034E+01-1.51206E+01 5.09282E-01 6.10221E-01
 -1      2962-7.09000E+00-1.65079E+00 1.04552E+00-2.23120E+00 9.93837E-01-1.03598E+00
 -1      2963 7.94343E-01-6.15285E+00 2.63201E+00-6.02504E-01-1.10004E+00 3.30101E-02
 -1      2964-2.66221E+01-7.52531E+00-3.26569E+00-1.35616E+01 7.41738E-01-7.83569E-01
 -1      2965 1.12193E+01 1.11975E+01 5.70829E+00-7.70023E-01-1.66613E-02 2.66031E+00
 -1      2966 2.52802E+00-1.38527E+01 4.52730E+00-1.11769E+01-1.02801E+00 1.76887E+00
 -1      2967-5.22677E+01-2.59637E+01-7.75047E+00-2.47405E+01 1.63444E+00-4.10331E+00
 -1      2968-9.27261E+00-2.00300E+01-1.05015E+01-6.24870E+00 1.01263E+00 8.25538E-01
 -1      2969-6.14614E+00-4.49774E+00 2.22087E+00 3.40971E+00-5.21813E-01-2.10270E+00
 -1      2970-2.68347E+01-1.60386E+01-1.42337E+01-3.92895E+00 6.82982E+00 1.07298E+00
 -1      2971-2.17752E+01-1.97331E+01-5.29088E+00 1.72322E+00-8.22798E-02 7.38727E-02
 -1      2972-1.42219E+01-2.21635E+01-9.81253E+00 1.14241E+01-5.85444E-02-2.09064E+00
 -1      2973-7.99860E+00-2.48064E+01-7.05583E+00-6.45027E+00 1.36185E-01-8.96845E-01
 -1      2974-1.72197E+01 5.96075E+00 4.93023E+00-6.29733E-01 2.58629E+00 1.35040E+00
 -1      2975-1.17083E+01-4.60217E+00-2.08649E+00 4.25070E+00 7.20401E-01-1.86337E+00
 -1      2976-1.68727E+01-2.62161E+01-1.59990E+01 1.48308E-01 9.94614E-01-6.02029E+00
 -1      2977-6.59813E+00-2.31868E+01-6.48281E+00-9.73731E+00-4.58058E-01-1.98702E-01
 -1      2978-1.37867E+01-2.60804E+01-1.30356E+01 1.17634E+01-7.47896E-01-1.69366E+00
 -1      2979-6.46643E-01-7.71394E+00 3.03330E-01 1.46119E+00-9.10477E-01-1.29471E-01
 -1      2980-8.02434E+00-3.65174E+01-2.59684E+00-6.15300E+00-2.20143E+00 3.50169E+00
 -1      2981-1.98912E+01-3.44220E+01-5.84751E+00 2.10194E+01 9.55570E-01 5.74835E+00
 -1      2982-2.91431E+01-3.96849E+01-1.50390E+01-2.24102E+01-4.19333E+00-3.80400E-01
 -1      2983-3.39179E+00-3.93724E+00 2.90120E+00 9.55653E-02 7.05089E-03 6.74188E-01
 -1      2984-1.17227E+01-8.95451E+00 6.32252E-01-1.26844E+00 2.13583E+00-9.32077E-01
 -1      2985-6.02587E+00-3.15140E+01-1.30724E+01 8.81161E+00 6.16039E-02 8.94121E-01
 -1      2986-3.42048E+00-4.47683E+01-1.12463E+01 4.70373E+00 2.53332E+00 2.05080E+00
 -1      2987-4.72594E+01-1.67546E+01-1.56984E+01-1.62823E+01-4.56008E+00-9.36302E-02
 -1      2988-2.43387E+01-3.26211E+01-1.30820E+01-1.98981E+01-8.17851E-01-2.85551E+00
 -1      2989-6.51121E+00-3.43218E+01-1.22833E+01 4.83546E+00 3.89625E+00 7.94506E-01
 -1      2990-1.93794E+01-3.20086E+01-1.09148E+01 1.73428E+01 4.64223E-02 2.31689E+00
 -1      2991-1.63721E+01 2.74720E+00 5.08703E+00-4.53670E+00-2.19432E+00 2.65416E+00
 -1      2992-1.27473E+01-5.79030E+01-1.78752E+01 8.29029E+00 4.30322E+00-1.01302E+00
 -1      2993-6.43517E+01-9.26230E+00-2.16232E+01-3.66348E+00-4.55318E-01-4.67190E+00
 -1      2994-1.81007E+01-2.37704E+00-3.56389E+00-5.65749E+00 1.80895E+00-2.57995E+00
 -1      2995-2.28295E+00-9.47520E+00 1.34485E+00 3.03838E+00 1.20237E+00 1.51791E-01
 -1      2996-2.00302E+01-1.56974E+01-5.89355E+00-1.26644E+01 2.46934E-01 1.82867E+00
 -1      2997-9.47319E+00-1.46866E+01 2.34768E+00-1.06694E+01-3.48254E+00 5.22571E-01
 -1      2998-4.86108E+00-1.12021E+01-2.72131E-01 3.86823E+00-1.12151E+00-2.09091E+00
 -1      2999-8.69638E+00-4.56028E+01-1.02432E+01 1.22984E+01 2.64631E+00-3.01107E+00
 -1      3000-3.98472E+00-3.21882E+01-4.86293E+00 2.55714E+00 2.61816E-01 2.51294E+00
 -1      3001-1.62759E+01-4.06384E+01-1.05959E+01 1.78967E+01-3.34086E+00-3.23445E-01
 -1      3002-2.65820E+01-1.09767E+01-1.09710E+01-1.92842E+00-1.46173E+00 2.23725E+00
 -1      3003-2.64247E+01-1.72009E+01-5.12054E+00-1.81849E+01 2.44084E+00-2.12420E+00
 -1      3004-1.80158E+01-1.61814E+01-7.26094E+00-7.07398E-01 9.30303E-01-1.21358E+00
 -1      3005-2.10099E+01-2.27068E+01-1.14139E+01-1.74103E+01-1.08001E+00 1.71675E+00
 -1      3006-3.37793E+01-6.12274E+00-9.97615E+00-2.14250E+00 9.35568E-01-3.93879E-01
 -1      3007-2.55629E+01-1.86546E+01-1.19904E+01-1.37985E+01 2.23941E+00-3.36177E-01
 -1      3008-7.55135E+01-7.62978E+00-1.68277E+01-6.33084E+00-4.20719E+00 4.45722E-02
 -1      3009-4.26503E+00-1.69687E+01-7.42106E+00-4.94765E+00 1.46773E+00 1.66304E+00
 -1      3010-4.86366E+00-1.38952E+01 3.26570E+00 4.56100E+00 6.32956E-01 2.39402E+00
 -1      3011-7.98956E+00-2.27428E+01-8.65477E+00-6.71028E+00 2.86758E+00 1.30383E-02
 -1      3012-2.80842E+01-3.05343E+01-8.51242E+00-2.05603E+01 2.39450E+00-3.46681E+00
 -1      3013-2.01732E+01-1.66581E+01-4.53376E+00 1.38077E+01-1.24854E+00-6.66060E-01
 -1      3014-3.63011E+01-3.02526E+01-1.75528E+01 2.11165E+01-2.15785E+00 6.56530E-01
 -1      3015 2.03593E+00 5.32880E-01 6.92201E+00 2.15403E+00 1.31731E+00-8.58581E-01
 -1      3016-6.79115E+01-1.63849E+01-1.47397E+01-1.58829E+01-6.15669E+00 3.28202E+00
 -1      3017-5.01120E+01-3.33370E+01-1.90467E+01-2.52330E+01 3.55842E-01 4.17989E+00
 -1      3018-8.46940E+00-1.23694E+01 8.13791E-01-3.97554E-01-2.34646E-01 3.28041E+00
 -1      3019 2.92934E-01-2.23558E+01-6.41060E+00-1.88051E+00 2.93066E+00-8.12185E-01
 -1      3020-2.28111E+01-1.13806E+01-1.03221E+01 1.09622E+01-1.91927E+00-2.94952E+00
 -1      3021-2.83283E+01 1.29031E+00-8.14235E+00-2.94929E+00-7.47366E-01 3.50909E+00
 -1      3022-3.01576E+01-2.52091E+01-1.58734E+01-2.09099E+01-2.08130E+00-5.14117E-01
 -1      3023-2.18054E+01-3.11255E+01-1.21662E+01-2.11329E+01-1.74707E+00-1.45937E+00
 -1      3024-5.03189E+01-1.22445E+01-1.48852E+01-1.61072E+01-1.80420E+00-1.53969E+00
 -1      3025-5.82237E+01-1.66917E+01-1.68388E+01-1.66911E+01-2.06711E+00 3.71317E+00
 -1      3026 3.60273E+00-5.35458E+00 5.33757E+00 1.03253E+00 1.25691E+00 2.17711E+00
 -1      3027-2.02066E+01-1.01274E+01-1.30066E+01 6.07165E+00-3.63850E+00-2.36033E+00
 -1      3028-3.36964E+01-2.53840E+01-9.11779E+00 2.42703E+01-1.12621E+00 2.37914E+00
 -1      3029-1.40568E+01-1.87777E+01-1.05851E+01 5.49754E+00 3.82330E+00 3.76146E+00
 -1      3030-1.41063E+01-1.23705E+01-7.62162E+00 1.61243E+00 7.63280E-01-4.08210E-01
 -1      3031-3.92310E+00-7.37908E+00-1.18738E-01-1.85059E-01-1.91331E+00 7.89064E-01
 -1      3032-4.10115E+01-4.54522E+00-1.30729E+01 5.51717E+00-1.49495E+00-8.52069E-01
 -1      3033-1.06041E+01-1.13405E+01-3.39891E+00 3.93743E+00 1.08839E+00 1.81207E+00
 -1      3034-1.90640E+01-2.36759E+01-1.22859E+01-1.51580E+01 1.93048E+00 2.64232E+00
 -1      3035-9.62807E+00 1.44834E-02 2.98737E+00 5.01725E+00 4.73823E-01-1.64177E-01
 -1      3036-4.26495E+01-1.94983E+01-1.38609E+01-2.03745E+01-1.47442E+00-2.22052E+00
 -1      3037-5.45890E+01-2.58651E+01-1.23245E+01-2.70610E+01 3.66185E+00-1.47326E+00
 -1      3038-1.10310E+01-3.90001E+01-1.50504E+01 1.19090E+01 2.26039E+00 3.03182E-01
 -1      3039 1.20742E+01 1.09596E+01 2.92530E+00 1.00593E-01 8.60166E-01 2.22845E+00
 -1      3040-2.58922E+01-3.64766E+00-7.90951E+00 2.91186E+00 2.84570E-01 3.94939E-01
 -1      3041-8.47134E+00-2.07353E+01-7.80675E+00 1.02485E+01 1.32020E+00-2.08726E+00
 -1      3042-1.14078E+01-2.00907E+01-1.03545E+01-1.30349E+01 2.09740E+00 3.96438E+00
 -1      3043-4.57474E+01-9.72743E+00-7.35573E+00-1.22753E+00-8.08788E-01-2.08621E-01
 -1      3044-5.39768E+00-1.23635E+01 3.99800E+00 8.04248E+00-3.40167E+00-1.03966E+00
 -1      3045 1.08569E+01 1.22295E+01 5.76454E+00-2.23683E+00-4.58501E-01-1.77024E+00
 -1      3046-4.05433E+01-5.93279E+00-1.38024E+01 7.75340E+00 1.22364E+00-1.39422E+00
 -1      3047-4.84393E+00-2.66805E+00 3.11035E+00-6.00441E-01 8.82923E-01-1.10444E+00
 -1      3048-1.14807E+01-1.71818E+01-3.01258E+00 1.30598E+01-2.32877E+00-1.67900E+00
 -1      3049-4.65545E+01-2.00205E+01-1.49025E+01-1.72163E+01-7.40125E-01-3.46574E-02
 -1      3050-5.87632E+01-1.20756E+01-1.39670E+01-1.34687E+01 1.19592E+00-4.21272E+00
 -1      3051-3.93418E+00-3.15965E+01-1.03860E+01 6.15261E+00-2.73588E+00 3.54869E+00
 -1      3052-6.86179E+00-1.83386E+01-5.41499E+00 7.83432E+00-4.64102E-01 2.54976E+00
 -1      3053-2.11756E-01-1.04490E+01 2.79913E-01 5.52657E-01 2.49811E+00 1.77027E+00
 -1      3054-1.21535E+01-3.10101E+01-8.68573E+00-1.36164E+01 2.03470E+00-1.34030E+00
 -1      3055-1.44672E+01-3.72499E+01-1.15366E+01-1.98570E+01 7.39523E-01 6.76388E-01
 -1      3056-8.29145E-01-5.32490E+01-7.59691E+00 4.97157E+00-1.09247E+00-5.30410E+00
 -1      3057-1.07388E+01-9.02747E+00 2.10805E+00 1.13341E+00-1.19133E+00-1.16237E+00
 -1      3058-3.95607E+01-1.88714E+00-1.13817E+01 2.96478E+00 7.59620E-01 1.87949E+00
 -1      3059-2.35595E+01-2.28627E+01-5.33957E+00-1.77701E+00 1.15996E-01 3.61036E-01
 -1      3060-1.13672E+01-3.82847E+01-1.23312E+01 1.74311E+01 1.71518E-01 1.05952E+00
 -1      3061-6.43361E+00-5.83874E+01-4.54422E+00-1.15737E+01-3.72172E+00 5.11914E+00
 -1      3062-6.01493E+00-2.51638E+01-3.00002E+00 9.55207E+00-8.60744E-01-1.17568E-01
 -1      3063-1.66226E+01-4.65254E+01-1.29404E+01 1.87653E+01-5.97406E+00-7.58318E-01
 -1      3064-1.44373E+01 6.79759E-01 3.21194E+00 2.00616E+00-3.41435E+00-1.33899E+00
 -1      3065-3.14319E+01-1.71755E+01-1.32497E+01-1.67390E+01-1.11493E+00 1.73844E+00
 -1      3066-3.86191E+01-9.04071E+00-9.30971E+00-4.57688E+00-3.91196E+00 2.08793E+00
 -1      3067-1.93970E+01-2.59190E+01-1.25496E+01 1.42853E+01 5.27313E-01-1.86930E-01
 -1      3068-1.64246E+01-2.84024E+01 2.87521E-01 1.68008E+01-1.47668E+00-2.11720E+00
 -1      3069-1.82283E+01-3.25284E+01-1.04227E+01 1.81606E+01-2.11621E+00-1.35847E+00
 -1      3070-4.58251E+00-6.20006E+00 1.75542E+00-1.47312E+00-1.35747E+00-1.45019E+00
 -1      3071 3.40694E+00-2.01456E+01 5.66682E+00-3.19453E+00 1.69337E+00 5.27760E+00
 -1      3072-2.45455E+01-5.84218E+00-1.01764E+01 8.03408E+00 2.17703E-01-1.24237E-06
 -1      3073-8.72089E+00-2.04977E+01-7.88308E+00 3.87999E+00-3.33080E-01-1.85465E+00
 -1      3074-1.60140E+01-1.84128E+01-1.10389E+01-8.26252E+00 1.87103E+00-3.90199E+00
 -1      3075-1.07068E+01-5.33812E+00-1.51645E+00-4.25775E+00-2.16971E+00-7.27992E-02
 -1      3076-4.77724E+01-2.37427E+01-1.09164E+01 2.36718E+01 4.38668E+00 5.78429E-01
 -1      3077-4.86808E+00-6.42079E+01-9.68672E+00 2.26206E+00-1.22102E+00-1.66767E+00
 -1      3078-2.76832E+01-2.38584E+01-1.40661E+01-3.94616E+00-3.34877E+00-1.23354E+00
 -1      3079-2.99402E+00-1.53276E+01-3.01557E+00-7.59690E+00 1.05990E+00 2.27266E+00
 -1      3080-2.24280E+01-9.60641E+00-4.60844E+00 9.14127E+00 1.56455E+00 5.96142E-01
 -1      3081-9.18643E+00-3.86388E+01-1.35964E+01-1.03009E+01-1.49734E+00 7.87989E-01
 -1      3082-4.07596E+01-1.35525E+01-1.68097E+01-7.62329E+00 1.12283E+00 1.46756E+00
 -1      3083-3.74780E+01-1.85568E+01-3.76149E+00 1.95884E+01-2.29133E+00-6.38338E-01
 -1      3084-6.28673E+01-1.69164E+01-9.84692E+00 2.62691E+01-1.54327E+00 3.80124E-01
 -1      3085-1.89698E+01-3.66960E+01-2.37107E+01-6.48417E+00-1.33074E+00 6.04048E+00
 -1      3086-6.25554E+00-2.79647E+00 4.61651E+00 1.22117E+01 1.97590E+00 3.10536E+00
 -1      3087-2.39730E+01-1.78919E+01-1.03354E+01-1.42147E+01-8.12103E-02 1.52428E+00
 -1      3088-2.52083E+01-7.56441E+00-1.03004E+01-5.44367E+00 1.94041E+00 9.88406E-01
 -1      3089-5.75171E+00-2.46203E+01-4.58974E+00 1.56105E+01-7.42704E-01 2.08766E-01
 -1      3090-5.26893E+00-1.88277E+01 1.92581E+00-8.83104E+00-9.16657E-01 5.17516E+00
 -1      3091-2.16516E+01-2.00686E+01-5.87032E+00-4.33832E-01 8.70519E-01-3.10035E-01
 -1      3092-6.81066E+01-2.92911E+00-1.24923E+01 3.27561E+00 4.09046E+00 2.12235E+00
 -1      3093-7.29777E+00-1.56456E+01-8.74044E+00-6.61368E+00 3.39201E+00-1.77848E+00
 -1      3094-4.61946E+00-4.87766E+00 1.41728E+00-3.81155E+00-2.35318E+00-3.56125E-01
 -1      3095-1.00221E+01-1.59520E+01-9.86265E+00-6.55384E+00 3.13842E+00-4.36262E+00
 -1      3096-7.27365E+00-5.87078E+00-1.02720E+00 1.42054E-03-1.27484E+00-9.99594E-01
 -1      3097-1.04837E+01-4.69411E+01-6.23047E+00-2.93260E+00-2.54481E-01-3.14731E+00
 -1      3098-2.45028E+01-4.31290E+00-1.20113E+01 3.77015E+00 8.81493E-01-8.59318E-02
 -1      3099-4.79127E+00-3.69181E+01-7.63340E+00-6.45909E+00 9.32437E-01 4.40385E-01
 -1      3100-1.60810E+01-2.18522E+01-1.53279E+01-1.48491E+01-4.70151E-01-2.44662E+00
 -1      3101-1.97361E+01-1.94089E+01-7.65969E+00-2.92878E+00-2.12073E+00 4.49645E-01
 -1      3102-1.82287E+01 1.54011E+00-5.68459E-01 3.04369E-01-2.73786E+00-8.54071E-01
 -1      3103-3.50024E+01-2.25253E+00-9.53798E+00-2.75355E+00 3.18490E-01 2.77596E+00
 -1      3104-2.03029E+01-2.50040E+00-8.37319E+00 7.91557E-01 8.88436E-01 1.60070E+00
 -1      3105 1.83604E+01 1.52961E+01 1.30088E+00-2.54407E-01-7.85206E-01 1.34305E+00
 -1      3106-8.92283E+00-3.74679E+01-1.34893E+01 8.27716E+00-7.56171E-01 1.71004E+00
 -1      3107-2.68565E+01-1.18751E+01-1.32908E+01 9.66308E+00 1.78250E+00 1.78474E+00
 -1      3108-5.54267E+01-1.17896E+01-1.67724E+01-9.93912E+00-3.57518E+00 8.97986E-01
 -1      3109-8.82358E+00-2.44529E+01-6.54064E+00 1.07033E+01 1.77638E+00-8.58303E-01
 -1      3110-1.18081E+00-4.97042E+01-6.29444E+00-6.71318E+00-4.54086E-01-1.47153E+00
 -1      3111-3.00978E+01-4.12271E+01-4.14836E+00 3.08753E+01-2.56262E+00 5.90636E-01
 -1      3112-9.97430E+00-4.40517E+01-6.29311E+00 1.08598E+01-2.26282E-01-2.07945E+00
 -1      3113-6.30800E+01-1.16529E+01-9.81142E+00 1.55072E+01 2.01551E+00 6.92681E-01
 -1      3114-2.35616E+01-2.46172E+01-8.55302E+00-2.23138E+00 8.92195E-01 2.59571E+00
 -1      3115-1.79948E+01-1.17289E+01-1.19124E+01 4.93558E+00-3.61687E+00-4.60136E+00
 -1      3116-2.10904E+01-2.31155E+01-1.02963E+01 1.53048E+01-8.19256E-01 8.88604E-02
 -1      3117-3.84680E+01-2.75821E+01-4.75827E+00-2.45268E+01 1.39440E-01 3.96107E-01
 -1      3118-2.01210E+01-2.11418E+01-1.51181E+01 6.50269E+00 2.01638E+00 6.89002E+00
 -1      3119-2.47723E+01-9.85292E+00-8.23609E+00-1.09934E+01 1.79498E+00 4.37045E-01
 -1      3120-6.31948E+00-6.96144E+00 1.30131E+00-7.68962E+00-1.62216E+00 2.50474E+00
 -1      3121-1.44539E+01-1.17902E+01-8.33796E+00-4.83535E-01-2.80070E-01 1.23088E+00
 -1      3122-1.99907E+01-2.80353E+01-1.47895E+01 1.16450E+01 3.06087E+00 1.24867E+00
 -1      3123-2.99279E+01-1.68176E+01-1.48115E+01 1.60079E+01-2.12344E+00-3.18184E-01
 -1      3124-2.08935E+01-1.32005E+01-8.59839E+00 9.89906E+00-9.20018E-01-9.81270E-01
 -1      3125-1.50022E+01-2.03945E+01-5.03599E+00 1.62885E+01 2.41581E+00-4.12780E+00
 -1      3126-2.61905E+01-1.48046E+01-1.46824E+00 1.52566E+01 4.42466E+00 2.15343E+00
 -1      3127-3.33348E+01-1.56962E+01-4.24810E+00 1.75158E+01 4.34276E+00 3.88136E+00
 -1      3128-8.34038E+00-4.23704E+01-1.67857E+01-5.89754E+00 9.63149E-01 2.42158E-01
 -1      3129-3.61227E+01-1.46280E+01-1.54593E+01 1.30720E+01 1.27613E+00-3.03115E+00
 -1      3130-6.58504E+00-4.18787E+01-5.05160E+00 1.04189E+01 1.94639E+00 5.40617E+00
 -1      3131-8.84770E+00-4.51839E+01-9.63863E+00-8.53846E+00 1.78952E+00 5.66970E-01
 -1      3132-3.09384E+01-6.57260E+00-1.00025E+01 9.42629E+00-7.01648E-01 7.44071E-01
 -1      3133-3.08825E+01-6.19449E+00-1.47617E+01 5.94870E+00-2.69836E-01-4.08913E+00
 -1      3134-2.31451E+01-2.64668E+01-1.16259E+01-1.80202E+00-1.53906E+00-3.91742E-01
 -1      3135-4.71197E+01-1.41974E+01-1.04452E+01 1.33554E+01-3.31689E+00 3.26815E-01
 -1      3136-1.12429E+01-3.39652E+01-1.21904E+01-1.73565E+01-4.36756E-01 2.88884E+00
 -1      3137-1.39186E+01-5.49326E+01-1.44101E+01-1.14055E+01-1.22659E+00 1.89683E+00
 -1      3138-1.13190E+01-2.30408E+01-7.67379E+00-1.01991E+01 1.11808E+00 1.16413E-01
 -1      3139-2.26782E+01-2.43901E+01-8.69775E+00-1.82175E+01 2.79293E+00 2.20029E+00
 -1      3140-2.28850E+01-3.64163E+01-7.39219E+00 2.09828E+01 4.87657E+00 2.14788E+00
 -1      3141-6.60646E+01-1.32480E+01-1.65596E+01 5.01956E+00-2.58277E-01-3.22895E+00
 -1      3142-4.73504E+01-5.38043E+00-2.43400E+00 1.01014E+01 1.50127E+00-2.58987E+00
 -1      3143-8.92464E+00-2.91335E+01-3.18583E-01 5.09659E+00 1.03810E-01 4.15012E+00
 -1      3144-6.65787E+01-3.99740E+00-7.41915E+00-2.68401E+00 1.95943E+00-1.82482E+00
 -1      3145-1.43015E+00-1.09553E+01 1.34509E-01 5.38799E+00 9.45113E-01 1.82861E-01
 -1      3146-5.19047E+01-3.29504E+01-9.79235E+00-2.85194E+01-4.02178E-01-4.03100E-02
 -1      3147-9.98388E+00-1.36079E+01-5.05129E+00-6.56918E+00 1.04289E+00 2.71113E+00
 -1      3148-6.34282E+01-8.48071E+00-1.96303E+01-4.13286E+00 1.03458E+00-3.64623E+00
 -1      3149-1.88220E+01-1.34327E+01-2.47752E-01-7.68436E+00 1.89405E+00-1.73957E+00
 -1      3150-1.39570E+01-5.59031E+01-9.97052E+00 2.00875E+01-8.72220E-01 3.10753E+00
 -1      3151-4.59168E+01-1.21976E+01-1.43781E+01-7.16529E+00 1.12160E+00-2.91932E+00
 -1      3152-1.22921E+01-2.55322E+01-1.02317E+01-1.22541E+01-3.30645E-01 1.42419E+00
 -1      3153-1.21189E+01-3.50987E+01-1.02621E+01-1.70591E+01-5.21928E-02-1.73098E+00
 -1      3154-7.71794E+00-4.63173E+01-4.44845E+00 7.43817E+00-1.96944E+00-3.96800E+00
 -1      3155-2.50585E+01-7.94753E+00-1.02155E+01-4.53786E+00 2.95516E+00-8.25951E-02
 -1      3156-2.29879E+01-3.62592E+00-2.93777E+00 1.03781E+01 1.79372E+00 6.12522E-01
 -1      3157-5.18538E+01-2.43909E+01-8.73824E+00 2.43762E+01 2.67136E+00 2.78346E+00
 -1      3158-5.60201E+01-1.47192E+01-1.70841E+01 1.14374E+01-1.13170E+00-1.45006E+00
 -1      3159-6.59699E+01-1.10457E+01-1.25641E+01 1.47831E+01 1.02020E+00 1.54377E+00
 -1      3160-6.88562E+00-5.07062E+01-3.01881E-01 1.12287E+01-2.53606E+00-2.83190E+00
 -1      3161-2.95363E+01-1.31919E+01-3.00479E-01 1.28062E+01-2.62152E+00-3.66191E+00
 -1      3162-6.25533E+01-6.25642E+00-1.46776E+01-5.70220E+00 2.02459E+00-3.64271E+00
 -1      3163-1.17634E+01-3.69827E+01-1.87103E+01-6.97846E+00-9.74956E-01 2.33733E+00
 -1      3164-4.28624E+01-1.58401E+01-1.03995E+01 2.04911E+01-1.45904E+00-1.02965E+00
 -1      3165-2.16106E+01-5.46230E+00-7.09925E+00-2.57598E+00 2.75251E+00-1.14006E+00
 -1      3166-7.17633E+00-3.96613E+01-1.36314E+01 7.06425E+00 2.48346E+00-5.01460E-01
 -1      3167-1.68747E+01-2.60884E+01-1.19569E+01 1.76423E+01 3.09832E+00-3.32623E+00
 -1      3168-2.53138E+01-3.12530E+01-1.08844E+01-2.04044E+01 1.87385E+00-7.38644E-01
 -1      3169-3.17354E+00-3.48550E+01-5.27067E+00 4.11446E+00-2.21119E+00-2.07458E+00
 -1      3170-1.90786E+00 1.67033E+00 3.58606E+00-4.72188E+00-5.74781E-01 1.09246E+00
 -1      3171-1.01426E+01-1.23582E+01-2.60142E+00-8.96146E+00 4.70172E-01-2.35352E+00
 -1      3172-1.37304E+01 3.25176E+00 1.22143E+00 6.70274E-02 3.01012E+00-1.59911E+00
 -1      3173-4.37413E+01-2.72313E+00-1.21051E+00-6.42486E+00 5.92509E+00-1.05492E+00
 -1      3174-5.46873E+00-7.47907E+00 6.61052E-01-3.85038E-01 6.15316E-02 2.09974E+00
 -1      3175-1.53894E+01-2.19298E+01-5.50505E+00-1.40527E+01 1.29371E+00-2.36952E+00
 -1      3176-4.94087E+01-5.10819E+00-1.53848E+01-4.64760E+00 8.83524E-02-2.88358E+00
 -1      3177-3.83820E+01-1.05689E+01-7.68980E+00 1.77911E+01-1.20713E+00-6.81005E-01
 -1      3178-7.94841E+00-5.96538E+01-1.15017E+01 9.06997E+00-9.85361E-01-8.92506E-01
 -1      3179-2.29024E+01-7.42334E+00-7.80294E+00 4.42549E+00 4.13142E+00 3.61172E-01
 -1      3180-1.09388E+01-5.15072E+01-1.21861E+01 1.36371E+01 2.78417E+00-2.74376E+00
 -1      3181-2.23216E+01-5.25594E+01-1.43095E+01 2.19701E+01 4.21623E+00 1.58438E+00
 -1      3182-1.30015E+01-1.86431E+01-8.51972E+00 1.04732E+01-1.15753E+00-3.02733E+00
 -1      3183-3.37279E+01-3.89197E+01-8.84461E+00 2.89148E+01 5.54826E+00-1.66832E-02
 -1      3184-2.37645E+01-1.00553E+01-9.26363E+00 5.55637E+00-1.53320E+00-1.38324E+00
 -1      3185-1.07571E+01-1.71911E+01-7.94167E+00-1.16043E+01-5.03817E-01 2.60119E+00
 -1      3186-9.54286E+00-2.86854E+01-1.04537E+01 9.65347E+00 1.69613E+00-7.99104E-03
 -1      3187-4.48238E+00-2.34304E+01-3.07061E+00 3.70106E+00 7.52881E-01-9.54300E-01
 -1      3188 9.07067E+00-1.27378E+01 4.21901E+00 1.25484E-02 6.90825E-01 3.41911E+00
 -1      3189-1.84074E+01-2.45901E+01-8.52389E+00-9.74758E-01-7.20844E-01 1.85472E+00
 -1      3190-1.54134E+01-6.19616E+01-4.98568E+00-2.03476E+01-3.67009E+00 3.51939E+00
 -1      3191-5.72752E+01-6.53599E+00-6.67280E+00 9.36372E+00 2.78622E+00 3.28720E-01
 -1      3192-1.16014E+01-5.33176E+01-1.16200E+01 1.56983E+01 3.45641E-01 1.28763E-01
 -1      3193-9.90973E+00-1.92212E+01-7.12599E+00-8.95192E+00 1.62692E+00 1.93645E+00
 -1      3194-4.28981E+01-1.08385E+01-1.27950E+01 3.97833E+00-1.48467E+00 4.14826E-02
 -1      3195-2.61042E-01-3.73431E+01-4.21417E+00 5.87523E+00 1.67557E+00-2.68894E+00
 -1      3196-1.98241E+01-1.66900E+01-1.25053E+01 4.71373E+00 1.75272E+00 3.17336E+00
 -1      3197-2.45876E+01-2.26925E+01-4.77909E+00-7.68543E-01-4.98381E-01-8.66502E-02
 -1      3198-3.69801E+01-1.76158E+01-4.25385E+00 2.13712E+01 1.59286E+00 1.91445E+00
 -1      3199-3.19102E+01-2.11149E+01-1.49982E+00 2.79877E+01 2.67754E-01 8.12327E-01
 -1      3200-4.84135E+00-5.19604E+01-3.01800E+00 9.34250E+00 2.78301E+00 3.90734E+00
 -1      3201-1.89386E+01-1.97654E+01-8.64317E+00-1.27802E+00 8.54043E-01 8.88918E-01
 -1      3202-1.07375E+01-6.04189E+00 1.32198E+00 9.22906E+00 2.59094E+00 2.04270E+00
 -1      3203-1.79536E+01-1.14408E+01-1.11692E+01-6.83790E+00 3.36448E+00-2.73362E-01
 -1      3204-1.04378E+01-1.40502E+01-6.46815E+00 9.47673E-01-6.19131E-01 3.79242E-01
 -1      3205-2.03580E+01-1.34329E+01-1.06657E+01-4.51210E+00 3.09291E+00-1.18202E+00
 -1      3206 1.83179E+00-3.18084E+01-7.16700E+00 2.44249E+00 2.76941E+00 7.04661E-01
 -1      3207-1.85071E+01-2.43373E+01-1.20986E+01-1.63047E+01-5.49064E-01-2.02331E+00
 -1      3208-3.30573E+01-1.78272E+01-1.34573E+01 1.66525E+01 1.06792E+00-3.78402E+00
 -1      3209-1.02264E+01-4.11649E+01-1.23114E+01 1.38436E+01-3.94119E-01 1.98860E+00
 -1      3210-3.91611E+01-2.74419E+01-6.93781E+00 3.05200E+01-4.87069E-01 1.21956E+00
 -1      3211-4.00697E+01-2.72414E+01-4.04623E+00 3.01098E+01 8.50993E-02 1.05411E+00
 -1      3212-4.69371E+01-1.25726E+01-1.28686E+01 1.10571E+01 2.44576E-01 4.22870E-01
 -1      3213-1.66945E+01-3.92448E+01-9.96611E+00 1.94292E+01 3.37422E+00-3.43866E+00
 -1      3214-8.75290E+00-4.43738E+01-1.40827E+01-4.28863E+00 2.56152E+00-1.49662E+00
 -1      3215-3.47100E+00-2.75067E+01-9.57109E+00 3.35667E+00-8.20330E-01-1.54484E+00
 -1      3216-4.18252E+01-3.78404E+00-1.16546E+01 4.45961E-01 6.40686E-01-2.82322E+00
 -1      3217-2.66673E+01-2.54562E+01-1.07687E+01-2.42252E+00 9.96599E-01 3.10022E+00
 -1      3218-8.69638E-01-1.56861E+01-1.07364E-01-3.63727E+00-3.81753E-01-2.36760E+00
 -1      3219-2.50423E+01-2.03255E+01-9.04605E+00 1.20635E+00 1.53939E+00-8.72164E-01
 -1      3220-1.10974E+01-1.59885E+01-8.75061E+00-8.66611E+00 2.24409E+00-1.86721E-02
 -1      3221-1.14481E+01-8.55628E+00 3.12303E+00 8.39291E+00 2.81964E+00 5.41680E-01
 -1      3222-1.82215E+01-1.68864E+01-9.04950E+00-2.65988E-01-7.73205E-01 2.10168E-01
 -1      3223-1.47245E+01-5.29117E+00 2.01132E+00 8.12485E+00 3.70786E+00-3.57933E-01
 -1      3224-2.29606E+00-3.19513E+01-9.88036E+00 4.05474E+00 3.79566E+00-1.05007E+00
 -1      3225-1.19550E+01-1.12256E+01-6.12151E+00-3.25353E-01-3.85970E-01 2.55060E+00
 -1      3226-2.98459E+00-2.86086E+01-9.64246E+00 4.86198E+00 1.07167E+00-1.20379E+00
 -1      3227-7.01697E+01-1.75646E+01-2.40881E+01-1.78943E+01-3.00625E+00-1.56326E+00
 -1      3228-1.22450E+01-2.36665E+01-1.12089E+01 1.03907E+01 3.43043E+00 1.00010E+00
 -1      3229-2.65012E+00-1.92734E+01 5.16871E+00 7.39190E+00-1.48630E+00-6.28655E-01
 -1      3230-6.55009E+00-3.38947E+01-6.93505E+00 8.62186E+00-4.05838E-01-2.77295E+00
 -1      3231-2.05713E+01-1.90582E+01-1.25845E+01 1.14300E+00 9.33110E-01 9.68405E-01
 -1      3232-2.45197E+01-5.52657E+01-1.10866E+01 2.70577E+01 1.70464E-01 3.66117E+00
 -1      3233-4.06737E+01-1.07337E+01-9.19552E+00-5.54089E+00-7.76633E-02 3.60348E-01
 -1      3234-4.29434E+01-2.12041E+01-3.54976E+00 2.65361E+01-2.27156E+00-3.46189E+00
 -1      3235-3.27723E+01-4.15987E+01-1.28050E+01 2.92605E+01 2.81496E+00 3.55431E+00
 -1      3236-8.27815E+00-3.48002E+01-1.16623E+01-1.13242E+01 3.62622E-01-7.92069E-01
 -1      3237-4.17917E+00-4.97525E+01-1.00896E+01 6.28358E+00-1.00054E+00-4.49252E+00
 -1      3238-7.43491E+01-1.08387E+01-8.22661E+00-3.22868E+00 1.05073E+00 1.46047E+00
 -1      3239-1.41235E+01-3.81264E+01-1.32867E+01-1.83587E+01 2.47638E+00 6.86790E-01
 -1      3240-2.64888E+01-1.56917E+01-1.36821E+01-1.07799E+00-3.07699E+00 2.55464E+00
 -1      3241-5.09293E+01-2.19042E+00-1.07549E+01 2.69766E+00 6.08842E-01-9.37749E-01
 -1      3242-7.32736E+01-3.45474E+00-9.11527E+00 6.02529E+00 1.09589E+00-2.22119E+00
 -1      3243-9.74853E+00-1.09307E+01-4.24371E+00-1.05463E+00-6.26686E-01-4.21445E-01
 -1      3244-2.41422E+01-1.33754E+01-1.33495E+01-9.24271E+00 4.13216E-01-2.73712E+00
 -1      3245-2.66052E+01-1.51317E+01-1.58156E+01-1.15773E+01-9.40546E-01-3.87338E+00
 -1      3246-2.44415E+01-2.22179E+01-9.94711E+00-1.36351E+00 1.34035E+00 2.74953E+00
 -1      3247-5.17615E+00-4.55754E+01-1.34961E+01-3.42702E+00 6.26971E-01 8.25509E-01
 -1      3248-3.15095E+01-1.73841E+01-8.03849E-01-1.73223E+01-1.67307E+00 2.22449E+00
 -1      3249-4.79918E+01-1.66108E+01-8.84615E+00-2.11987E+01-1.77390E+00 2.97670E+00
 -1      3250-4.05794E+00-2.02032E+01-9.99561E+00-5.00160E+00 1.70637E+00 2.12145E+00
 -1      3251-2.80236E+01-3.36724E+01-1.19649E+01-2.23019E+01-7.61937E-01-2.71189E+00
 -1      3252 4.61074E+00-2.51618E+01 2.70240E+00-1.00719E+01-1.12124E+00-2.55367E+00
 -1      3253-4.02222E+01-8.53051E+00-1.10412E+01-6.56681E+00-1.70492E+00-1.90126E-01
 -1      3254-1.58845E+01-3.28112E+01-1.29031E+01-1.61536E+01-4.10607E-01 2.65132E+00
 -1      3255-2.15465E+01-1.26888E+01-1.23893E+01 5.53635E+00-7.77065E+00 8.93979E-01
 -1      3256-1.82434E+01-4.37764E+01-1.04002E+01-1.77564E+01 2.89858E+00 7.34347E-02
 -1      3257-7.66901E+00-4.89054E+01-9.40315E+00-1.23701E+01 5.14420E-01-2.47859E+00
 -1      3258-3.75385E+01-3.11284E+01-1.45962E+01-2.70745E+01 2.17491E+00-9.74921E-01
 -1      3259-2.69992E+01-1.53041E+01-1.38381E+01-2.76308E+00-3.54469E+00-1.87223E-01
 -1      3260-4.07010E+00-2.70035E+01-6.09501E+00 3.58075E+00 1.36016E+00 9.44171E-01
 -1      3261-3.31778E+01-4.32701E+01-1.04078E+01-2.70859E+01 2.06308E+00-2.72216E+00
 -1      3262-2.30023E+01-1.00863E+01-9.07461E+00-1.12922E+01-9.16466E-01-1.70136E+00
 -1      3263-2.30753E+01-1.02977E+01-1.03742E+01-1.03754E+01 1.87966E+00-4.64245E+00
 -1      3264-2.68457E+01-6.20959E+00-1.22646E+01 5.69301E+00 3.03445E+00-9.77299E-01
 -1      3265-5.40413E+00-3.62586E+01-1.16529E+01-3.96848E+00 2.67375E+00-3.26124E-01
 -1      3266-1.03090E+01-4.26357E+01-8.82249E+00-1.76316E+01-3.60717E-01 3.09314E-01
 -1      3267-3.45436E+01-3.03432E+01-9.86421E+00 2.70810E+01-2.79815E+00-2.71059E+00
 -1      3268-1.58646E+01-2.77346E+01-1.04265E+01-1.23068E+01 3.97690E+00-1.60324E+00
 -1      3269-2.26013E+01-2.02525E+01-1.76763E+00 7.63529E-01 4.93679E-01-4.07627E-01
 -1      3270-3.05242E+01-2.66122E+01-1.45034E+01 2.04120E+00-3.77411E-01 3.23180E+00
 -1      3271-3.50583E+01-1.46453E+01-5.80101E+00 1.68462E+01-2.26350E+00-3.31376E+00
 -1      3272-1.58803E+01-1.63414E+01-8.73600E+00-5.12889E+00-3.40581E+00 1.33398E+00
 -1      3273-2.94678E+01-1.80279E+01-1.66049E+01-1.70967E+01-1.86177E+00-6.18712E-01
 -1      3274-6.79118E+00-3.45245E+01-1.22728E+01-3.52182E+00 1.03828E+00 1.74510E-01
 -1      3275-6.81300E+01-2.10773E+00-5.78394E+00 3.97023E+00 3.53674E+00 2.02556E+00
 -1      3276-6.36136E+00-2.51821E+01-1.17951E+01 3.28218E+00-1.86440E+00-1.18458E+00
 -1      3277-5.88322E+00-5.05977E+01-1.21057E+01-5.14167E+00-9.76611E-02-6.20135E-01
 -1      3278-1.52555E+01-2.09519E+01-8.54544E+00-1.16406E+01 1.81413E+00-1.63615E+00
 -1      3279-9.13881E+00-1.04338E+01 6.56361E-02 9.09676E+00 8.89956E-01 8.73227E-01
 -1      3280 3.23633E+00 2.36281E+00 2.05927E+00 6.44113E-02 3.54190E-01-2.93256E+00
 -1      3281-2.21855E+01-6.62516E+01-1.66940E+01-1.83902E+01-2.82332E+00 3.56933E-01
 -1      3282-1.49506E+01-4.15599E+00 1.86760E+00-8.68003E+00 3.02836E+00 8.42547E-01
 -1      3283-1.29431E+01-6.45824E+01-9.55155E+00 2.06127E+01 3.05494E+00 1.25228E+00
 -1      3284-2.86634E+01-2.69346E+01-1.55647E+01-4.79215E+00-5.82531E+00-1.98511E+00
 -1      3285-5.38339E+01-1.18488E+01-1.64021E+01-1.44192E+01-2.51194E+00-1.33015E+00
 -1      3286-5.63699E-01-9.62781E+00 6.26081E-01 6.94989E+00-1.44752E-02-2.08758E+00
 -1      3287-2.71097E+01-3.68124E+01-1.41962E+01 2.04350E+01-1.79424E+00 7.68614E-01
 -1      3288-9.28999E-01-9.49800E+00 5.89229E-01-3.78079E+00-3.23489E-01-8.94951E-01
 -1      3289-2.14015E+01-1.10415E+01-7.46450E+00 1.34219E+01 1.26298E+00 2.10085E+00
 -1      3290-2.51838E+01-1.32026E+01-1.21135E+01-1.13368E+01-2.17454E+00 5.99598E-01
 -1      3291-3.34561E+01-1.02733E+01-1.36705E+01-7.42987E+00 3.24952E+00 2.51284E+00
 -1      3292-1.47134E+01-5.63853E+01-1.37319E+01 1.31849E+01-1.82997E+00 1.11602E-01
 -1      3293-8.89799E+00-4.42786E+01-1.33482E+01-1.19191E+01-1.82141E+00-1.13896E+00
 -1      3294-4.05915E+01-1.61728E+00-4.04955E+00 3.70663E+00 2.96950E+00 1.28032E+00
 -1      3295-4.57141E+01-4.14785E+00-1.14856E+01 4.48412E+00 1.98408E+00-1.29978E+00
 -1      3296-2.41038E+01-7.90855E+00-8.27215E+00-4.21676E+00-9.94519E-01 1.15751E+00
 -1      3297-9.34082E+00-2.22354E+01-9.27753E+00-1.10954E+01-1.31958E+00 2.27674E+00
 -1      3298-4.60384E+01-9.72420E+00-1.50174E+01-4.08824E+00 7.61005E-01 1.32977E+00
 -1      3299-8.04841E+00-2.69820E+01-8.92576E+00-8.87667E+00 7.40289E-01-1.71113E-01
 -1      3300-1.13505E+01-5.59349E+01-1.30173E+01 1.46560E+01 2.84448E+00 5.39943E+00
 -1      3301-1.63273E+01-4.19396E+01-1.18893E+01-1.87997E+01 2.51700E+00-7.03940E-01
 -1      3302-5.17067E+01-2.17503E+01-9.83485E+00-2.37012E+01 8.22233E-01 4.48162E+00
 -1      3303-2.46728E+01-2.66264E+01-1.29336E+01 3.30133E+00 2.76036E+00-1.54011E+00
 -1      3304-5.51597E+01-1.05511E+01-1.43651E+01-1.84240E+00-1.79864E+00 1.93173E+00
 -1      3305-1.15452E+01-2.91030E+01-5.65394E+00 1.43253E+01 2.93220E+00 2.75318E+00
 -1      3306-5.88100E+00-3.41184E+01-8.28511E+00-1.19713E+01-1.20116E+00-1.12279E+00
 -1      3307-2.10419E+01-5.62123E+01-1.17253E+01-2.47488E+01 8.97617E-02-4.20612E+00
 -1      3308-5.68462E+01-8.35102E+00-1.90789E+00 1.60455E+01-5.71070E+00-1.90658E+00
 -1      3309-7.76639E+00-7.56692E+01-1.13150E+01 2.14543E+00-1.54867E+00-9.78403E-01
 -1      3310-1.88675E+01 6.16253E-01 6.13860E+00 4.43746E+00 2.78131E+00 2.08896E+00
 -1      3311-2.70095E+01-2.46426E+01-1.22949E+01 2.53441E+00 3.01947E+00-2.96086E+00
 -1      3312-3.74210E+01-1.71118E+01-4.25360E+00-1.70215E+01 1.06657E+00-2.72676E+00
 -1      3313-1.66027E+01-3.38446E+01-6.42641E+00-1.85084E+01 8.84782E-01-5.43275E+00
 -1      3314-7.72185E+00-3.04516E+01-1.02627E+01-7.66329E+00-1.88733E-01 7.38086E-01
 -1      3315-8.23541E+00-2.08578E+01-7.63922E+00-2.19613E+00 5.89259E-01-1.70362E+00
 -1      3316-4.03854E+01-4.40755E+00-1.11884E+01-4.03825E+00 3.30436E-01 7.44544E-01
 -1      3317-4.95907E+00-6.36619E+00 8.79537E-01 3.19938E-01 6.60797E-01-9.24470E-01
 -1      3318-2.89678E+00-1.07338E+01 1.73110E-01-8.30390E-01 8.34125E-01-4.45665E-01
 -1      3319-1.82515E+01-3.28800E+01-9.34603E+00 2.18577E+01-1.44509E+00-2.42096E+00
 -1      3320-1.03581E+00-2.59938E+01-3.38263E-01-1.15605E+00-1.48127E+00 2.88024E+00
 -1      3321-4.36474E+01-7.03840E+00-1.29067E+01-4.91599E+00 3.02399E+00-1.68563E-01
 -1      3322 2.27693E+00-3.57123E+01-6.09247E+00-3.14849E+00-1.40398E+00-2.19570E+00
 -1      3323-1.47838E+01-5.32089E+01-1.31150E+01 1.83655E+01 1.58266E+00-1.04109E+00
 -1      3324-4.09618E+00-5.71395E+00 1.69996E-01-4.64334E+00-5.77723E-01 6.39991E-01
 -1      3325-1.74295E+01-3.52481E+01-8.32152E+00 2.06939E+01-8.37628E-02-2.75419E+00
 -1      3326-7.82211E+00-1.24745E+01-8.54670E+00-9.98283E+00 3.71703E+00 1.33469E-01
 -1      3327-3.60022E+01-2.17317E+01-1.21632E+01 1.67789E+01-2.39315E+00-2.32631E+00
 -1      3328-4.36840E+01-6.10297E+00-9.44284E+00-1.15833E+01 1.91750E+00-1.90742E+00
 -1      3329-6.24610E+00-3.04080E+01-8.89917E+00 7.21208E+00-2.06576E+00-1.26250E+00
 -1      3330-1.34261E+01-3.22608E+01-8.81076E+00-1.58062E+01 1.93588E+00-7.59681E-01
 -1      3331-7.21834E+00-5.25371E+00 2.53986E+00 5.50535E-01-5.82127E-01-1.91190E+00
 -1      3332-1.66135E+01-1.58806E+00-1.41731E+00 9.37321E+00 1.51798E+00 1.11309E-01
 -1      3333-2.79215E+01-4.50556E+00-7.55995E+00-6.12892E+00 9.31333E-02 3.65154E-01
 -1      3334-3.72127E+01-2.77218E+00-1.03079E+01-3.26887E+00 8.14310E-01 2.86789E+00
 -1      3335-7.60360E+00-3.96033E+01-9.81240E+00-1.11567E+01 2.85838E+00 8.83629E-01
 -1      3336-3.11440E+01-6.50994E+01-1.13377E+01 3.10822E+01-2.02596E+00-3.40310E+00
 -1      3337-3.23847E+01-4.67106E+00-1.07129E+01-3.56734E+00 2.02610E+00 2.75582E+00
 -1      3338 6.22939E+00 6.04301E+00 3.28475E-02-5.89229E-01-1.36475E+00-1.71228E+00
 -1      3339-1.98429E+01-1.37234E+01-8.10441E+00-1.23073E+01 4.22288E-01 1.14455E+00
 -1      3340-4.05331E+00-3.79793E+01-2.97029E+00-1.28116E+01-1.17441E+00 2.71873E+00
 -1      3341-3.27059E+00-2.29117E+01-5.94720E+00-5.68299E+00 6.75917E-02-7.21670E-01
 -1      3342-5.14498E+00-5.72929E+01-1.24357E+01 4.69422E+00 2.30368E+00-4.89349E+00
 -1      3343-3.19269E+01-2.91342E+01-1.59515E+01-2.42387E+00 3.09251E+00 3.82221E+00
 -1      3344-4.84512E+01-3.03069E+01-7.53078E+00 3.02473E+01-2.20776E+00-3.24273E+00
 -1      3345-3.69978E+00-2.75067E+01-1.11999E+01-8.39678E+00-1.20512E+00-1.94022E+00
 -1      3346-7.40375E+01-1.43889E+01-1.32230E+01-1.89274E+01 3.32335E+00-3.40640E-01
 -1      3347-3.67457E+01-5.12123E+00-1.63526E+01 2.47785E+00 2.81622E+00 2.80523E+00
 -1      3348-7.76866E+00-4.44367E+01-1.41733E+01-4.53253E+00 3.62731E-02-1.28892E+00
 -1      3349-2.74930E+01-1.80887E+01-1.04148E+00-1.62656E+01 4.13349E+00-3.56792E+00
 -1      3350-2.47868E+00-6.06812E+01-4.85288E+00-1.37985E+00 3.32217E+00-3.48172E-01
 -1      3351-1.18121E+01-5.43625E+01-7.56312E+00-1.20737E+01 1.12472E-01-1.41782E+00
 -1      3352-2.44667E+01-2.35845E+01-1.08928E+01 1.33234E+00-1.31509E+00 2.28893E+00
 -1      3353-2.64737E+01-5.90267E+00-1.16239E+01 5.91964E+00 1.42844E+00-1.65977E+00
 -1      3354-2.90279E+01-2.58551E+00-8.79783E+00-4.03022E+00-1.80764E+00 4.10698E+00
 -1      3355-1.15190E+01-6.45903E+01-1.58827E+01-8.88814E+00-1.65490E+00 3.01806E+00
 -1      3356-3.90694E+00-3.50438E+01-8.51582E+00-8.62692E+00-6.40739E-02-3.52927E-01
 -1      3357-4.34424E+00 1.54473E+00 5.02357E+00-2.93931E+00 1.28532E+00-2.91932E+00
 -1      3358-3.86190E+00-3.83611E+01-8.07548E+00-1.17340E-01 6.15815E-01-8.14765E-02
 -1      3359-3.36575E+01-1.33229E+01-1.42186E+01 1.25754E+01-1.47152E+00-1.58031E+00
 -1      3360-7.44538E+00-1.84704E+01-1.07473E+01-4.22698E+00-2.20723E+00 3.94603E+00
 -1      3361-6.30528E+00-4.61050E+01-1.21812E+01-1.03659E+01 1.57237E+00 3.44205E-01
 -1      3362-3.11577E+00-5.67678E+01-1.07459E+01-2.84284E+00-2.49358E+00-1.26334E+00
 -1      3363-1.80479E+01-2.29290E+01-1.02361E+01 2.31397E+00-4.45156E-01 1.23524E-01
 -1      3364-1.31117E+01-4.02015E+01-1.17336E+01-1.74465E+01-1.64701E+00 3.52018E+00
 -1      3365-1.29828E+01-3.18854E+00 6.58384E-01 9.45202E+00-2.56165E+00-2.05360E+00
 -1      3366-5.13493E+01-7.43307E+00-1.33272E+01 2.11527E+00-8.75901E-01-8.67411E-01
 -1      3367-4.09551E+01-9.95570E+00-4.47706E+00 7.54982E+00-3.09597E+00-8.25092E-01
 -1      3368-8.13025E+00-6.48968E+01-1.56365E+01-4.90100E+00 3.43483E+00 1.66447E+00
 -1      3369-4.81574E+01-5.42045E+00-1.06744E+01-9.42866E+00-3.65410E+00 4.17318E-01
 -1      3370-2.46122E+01-2.77365E+01-9.03251E+00-2.53209E+00 3.10289E+00 1.60406E+00
 -1      3371-1.47337E+01-5.76765E+01-1.56250E+01-1.39032E+01-1.27269E+00-3.56114E+00
 -1      3372-4.70311E+01-8.39672E+00-1.45556E+01-7.20967E+00 6.10275E-01-2.63945E+00
 -1      3373-2.09947E+01-1.81760E+01-9.03453E+00 5.33657E-01 1.38066E+00 7.87699E-01
 -1      3374-1.31185E+01-5.47758E+01-1.47957E+01-1.19420E+01 2.96664E+00 2.97246E+00
 -1      3375 1.98699E+00-1.39423E+01 2.66075E+00-1.14527E+00-5.70657E-02 9.27640E-01
 -1      3376-1.30802E+01-5.41180E+01-1.41527E+01-1.43997E+01-1.31201E+00-2.42021E+00
 -1      3377-4.84553E+01-6.43652E+00-1.28804E+01-6.81881E+00-2.70864E+00-1.57614E-01
 -1      3378-7.06462E+00-6.08578E+01-1.55684E+01-8.39793E-01-3.49213E+00-1.26664E+00
 -1      3379-4.87037E+00-3.01405E+01-9.71189E+00-6.63129E+00-2.08505E+00 7.32191E-01
 -1      3380 3.01463E+00-2.09058E+01 6.97782E-01 9.67518E-01-1.07001E+00-2.26160E+00
 -1      3381-1.96686E+01-2.69251E+01-8.08949E+00 2.12867E+00 2.06578E+00-1.00015E+00
 -1      3382-2.50647E+01-4.02733E+01-1.17874E+01 2.32469E+01 1.10226E+00-4.77351E+00
 -1      3383-7.21142E+01-6.58760E+00-2.09352E+01 3.74632E+00 1.95201E+00 1.90502E+00
 -1      3384-1.46309E+01-2.96381E+01-1.01152E+01-1.47977E+01-4.82255E-01-1.91375E+00
 -1      3385-8.78526E+00-6.75528E+01-5.32593E+00-8.83756E+00 9.22191E-01 8.16052E-01
 -1      3386-3.72446E+00-1.79687E+01-4.34017E+00-6.88939E+00-8.36369E-01 3.25239E+00
 -1      3387-8.67782E+00-5.95978E+01-5.51850E+00-6.10939E+00-3.59470E-01-2.78024E+00
 -1      3388-2.26039E+01-1.87668E+01-9.79630E+00 2.10854E+00-7.68030E-01-6.97681E-01
 -1      3389-2.52961E+01-2.89378E+01-1.08005E+01-1.20102E+00 4.12802E+00-6.18197E-02
 -1      3390-9.11563E+00-2.60457E+01-6.98047E+00-1.41163E+01-4.92962E-01 1.27328E+00
 -1      3391-1.10172E+01-2.30797E+01-7.78295E+00 8.00837E+00 1.33231E-01 1.87039E+00
 -1      3392 1.31395E+01 1.03005E+01 5.12420E+00-5.07414E-01-1.17356E+00-5.92369E-01
 -1      3393-8.59971E+00-2.06618E+01-1.14014E+01 1.36680E+01 2.96277E+00-6.38675E+00
 -1      3394-3.28030E+00-2.35403E+01-9.82836E+00-6.10746E+00-1.84794E+00-2.60474E+00
 -1      3395-9.67651E+00-4.76633E+01-3.02835E+00-8.78971E+00 1.25294E+00-2.32836E+00
 -1      3396-4.32800E+01-2.04176E+01-1.73585E+01-1.62247E+01-9.10961E-04-3.14437E+00
 -1      3397-1.38741E+01-5.51029E+01-9.89244E+00-1.39886E+01 2.44712E+00-2.08296E+00
 -1      3398-9.44586E+00-3.14775E+01 6.84407E-01-3.31104E+00-7.05778E-01-3.86358E+00
 -1      3399 8.02555E+00 1.03009E+01 5.20649E+00-5.50077E-01 8.83972E-01-2.14390E+00
 -1      3400-1.88034E+01-2.61563E+01-7.57225E+00-1.77779E+01-1.09770E-01 1.55239E+00
 -1      3401-3.69547E+01-2.58065E+01-1.26271E+01 2.01957E+01 2.88567E+00-4.94880E-01
 -1      3402 7.39335E+00 7.45649E+00 2.10414E+00-9.18379E-02 1.78208E+00-3.02462E-01
 -1      3403-1.15018E+01-1.55727E+01-5.01847E+00 1.37646E+00 1.35364E+00 1.83038E-01
 -1      3404-2.03534E+01-3.57457E+01-5.92179E+00-1.96833E+01 4.79589E+00-3.52992E+00
 -1      3405-2.01392E+01-2.97585E+01-1.00198E+01-1.94606E+01 9.82802E-01 2.23699E+00
 -1      3406-5.01484E+00-1.56111E+01-2.19201E+00-7.15496E+00-5.58571E-01 1.91838E+00
 -1      3407-3.25666E+01-1.06679E+01-1.75042E+00-5.45905E+00 3.74380E+00 2.15355E-01
 -1      3408-2.36695E+00-2.27626E+01-3.80396E+00-2.21682E+00-7.06097E-01 9.72764E-01
 -1      3409-2.70286E+01-4.13851E+01-1.54753E+01-2.27644E+01-1.34036E+00 3.08699E+00
 -1      3410 4.21676E+00 4.77294E+00 2.76484E+00-2.28383E-01 8.50718E-01-1.66619E+00
 -1      3411 1.23272E+01 9.28867E+00 4.20877E+00-1.15660E+00 1.69013E+00 6.45335E-01
 -1      3412-1.54133E+01-1.66991E+01-6.79211E+00 2.66145E+00 5.56425E-01 1.73955E-01
 -1      3413-2.00130E+01-2.46830E+01-1.08545E+01 7.85769E-01-9.44412E-01-3.06744E-01
 -1      3414-2.00449E+01-2.34412E+01-1.88529E+00 4.00829E+00-1.96828E+00 1.44580E+00
 -1      3415-7.35859E+00-3.58039E+01-3.30761E+00-2.72176E+00 1.70731E+00-2.48363E+00
 -1      3416 1.01336E+01 8.74082E+00 1.88145E+00-1.52163E+00-1.14386E+00-7.28347E-01
 -1      3417-2.40948E+01-4.01270E+01-1.57522E+01-2.33725E+01 7.74644E-01 2.48756E+00
 -1      3418-6.34214E+00-3.51537E+01-7.81770E+00-1.10701E+01 1.10476E-01 2.32388E+00
 -1      3419-3.79090E+01-9.84161E+00-1.40209E+01-1.36114E+01-1.13187E+00-1.41300E+00
 -1      3420-3.04939E+00-1.03260E+01 4.37228E+00 7.60792E+00-1.93505E+00-4.37413E+00
 -1      3421-2.03718E+01-2.43853E+01-3.51775E+00 2.70843E+00-1.95032E+00 9.31722E-01
 -1      3422-1.59613E+01-3.12182E+01-1.26684E+00-1.73180E+01-6.83507E-01 3.40130E+00
 -1      3423-1.56192E+01-5.33439E+00-1.05820E+01 6.63365E+00-1.78425E+00-5.03928E+00
 -1      3424-1.19931E+01-9.58691E+00-5.06850E+00-1.01065E+00 3.19710E-01-5.94139E-01
 -1      3425 9.70330E+00 1.02775E+01 1.78725E+00 1.10516E+00 4.27902E-04 2.12581E+00
 -1      3426-5.07096E+00-4.15902E+01-9.08040E+00-1.19405E+01 1.94774E+00 1.01484E+00
 -1      3427 1.56864E+01 8.55688E+00 5.29969E+00 2.68822E-01 2.14676E+00-6.61948E-01
 -1      3428-3.45897E+01-4.92686E+01-1.16477E+01-2.94651E+01 3.33287E+00-2.29446E+00
 -1      3429-1.17394E+01-2.24275E+01-5.87050E+00-7.82601E+00-9.75460E-01 1.86822E+00
 -1      3430-1.45702E+01-1.20194E+01-5.88751E+00-2.42409E+00-6.52422E-01 1.04531E-01
 -1      3431-2.38191E+01-2.59900E+01-9.26129E+00 1.66209E+00-3.16616E+00 9.66841E-01
 -1      3432-4.18803E+00-5.83642E+01-1.55749E+01-1.73282E+00-2.07321E+00 1.07238E+00
 -1      3433 1.04152E+01 1.18764E+01 4.21527E+00-1.02195E+00 2.75892E+00 6.74252E-01
 -1      3434-5.87484E+00-4.26142E+01-1.09744E+01-3.98961E+00 2.09804E+00 5.34646E-01
 -1      3435-3.20217E+00-2.91923E+01-7.15118E-01-8.64669E+00 6.47330E-01-3.32116E+00
 -1      3436-3.52819E+01-2.36115E+01-7.33984E+00 2.28554E+01 4.00405E+00 2.80098E+00
 -1      3437 9.55427E+00 6.42063E+00 3.68777E+00-1.23631E+00-1.13167E+00 2.52558E+00
 -1      3438-2.98656E+01-1.31782E+01-8.85627E+00-1.88826E+01-1.89818E+00 9.74404E-01
 -1      3439-2.71367E+01-2.51661E+01-3.30950E+00-1.30972E+00 2.46943E+00-1.53231E+00
 -1      3440-1.93423E+01-3.29759E+01-8.36087E+00-1.96591E+01 2.18730E+00-3.31546E+00
 -1      3441-2.19802E+01-2.12389E+01-7.09794E+00 3.02036E+00-2.40197E+00 9.60350E-01
 -1      3442-9.02346E+00-3.92033E+01-1.52269E+00-7.34022E+00-3.38186E-01 5.41726E+00
 -1      3443-1.16168E+01-3.11878E+01-1.82635E+01 1.83233E+00 5.82487E+00 4.31161E+00
 -1      3444 5.87153E+00-1.48099E+01 1.73821E+00-7.04727E-01 3.09483E-01-1.11691E+00
 -1      3445-5.69624E+01-8.90882E+00-1.48966E+01-6.93432E+00 9.73986E-01-5.66230E+00
 -1      3446-1.97888E+01-7.25949E+01-1.60062E+01 1.93714E+01-1.41109E+00 1.52694E+00
 -1      3447-2.26595E+01-2.04232E+01-7.49382E+00-1.11695E+00 8.64625E-01 2.57089E-01
 -1      3448-1.63727E+01-4.89920E+01-4.44512E+00-2.37858E+01-9.75158E-01 3.64058E+00
 -1      3449-1.62247E+01-2.20546E+01-8.92835E+00-1.39478E+01-1.42780E+00 2.79421E+00
 -1      3450-3.14781E+01-1.42714E+01-1.45849E+01-1.22984E+01 8.23272E-01-1.88208E+00
 -1      3451-1.61303E+01-4.92634E+01-6.40965E+00-2.25988E+01-4.03973E+00 2.08715E+00
 -1      3452-1.87751E+01-5.45132E+01-1.56566E+01-1.99784E+01-3.75850E-01 7.89870E-01
 -1      3453-1.58819E+01-5.54283E+01-1.10127E+01-2.40391E+01-1.88262E+00-5.65796E+00
 -1      3454-1.24685E+01-5.83935E+01-1.71831E+01-6.86747E+00 1.86191E+00-4.29002E+00
 -1      3455-2.39794E+01-2.63158E+01-8.68666E+00-1.56456E+00-2.04198E+00 7.92028E-01
 -1      3456-3.06452E+01-1.73026E+01-1.01717E+01 1.82170E+01-4.07091E-02-8.06912E-01
 -1      3457-4.83190E+00-1.89923E+01-4.40382E+00 6.74344E+00 5.17175E-01 7.48614E-01
 -1      3458-6.18666E+00-3.59865E+01-1.13260E+01-7.73220E+00 1.06135E+00-9.40257E-01
 -1      3459-6.96514E+00-3.28574E+01-1.01764E+01-1.08371E+01-3.22460E+00-2.57390E+00
 -1      3460-1.77705E+01-2.32069E+01-1.58775E+01-3.46489E+00 5.19821E-01-7.01104E+00
 -1      3461-2.11583E+01-4.55276E+01-3.41966E+00-2.43777E+01-5.75971E-01 2.26390E+00
 -1      3462-4.53303E+01-1.17128E+01-1.48337E+01-7.37520E+00-6.31519E-01 3.19058E+00
 -1      3463 1.35782E+01 1.62715E+01 5.28876E+00-8.27304E-01 6.49771E-01-7.30045E-01
 -1      3464-2.25003E+01-1.94995E+01-9.58633E+00-8.01050E-01 5.74579E-01 3.15929E+00
 -1      3465-4.00184E+00-6.23602E+01-7.57586E+00-3.68629E+00 1.07135E+00-3.94477E+00
 -1      3466-3.06435E+01-3.17287E+01-1.46119E+01 3.13851E+00-4.70682E+00 2.26665E+00
 -1      3467-1.77286E+01-1.97372E+01-7.76775E+00-4.12114E-01-1.68724E+00-6.62791E-01
 -1      3468-2.29134E+01-2.61954E+01-1.18380E+01-1.80557E+00 9.13044E-01-1.09434E+00
 -1      3469-1.21477E+01-2.65567E+01-1.27454E+01-6.13309E+00-9.14723E-01 3.16338E+00
 -1      3470-5.73578E+00-3.18839E+01-9.24505E+00-4.96268E+00-6.54369E-01 1.86622E+00
 -1      3471-8.73329E+00-4.70300E+01-1.22824E+01-1.62380E+01-2.60813E-01-1.19616E+00
 -1      3472-4.46498E+00-5.66960E+01-1.16869E+01-5.29706E+00-4.28065E-01 1.15633E+00
 -1      3473-2.64191E+01-2.14928E+01-9.46515E+00-8.85084E-01-6.53384E-01-1.86653E+00
 -1      3474-1.30434E+01-8.84864E+00-4.56878E+00-8.44254E+00 2.47164E+00-2.07330E+00
 -1      3475-1.74126E+01-3.35300E+01-7.48690E+00-1.60271E+01 2.97514E+00-2.73586E+00
 -1      3476-1.95258E+01-3.23866E+01-6.69040E+00-1.76209E+01-2.98208E+00 3.18337E+00
 -1      3477 1.40210E+01 1.07092E+01 1.00122E+00 3.18426E+00-1.03827E+00 1.07248E+00
 -1      3478-2.50218E+01-3.30017E+01-7.68069E+00-2.61969E+01-3.71588E+00 2.55031E+00
 -1      3479-9.02059E+00-1.19889E+01-2.05373E+00-8.76314E-02-5.00587E-01 3.37989E-01
 -1      3480-5.60451E+00-3.65194E+01-8.46416E+00-1.24264E+01-1.32395E+00 2.23389E+00
 -1      3481-1.36318E+01-1.23374E+01-2.02197E+00 1.81846E+00-3.00720E-01 1.15803E-01
 -1      3482-1.48503E+01-1.62826E+01-6.21294E+00-2.34105E+00-7.45619E-01 9.03559E-01
 -1      3483-1.48762E+01-3.19002E+01-9.70720E+00-1.74466E+01-7.49831E-01 1.79876E+00
 -1      3484-2.84548E+01-2.01467E+01-1.91058E+01 3.58159E+00 2.15894E+00 5.06805E+00
 -1      3485-3.05271E+01-3.27577E+01-1.33645E+01-2.80569E+00 7.87415E-02-1.21886E+00
 -1      3486-2.00082E+01-1.99304E+01-9.67800E+00 2.32404E+00 4.66172E-01-5.24980E-01
 -1      3487-2.03789E+01-3.02918E+01-8.27149E+00 2.15054E+01 1.38346E+00 4.00365E+00
 -1      3488-1.92164E+01-3.59122E+01-1.10251E+01 1.89913E+01 9.31506E-01 2.63285E+00
 -1      3489-7.85419E+00-2.91942E+01-1.05027E+01 1.86856E+00-1.08016E+00 3.13676E+00
 -1      3490-2.54320E+01-1.22900E+01-1.17521E+01-1.06300E+01-2.39693E-01-1.71421E+00
 -1      3491-2.31635E+01-2.80045E+01-1.26290E+01 2.36102E+00 1.63837E+00-1.82796E+00
 -1      3492-2.20519E+01-1.54467E+01-9.64911E+00-1.30500E+01-2.64485E-01-2.27607E+00
 -1      3493-1.08277E+01-4.46766E+00 5.15339E+00-1.02946E+01-1.77432E+00 3.45566E+00
 -1      3494-6.51627E+00-3.50485E+00 2.23563E+00 1.49477E+00 6.96294E-01-1.95024E+00
 -1      3495-1.34948E+01-4.62944E+01 3.59015E+00-2.43991E+01-2.47260E+00-7.67526E-01
 -1      3496-2.51701E+01-2.08847E+01-1.28433E+01 3.56136E-01 2.27302E-01-7.39480E-01
 -1      3497-3.24594E+01-3.59956E+01-1.76900E+01-1.14460E+00 1.36092E+00-5.71694E-01
 -1      3498-6.18339E+01-6.66094E+00-1.22693E+01-8.42331E+00 4.97418E+00-1.42770E+00
 -1      3499-2.25704E+01-2.61942E+01-8.42125E+00-1.34056E+00 7.59570E-01-3.05674E-01
 -1      3500 6.96807E+00 5.52539E+00-4.50307E-01-5.58049E-01-2.97934E-01 2.14542E+00
 -1      3501-2.09717E+00-3.08657E+00-3.16899E+00 4.27116E-02-1.14324E+00 1.50121E+00
 -1      3502-7.44426E+00-9.89511E+00-7.94140E+00 8.25719E-01-3.09716E-01-1.18619E+00
 -1      3503 6.11681E+00 7.34007E+00-1.25726E-01 1.20679E+00-2.16680E+00-1.00099E+00
 -1      3504 7.24281E-01-2.39035E-01-3.12154E+00 2.50018E-01-1.70756E-01-9.31257E-01
 -1      3505-1.89760E+00-2.80237E+00-2.14325E+00-7.94731E-02-1.15437E+00 1.97970E+00
 -1      3506-7.40910E-01-2.38075E-01-1.67876E+00-4.58393E-01 1.60023E+00 1.20812E+00
 -1      3507-6.88906E+00-6.65521E+00-1.03831E+00-8.08960E-01-1.42886E+00 1.56153E+00
 -1      3508-6.24399E+00-6.61170E+00-5.69854E+00-1.59241E+00-3.58037E-01 1.25809E+00
 -1      3509-3.74445E+00-3.96556E+00-3.66092E+00-8.56676E-01 1.41843E+00-4.54096E-01
 -1      3510-2.67422E+00-1.34748E+00-1.89652E+00 3.24604E-01 7.29875E-01 7.76482E-01
 -1      3511-5.27894E-01-1.15152E+00-4.73809E+00-2.61914E-02 7.99993E-01 2.26594E+00
 -1      3512-5.18172E+00-5.55269E+00-1.87880E+00 1.15955E+00 7.09738E-01 2.66062E-01
 -1      3513-1.33893E+01-1.29695E+01-1.03093E+01 4.55484E-01-5.98696E-02 1.04684E-01
 -1      3514-1.73869E+00-3.80078E+00-3.41997E+00 5.48924E-01 7.35174E-01 1.30198E+00
 -1      3515-2.89887E+00-4.37394E+00-1.63225E+00-3.45903E-01 7.04771E-01-1.94673E+00
 -1      3516-2.94212E+00-4.66297E+00-3.96238E+00 4.49028E-01-1.67874E+00 1.27309E+00
 -1      3517-3.22298E+00-1.42177E+00-1.81330E+00-1.02559E+00 1.00909E+00 8.47399E-01
 -1      3518-5.29567E+00-4.26213E+00-3.51753E+00-6.05940E-01 5.39171E-02-7.09134E-01
 -1      3519-5.11500E+00-4.90570E+00-2.74274E+00-1.17132E-01-9.92194E-01 3.65679E-01
 -1      3520-1.69620E+00-1.75200E+00-5.01025E+00 5.84074E-01-3.23930E+00-1.18627E+00
 -1      3521-1.47779E+00-1.46208E+00-1.82462E+00-9.22272E-02 5.95940E-01 5.03910E-01
 -1      3522-3.56798E+00-5.82545E+00-4.04457E+00 9.96327E-01-8.13078E-01-9.68235E-01
 -1      3523 3.31397E+00 5.45446E+00-9.61791E-01-1.22592E+00 7.35522E-01-6.02851E-01
 -1      3524-2.58136E+00-3.62295E+00-2.67482E+00-4.87121E-01 1.03172E+00-2.63704E-01
 -1      3525-1.38938E+01-1.15152E+01-6.44013E+00-1.85357E+00-1.39684E+00 4.17420E-01
 -1      3526-2.38335E+00-3.11580E+00-3.98806E+00 5.65266E-01-7.07220E-01-2.43105E-01
 -1      3527-1.02230E+01-1.19090E+01-2.68382E-01 7.13477E+00-6.88831E-01-3.16848E-01
 -1      3528-1.44606E+00-2.00267E+00-2.88298E+00-1.17913E-01-6.92666E-02 6.02765E-01
 -1      3529-9.56904E-01-1.59123E+00-3.08974E+00 1.19822E-01-8.06979E-01 9.46883E-01
 -1      3530-1.54685E+00-1.87461E+00-4.19506E+00 5.18048E-02-4.17036E-01 9.89884E-01
 -1      3531-1.09932E+01-8.67651E+00-6.26728E-01 5.76260E+00 6.81241E-01-2.54409E-01
 -1      3532-6.04172E+00-4.57878E+00 7.06828E-04 1.10539E+00-1.63201E+00-5.00105E-01
 -1      3533-1.38686E+01-5.44487E+00 6.71273E-01-3.02711E+00-1.52447E+00 5.95479E-03
 -1      3534 2.02131E+00 4.36336E+00-2.96154E+00-8.54336E-01 2.02379E+00-1.95063E+00
 -1      3535-8.24138E+00-1.24756E+01-2.72924E+00 5.28986E+00-3.48847E-01-1.22823E+00
 -1      3536-1.69809E+00-2.81607E+00-1.76234E+00-8.55810E-01 6.44402E-01-2.06775E+00
 -1      3537-1.08118E+01-8.73022E+00-3.89230E+00 3.94837E+00 6.09342E-01-1.41075E-01
 -1      3538-1.40840E+01-1.09778E+01-4.19970E+00-3.25930E-02-7.72533E-01-3.89232E-01
 -1      3539-1.12444E+01-1.15926E+01-1.91198E+00-1.11680E+00-1.48781E+00-7.07398E-01
 -1      3540-4.62182E+00-3.51476E+00-3.71723E+00-2.73126E-01 5.15471E-01-3.70319E-02
 -1      3541-1.43894E+00-2.86385E+00-8.79477E-02 4.22007E-01 6.94228E-01 1.01920E+00
 -1      3542-6.44599E+00-4.68813E+00 3.52043E-01-2.51961E-01-2.93413E-01 1.63151E-01
 -1      3543-2.12052E+01-1.21514E+01-1.50230E+00-1.30663E+01-3.83208E-01 1.69706E+00
 -1      3544 1.08807E+00 2.60898E+00-3.43581E-01-5.70824E-01-3.34823E+00-9.84499E-01
 -1      3545-3.36623E+00-2.04863E+00-2.79662E+00-4.05040E-01-1.66146E+00-4.94188E-01
 -1      3546-7.53982E+00-7.18876E+00-3.92181E+00 3.69329E-01-6.93848E-02 2.54317E-01
 -1      3547-1.30886E+00-2.67514E-01-4.17170E+00-3.65156E-01-9.01529E-02-1.25367E+00
 -1      3548-6.49379E+00-1.13502E+01-8.20879E+00 4.65207E-01-2.85681E-01 2.31272E-01
 -1      3549-6.45371E+00-5.80708E+00 2.09004E+00 3.02122E-02 1.21808E+00 1.61281E+00
 -1      3550-5.45219E+00-6.88401E+00-2.27977E+00-9.56805E-01 8.88587E-01-8.31973E-01
 -1      3551-1.23700E+01-7.06643E+00-3.01430E+00-1.92673E+00 1.62319E+00 2.67546E-01
 -1      3552 1.42898E+00-8.60863E-01-4.80055E+00 1.46256E-02 8.19495E-01 1.78454E+00
 -1      3553-1.65852E+01-5.62951E+00-4.65228E-01 4.16916E+00-1.58375E+00 1.33682E-01
 -1      3554-7.36986E+00-9.68227E+00-1.77961E-01 2.22745E-01 7.64616E-01-1.68696E+00
 -1      3555-9.29024E+00-7.74502E+00-1.37358E+00 3.38740E+00-7.03167E-01-1.29820E-01
 -1      3556-1.23203E+01-1.46604E+01-2.26782E+00-9.75480E-01 4.46913E-01 8.10880E-01
 -1      3557-3.98944E-01-1.73482E+00-2.04230E+00-6.08759E-01-2.56608E+00 2.07576E+00
 -1      3558-1.21932E+01-9.91084E+00 2.22306E-01-6.25471E+00 7.12429E-01-8.07670E-01
 -1      3559-7.38456E+00-1.53484E+01 6.20388E-01 4.70973E+00 5.56389E-01 1.55625E+00
 -1      3560-1.04951E+01-7.93116E+00-5.39781E+00-1.12534E+00 1.08880E+00-4.41798E-01
 -1      3561-5.74978E+00-5.65759E+00-6.79282E-02-1.49542E+00 6.74908E-01-2.87542E-01
 -1      3562-1.04347E+01-7.94117E+00-1.91489E+00 6.76522E-01 1.78295E-01 8.71621E-01
 -1      3563-9.39401E+00-9.84525E+00-3.36033E+00 4.94509E-01-9.27230E-01 1.45022E+00
 -1      3564-4.24336E+00-1.02411E+01 5.81166E-01-9.44298E-01 1.78140E-01-9.69219E-02
 -1      3565-2.66834E+01-4.71361E+00-2.85022E+00 7.01502E+00 1.26191E+00 2.11566E-01
 -1      3566-1.07693E+01-7.72266E+00-9.11391E-01-5.09438E+00 1.78891E-01 7.35658E-01
 -1      3567-2.83978E+01-3.92904E+00-7.86188E+00-4.18975E+00 3.81435E-01-1.61308E+00
 -1      3568-2.06527E+01-2.54299E+00-1.02100E+00-4.55831E+00 1.15240E+00-1.09793E+00
 -1      3569-1.26060E+01-6.92972E+00-3.11395E+00-6.74319E+00-2.60683E-01 2.24384E-01
 -1      3570-9.75128E+00-6.77352E+00-1.79578E+00-5.21784E+00-2.33181E-01-9.30469E-04
 -1      3571-9.80731E+00-1.12256E+01-5.45526E+00 1.57059E+00-2.67645E-01-1.50597E-01
 -1      3572-3.64144E+01-5.19225E+00-8.74249E+00 6.15605E+00 2.41642E-01-4.52368E-01
 -1      3573-6.25046E+00-6.93043E+00-4.21534E+00 1.19537E-01 6.18504E-02 1.25305E+00
 -1      3574-6.43688E+00-6.51387E+00-4.90878E+00-3.13177E-02-2.96655E-01-3.42204E-01
 -1      3575-9.86782E+00-1.40933E+01-4.06598E+00 2.34614E+00-1.91790E-01 1.88224E-01
 -1      3576-4.10460E-01-9.78351E-01-3.73841E+00-3.10024E-01 1.11538E+00-1.66987E+00
 -1      3577-8.83197E+00-5.89436E+00-3.98003E+00-4.60988E-01 1.69017E+00-2.98014E-01
 -1      3578-3.05743E-01-1.82385E+00-3.55164E-01 1.77318E-01 7.61025E-02 1.02342E+00
 -1      3579-4.13733E+00-1.17990E+00-3.69343E+00-7.79644E-01 3.01165E+00-5.88879E-01
 -1      3580-2.42347E+01-5.25937E+00-7.99918E+00-6.49814E+00-4.30459E-01-1.96110E-01
 -1      3581-1.20838E+01-2.19025E+01-5.64046E+00-1.30890E+01-1.03219E+00-1.08095E+00
 -1      3582-3.14537E+00-3.34422E+00-2.41761E+00 3.71257E-01-6.03282E-01-8.23478E-01
 -1      3583-1.79104E+01-1.64291E+01-1.06047E+01-2.18753E+00-3.08134E+00-4.34177E-01
 -1      3584-2.31876E+01-7.55261E+00-8.75822E+00 2.74921E+00 1.52849E+00 4.18814E-01
 -1      3585-6.99537E+00-4.56096E+01-6.05792E+00 8.59539E+00 7.43313E-01 3.33828E+00
 -1      3586-1.54645E+01-1.58152E+01-5.89075E+00-8.49590E-01 1.39921E+00 1.79719E+00
 -1      3587-1.51285E+01-1.52883E+01-7.49964E+00 1.78963E-01-1.32249E+00-1.40628E+00
 -1      3588 4.22486E+00 2.02805E+00 9.57363E-01-4.59721E-01 6.08530E-01 3.18594E+00
 -1      3589-2.77327E+01-6.34098E+00-9.80203E-01 1.94729E+00-1.45828E+00-4.31994E-01
 -1      3590-3.69401E+01-1.58430E+01-6.72654E+00 1.68222E+01-1.58151E+00-1.41175E-01
 -1      3591-2.00404E+01-8.66491E+00-3.47706E+00-1.09878E+01-2.19638E-01-1.91197E-01
 -1      3592-9.30219E+00-1.30540E+01-2.63717E+00-4.97331E-01 3.58183E-01 1.56860E+00
 -1      3593-1.36621E+01-1.06843E+01-3.19168E+00-4.89437E-01-5.85573E-03-1.04267E+00
 -1      3594-1.37889E+01-1.28974E+01-6.11666E+00 1.90460E-01 1.02761E+00-9.71332E-01
 -1      3595-1.16180E+01-1.80338E+01-7.31423E+00 9.86014E+00 2.05743E-02 4.71048E-01
 -1      3596-1.68438E+01-1.48063E+01-2.28522E+00 1.12003E+01 2.14679E-01 1.44516E+00
 -1      3597-6.41207E+00-1.47127E+01-4.85638E+00-2.94946E+00-1.66607E-02 4.24109E-01
 -1      3598-1.07959E+01-1.89862E+01-4.69251E+00-1.25198E+01 8.12423E-01 2.99676E-01
 -1      3599-8.84828E+00-9.08143E+00-2.89856E+00 1.15006E+00-1.83733E-01-5.43874E-01
 -1      3600-1.06718E+01-1.37737E+01-8.42709E+00 8.00352E-01-5.25596E-01-1.75986E+00
 -1      3601-2.76107E+00-3.04150E+00-2.46238E+00-4.61117E-01 5.72295E-01-8.82491E-01
 -1      3602-9.41634E-01-5.83941E-01-1.80961E+00 3.06243E-01-1.78476E+00-2.00479E+00
 -1      3603-1.41600E+01-1.57039E+01-6.15260E+00 8.59345E-01-1.02038E+00 1.42929E+00
 -1      3604-1.49506E+01-1.01775E+01-4.80449E+00-6.14358E+00 7.55710E-01 1.06030E+00
 -1      3605-1.15417E+01-1.17047E+01-9.33405E-01-2.46395E-01 9.93762E-01 2.42730E-01
 -1      3606-9.84434E+00-1.83715E+01-5.51527E+00 1.21725E+01 1.06171E+00-1.11461E+00
 -1      3607-2.36041E+01-6.01673E+00-4.83098E+00 5.96808E+00-7.68645E-01 4.02738E-01
 -1      3608 2.50110E+00 3.96892E-01 4.89473E-01-9.62804E-01-4.73480E-01 1.49203E+00
 -1      3609-2.64776E+01-1.28763E+01-6.41994E+00-1.83424E+01 1.24349E+00 3.55219E-01
 -1      3610-5.34536E+00-7.20284E+00-2.53540E+00 8.35883E-02-1.12205E+00 1.45714E+00
 -1      3611-7.04540E+00-4.51239E+00-5.97937E+00-2.60507E-01 2.18341E+00-3.87276E-01
 -1      3612-4.26986E+01-6.19299E+00-9.32050E+00 5.40012E+00 2.04095E+00 8.15524E-01
 -1      3613-1.93986E+01-1.76791E+01-9.08933E+00 8.41968E-02 8.17962E-01 2.96002E+00
 -1      3614-2.36013E+01-1.01619E+01-6.74582E+00 1.20735E+01-3.41932E-02-1.18354E+00
 -1      3615-1.33319E+01-1.14274E+01-7.03736E+00-8.99492E-01-9.63744E-01 1.88406E+00
 -1      3616-1.84556E+01-1.99037E+01-9.63613E+00 1.64582E+00 1.34732E+00-1.21636E+00
 -1      3617-9.38590E+00-7.45133E+00-5.39888E+00 3.57374E-01 1.57139E-02-1.45455E+00
 -1      3618-1.60304E+01-9.83460E+00-6.34929E+00 3.99009E+00-1.72520E+00-1.87066E-01
 -1      3619-3.34048E+01-3.48320E+00-7.34545E+00-6.41973E+00-1.36428E+00-1.03268E-01
 -1      3620-3.73799E+00-2.23939E+01-3.42568E-01-3.41387E+00-9.03719E-02 1.17952E+00
 -1      3621 1.72664E-01 1.60772E+00 5.81739E-01-1.51111E-01 2.52332E+00 9.31843E-01
 -1      3622-1.05894E+01-2.06915E+01-5.29405E+00-1.10488E+01 7.95545E-01-5.98134E-01
 -1      3623-1.40158E+01-1.42299E+01-4.77287E+00-1.02411E+00 5.74925E-01 6.96680E-01
 -1      3624-3.54945E+00-3.82326E+01-5.20695E+00 1.01636E+01 1.79704E-01-1.81865E+00
 -1      3625-5.03053E+00-1.59821E+01-3.77557E+00 3.83138E+00 3.95089E-01-2.76508E-01
 -1      3626-1.60015E+01-1.53263E+01-5.81867E+00-2.32004E+00-2.64276E+00-5.70747E-01
 -1      3627-8.04971E+00-1.23968E+01-4.36206E+00-4.32395E+00 1.65025E+00-1.08077E+00
 -1      3628-7.35290E+00-6.35051E+00-3.49518E+00 1.19252E+00-7.24168E-01 9.85497E-01
 -1      3629-1.29206E+01-1.21215E+01-1.98349E+00-2.99177E-01-1.33997E+00 2.68261E-01
 -1      3630-1.48221E+01-1.45172E+01-5.05877E+00-2.46610E-01 2.27441E-01-4.28052E-01
 -1      3631-1.66198E+01-1.53107E+01-6.93755E+00-1.21629E-01 2.18291E+00 1.01428E+00
 -1      3632-6.07140E-02-1.75937E+00 2.63053E-01-2.58101E-01-8.00251E-02-2.79427E+00
 -1      3633-8.74055E+00-7.78618E+00-1.59765E+00-1.26216E-02-1.12959E+00-9.74252E-01
 -1      3634-8.21233E+00-8.77451E+00-2.24465E+00 1.13294E+00-3.99963E-01-3.48379E-01
 -1      3635-9.68654E+00-8.59165E+00-1.90054E+00-5.15808E-01-7.34410E-01 7.26154E-01
 -1      3636-5.63094E+00-1.61484E+01-3.58486E+00 2.24177E+00-1.17807E+00-5.59525E-01
 -1      3637-2.07116E+01-9.33777E+00-5.52544E+00 1.09641E+01 6.44791E-02 1.93358E+00
 -1      3638 2.73141E-01 1.98166E-01-2.69219E+00 6.93236E-02 3.16910E-01 7.24736E-01
 -1      3639-1.37539E+01-8.45464E+00-5.17659E+00-6.20600E+00 6.00697E-01-1.72020E+00
 -1      3640-2.72504E+01-4.35821E+00-8.50034E+00-3.42673E+00 4.20836E-01 1.24092E+00
 -1      3641-1.89901E+00-1.73433E+01-9.69407E-01-2.55471E+00 7.16714E-03-4.33139E-01
 -1      3642-1.55734E+00-1.98385E+01-4.45125E+00 4.39588E+00 1.69905E+00-1.35703E-01
 -1      3643-3.17522E+01-1.57421E+01-2.89317E+00-1.82265E+01-9.24292E-01 1.26559E+00
 -1      3644-9.43516E+00-1.14039E+01-4.11991E+00 6.09804E-01 8.60687E-01 2.65127E-01
 -1      3645-8.09808E+00-1.14295E+01-8.73554E-01-2.67880E-01-7.40083E-01 3.13236E+00
 -1      3646-4.58307E+00-2.60871E+01-5.50733E+00 3.95895E+00-1.32677E+00 2.44956E-01
 -1      3647-9.61966E+00-1.76854E+01-2.27841E+00 1.05846E+01 4.16268E-02 6.18993E-01
 -1      3648-4.93040E+00-7.09093E+00-3.91604E+00 6.84986E-01 2.17365E+00 3.63129E+00
 -1      3649-1.88964E+01-1.68938E+01-8.86438E+00 1.64845E+00-2.61596E+00 8.43232E-01
 -1      3650 1.96858E+00 2.97619E-01-1.55242E+00-1.27263E-01 5.89856E-01 2.84433E+00
 -1      3651-1.79472E+00-1.79141E+01-3.45053E+00 4.44450E+00-2.69293E-02 1.46602E+00
 -1      3652-1.69575E+01-9.43212E+00-6.56304E+00-7.01626E+00 4.41863E-02 1.79591E+00
 -1      3653-3.38455E+01-2.08540E+01-3.61370E+00 2.08495E+01 1.37405E+00 1.31684E+00
 -1      3654-2.31035E+00-1.81423E+01-3.06997E+00-2.48312E+00-2.07845E-01-5.57960E-01
 -1      3655-6.64171E+00-4.53983E+00 1.07641E+00 4.36654E-01 7.74319E-01-2.58986E-01
 -1      3656-1.33518E+01-1.59829E+01-5.85115E+00-5.39024E-01 7.16121E-01 1.28724E+00
 -1      3657-8.55793E+00-1.59239E+01 1.34275E-01 7.40648E+00-2.35308E-01-1.40168E+00
 -1      3658-1.13017E+01-1.19282E+01-4.54530E+00-3.20069E-01-3.76497E-01 7.39507E-01
 -1      3659-5.54173E+00-3.59466E+01-8.24776E+00 6.91297E+00 2.30526E+00-2.32054E-01
 -1      3660-1.30880E+01-1.37764E+01-3.39262E+00-7.28043E-01-9.58887E-03 2.32356E+00
 -1      3661-4.83124E+00-2.39693E+00-1.58062E+00-3.79312E-01-2.55671E+00 4.20532E-01
 -1      3662-9.26300E+00-9.99071E+00-3.65637E+00 6.16013E-01-8.72157E-02 5.38205E-01
 -1      3663 1.18335E+00 2.43142E+00-2.81045E+00-7.00483E-01 2.31884E+00 1.71502E+00
 -1      3664-1.19934E+01-1.16591E+01-2.99241E+00-9.90815E-01 1.95075E-02 1.13893E+00
 -1      3665-1.81992E+00-6.19819E-01-2.44872E+00 3.14403E-01-1.74544E+00-3.84361E-01
 -1      3666-1.39364E+01-9.56404E+00-1.77843E+00-1.04057E+00 2.75148E-01-6.44476E-02
 -1      3667-4.23981E+00-2.74068E+01-5.48773E+00 5.74587E+00 2.00828E-01 1.29715E+00
 -1      3668-8.61110E+00-1.34214E+01-4.10373E+00-5.63271E+00-5.68271E-01 4.42531E-01
 -1      3669-1.56867E+01-5.11763E+00-4.87156E+00 2.36838E+00 6.05059E-01 6.78273E-01
 -1      3670-4.53513E+00-3.59513E+01-8.70875E+00-6.79271E+00-9.47191E-01-1.58853E+00
 -1      3671-1.01650E+01-2.25048E+01-4.76021E+00-1.16703E+01-1.11765E+00 1.14460E+00
 -1      3672-8.98672E+00-6.66967E+00-3.56430E+00 4.62035E-01 8.69168E-01 6.00181E-01
 -1      3673-2.44353E+01-4.07629E+00-6.06894E+00 3.79260E+00-9.62098E-01-1.10855E+00
 -1      3674-2.41229E+01-3.00180E+00-5.66123E+00 4.60048E+00 7.18389E-01-1.43828E-01
 -1      3675-8.68934E+00-1.74117E+01-4.00471E+00 8.12276E+00 8.19356E-01 1.37106E+00
 -1      3676-1.49854E+01-1.23743E+01-5.03025E+00-3.22188E-01 1.63731E+00 2.93766E+00
 -1      3677-2.98757E+00-4.34427E+01-2.13131E+00-9.86979E+00 2.88311E-01 3.61094E+00
 -1      3678-2.92289E+00-3.77731E+01-6.86554E+00-7.35943E+00-8.02801E-01 1.96952E-02
 -1      3679-8.53754E+00-1.02141E+01-1.16008E+00-1.07119E+00-2.95876E-01 7.13729E-01
 -1      3680-1.69441E+01-3.56674E+01-4.32260E+00 2.21151E+01 1.34452E-01-1.91034E+00
 -1      3681-1.49000E+01-1.36122E+01-4.28801E+00 2.97339E-01-3.57627E-01 5.56603E-01
 -1      3682-1.58517E+01-5.95522E+00 2.89724E-01-1.39698E+00 1.02435E+00-9.88217E-02
 -1      3683-1.03934E+01-9.15093E+00-4.15507E+00-7.00315E-01-1.81802E-01-4.95432E-01
 -1      3684-2.66699E+00-3.54728E+00-2.60894E+00-8.80155E-01 1.00850E+00-5.72244E-01
 -1      3685-1.57257E+01-1.49785E+01-7.59172E+00 5.89429E-01-1.87175E+00 3.60297E-01
 -1      3686-1.04770E+00-1.63090E+00-2.00174E+00-1.94943E-01-7.31975E-01 6.17038E-01
 -1      3687-5.36524E+00-6.63850E+00-3.33166E+00-7.47821E-01 6.36310E-01 6.12643E-01
 -1      3688-2.27563E+00-2.49268E+00-3.77566E+00 4.35929E-01 3.92961E-01-4.09611E-01
 -1      3689-8.07769E+00-3.11422E+00 9.71394E-01 5.76611E-02-6.08547E-02 8.46452E-01
 -1      3690-4.02188E+00-4.62347E+00-3.71474E+00 1.20296E+00 1.32963E+00 6.04062E-01
 -1      3691-5.40525E+00-2.86060E+01-2.10137E+00-9.37185E-02 1.48251E-01 8.40677E-01
 -1      3692-1.54794E+01-1.04194E+01-4.37803E+00-1.74130E+00-9.93672E-02-3.30671E-01
 -1      3693-1.33215E+01-1.35134E+01-2.17347E+00 1.06229E+00 8.35882E-01 9.24399E-01
 -1      3694-3.18019E+00-2.61776E+00-1.22864E+00 5.80906E-01-6.57001E-01-2.44459E-01
 -1      3695-5.01425E+00-3.91091E+01-1.14663E+01-5.31150E+00-3.31816E-01 1.11003E+00
 -1      3696-2.12292E+00-1.54385E+00-1.12576E+00 4.92421E-01-6.36181E-01-3.84601E-02
 -1      3697-1.16453E+00-8.58811E-01-1.66122E+00-4.17351E-01-7.87901E-01 5.24023E-01
 -1      3698-1.00197E+00-9.31988E-01-1.51221E+00 6.35415E-01-5.83560E-01-6.93125E-01
 -1      3699-1.87459E+00-1.96389E+00-4.18195E-01 1.02443E+00 1.05786E+00 7.30315E-01
 -1      3700-9.46281E+00-9.45786E+00-2.18941E+00 9.38117E-01-4.01745E-01 6.66745E-01
 -1      3701-4.83350E+01-5.86238E+00-4.10422E+00-1.01306E+01 2.72767E+00-3.49189E-01
 -1      3702-4.49736E+00-2.61487E+01-5.15718E+00-5.28491E+00-5.69747E-02 5.95493E-01
 -1      3703-6.07666E+00-3.86567E+01-6.11202E+00 5.82231E+00-1.32711E+00-2.99020E+00
 -1      3704-3.27889E+00-1.77007E+00-1.77475E+00-4.48849E-01 5.53313E-01-8.15046E-01
 -1      3705-2.14499E+01-2.00336E+00-4.59975E+00-4.76061E+00 1.27105E+00-8.24124E-03
 -1      3706-1.36765E+01-1.50772E+01-4.53305E+00-4.57206E-01 3.42779E+00-5.14302E-01
 -1      3707-3.62959E+01-6.73726E+00-5.84502E+00 5.33410E+00-1.17577E+00-1.66546E+00
 -1      3708-2.64954E+00-4.01985E+01-3.95280E+00-7.12701E+00 2.65348E-01-2.14140E+00
 -1      3709-1.38451E+01-1.71898E+01-5.43282E+00-3.19026E-02 1.49045E+00-2.14594E-01
 -1      3710-1.78793E+01-3.22088E+01-1.06062E+01 1.73954E+01 1.03202E+00 1.19671E+00
 -1      3711-8.28549E+00-7.71565E+00-3.15803E+00-1.21799E-01-2.62332E-01 1.09099E-01
 -1      3712-1.90765E+01-1.96373E+01-9.91544E+00 1.50627E+00-3.80656E-01-5.26034E-01
 -1      3713-1.01268E+01-1.74817E+01-6.33075E+00-8.25797E+00-1.09864E-01-7.39895E-02
 -1      3714-3.73807E+00-2.59092E+01-7.31771E+00-5.79465E+00-5.41773E-01-7.50384E-01
 -1      3715-4.66916E+00-4.33190E+00-1.67628E+00 7.17231E-02-1.34984E+00-5.99811E-01
 -1      3716-4.38577E+01-5.26583E+00-4.29006E+00 6.19999E+00 2.73059E+00 6.28492E-02
 -1      3717-7.90684E+00-1.76087E+01-6.10872E+00 1.20265E+00 1.08864E+00 1.49894E+00
 -1      3718-1.70366E+01-1.35726E+01-4.68385E+00-9.25927E-01 9.08806E-03-2.63782E-01
 -1      3719-1.51701E+01-1.57036E+01-5.92063E+00 6.43538E-01-2.98768E-02 3.09713E-01
 -1      3720-2.02745E+01-2.12242E+01-9.50859E+00-4.65105E-01 2.73891E+00-3.95174E-01
 -1      3721-9.34650E+00-1.19433E+01-2.82347E+00-2.43823E-01 1.28664E+00 2.03492E+00
 -1      3722-3.87974E+00-2.30119E+01-6.50116E+00-4.42603E+00-3.25808E-01 1.38195E+00
 -1      3723-5.27031E+00-3.62226E+00-3.33075E+00 7.35583E-01-8.59328E-01-6.66697E-01
 -1      3724-7.88417E-01 6.18235E-01-3.38505E+00 2.43783E-01-2.92148E+00-1.54152E-01
 -1      3725-1.25338E+00-2.67824E+00-7.06259E-01 2.82160E-01-2.62108E-01-1.43671E+00
 -1      3726-2.22558E+00-3.16420E+00-2.82392E-01-8.09438E-01 1.02308E+00-1.02207E+00
 -1      3727-9.99555E-01-3.20709E-01-5.93366E-03 7.30692E-02 9.74892E-01 3.64317E-01
 -1      3728-1.76481E+00-2.22021E+00-7.09400E-01-1.00561E+00-7.75727E-01 1.22026E+00
 -1      3729-2.78043E+00-1.99771E+00-2.39312E+00-5.84344E-01 8.68280E-01-1.05695E+00
 -1      3730-1.61332E+01-3.42383E+00-8.57928E-01-2.17048E+00-7.16961E-01-5.35295E-02
 -1      3731 1.33142E+00 3.17519E+00 3.07318E-01-3.07614E-01 2.36912E-01-1.41162E+00
 -1      3732-1.15446E+01-1.11892E+01-3.55422E+00 1.48311E+00-2.68106E-01-2.85893E-01
 -1      3733-1.03830E+00-6.47972E-01-3.52618E-01-2.94255E-01-8.10371E-01 5.44619E-01
 -1      3734-1.51923E+01-9.73088E+00-4.70567E+00 2.61993E+00 7.87588E-01 1.06727E+00
 -1      3735-7.21573E+00-7.15043E+00-2.13752E+00-3.92639E-01 5.45109E-01 6.28979E-01
 -1      3736-6.82753E+00-2.22140E+01-3.21964E-01-5.06543E+00 2.89892E-01-1.60523E+00
 -1      3737-1.48080E+01-3.02051E+01-2.12014E+00-1.57205E+01-1.04533E+00 3.21970E+00
 -3
 9999
