    1C
    1U meshsolid_t.inp                                                  
    1UUSER                                                              
    1UDATE              05.july.2016                                    
    1UTIME              01:20:14                                        
    1UHOST                                                              
    1UPGM               CalculiX                                        
    1UVERSION           Version 2.10                             
    1UCOMPILETIME       Sa 5. MÃ¤r 12:23:33 CET 2016                    
    1UDIR                                                               
    1UDBN                                                               
    1UMAT    1PDMS                                                      
    2C                          4030                                     1
 -1         1 2.32070E+00-4.61617E-01 5.00000E-01
 -1         2 2.32070E+00-4.61617E-01 2.45000E+00
 -1         3-5.06195E+00 1.58259E+00 2.45000E+00
 -1         4-7.69674E+00 2.67396E+00 2.45000E+00
 -1         5-5.24373E+00 1.14375E+00 2.45000E+00
 -1         6-7.87852E+00 2.23512E+00 2.45000E+00
 -1         7-2.89912E+00 4.51663E+00 2.45000E+00
 -1         8-5.41583E+00 6.08758E+00 2.45000E+00
 -1         9-5.28227E+00 4.74999E-01 2.45000E+00
 -1        10-5.28227E+00-4.74999E-01 2.45000E+00
 -1        11-2.32070E+00-4.61617E-01 2.45000E+00
 -1        12-2.38798E+00 4.74999E-01 2.45000E+00
 -1        13-4.69840E+00 2.46028E+00 2.45000E+00
 -1        14 1.14375E+00 5.24373E+00 2.45000E+00
 -1        15 4.68498E+00 1.00693E+01 2.45000E+00
 -1        16 1.58259E+00 5.06195E+00 2.45000E+00
 -1        17 2.46028E+00 4.69840E+00 2.45000E+00
 -1        18 1.31457E+00 1.96740E+00 2.45000E+00
 -1        19 4.74999E-01 2.38798E+00 2.45000E+00
 -1        20 1.35268E+00 2.02443E+00 2.45000E+00
 -1        21 2.02443E+00 1.35268E+00 2.45000E+00
 -1        22 3.39925E+00 4.07100E+00 2.45000E+00
 -1        23 2.38798E+00 4.74999E-01 2.45000E+00
 -1        24 2.32070E+00 4.61617E-01 2.45000E+00
 -1        25 2.38798E+00-4.74999E-01 2.45000E+00
 -1        26 8.13414E+00 9.50000E-01 2.45000E+00
 -1        27 5.28227E+00-4.74999E-01 2.45000E+00
 -1        28 5.28227E+00 4.74999E-01 2.45000E+00
 -1        29 1.10957E+01 4.74999E-01 2.45000E+00
 -1        30 8.13414E+00 4.74999E-01 2.45000E+00
 -1        31 3.55164E+00-7.33319E+00 2.45000E+00
 -1        32 5.41583E+00 6.08758E+00 2.45000E+00
 -1        33 1.00693E+01 4.68498E+00 2.45000E+00
 -1        34 5.06195E+00 1.58259E+00 2.45000E+00
 -1        35 7.15142E+00 3.99049E+00 2.45000E+00
 -1        36 4.51663E+00 2.89912E+00 2.45000E+00
 -1        37 4.07100E+00 3.39925E+00 2.45000E+00
 -1        38 4.40688E+00 3.06338E+00 2.45000E+00
 -1        39 3.06338E+00 4.40688E+00 2.45000E+00
 -1        40 2.89912E+00-4.51663E+00 2.45000E+00
 -1        41 3.80730E+00-1.04329E+01 2.45000E+00
 -1        42 2.46028E+00-4.69840E+00 2.45000E+00
 -1        43 2.67396E+00-7.69674E+00 2.45000E+00
 -1        44 1.58259E+00-5.06195E+00 2.45000E+00
 -1        45 4.74999E-01-5.28227E+00 2.45000E+00
 -1        46 4.74999E-01-2.38798E+00 2.45000E+00
 -1        47-4.74999E-01-2.38798E+00 2.45000E+00
 -1        48-4.74999E-01-5.28227E+00 2.45000E+00
 -1        49 5.06195E+00-1.58259E+00 2.45000E+00
 -1        50 4.69840E+00-2.46028E+00 2.45000E+00
 -1        51 2.02443E+00-1.35268E+00 2.45000E+00
 -1        52 1.96740E+00-1.31457E+00 2.45000E+00
 -1        53 7.69674E+00-2.67396E+00 2.45000E+00
 -1        54 7.33319E+00-3.55164E+00 2.45000E+00
 -1        55 3.39925E+00-4.07100E+00 2.45000E+00
 -1        56 1.35268E+00-2.02443E+00 2.45000E+00
 -1        57 4.07100E+00-3.39925E+00 2.45000E+00
 -1        58 5.41583E+00-6.08758E+00 2.45000E+00
 -1        59 6.42346E+00-5.07995E+00 2.45000E+00
 -1        60 6.08758E+00-5.41583E+00 2.45000E+00
 -1        61 7.50997E+00-8.18172E+00 2.45000E+00
 -1        62 1.14375E+00-5.24373E+00 2.45000E+00
 -1        63-4.74999E-01-8.13414E+00 2.45000E+00
 -1        64-2.89912E+00-4.51663E+00 2.45000E+00
 -1        65-4.74999E-01 5.28227E+00 2.45000E+00
 -1        66-9.50000E-01 8.13414E+00 2.45000E+00
 -1        67 4.74999E-01 1.10957E+01 2.45000E+00
 -1        68-4.74999E-01 8.13414E+00 2.45000E+00
 -1        69 4.61617E-01 2.32070E+00 2.45000E+00
 -1        70-1.58259E+00 5.06195E+00 2.45000E+00
 -1        71-3.80730E+00 1.04329E+01 2.45000E+00
 -1        72-4.68498E+00 1.00693E+01 2.45000E+00
 -1        73 9.50000E-01 5.28227E+00 2.45000E+00
 -1        74 4.74999E-01 8.13414E+00 2.45000E+00
 -1        75 9.50000E-01-8.13414E+00 2.45000E+00
 -1        76-1.96740E+00-1.31457E+00 2.45000E+00
 -1        77-3.39925E+00-4.07100E+00 2.45000E+00
 -1        78-3.39925E+00 4.07100E+00 2.45000E+00
 -1        79-5.41583E+00-6.08758E+00 2.45000E+00
 -1        80-4.07100E+00-3.39925E+00 2.45000E+00
 -1        81-3.06338E+00-4.40688E+00 2.45000E+00
 -1        82-6.08758E+00-5.41583E+00 2.45000E+00
 -1        83-4.69840E+00-2.46028E+00 2.45000E+00
 -1        84-5.06195E+00-1.58259E+00 2.45000E+00
 -1        85-5.24373E+00-1.14375E+00 2.45000E+00
 -1        86-7.33319E+00-3.55164E+00 2.45000E+00
 -1        87-7.69674E+00-2.67396E+00 2.45000E+00
 -1        88-1.00693E+01 4.68498E+00 2.45000E+00
 -1        89-1.04329E+01 3.80730E+00 2.45000E+00
 -1        90-6.08758E+00 5.41583E+00 2.45000E+00
 -1        91-8.18172E+00 7.50997E+00 2.45000E+00
 -1        92-8.13414E+00 4.74999E-01 2.45000E+00
 -1        93-7.50997E+00-8.18172E+00 2.45000E+00
 -1        94-1.00693E+01-4.68498E+00 2.45000E+00
 -1        95 5.28227E+00 4.74999E-01 5.00000E-01
 -1        96 8.13414E+00-4.74999E-01 5.00000E-01
 -1        97 1.10957E+01-4.74999E-01 2.45000E+00
 -1        98 5.28227E+00-4.74999E-01 5.00000E-01
 -1        99 8.13414E+00-4.74999E-01 2.45000E+00
 -1       100 5.28227E+00-9.50000E-01 5.00000E-01
 -1       101 5.28227E+00-9.50000E-01 2.45000E+00
 -1       102 8.13414E+00-9.50000E-01 2.45000E+00
 -1       103 8.13414E+00 9.50000E-01 5.00000E-01
 -1       104 5.28227E+00 9.50000E-01 2.45000E+00
 -1       105 1.96740E+00 1.31457E+00 2.45000E+00
 -1       106 2.32070E+00 4.61617E-01 5.00000E-01
 -1       107 1.04329E+01 3.80730E+00 2.45000E+00
 -1       108 1.00693E+01 4.68498E+00 5.00000E-01
 -1       109 7.33319E+00 3.55164E+00 2.45000E+00
 -1       110 4.69840E+00 2.46028E+00 2.45000E+00
 -1       111 7.69674E+00 2.67396E+00 5.00000E-01
 -1       112 7.69674E+00 2.67396E+00 2.45000E+00
 -1       113 5.24373E+00 1.14375E+00 5.00000E-01
 -1       114 5.06195E+00 1.58259E+00 5.00000E-01
 -1       115 5.24373E+00 1.14375E+00 2.45000E+00
 -1       116 4.51663E+00 2.89912E+00 5.00000E-01
 -1       117 4.69840E+00 2.46028E+00 5.00000E-01
 -1       118 7.87852E+00 2.23512E+00 2.45000E+00
 -1       119 1.31457E+00 1.96740E+00 5.00000E-01
 -1       120 5.41583E+00 6.08758E+00 5.00000E-01
 -1       121 7.50997E+00 8.18172E+00 2.45000E+00
 -1       122 4.07100E+00 3.39925E+00 5.00000E-01
 -1       123 8.18172E+00 7.50997E+00 2.45000E+00
 -1       124 6.08758E+00 5.41583E+00 2.45000E+00
 -1       125 3.39925E+00 4.07100E+00 5.00000E-01
 -1       126 6.08758E+00 5.41583E+00 5.00000E-01
 -1       127 6.42346E+00 5.07995E+00 2.45000E+00
 -1       128 5.07995E+00 6.42346E+00 2.45000E+00
 -1       129 4.61617E-01 2.32070E+00 5.00000E-01
 -1       130 4.68498E+00 1.00693E+01 5.00000E-01
 -1       131 3.80730E+00 1.04329E+01 2.45000E+00
 -1       132 2.67396E+00 7.69674E+00 2.45000E+00
 -1       133 1.58259E+00 5.06195E+00 5.00000E-01
 -1       134 4.74999E-01 2.38798E+00 5.00000E-01
 -1       135 3.55164E+00 7.33319E+00 5.00000E-01
 -1       136 2.46028E+00 4.69840E+00 5.00000E-01
 -1       137 2.89912E+00 4.51663E+00 2.45000E+00
 -1       138 3.55164E+00 7.33319E+00 2.45000E+00
 -1       139 3.99049E+00 7.15142E+00 2.45000E+00
 -1       140 2.67396E+00 7.69674E+00 5.00000E-01
 -1       141 3.99049E+00 7.15142E+00 5.00000E-01
 -1       142 2.23512E+00 7.87852E+00 2.45000E+00
 -1       143 1.14375E+00 5.24373E+00 5.00000E-01
 -1       144-4.61617E-01 2.32070E+00 2.45000E+00
 -1       145-4.74999E-01 1.10957E+01 2.45000E+00
 -1       146-4.74999E-01 8.13414E+00 5.00000E-01
 -1       147-4.74999E-01 5.28227E+00 5.00000E-01
 -1       148 4.74999E-01 5.28227E+00 5.00000E-01
 -1       149 4.74999E-01 5.28227E+00 2.45000E+00
 -1       150 4.74999E-01 1.10957E+01 5.00000E-01
 -1       151 4.74999E-01 8.13414E+00 5.00000E-01
 -1       152-9.50000E-01 5.28227E+00 2.45000E+00
 -1       153 9.50000E-01 8.13414E+00 5.00000E-01
 -1       154 9.50000E-01 8.13414E+00 2.45000E+00
 -1       155-1.31457E+00 1.96740E+00 2.45000E+00
 -1       156-4.68498E+00 1.00693E+01 5.00000E-01
 -1       157-3.55164E+00 7.33319E+00 2.45000E+00
 -1       158-1.35268E+00 2.02443E+00 2.45000E+00
 -1       159-4.74999E-01 2.38798E+00 2.45000E+00
 -1       160-2.67396E+00 7.69674E+00 5.00000E-01
 -1       161-2.46028E+00 4.69840E+00 2.45000E+00
 -1       162-2.89912E+00 4.51663E+00 5.00000E-01
 -1       163-2.67396E+00 7.69674E+00 2.45000E+00
 -1       164-3.99049E+00 7.15142E+00 2.45000E+00
 -1       165-2.23512E+00 7.87852E+00 2.45000E+00
 -1       166-1.14375E+00 5.24373E+00 2.45000E+00
 -1       167-8.18172E+00 7.50997E+00 5.00000E-01
 -1       168-2.02443E+00 1.35268E+00 2.45000E+00
 -1       169-3.39925E+00 4.07100E+00 5.00000E-01
 -1       170-1.35268E+00 2.02443E+00 5.00000E-01
 -1       171-7.50997E+00 8.18172E+00 2.45000E+00
 -1       172-3.06338E+00 4.40688E+00 5.00000E-01
 -1       173-4.07100E+00 3.39925E+00 5.00000E-01
 -1       174-4.07100E+00 3.39925E+00 2.45000E+00
 -1       175-4.40688E+00 3.06338E+00 2.45000E+00
 -1       176-5.41583E+00 6.08758E+00 5.00000E-01
 -1       177-5.07995E+00 6.42346E+00 2.45000E+00
 -1       178-3.06338E+00 4.40688E+00 2.45000E+00
 -1       179-6.42346E+00 5.07995E+00 2.45000E+00
 -1       180-1.96740E+00 1.31457E+00 5.00000E-01
 -1       181-1.96740E+00 1.31457E+00 2.45000E+00
 -1       182-2.32070E+00 4.61617E-01 2.45000E+00
 -1       183-2.32070E+00 4.61617E-01 5.00000E-01
 -1       184-7.69674E+00 2.67396E+00 5.00000E-01
 -1       185-5.06195E+00 1.58259E+00 5.00000E-01
 -1       186-2.02443E+00 1.35268E+00 5.00000E-01
 -1       187-4.69840E+00 2.46028E+00 5.00000E-01
 -1       188-4.51663E+00 2.89912E+00 2.45000E+00
 -1       189-5.24373E+00 1.14375E+00 5.00000E-01
 -1       190-7.33319E+00 3.55164E+00 5.00000E-01
 -1       191-7.15142E+00 3.99049E+00 2.45000E+00
 -1       192-7.33319E+00 3.55164E+00 2.45000E+00
 -1       193-7.87852E+00 2.23512E+00 5.00000E-01
 -1       194-1.10957E+01 4.74999E-01 2.45000E+00
 -1       195-1.10957E+01-4.74999E-01 2.45000E+00
 -1       196-1.10957E+01-4.74999E-01 5.00000E-01
 -1       197-2.38798E+00-4.74999E-01 2.45000E+00
 -1       198-5.28227E+00-4.74999E-01 5.00000E-01
 -1       199-5.28227E+00 9.50000E-01 5.00000E-01
 -1       200-5.28227E+00 4.74999E-01 5.00000E-01
 -1       201-5.28227E+00-9.50000E-01 2.45000E+00
 -1       202-5.28227E+00-9.50000E-01 5.00000E-01
 -1       203-8.13414E+00 9.50000E-01 2.45000E+00
 -1       204-8.13414E+00-4.74999E-01 5.00000E-01
 -1       205-8.13414E+00-4.74999E-01 2.45000E+00
 -1       206-5.28227E+00 9.50000E-01 2.45000E+00
 -1       207-8.13414E+00 9.50000E-01 5.00000E-01
 -1       208-8.13414E+00-9.50000E-01 2.45000E+00
 -1       209-2.32070E+00-4.61617E-01 5.00000E-01
 -1       210-1.04329E+01-3.80730E+00 2.45000E+00
 -1       211-1.00693E+01-4.68498E+00 5.00000E-01
 -1       212-2.02443E+00-1.35268E+00 2.45000E+00
 -1       213-4.69840E+00-2.46028E+00 5.00000E-01
 -1       214-2.38798E+00-4.74999E-01 5.00000E-01
 -1       215-5.24373E+00-1.14375E+00 5.00000E-01
 -1       216-7.87852E+00-2.23512E+00 5.00000E-01
 -1       217-7.69674E+00-2.67396E+00 5.00000E-01
 -1       218-7.15142E+00-3.99049E+00 2.45000E+00
 -1       219-7.87852E+00-2.23512E+00 2.45000E+00
 -1       220-7.15142E+00-3.99049E+00 5.00000E-01
 -1       221-4.51663E+00-2.89912E+00 2.45000E+00
 -1       222-8.18172E+00-7.50997E+00 2.45000E+00
 -1       223-7.50997E+00-8.18172E+00 5.00000E-01
 -1       224-3.39925E+00-4.07100E+00 5.00000E-01
 -1       225-6.42346E+00-5.07995E+00 2.45000E+00
 -1       226-6.08758E+00-5.41583E+00 5.00000E-01
 -1       227-5.07995E+00-6.42346E+00 2.45000E+00
 -1       228-4.40688E+00-3.06338E+00 2.45000E+00
 -1       229-5.07995E+00-6.42346E+00 5.00000E-01
 -1       230-1.31457E+00-1.96740E+00 2.45000E+00
 -1       231-1.31457E+00-1.96740E+00 5.00000E-01
 -1       232-4.68498E+00-1.00693E+01 2.45000E+00
 -1       233-3.80730E+00-1.04329E+01 2.45000E+00
 -1       234-4.74999E-01-2.38798E+00 5.00000E-01
 -1       235-1.58259E+00-5.06195E+00 2.45000E+00
 -1       236-1.35268E+00-2.02443E+00 2.45000E+00
 -1       237-2.46028E+00-4.69840E+00 2.45000E+00
 -1       238-3.55164E+00-7.33319E+00 2.45000E+00
 -1       239-2.46028E+00-4.69840E+00 5.00000E-01
 -1       240-1.14375E+00-5.24373E+00 2.45000E+00
 -1       241-3.99049E+00-7.15142E+00 5.00000E-01
 -1       242-3.99049E+00-7.15142E+00 2.45000E+00
 -1       243-2.67396E+00-7.69674E+00 2.45000E+00
 -1       244-2.23512E+00-7.87852E+00 2.45000E+00
 -1       245 4.61617E-01-2.32070E+00 5.00000E-01
 -1       246 4.61617E-01-2.32070E+00 2.45000E+00
 -1       247-4.61617E-01-2.32070E+00 2.45000E+00
 -1       248-4.61617E-01-2.32070E+00 5.00000E-01
 -1       249 4.74999E-01-1.10957E+01 2.45000E+00
 -1       250 4.74999E-01-2.38798E+00 5.00000E-01
 -1       251-4.74999E-01-1.10957E+01 5.00000E-01
 -1       252-4.74999E-01-8.13414E+00 5.00000E-01
 -1       253-4.74999E-01-1.10957E+01 2.45000E+00
 -1       254 9.50000E-01-5.28227E+00 2.45000E+00
 -1       255 4.74999E-01-5.28227E+00 5.00000E-01
 -1       256-9.50000E-01-8.13414E+00 5.00000E-01
 -1       257-9.50000E-01-8.13414E+00 2.45000E+00
 -1       258 4.74999E-01-8.13414E+00 2.45000E+00
 -1       259 4.74999E-01-8.13414E+00 5.00000E-01
 -1       260 9.50000E-01-8.13414E+00 5.00000E-01
 -1       261-9.50000E-01-5.28227E+00 5.00000E-01
 -1       262-9.50000E-01-5.28227E+00 2.45000E+00
 -1       263 9.50000E-01-5.28227E+00 5.00000E-01
 -1       264 1.31457E+00-1.96740E+00 5.00000E-01
 -1       265 4.68498E+00-1.00693E+01 2.45000E+00
 -1       266 1.35268E+00-2.02443E+00 5.00000E-01
 -1       267 1.58259E+00-5.06195E+00 5.00000E-01
 -1       268 2.23512E+00-7.87852E+00 2.45000E+00
 -1       269 3.55164E+00-7.33319E+00 5.00000E-01
 -1       270 3.99049E+00-7.15142E+00 2.45000E+00
 -1       271 3.99049E+00-7.15142E+00 5.00000E-01
 -1       272 2.23512E+00-7.87852E+00 5.00000E-01
 -1       273 1.31457E+00-1.96740E+00 2.45000E+00
 -1       274 8.18172E+00-7.50997E+00 2.45000E+00
 -1       275 6.08758E+00-5.41583E+00 5.00000E-01
 -1       276 5.41583E+00-6.08758E+00 5.00000E-01
 -1       277 3.06338E+00-4.40688E+00 2.45000E+00
 -1       278 4.07100E+00-3.39925E+00 5.00000E-01
 -1       279 4.40688E+00-3.06338E+00 2.45000E+00
 -1       280 5.07995E+00-6.42346E+00 2.45000E+00
 -1       281 3.06338E+00-4.40688E+00 5.00000E-01
 -1       282 4.40688E+00-3.06338E+00 5.00000E-01
 -1       283 6.42346E+00-5.07995E+00 5.00000E-01
 -1       284 1.96740E+00-1.31457E+00 5.00000E-01
 -1       285 1.00693E+01-4.68498E+00 2.45000E+00
 -1       286 1.04329E+01-3.80730E+00 2.45000E+00
 -1       287 7.69674E+00-2.67396E+00 5.00000E-01
 -1       288 7.33319E+00-3.55164E+00 5.00000E-01
 -1       289 5.24373E+00-1.14375E+00 2.45000E+00
 -1       290 5.06195E+00-1.58259E+00 5.00000E-01
 -1       291 7.15142E+00-3.99049E+00 2.45000E+00
 -1       292 4.51663E+00-2.89912E+00 2.45000E+00
 -1       293 7.87852E+00-2.23512E+00 2.45000E+00
 -1       294 1.47118E+01-2.92635E+00 5.00000E-01
 -1       295 1.50000E+01 0.00000E+00-5.00000E-01
 -1       296-2.92635E+00-1.47118E+01 5.00000E-01
 -1       297-5.74025E+00-1.38582E+01-5.00000E-01
 -1       298-2.92635E+00-1.47118E+01-5.00000E-01
 -1       299 1.24720E+01 8.33355E+00 5.00000E-01
 -1       300 1.06066E+01 1.06066E+01-5.00000E-01
 -1       301-5.74025E+00 1.38582E+01 5.00000E-01
 -1       302-1.24720E+01 8.33355E+00 5.00000E-01
 -1       303 1.47118E+01 2.92635E+00-5.00000E-01
 -1       304-1.47118E+01 2.92635E+00 5.00000E-01
 -1       305-1.50000E+01 0.00000E+00-5.00000E-01
 -1       306-8.33355E+00 1.24720E+01 5.00000E-01
 -1       307-5.74025E+00 1.38582E+01-5.00000E-01
 -1       308-2.92635E+00 1.47118E+01 5.00000E-01
 -1       309-8.33355E+00 1.24720E+01-5.00000E-01
 -1       310 5.74025E+00-1.38582E+01 5.00000E-01
 -1       311 0.00000E+00-1.50000E+01 5.00000E-01
 -1       312-8.33355E+00-1.24720E+01 5.00000E-01
 -1       313-1.50000E+01 0.00000E+00 5.00000E-01
 -1       314 1.38582E+01 5.74025E+00-5.00000E-01
 -1       315 1.24720E+01 8.33355E+00-5.00000E-01
 -1       316 8.33355E+00 1.24720E+01-5.00000E-01
 -1       317 5.74025E+00-1.38582E+01-5.00000E-01
 -1       318 2.92635E+00-1.47118E+01-5.00000E-01
 -1       319 0.00000E+00-1.50000E+01-5.00000E-01
 -1       320 2.92635E+00 1.47118E+01-5.00000E-01
 -1       321 0.00000E+00 1.50000E+01-5.00000E-01
 -1       322-2.92635E+00 1.47118E+01-5.00000E-01
 -1       323-1.06066E+01-1.06066E+01-5.00000E-01
 -1       324-1.06066E+01 1.06066E+01-5.00000E-01
 -1       325-1.24720E+01-8.33355E+00-5.00000E-01
 -1       326-1.24720E+01 8.33355E+00-5.00000E-01
 -1       327-1.38582E+01 5.74025E+00-5.00000E-01
 -1       328-1.38582E+01-5.74025E+00-5.00000E-01
 -1       329 5.74025E+00 1.38582E+01-5.00000E-01
 -1       330 2.92635E+00 1.47118E+01 5.00000E-01
 -1       331-5.06195E+00-1.58259E+00 5.00000E-01
 -1       332-4.40688E+00-3.06338E+00 5.00000E-01
 -1       333-4.07100E+00-3.39925E+00 5.00000E-01
 -1       334-4.51663E+00-2.89912E+00 5.00000E-01
 -1       335-2.02443E+00-1.35268E+00 5.00000E-01
 -1       336-6.42346E+00-5.07995E+00 5.00000E-01
 -1       337-2.89912E+00-4.51663E+00 5.00000E-01
 -1       338-3.06338E+00-4.40688E+00 5.00000E-01
 -1       339-1.35268E+00-2.02443E+00 5.00000E-01
 -1       340-3.55164E+00-7.33319E+00 5.00000E-01
 -1       341-4.68498E+00-1.00693E+01 5.00000E-01
 -1       342-3.55164E+00 7.33319E+00 5.00000E-01
 -1       343-3.99049E+00 7.15142E+00 5.00000E-01
 -1       344-5.07995E+00 6.42346E+00 5.00000E-01
 -1       345-2.46028E+00 4.69840E+00 5.00000E-01
 -1       346-4.74999E-01-5.28227E+00 5.00000E-01
 -1       347-1.58259E+00-5.06195E+00 5.00000E-01
 -1       348 1.14375E+00-5.24373E+00 5.00000E-01
 -1       349 3.39925E+00-4.07100E+00 5.00000E-01
 -1       350 2.89912E+00-4.51663E+00 5.00000E-01
 -1       351 2.46028E+00-4.69840E+00 5.00000E-01
 -1       352 2.02443E+00-1.35268E+00 5.00000E-01
 -1       353 4.69840E+00-2.46028E+00 5.00000E-01
 -1       354 2.38798E+00-4.74999E-01 5.00000E-01
 -1       355 5.24373E+00-1.14375E+00 5.00000E-01
 -1       356 4.51663E+00-2.89912E+00 5.00000E-01
 -1       357 1.04329E+01 3.80730E+00 5.00000E-01
 -1       358 1.06066E+01 1.06066E+01 5.00000E-01
 -1       359 5.74025E+00 1.38582E+01 5.00000E-01
 -1       360 7.50997E+00 8.18172E+00 5.00000E-01
 -1       361 3.80730E+00 1.04329E+01 5.00000E-01
 -1       362 2.23512E+00 7.87852E+00 5.00000E-01
 -1       363 0.00000E+00 1.50000E+01 5.00000E-01
 -1       364-9.50000E-01 8.13414E+00 5.00000E-01
 -1       365-2.23512E+00 7.87852E+00 5.00000E-01
 -1       366-4.74999E-01 1.10957E+01 5.00000E-01
 -1       367-3.80730E+00 1.04329E+01 5.00000E-01
 -1       368-7.50997E+00 8.18172E+00 5.00000E-01
 -1       369-1.06066E+01 1.06066E+01 5.00000E-01
 -1       370 8.33355E+00 1.24720E+01 5.00000E-01
 -1       371 7.15142E+00 3.99049E+00 5.00000E-01
 -1       372 7.33319E+00 3.55164E+00 5.00000E-01
 -1       373 8.18172E+00 7.50997E+00 5.00000E-01
 -1       374 1.47118E+01 2.92635E+00 5.00000E-01
 -1       375 1.10957E+01 4.74999E-01 5.00000E-01
 -1       376 1.38582E+01 5.74025E+00 5.00000E-01
 -1       377 1.50000E+01 0.00000E+00 5.00000E-01
 -1       378 1.10957E+01-4.74999E-01 5.00000E-01
 -1       379 8.13414E+00 4.74999E-01 5.00000E-01
 -1       380 1.04329E+01-3.80730E+00 5.00000E-01
 -1       381 8.13414E+00-9.50000E-01 5.00000E-01
 -1       382 7.87852E+00-2.23512E+00 5.00000E-01
 -1       383 1.00693E+01-4.68498E+00 5.00000E-01
 -1       384 7.15142E+00-3.99049E+00 5.00000E-01
 -1       385 8.18172E+00-7.50997E+00 5.00000E-01
 -1       386 4.68498E+00-1.00693E+01 5.00000E-01
 -1       387 7.50997E+00-8.18172E+00 5.00000E-01
 -1       388 5.07995E+00-6.42346E+00 5.00000E-01
 -1       389 8.33355E+00-1.24720E+01 5.00000E-01
 -1       390 3.80730E+00-1.04329E+01 5.00000E-01
 -1       391 2.67396E+00-7.69674E+00 5.00000E-01
 -1       392 4.74999E-01-1.10957E+01 5.00000E-01
 -1       393 2.92635E+00-1.47118E+01 5.00000E-01
 -1       394-2.23512E+00-7.87852E+00 5.00000E-01
 -1       395-1.14375E+00-5.24373E+00 5.00000E-01
 -1       396-2.67396E+00-7.69674E+00 5.00000E-01
 -1       397-3.80730E+00-1.04329E+01 5.00000E-01
 -1       398-5.41583E+00-6.08758E+00 5.00000E-01
 -1       399-5.74025E+00-1.38582E+01 5.00000E-01
 -1       400 5.28227E+00 9.50000E-01 5.00000E-01
 -1       401 7.87852E+00 2.23512E+00 5.00000E-01
 -1       402 2.38798E+00 4.74999E-01 5.00000E-01
 -1       403 6.42346E+00 5.07995E+00 5.00000E-01
 -1       404 5.07995E+00 6.42346E+00 5.00000E-01
 -1       405 3.06338E+00 4.40688E+00 5.00000E-01
 -1       406 2.02443E+00 1.35268E+00 5.00000E-01
 -1       407 4.40688E+00 3.06338E+00 5.00000E-01
 -1       408 2.89912E+00 4.51663E+00 5.00000E-01
 -1       409 1.35268E+00 2.02443E+00 5.00000E-01
 -1       410 9.50000E-01 5.28227E+00 5.00000E-01
 -1       411-9.50000E-01 5.28227E+00 5.00000E-01
 -1       412-4.74999E-01 2.38798E+00 5.00000E-01
 -1       413-1.14375E+00 5.24373E+00 5.00000E-01
 -1       414-1.58259E+00 5.06195E+00 5.00000E-01
 -1       415-7.33319E+00-3.55164E+00 5.00000E-01
 -1       416-8.18172E+00-7.50997E+00 5.00000E-01
 -1       417-1.06066E+01-1.06066E+01 5.00000E-01
 -1       418-1.04329E+01-3.80730E+00 5.00000E-01
 -1       419-6.08758E+00 5.41583E+00 5.00000E-01
 -1       420-7.15142E+00 3.99049E+00 5.00000E-01
 -1       421-4.40688E+00 3.06338E+00 5.00000E-01
 -1       422-6.42346E+00 5.07995E+00 5.00000E-01
 -1       423-4.51663E+00 2.89912E+00 5.00000E-01
 -1       424-8.13414E+00 4.74999E-01 5.00000E-01
 -1       425-1.04329E+01 3.80730E+00 5.00000E-01
 -1       426-1.00693E+01 4.68498E+00 5.00000E-01
 -1       427-2.38798E+00 4.74999E-01 5.00000E-01
 -1       428-8.13414E+00-9.50000E-01 5.00000E-01
 -1       429-1.10957E+01 4.74999E-01 5.00000E-01
 -1       430 1.96740E+00 1.31457E+00 5.00000E-01
 -1       431-4.61617E-01 2.32070E+00 5.00000E-01
 -1       432-1.31457E+00 1.96740E+00 5.00000E-01
 -1       433-1.96740E+00-1.31457E+00 5.00000E-01
 -1       434-1.38582E+01 5.74025E+00 5.00000E-01
 -1       435-1.47118E+01 2.92635E+00-5.00000E-01
 -1       436 1.06066E+01-1.06066E+01 5.00000E-01
 -1       437 1.24720E+01-8.33355E+00 5.00000E-01
 -1       438 8.33355E+00-1.24720E+01-5.00000E-01
 -1       439 1.06066E+01-1.06066E+01-5.00000E-01
 -1       440-8.33355E+00-1.24720E+01-5.00000E-01
 -1       441-1.47118E+01-2.92635E+00 5.00000E-01
 -1       442-1.47118E+01-2.92635E+00-5.00000E-01
 -1       443-1.38582E+01-5.74025E+00 5.00000E-01
 -1       444-1.24720E+01-8.33355E+00 5.00000E-01
 -1       445 1.38582E+01-5.74025E+00-5.00000E-01
 -1       446 1.24720E+01-8.33355E+00-5.00000E-01
 -1       447 1.47118E+01-2.92635E+00-5.00000E-01
 -1       448 1.38582E+01-5.74025E+00 5.00000E-01
 -1       449 2.32070E+00 4.61617E-01 1.47500E+00
 -1       450 2.32070E+00-4.61617E-01 1.47500E+00
 -1       451-5.83402E+00 3.44480E+00 2.45000E+00
 -1       452-6.56112E+00 1.68944E+00 2.45000E+00
 -1       453-3.44480E+00-5.83402E+00 2.45000E+00
 -1       454-3.44480E+00 5.83402E+00 2.45000E+00
 -1       455-4.07166E+00 5.41517E+00 2.45000E+00
 -1       456-5.41517E+00 4.07166E+00 2.45000E+00
 -1       457-3.83512E+00 4.74999E-01 2.45000E+00
 -1       458-3.83512E+00-4.74999E-01 2.45000E+00
 -1       459-3.36141E+00-1.90648E+00 2.45000E+00
 -1       460-3.72497E+00-1.02879E+00 2.45000E+00
 -1       461-1.68944E+00-6.56112E+00 2.45000E+00
 -1       462-3.36141E+00 1.90648E+00 2.45000E+00
 -1       463-3.72497E+00 1.02879E+00 2.45000E+00
 -1       464-1.68944E+00 6.56112E+00 2.45000E+00
 -1       465 1.68944E+00 6.56112E+00 2.45000E+00
 -1       466 4.11831E+00 8.70125E+00 2.45000E+00
 -1       467 3.24063E+00 9.06482E+00 2.45000E+00
 -1       468 1.90648E+00 3.36141E+00 2.45000E+00
 -1       469 1.02879E+00 3.72497E+00 2.45000E+00
 -1       470 3.44480E+00 5.83402E+00 2.45000E+00
 -1       471 3.04771E+00 2.37597E+00 2.45000E+00
 -1       472 2.37597E+00 3.04771E+00 2.45000E+00
 -1       473 3.72497E+00 1.02879E+00 2.45000E+00
 -1       474 3.36141E+00 1.90648E+00 2.45000E+00
 -1       475 3.83512E+00 4.74999E-01 2.45000E+00
 -1       476 3.83512E+00-4.74999E-01 2.45000E+00
 -1       477 6.70821E+00 9.50000E-01 2.45000E+00
 -1       478 6.70821E+00-9.50000E-01 2.45000E+00
 -1       479 9.61492E+00 4.74999E-01 2.45000E+00
 -1       480 9.61492E+00-4.74999E-01 2.45000E+00
 -1       481 3.44480E+00-5.83402E+00 2.45000E+00
 -1       482 7.13465E+00 6.46290E+00 2.45000E+00
 -1       483 6.46290E+00 7.13465E+00 2.45000E+00
 -1       484 9.06482E+00 3.24063E+00 2.45000E+00
 -1       485 8.70125E+00 4.11831E+00 2.45000E+00
 -1       486 6.56112E+00 1.68944E+00 2.45000E+00
 -1       487 5.83402E+00 3.44480E+00 2.45000E+00
 -1       488 5.41517E+00 4.07166E+00 2.45000E+00
 -1       489 4.07166E+00 5.41517E+00 2.45000E+00
 -1       490 4.11831E+00-8.70125E+00 2.45000E+00
 -1       491 3.24063E+00-9.06482E+00 2.45000E+00
 -1       492 1.90648E+00-3.36141E+00 2.45000E+00
 -1       493 1.02879E+00-3.72497E+00 2.45000E+00
 -1       494 4.74999E-01-3.83512E+00 2.45000E+00
 -1       495-4.74999E-01-3.83512E+00 2.45000E+00
 -1       496 4.74999E-01-9.61492E+00 2.45000E+00
 -1       497-4.74999E-01-9.61492E+00 2.45000E+00
 -1       498 3.72497E+00-1.02879E+00 2.45000E+00
 -1       499 3.36141E+00-1.90648E+00 2.45000E+00
 -1       500 6.56112E+00-1.68944E+00 2.45000E+00
 -1       501 5.83402E+00-3.44480E+00 2.45000E+00
 -1       502 9.06482E+00-3.24063E+00 2.45000E+00
 -1       503 8.70125E+00-4.11831E+00 2.45000E+00
 -1       504 3.04771E+00-2.37597E+00 2.45000E+00
 -1       505 2.37597E+00-3.04771E+00 2.45000E+00
 -1       506 5.41517E+00-4.07166E+00 2.45000E+00
 -1       507 4.07166E+00-5.41517E+00 2.45000E+00
 -1       508 7.13465E+00-6.46290E+00 2.45000E+00
 -1       509 6.46290E+00-7.13465E+00 2.45000E+00
 -1       510 1.68944E+00-6.56112E+00 2.45000E+00
 -1       511-9.50000E-01-6.70821E+00 2.45000E+00
 -1       512-1.02879E+00-3.72497E+00 2.45000E+00
 -1       513-1.90648E+00-3.36141E+00 2.45000E+00
 -1       514-3.24063E+00-9.06482E+00 2.45000E+00
 -1       515-4.11831E+00-8.70125E+00 2.45000E+00
 -1       516-9.50000E-01 6.70821E+00 2.45000E+00
 -1       517 4.74999E-01 9.61492E+00 2.45000E+00
 -1       518 4.74999E-01 3.83512E+00 2.45000E+00
 -1       519-4.74999E-01 3.83512E+00 2.45000E+00
 -1       520-4.74999E-01 9.61492E+00 2.45000E+00
 -1       521-1.02879E+00 3.72497E+00 2.45000E+00
 -1       522-1.90648E+00 3.36141E+00 2.45000E+00
 -1       523-3.24063E+00 9.06482E+00 2.45000E+00
 -1       524-4.11831E+00 8.70125E+00 2.45000E+00
 -1       525 9.50000E-01 6.70821E+00 2.45000E+00
 -1       526 9.50000E-01-6.70821E+00 2.45000E+00
 -1       527-2.37597E+00-3.04771E+00 2.45000E+00
 -1       528-3.04771E+00-2.37597E+00 2.45000E+00
 -1       529-2.37597E+00 3.04771E+00 2.45000E+00
 -1       530-3.04771E+00 2.37597E+00 2.45000E+00
 -1       531-4.07166E+00-5.41517E+00 2.45000E+00
 -1       532-5.41517E+00-4.07166E+00 2.45000E+00
 -1       533-5.83402E+00-3.44480E+00 2.45000E+00
 -1       534-6.56112E+00-1.68944E+00 2.45000E+00
 -1       535-9.61492E+00 4.74999E-01 2.45000E+00
 -1       536-9.61492E+00-4.74999E-01 2.45000E+00
 -1       537-8.70125E+00 4.11831E+00 2.45000E+00
 -1       538-9.06482E+00 3.24063E+00 2.45000E+00
 -1       539-6.46290E+00 7.13465E+00 2.45000E+00
 -1       540-7.13465E+00 6.46290E+00 2.45000E+00
 -1       541-6.70821E+00 9.50000E-01 2.45000E+00
 -1       542-6.70821E+00-9.50000E-01 2.45000E+00
 -1       543-6.46290E+00-7.13465E+00 2.45000E+00
 -1       544-7.13465E+00-6.46290E+00 2.45000E+00
 -1       545-8.70125E+00-4.11831E+00 2.45000E+00
 -1       546-9.06482E+00-3.24063E+00 2.45000E+00
 -1       547 1.10957E+01 4.74999E-01 1.47500E+00
 -1       548 1.10957E+01-4.74999E-01 1.47500E+00
 -1       549 9.61492E+00 4.74999E-01 5.00000E-01
 -1       550 8.13414E+00 4.74999E-01 1.47500E+00
 -1       551 5.28227E+00 4.74999E-01 1.47500E+00
 -1       552 3.83512E+00 4.74999E-01 5.00000E-01
 -1       553 2.38798E+00 4.74999E-01 1.47500E+00
 -1       554 2.38798E+00-4.74999E-01 1.47500E+00
 -1       555 3.83512E+00-4.74999E-01 5.00000E-01
 -1       556 5.28227E+00-4.74999E-01 1.47500E+00
 -1       557 8.13414E+00-4.74999E-01 1.47500E+00
 -1       558 9.61492E+00-4.74999E-01 5.00000E-01
 -1       559 5.28227E+00-9.50000E-01 1.47500E+00
 -1       560 5.28227E+00 9.50000E-01 1.47500E+00
 -1       561 8.13414E+00-9.50000E-01 1.47500E+00
 -1       562 8.13414E+00 9.50000E-01 1.47500E+00
 -1       563 6.70821E+00-9.50000E-01 5.00000E-01
 -1       564 6.70821E+00 9.50000E-01 5.00000E-01
 -1       565 1.96740E+00 1.31457E+00 1.47500E+00
 -1       566 1.00693E+01 4.68498E+00 1.47500E+00
 -1       567 1.04329E+01 3.80730E+00 1.47500E+00
 -1       568 8.70125E+00 4.11831E+00 5.00000E-01
 -1       569 7.33319E+00 3.55164E+00 1.47500E+00
 -1       570 4.69840E+00 2.46028E+00 1.47500E+00
 -1       571 3.36141E+00 1.90648E+00 5.00000E-01
 -1       572 2.02443E+00 1.35268E+00 1.47500E+00
 -1       573 3.72497E+00 1.02879E+00 5.00000E-01
 -1       574 5.06195E+00 1.58259E+00 1.47500E+00
 -1       575 7.69674E+00 2.67396E+00 1.47500E+00
 -1       576 9.06482E+00 3.24063E+00 5.00000E-01
 -1       577 5.24373E+00 1.14375E+00 1.47500E+00
 -1       578 4.51663E+00 2.89912E+00 1.47500E+00
 -1       579 7.87852E+00 2.23512E+00 1.47500E+00
 -1       580 7.15142E+00 3.99049E+00 1.47500E+00
 -1       581 6.56112E+00 1.68944E+00 5.00000E-01
 -1       582 5.83402E+00 3.44480E+00 5.00000E-01
 -1       583 1.31457E+00 1.96740E+00 1.47500E+00
 -1       584 7.50997E+00 8.18172E+00 1.47500E+00
 -1       585 8.18172E+00 7.50997E+00 1.47500E+00
 -1       586 6.46290E+00 7.13465E+00 5.00000E-01
 -1       587 5.41583E+00 6.08758E+00 1.47500E+00
 -1       588 3.39925E+00 4.07100E+00 1.47500E+00
 -1       589 2.37597E+00 3.04771E+00 5.00000E-01
 -1       590 1.35268E+00 2.02443E+00 1.47500E+00
 -1       591 4.07100E+00 3.39925E+00 1.47500E+00
 -1       592 3.04771E+00 2.37597E+00 5.00000E-01
 -1       593 6.08758E+00 5.41583E+00 1.47500E+00
 -1       594 7.13465E+00 6.46290E+00 5.00000E-01
 -1       595 4.40688E+00 3.06338E+00 1.47500E+00
 -1       596 3.06338E+00 4.40688E+00 1.47500E+00
 -1       597 6.42346E+00 5.07995E+00 1.47500E+00
 -1       598 5.07995E+00 6.42346E+00 1.47500E+00
 -1       599 5.41517E+00 4.07166E+00 5.00000E-01
 -1       600 4.07166E+00 5.41517E+00 5.00000E-01
 -1       601 4.61617E-01 2.32070E+00 1.47500E+00
 -1       602 4.68498E+00 1.00693E+01 1.47500E+00
 -1       603 3.80730E+00 1.04329E+01 1.47500E+00
 -1       604 3.24063E+00 9.06482E+00 5.00000E-01
 -1       605 2.67396E+00 7.69674E+00 1.47500E+00
 -1       606 1.58259E+00 5.06195E+00 1.47500E+00
 -1       607 1.02879E+00 3.72497E+00 5.00000E-01
 -1       608 4.74999E-01 2.38798E+00 1.47500E+00
 -1       609 2.46028E+00 4.69840E+00 1.47500E+00
 -1       610 1.90648E+00 3.36141E+00 5.00000E-01
 -1       611 3.55164E+00 7.33319E+00 1.47500E+00
 -1       612 4.11831E+00 8.70125E+00 5.00000E-01
 -1       613 2.89912E+00 4.51663E+00 1.47500E+00
 -1       614 1.14375E+00 5.24373E+00 1.47500E+00
 -1       615 3.99049E+00 7.15142E+00 1.47500E+00
 -1       616 2.23512E+00 7.87852E+00 1.47500E+00
 -1       617 3.44480E+00 5.83402E+00 5.00000E-01
 -1       618 1.68944E+00 6.56112E+00 5.00000E-01
 -1       619-4.61617E-01 2.32070E+00 1.47500E+00
 -1       620 4.74999E-01 1.10957E+01 1.47500E+00
 -1       621-4.74999E-01 1.10957E+01 1.47500E+00
 -1       622-4.74999E-01 9.61492E+00 5.00000E-01
 -1       623-4.74999E-01 8.13414E+00 1.47500E+00
 -1       624-4.74999E-01 5.28227E+00 1.47500E+00
 -1       625-4.74999E-01 3.83512E+00 5.00000E-01
 -1       626-4.74999E-01 2.38798E+00 1.47500E+00
 -1       627 4.74999E-01 5.28227E+00 1.47500E+00
 -1       628 4.74999E-01 3.83512E+00 5.00000E-01
 -1       629 4.74999E-01 8.13414E+00 1.47500E+00
 -1       630 4.74999E-01 9.61492E+00 5.00000E-01
 -1       631 9.50000E-01 5.28227E+00 1.47500E+00
 -1       632-9.50000E-01 5.28227E+00 1.47500E+00
 -1       633 9.50000E-01 8.13414E+00 1.47500E+00
 -1       634-9.50000E-01 8.13414E+00 1.47500E+00
 -1       635 9.50000E-01 6.70821E+00 5.00000E-01
 -1       636-9.50000E-01 6.70821E+00 5.00000E-01
 -1       637-1.31457E+00 1.96740E+00 1.47500E+00
 -1       638-3.80730E+00 1.04329E+01 1.47500E+00
 -1       639-4.68498E+00 1.00693E+01 1.47500E+00
 -1       640-4.11831E+00 8.70125E+00 5.00000E-01
 -1       641-3.55164E+00 7.33319E+00 1.47500E+00
 -1       642-2.46028E+00 4.69840E+00 1.47500E+00
 -1       643-1.90648E+00 3.36141E+00 5.00000E-01
 -1       644-1.35268E+00 2.02443E+00 1.47500E+00
 -1       645-1.58259E+00 5.06195E+00 1.47500E+00
 -1       646-1.02879E+00 3.72497E+00 5.00000E-01
 -1       647-2.67396E+00 7.69674E+00 1.47500E+00
 -1       648-3.24063E+00 9.06482E+00 5.00000E-01
 -1       649-1.14375E+00 5.24373E+00 1.47500E+00
 -1       650-2.89912E+00 4.51663E+00 1.47500E+00
 -1       651-2.23512E+00 7.87852E+00 1.47500E+00
 -1       652-3.99049E+00 7.15142E+00 1.47500E+00
 -1       653-1.68944E+00 6.56112E+00 5.00000E-01
 -1       654-3.44480E+00 5.83402E+00 5.00000E-01
 -1       655-1.96740E+00 1.31457E+00 1.47500E+00
 -1       656-7.50997E+00 8.18172E+00 1.47500E+00
 -1       657-8.18172E+00 7.50997E+00 1.47500E+00
 -1       658-7.13465E+00 6.46290E+00 5.00000E-01
 -1       659-6.08758E+00 5.41583E+00 1.47500E+00
 -1       660-4.07100E+00 3.39925E+00 1.47500E+00
 -1       661-3.04771E+00 2.37597E+00 5.00000E-01
 -1       662-2.02443E+00 1.35268E+00 1.47500E+00
 -1       663-3.39925E+00 4.07100E+00 1.47500E+00
 -1       664-2.37597E+00 3.04771E+00 5.00000E-01
 -1       665-5.41583E+00 6.08758E+00 1.47500E+00
 -1       666-6.46290E+00 7.13465E+00 5.00000E-01
 -1       667-3.06338E+00 4.40688E+00 1.47500E+00
 -1       668-4.40688E+00 3.06338E+00 1.47500E+00
 -1       669-5.07995E+00 6.42346E+00 1.47500E+00
 -1       670-6.42346E+00 5.07995E+00 1.47500E+00
 -1       671-4.07166E+00 5.41517E+00 5.00000E-01
 -1       672-5.41517E+00 4.07166E+00 5.00000E-01
 -1       673-2.32070E+00 4.61617E-01 1.47500E+00
 -1       674-1.00693E+01 4.68498E+00 1.47500E+00
 -1       675-1.04329E+01 3.80730E+00 1.47500E+00
 -1       676-9.06482E+00 3.24063E+00 5.00000E-01
 -1       677-7.69674E+00 2.67396E+00 1.47500E+00
 -1       678-5.06195E+00 1.58259E+00 1.47500E+00
 -1       679-3.72497E+00 1.02879E+00 5.00000E-01
 -1       680-2.38798E+00 4.74999E-01 1.47500E+00
 -1       681-3.36141E+00 1.90648E+00 5.00000E-01
 -1       682-4.69840E+00 2.46028E+00 1.47500E+00
 -1       683-7.33319E+00 3.55164E+00 1.47500E+00
 -1       684-8.70125E+00 4.11831E+00 5.00000E-01
 -1       685-4.51663E+00 2.89912E+00 1.47500E+00
 -1       686-5.24373E+00 1.14375E+00 1.47500E+00
 -1       687-7.15142E+00 3.99049E+00 1.47500E+00
 -1       688-7.87852E+00 2.23512E+00 1.47500E+00
 -1       689-5.83402E+00 3.44480E+00 5.00000E-01
 -1       690-6.56112E+00 1.68944E+00 5.00000E-01
 -1       691-2.32070E+00-4.61617E-01 1.47500E+00
 -1       692-1.10957E+01 4.74999E-01 1.47500E+00
 -1       693-1.10957E+01-4.74999E-01 1.47500E+00
 -1       694-9.61492E+00-4.74999E-01 5.00000E-01
 -1       695-8.13414E+00-4.74999E-01 1.47500E+00
 -1       696-5.28227E+00-4.74999E-01 1.47500E+00
 -1       697-3.83512E+00-4.74999E-01 5.00000E-01
 -1       698-2.38798E+00-4.74999E-01 1.47500E+00
 -1       699-3.83512E+00 4.74999E-01 5.00000E-01
 -1       700-5.28227E+00 4.74999E-01 1.47500E+00
 -1       701-8.13414E+00 4.74999E-01 1.47500E+00
 -1       702-9.61492E+00 4.74999E-01 5.00000E-01
 -1       703-5.28227E+00 9.50000E-01 1.47500E+00
 -1       704-5.28227E+00-9.50000E-01 1.47500E+00
 -1       705-8.13414E+00 9.50000E-01 1.47500E+00
 -1       706-8.13414E+00-9.50000E-01 1.47500E+00
 -1       707-6.70821E+00 9.50000E-01 5.00000E-01
 -1       708-6.70821E+00-9.50000E-01 5.00000E-01
 -1       709-1.96740E+00-1.31457E+00 1.47500E+00
 -1       710-1.04329E+01-3.80730E+00 1.47500E+00
 -1       711-1.00693E+01-4.68498E+00 1.47500E+00
 -1       712-8.70125E+00-4.11831E+00 5.00000E-01
 -1       713-7.33319E+00-3.55164E+00 1.47500E+00
 -1       714-4.69840E+00-2.46028E+00 1.47500E+00
 -1       715-3.36141E+00-1.90648E+00 5.00000E-01
 -1       716-2.02443E+00-1.35268E+00 1.47500E+00
 -1       717-3.72497E+00-1.02879E+00 5.00000E-01
 -1       718-5.06195E+00-1.58259E+00 1.47500E+00
 -1       719-7.69674E+00-2.67396E+00 1.47500E+00
 -1       720-9.06482E+00-3.24063E+00 5.00000E-01
 -1       721-5.24373E+00-1.14375E+00 1.47500E+00
 -1       722-4.51663E+00-2.89912E+00 1.47500E+00
 -1       723-7.87852E+00-2.23512E+00 1.47500E+00
 -1       724-7.15142E+00-3.99049E+00 1.47500E+00
 -1       725-6.56112E+00-1.68944E+00 5.00000E-01
 -1       726-5.83402E+00-3.44480E+00 5.00000E-01
 -1       727-1.31457E+00-1.96740E+00 1.47500E+00
 -1       728-8.18172E+00-7.50997E+00 1.47500E+00
 -1       729-7.50997E+00-8.18172E+00 1.47500E+00
 -1       730-5.41583E+00-6.08758E+00 1.47500E+00
 -1       731-6.46290E+00-7.13465E+00 5.00000E-01
 -1       732-1.35268E+00-2.02443E+00 1.47500E+00
 -1       733-3.39925E+00-4.07100E+00 1.47500E+00
 -1       734-2.37597E+00-3.04771E+00 5.00000E-01
 -1       735-3.04771E+00-2.37597E+00 5.00000E-01
 -1       736-4.07100E+00-3.39925E+00 1.47500E+00
 -1       737-6.08758E+00-5.41583E+00 1.47500E+00
 -1       738-7.13465E+00-6.46290E+00 5.00000E-01
 -1       739-4.40688E+00-3.06338E+00 1.47500E+00
 -1       740-3.06338E+00-4.40688E+00 1.47500E+00
 -1       741-6.42346E+00-5.07995E+00 1.47500E+00
 -1       742-5.07995E+00-6.42346E+00 1.47500E+00
 -1       743-5.41517E+00-4.07166E+00 5.00000E-01
 -1       744-4.07166E+00-5.41517E+00 5.00000E-01
 -1       745-4.61617E-01-2.32070E+00 1.47500E+00
 -1       746-4.68498E+00-1.00693E+01 1.47500E+00
 -1       747-3.80730E+00-1.04329E+01 1.47500E+00
 -1       748-2.67396E+00-7.69674E+00 1.47500E+00
 -1       749-3.24063E+00-9.06482E+00 5.00000E-01
 -1       750-4.74999E-01-2.38798E+00 1.47500E+00
 -1       751-1.58259E+00-5.06195E+00 1.47500E+00
 -1       752-1.02879E+00-3.72497E+00 5.00000E-01
 -1       753-1.90648E+00-3.36141E+00 5.00000E-01
 -1       754-2.46028E+00-4.69840E+00 1.47500E+00
 -1       755-3.55164E+00-7.33319E+00 1.47500E+00
 -1       756-4.11831E+00-8.70125E+00 5.00000E-01
 -1       757-2.89912E+00-4.51663E+00 1.47500E+00
 -1       758-1.14375E+00-5.24373E+00 1.47500E+00
 -1       759-3.99049E+00-7.15142E+00 1.47500E+00
 -1       760-2.23512E+00-7.87852E+00 1.47500E+00
 -1       761-3.44480E+00-5.83402E+00 5.00000E-01
 -1       762-1.68944E+00-6.56112E+00 5.00000E-01
 -1       763 4.61617E-01-2.32070E+00 1.47500E+00
 -1       764-4.74999E-01-1.10957E+01 1.47500E+00
 -1       765 4.74999E-01-1.10957E+01 1.47500E+00
 -1       766 4.74999E-01-8.13414E+00 1.47500E+00
 -1       767 4.74999E-01-9.61492E+00 5.00000E-01
 -1       768 4.74999E-01-2.38798E+00 1.47500E+00
 -1       769 4.74999E-01-5.28227E+00 1.47500E+00
 -1       770 4.74999E-01-3.83512E+00 5.00000E-01
 -1       771-4.74999E-01-3.83512E+00 5.00000E-01
 -1       772-4.74999E-01-5.28227E+00 1.47500E+00
 -1       773-4.74999E-01-8.13414E+00 1.47500E+00
 -1       774-4.74999E-01-9.61492E+00 5.00000E-01
 -1       775-9.50000E-01-5.28227E+00 1.47500E+00
 -1       776 9.50000E-01-5.28227E+00 1.47500E+00
 -1       777-9.50000E-01-8.13414E+00 1.47500E+00
 -1       778 9.50000E-01-8.13414E+00 1.47500E+00
 -1       779-9.50000E-01-6.70821E+00 5.00000E-01
 -1       780 9.50000E-01-6.70821E+00 5.00000E-01
 -1       781 1.31457E+00-1.96740E+00 1.47500E+00
 -1       782 3.80730E+00-1.04329E+01 1.47500E+00
 -1       783 4.68498E+00-1.00693E+01 1.47500E+00
 -1       784 3.55164E+00-7.33319E+00 1.47500E+00
 -1       785 4.11831E+00-8.70125E+00 5.00000E-01
 -1       786 1.35268E+00-2.02443E+00 1.47500E+00
 -1       787 2.46028E+00-4.69840E+00 1.47500E+00
 -1       788 1.90648E+00-3.36141E+00 5.00000E-01
 -1       789 1.02879E+00-3.72497E+00 5.00000E-01
 -1       790 1.58259E+00-5.06195E+00 1.47500E+00
 -1       791 2.67396E+00-7.69674E+00 1.47500E+00
 -1       792 3.24063E+00-9.06482E+00 5.00000E-01
 -1       793 1.14375E+00-5.24373E+00 1.47500E+00
 -1       794 2.89912E+00-4.51663E+00 1.47500E+00
 -1       795 2.23512E+00-7.87852E+00 1.47500E+00
 -1       796 3.99049E+00-7.15142E+00 1.47500E+00
 -1       797 1.68944E+00-6.56112E+00 5.00000E-01
 -1       798 3.44480E+00-5.83402E+00 5.00000E-01
 -1       799 1.96740E+00-1.31457E+00 1.47500E+00
 -1       800 8.18172E+00-7.50997E+00 1.47500E+00
 -1       801 7.50997E+00-8.18172E+00 1.47500E+00
 -1       802 6.08758E+00-5.41583E+00 1.47500E+00
 -1       803 7.13465E+00-6.46290E+00 5.00000E-01
 -1       804 2.02443E+00-1.35268E+00 1.47500E+00
 -1       805 4.07100E+00-3.39925E+00 1.47500E+00
 -1       806 3.04771E+00-2.37597E+00 5.00000E-01
 -1       807 2.37597E+00-3.04771E+00 5.00000E-01
 -1       808 3.39925E+00-4.07100E+00 1.47500E+00
 -1       809 5.41583E+00-6.08758E+00 1.47500E+00
 -1       810 6.46290E+00-7.13465E+00 5.00000E-01
 -1       811 3.06338E+00-4.40688E+00 1.47500E+00
 -1       812 4.40688E+00-3.06338E+00 1.47500E+00
 -1       813 5.07995E+00-6.42346E+00 1.47500E+00
 -1       814 6.42346E+00-5.07995E+00 1.47500E+00
 -1       815 4.07166E+00-5.41517E+00 5.00000E-01
 -1       816 5.41517E+00-4.07166E+00 5.00000E-01
 -1       817 1.04329E+01-3.80730E+00 1.47500E+00
 -1       818 1.00693E+01-4.68498E+00 1.47500E+00
 -1       819 9.06482E+00-3.24063E+00 5.00000E-01
 -1       820 7.69674E+00-2.67396E+00 1.47500E+00
 -1       821 5.06195E+00-1.58259E+00 1.47500E+00
 -1       822 3.72497E+00-1.02879E+00 5.00000E-01
 -1       823 3.36141E+00-1.90648E+00 5.00000E-01
 -1       824 4.69840E+00-2.46028E+00 1.47500E+00
 -1       825 7.33319E+00-3.55164E+00 1.47500E+00
 -1       826 8.70125E+00-4.11831E+00 5.00000E-01
 -1       827 4.51663E+00-2.89912E+00 1.47500E+00
 -1       828 5.24373E+00-1.14375E+00 1.47500E+00
 -1       829 7.15142E+00-3.99049E+00 1.47500E+00
 -1       830 7.87852E+00-2.23512E+00 1.47500E+00
 -1       831 5.83402E+00-3.44480E+00 5.00000E-01
 -1       832 6.56112E+00-1.68944E+00 5.00000E-01
 -1       833 9.47007E+00 1.15393E+01 5.00000E-01
 -1       834 9.47007E+00 1.15393E+01-5.00000E-01
 -1       835 1.48559E+01-1.46318E+00 5.00000E-01
 -1       836 1.48559E+01-1.46318E+00-5.00000E-01
 -1       837-4.33330E+00-1.42850E+01 5.00000E-01
 -1       838-4.33330E+00-1.42850E+01-5.00000E-01
 -1       839 1.15393E+01 9.47007E+00 5.00000E-01
 -1       840 1.15393E+01 9.47007E+00-5.00000E-01
 -1       841-4.33330E+00 1.42850E+01 5.00000E-01
 -1       842-4.33330E+00 1.42850E+01-5.00000E-01
 -1       843-1.31651E+01 7.03690E+00-5.00000E-01
 -1       844-1.31651E+01 7.03690E+00 5.00000E-01
 -1       845-1.31651E+01-7.03690E+00-5.00000E-01
 -1       846-1.31651E+01-7.03690E+00 5.00000E-01
 -1       847 1.42850E+01 4.33330E+00 5.00000E-01
 -1       848 1.42850E+01 4.33330E+00-5.00000E-01
 -1       849 1.31651E+01 7.03690E+00 5.00000E-01
 -1       850 1.31651E+01 7.03690E+00-5.00000E-01
 -1       851 7.03690E+00 1.31651E+01 5.00000E-01
 -1       852 7.03690E+00 1.31651E+01-5.00000E-01
 -1       853 1.46318E+00 1.48559E+01 5.00000E-01
 -1       854 1.46318E+00 1.48559E+01-5.00000E-01
 -1       855-1.48559E+01 1.46318E+00-5.00000E-01
 -1       856-1.48559E+01 1.46318E+00 5.00000E-01
 -1       857-1.15393E+01 9.47007E+00-5.00000E-01
 -1       858-1.15393E+01 9.47007E+00 5.00000E-01
 -1       859-7.03690E+00 1.31651E+01 5.00000E-01
 -1       860-7.03690E+00 1.31651E+01-5.00000E-01
 -1       861-1.46318E+00 1.48559E+01 5.00000E-01
 -1       862-1.46318E+00 1.48559E+01-5.00000E-01
 -1       863-9.47007E+00 1.15393E+01 5.00000E-01
 -1       864-9.47007E+00 1.15393E+01-5.00000E-01
 -1       865 1.48559E+01 1.46318E+00 5.00000E-01
 -1       866 1.48559E+01 1.46318E+00-5.00000E-01
 -1       867 1.46318E+00-1.48559E+01 5.00000E-01
 -1       868 1.46318E+00-1.48559E+01-5.00000E-01
 -1       869 4.33330E+00-1.42850E+01 5.00000E-01
 -1       870 4.33330E+00-1.42850E+01-5.00000E-01
 -1       871 7.03690E+00-1.31651E+01 5.00000E-01
 -1       872 7.03690E+00-1.31651E+01-5.00000E-01
 -1       873-1.46318E+00-1.48559E+01 5.00000E-01
 -1       874-1.46318E+00-1.48559E+01-5.00000E-01
 -1       875-9.47007E+00-1.15393E+01 5.00000E-01
 -1       876-9.47007E+00-1.15393E+01-5.00000E-01
 -1       877-1.48559E+01-1.46318E+00-5.00000E-01
 -1       878-1.48559E+01-1.46318E+00 5.00000E-01
 -1       879 1.42850E+01-4.33330E+00-5.00000E-01
 -1       880 1.31651E+01-7.03690E+00-5.00000E-01
 -1       881 1.15393E+01-9.47007E+00-5.00000E-01
 -1       882 9.47007E+00-1.15393E+01-5.00000E-01
 -1       883 4.33330E+00 1.42850E+01-5.00000E-01
 -1       884-7.03690E+00-1.31651E+01-5.00000E-01
 -1       885-1.15393E+01-9.47007E+00-5.00000E-01
 -1       886-1.42850E+01-4.33330E+00-5.00000E-01
 -1       887-1.42850E+01 4.33330E+00-5.00000E-01
 -1       888 4.33330E+00 1.42850E+01 5.00000E-01
 -1       889 1.42850E+01-4.33330E+00 5.00000E-01
 -1       890 1.31651E+01-7.03690E+00 5.00000E-01
 -1       891 1.15393E+01-9.47007E+00 5.00000E-01
 -1       892 9.47007E+00-1.15393E+01 5.00000E-01
 -1       893-7.03690E+00-1.31651E+01 5.00000E-01
 -1       894-1.42850E+01 4.33330E+00 5.00000E-01
 -1       895-1.15393E+01-9.47007E+00 5.00000E-01
 -1       896-1.42850E+01-4.33330E+00 5.00000E-01
 -1       897-3.71765E+00-6.49272E+00 2.45000E+00
 -1       898-4.57581E+00 5.91931E+00 2.45000E+00
 -1       899-4.55870E+00 4.74999E-01 2.45000E+00
 -1       900-3.11155E+00-4.74999E-01 2.45000E+00
 -1       901-4.39346E+00-1.30569E+00 2.45000E+00
 -1       902-1.41659E+00-5.90243E+00 2.45000E+00
 -1       903-1.96228E+00 7.21982E+00 2.45000E+00
 -1       904 2.95729E+00 8.38078E+00 2.45000E+00
 -1       905 3.71765E+00 6.49272E+00 2.45000E+00
 -1       906 3.55936E+00 2.88761E+00 2.45000E+00
 -1       907 1.86432E+00 2.53607E+00 2.45000E+00
 -1       908 2.69292E+00 1.62958E+00 2.45000E+00
 -1       909 4.55870E+00-4.74999E-01 2.45000E+00
 -1       910 5.99524E+00 9.50000E-01 2.45000E+00
 -1       911 8.87453E+00 4.74999E-01 2.45000E+00
 -1       912 1.03553E+01-4.74999E-01 2.45000E+00
 -1       913 3.17196E+00-5.17533E+00 2.45000E+00
 -1       914 9.74886E+00 3.52396E+00 2.45000E+00
 -1       915 6.49272E+00 3.71765E+00 2.45000E+00
 -1       916 5.17533E+00 3.17196E+00 2.45000E+00
 -1       917 3.56752E+00 4.91103E+00 2.45000E+00
 -1       918 1.30569E+00-4.39346E+00 2.45000E+00
 -1       919 4.74999E-01-3.11155E+00 2.45000E+00
 -1       920-4.74999E-01-1.03553E+01 2.45000E+00
 -1       921 4.02991E+00-2.18338E+00 2.45000E+00
 -1       922 8.38078E+00-2.95729E+00 2.45000E+00
 -1       923 9.38527E+00-4.40165E+00 2.45000E+00
 -1       924 2.53607E+00-1.86432E+00 2.45000E+00
 -1       925 2.88761E+00-3.55936E+00 2.45000E+00
 -1       926 6.61111E+00-5.93936E+00 2.45000E+00
 -1       927 6.98643E+00-7.65819E+00 2.45000E+00
 -1       928 1.41659E+00-5.90243E+00 2.45000E+00
 -1       929 1.96228E+00-7.21982E+00 2.45000E+00
 -1       930-9.50000E-01-7.42117E+00 2.45000E+00
 -1       931 4.74999E-01 4.55870E+00 2.45000E+00
 -1       932-4.74999E-01 3.11155E+00 2.45000E+00
 -1       933-5.91931E+00-4.57581E+00 2.45000E+00
 -1       934-9.38527E+00 4.40165E+00 2.45000E+00
 -1       935-8.38078E+00 2.95729E+00 2.45000E+00
 -1       936-6.98643E+00 7.65819E+00 2.45000E+00
 -1       937-7.42117E+00 9.50000E-01 2.45000E+00
 -1       938-5.93936E+00-6.61111E+00 2.45000E+00
 -1       939-7.65819E+00-6.98643E+00 2.45000E+00
 -1       940-9.74886E+00-3.52396E+00 2.45000E+00
 -1       941 8.87453E+00 4.74999E-01 5.00000E-01
 -1       942 3.11155E+00 4.74999E-01 5.00000E-01
 -1       943 4.55870E+00-4.74999E-01 5.00000E-01
 -1       944 1.03553E+01-4.74999E-01 5.00000E-01
 -1       945 7.42117E+00-9.50000E-01 5.00000E-01
 -1       946 7.42117E+00 9.50000E-01 5.00000E-01
 -1       947 5.99524E+00 9.50000E-01 5.00000E-01
 -1       948 8.01722E+00 3.83498E+00 5.00000E-01
 -1       949 2.69292E+00 1.62958E+00 5.00000E-01
 -1       950 4.39346E+00 1.30569E+00 5.00000E-01
 -1       951 9.74886E+00 3.52396E+00 5.00000E-01
 -1       952 5.90243E+00 1.41659E+00 5.00000E-01
 -1       953 7.21982E+00 1.96228E+00 5.00000E-01
 -1       954 6.49272E+00 3.71765E+00 5.00000E-01
 -1       955 5.17533E+00 3.17196E+00 5.00000E-01
 -1       956 5.93936E+00 6.61111E+00 5.00000E-01
 -1       957 1.86432E+00 2.53607E+00 5.00000E-01
 -1       958 3.55936E+00 2.88761E+00 5.00000E-01
 -1       959 7.65819E+00 6.98643E+00 5.00000E-01
 -1       960 5.91931E+00 4.57581E+00 5.00000E-01
 -1       961 4.57581E+00 5.91931E+00 5.00000E-01
 -1       962 3.56752E+00 4.91103E+00 5.00000E-01
 -1       963 2.95729E+00 8.38078E+00 5.00000E-01
 -1       964 7.51897E-01 3.05647E+00 5.00000E-01
 -1       965 2.18338E+00 4.02991E+00 5.00000E-01
 -1       966 4.40165E+00 9.38527E+00 5.00000E-01
 -1       967 3.17196E+00 5.17533E+00 5.00000E-01
 -1       968 3.71765E+00 6.49272E+00 5.00000E-01
 -1       969 1.96228E+00 7.21982E+00 5.00000E-01
 -1       970 1.41659E+00 5.90243E+00 5.00000E-01
 -1       971-4.74999E-01 8.87453E+00 5.00000E-01
 -1       972-4.74999E-01 3.11155E+00 5.00000E-01
 -1       973 4.74999E-01 4.55870E+00 5.00000E-01
 -1       974 4.74999E-01 1.03553E+01 5.00000E-01
 -1       975 9.50000E-01 5.99524E+00 5.00000E-01
 -1       976 9.50000E-01 7.42117E+00 5.00000E-01
 -1       977-9.50000E-01 7.42117E+00 5.00000E-01
 -1       978-9.50000E-01 5.99524E+00 5.00000E-01
 -1       979-4.40165E+00 9.38527E+00 5.00000E-01
 -1       980-3.83498E+00 8.01722E+00 5.00000E-01
 -1       981-1.62958E+00 2.69292E+00 5.00000E-01
 -1       982-1.30569E+00 4.39346E+00 5.00000E-01
 -1       983-3.52396E+00 9.74886E+00 5.00000E-01
 -1       984-1.41659E+00 5.90243E+00 5.00000E-01
 -1       985-1.96228E+00 7.21982E+00 5.00000E-01
 -1       986-3.71765E+00 6.49272E+00 5.00000E-01
 -1       987-3.17196E+00 5.17533E+00 5.00000E-01
 -1       988-7.65819E+00 6.98643E+00 5.00000E-01
 -1       989-6.61111E+00 5.93936E+00 5.00000E-01
 -1       990-2.53607E+00 1.86432E+00 5.00000E-01
 -1       991-2.88761E+00 3.55936E+00 5.00000E-01
 -1       992-6.98643E+00 7.65819E+00 5.00000E-01
 -1       993-3.56752E+00 4.91103E+00 5.00000E-01
 -1       994-4.57581E+00 5.91931E+00 5.00000E-01
 -1       995-5.91931E+00 4.57581E+00 5.00000E-01
 -1       996-4.91103E+00 3.56752E+00 5.00000E-01
 -1       997-9.74886E+00 3.52396E+00 5.00000E-01
 -1       998-8.38078E+00 2.95729E+00 5.00000E-01
 -1       999-3.05647E+00 7.51897E-01 5.00000E-01
 -1      1000-4.02991E+00 2.18338E+00 5.00000E-01
 -1      1001-9.38527E+00 4.40165E+00 5.00000E-01
 -1      1002-5.17533E+00 3.17196E+00 5.00000E-01
 -1      1003-6.49272E+00 3.71765E+00 5.00000E-01
 -1      1004-7.21982E+00 1.96228E+00 5.00000E-01
 -1      1005-5.90243E+00 1.41659E+00 5.00000E-01
 -1      1006-1.03553E+01-4.74999E-01 5.00000E-01
 -1      1007-8.87453E+00-4.74999E-01 5.00000E-01
 -1      1008-3.11155E+00-4.74999E-01 5.00000E-01
 -1      1009-4.55870E+00 4.74999E-01 5.00000E-01
 -1      1010-1.03553E+01 4.74999E-01 5.00000E-01
 -1      1011-5.99524E+00 9.50000E-01 5.00000E-01
 -1      1012-7.42117E+00 9.50000E-01 5.00000E-01
 -1      1013-7.42117E+00-9.50000E-01 5.00000E-01
 -1      1014-5.99524E+00-9.50000E-01 5.00000E-01
 -1      1015-9.38527E+00-4.40165E+00 5.00000E-01
 -1      1016-8.01722E+00-3.83498E+00 5.00000E-01
 -1      1017-2.69292E+00-1.62958E+00 5.00000E-01
 -1      1018-4.39346E+00-1.30569E+00 5.00000E-01
 -1      1019-9.74886E+00-3.52396E+00 5.00000E-01
 -1      1020-5.90243E+00-1.41659E+00 5.00000E-01
 -1      1021-7.21982E+00-1.96228E+00 5.00000E-01
 -1      1022-6.49272E+00-3.71765E+00 5.00000E-01
 -1      1023-5.17533E+00-3.17196E+00 5.00000E-01
 -1      1024-6.98643E+00-7.65819E+00 5.00000E-01
 -1      1025-5.93936E+00-6.61111E+00 5.00000E-01
 -1      1026-1.86432E+00-2.53607E+00 5.00000E-01
 -1      1027-3.55936E+00-2.88761E+00 5.00000E-01
 -1      1028-7.65819E+00-6.98643E+00 5.00000E-01
 -1      1029-4.91103E+00-3.56752E+00 5.00000E-01
 -1      1030-5.91931E+00-4.57581E+00 5.00000E-01
 -1      1031-4.57581E+00-5.91931E+00 5.00000E-01
 -1      1032-3.56752E+00-4.91103E+00 5.00000E-01
 -1      1033-2.95729E+00-8.38078E+00 5.00000E-01
 -1      1034-7.51897E-01-3.05647E+00 5.00000E-01
 -1      1035-2.18338E+00-4.02991E+00 5.00000E-01
 -1      1036-4.40165E+00-9.38527E+00 5.00000E-01
 -1      1037-3.71765E+00-6.49272E+00 5.00000E-01
 -1      1038-1.96228E+00-7.21982E+00 5.00000E-01
 -1      1039-1.41659E+00-5.90243E+00 5.00000E-01
 -1      1040 4.74999E-01-8.87453E+00 5.00000E-01
 -1      1041 4.74999E-01-3.11155E+00 5.00000E-01
 -1      1042-4.74999E-01-4.55870E+00 5.00000E-01
 -1      1043-4.74999E-01-1.03553E+01 5.00000E-01
 -1      1044-9.50000E-01-5.99524E+00 5.00000E-01
 -1      1045-9.50000E-01-7.42117E+00 5.00000E-01
 -1      1046 9.50000E-01-7.42117E+00 5.00000E-01
 -1      1047 9.50000E-01-5.99524E+00 5.00000E-01
 -1      1048 4.40165E+00-9.38527E+00 5.00000E-01
 -1      1049 3.83498E+00-8.01722E+00 5.00000E-01
 -1      1050 1.62958E+00-2.69292E+00 5.00000E-01
 -1      1051 1.30569E+00-4.39346E+00 5.00000E-01
 -1      1052 3.52396E+00-9.74886E+00 5.00000E-01
 -1      1053 1.41659E+00-5.90243E+00 5.00000E-01
 -1      1054 1.96228E+00-7.21982E+00 5.00000E-01
 -1      1055 3.71765E+00-6.49272E+00 5.00000E-01
 -1      1056 3.17196E+00-5.17533E+00 5.00000E-01
 -1      1057 7.65819E+00-6.98643E+00 5.00000E-01
 -1      1058 6.61111E+00-5.93936E+00 5.00000E-01
 -1      1059 2.53607E+00-1.86432E+00 5.00000E-01
 -1      1060 2.88761E+00-3.55936E+00 5.00000E-01
 -1      1061 6.98643E+00-7.65819E+00 5.00000E-01
 -1      1062 3.56752E+00-4.91103E+00 5.00000E-01
 -1      1063 4.57581E+00-5.91931E+00 5.00000E-01
 -1      1064 5.91931E+00-4.57581E+00 5.00000E-01
 -1      1065 4.91103E+00-3.56752E+00 5.00000E-01
 -1      1066 8.38078E+00-2.95729E+00 5.00000E-01
 -1      1067 3.05647E+00-7.51897E-01 5.00000E-01
 -1      1068 4.02991E+00-2.18338E+00 5.00000E-01
 -1      1069 9.38527E+00-4.40165E+00 5.00000E-01
 -1      1070 6.49272E+00-3.71765E+00 5.00000E-01
 -1      1071 7.21982E+00-1.96228E+00 5.00000E-01
 -1      1072 5.90243E+00-1.41659E+00 5.00000E-01
 -1      1073 1.00383E+01 1.10730E+01 5.00000E-01
 -1      1074 1.00383E+01 1.10730E+01-5.00000E-01
 -1      1075 8.90181E+00 1.20056E+01-5.00000E-01
 -1      1076-5.03678E+00-1.40716E+01 5.00000E-01
 -1      1077 1.20056E+01 8.90181E+00 5.00000E-01
 -1      1078-3.62983E+00 1.44984E+01 5.00000E-01
 -1      1079-1.28186E+01-7.68523E+00-5.00000E-01
 -1      1080 1.44984E+01 3.62983E+00 5.00000E-01
 -1      1081 1.35117E+01 6.38858E+00 5.00000E-01
 -1      1082 1.28186E+01 7.68523E+00-5.00000E-01
 -1      1083 6.38858E+00 1.35117E+01 5.00000E-01
 -1      1084 7.68523E+00 1.28186E+01 5.00000E-01
 -1      1085 6.38858E+00 1.35117E+01-5.00000E-01
 -1      1086-1.20056E+01 8.90181E+00-5.00000E-01
 -1      1087-1.10730E+01 1.00383E+01 5.00000E-01
 -1      1088-7.68523E+00 1.28186E+01 5.00000E-01
 -1      1089-6.38858E+00 1.35117E+01 5.00000E-01
 -1      1090-7.68523E+00 1.28186E+01-5.00000E-01
 -1      1091-7.31588E-01 1.49279E+01 5.00000E-01
 -1      1092-2.19476E+00 1.47838E+01-5.00000E-01
 -1      1093-1.00383E+01 1.10730E+01 5.00000E-01
 -1      1094-8.90181E+00 1.20056E+01 5.00000E-01
 -1      1095-1.00383E+01 1.10730E+01-5.00000E-01
 -1      1096 1.47838E+01 2.19476E+00 5.00000E-01
 -1      1097 1.49279E+01 7.31588E-01 5.00000E-01
 -1      1098 1.47838E+01 2.19476E+00-5.00000E-01
 -1      1099 7.31588E-01-1.49279E+01 5.00000E-01
 -1      1100 3.62983E+00-1.44984E+01 5.00000E-01
 -1      1101 5.03678E+00-1.40716E+01-5.00000E-01
 -1      1102 6.38858E+00-1.35117E+01 5.00000E-01
 -1      1103 7.68523E+00-1.28186E+01-5.00000E-01
 -1      1104-2.19476E+00-1.47838E+01 5.00000E-01
 -1      1105-7.31588E-01-1.49279E+01-5.00000E-01
 -1      1106-1.00383E+01-1.10730E+01 5.00000E-01
 -1      1107 1.40716E+01-5.03678E+00-5.00000E-01
 -1      1108 1.28186E+01-7.68523E+00-5.00000E-01
 -1      1109 1.10730E+01-1.00383E+01-5.00000E-01
 -1      1110 1.00383E+01-1.10730E+01-5.00000E-01
 -1      1111 8.90181E+00-1.20056E+01-5.00000E-01
 -1      1112 3.62983E+00 1.44984E+01-5.00000E-01
 -1      1113 5.03678E+00 1.40716E+01-5.00000E-01
 -1      1114-6.38858E+00-1.35117E+01-5.00000E-01
 -1      1115-7.68523E+00-1.28186E+01-5.00000E-01
 -1      1116-1.10730E+01-1.00383E+01-5.00000E-01
 -1      1117-1.20056E+01-8.90181E+00-5.00000E-01
 -1      1118-1.40716E+01-5.03678E+00-5.00000E-01
 -1      1119-1.44984E+01-3.62983E+00-5.00000E-01
 -1      1120-1.40716E+01 5.03678E+00-5.00000E-01
 -1      1121 5.03678E+00 1.40716E+01 5.00000E-01
 -1      1122 1.44984E+01-3.62983E+00 5.00000E-01
 -1      1123 1.35117E+01-6.38858E+00 5.00000E-01
 -1      1124 1.20056E+01-8.90181E+00 5.00000E-01
 -1      1125 1.00383E+01-1.10730E+01 5.00000E-01
 -1      1126-6.38858E+00-1.35117E+01 5.00000E-01
 -1      1127-1.44984E+01 3.62983E+00 5.00000E-01
 -1      1128-1.10730E+01-1.00383E+01 5.00000E-01
 -1      1129-1.40716E+01-5.03678E+00 5.00000E-01
 -1      1130-6.49272E+00 3.71765E+00 2.45000E+00
 -1      1131-5.17533E+00 3.17196E+00 2.45000E+00
 -1      1132-5.90243E+00 1.41659E+00 2.45000E+00
 -1      1133-7.21982E+00 1.96228E+00 2.45000E+00
 -1      1134-3.17196E+00-5.17533E+00 2.45000E+00
 -1      1135-3.17196E+00 5.17533E+00 2.45000E+00
 -1      1136-3.71765E+00 6.49272E+00 2.45000E+00
 -1      1137-3.56752E+00 4.91103E+00 2.45000E+00
 -1      1138-4.91103E+00 3.56752E+00 2.45000E+00
 -1      1139-5.91931E+00 4.57581E+00 2.45000E+00
 -1      1140-3.11155E+00 4.74999E-01 2.45000E+00
 -1      1141-4.55870E+00-4.74999E-01 2.45000E+00
 -1      1142-2.69292E+00-1.62958E+00 2.45000E+00
 -1      1143-4.02991E+00-2.18338E+00 2.45000E+00
 -1      1144-3.05647E+00-7.51897E-01 2.45000E+00
 -1      1145-1.96228E+00-7.21982E+00 2.45000E+00
 -1      1146-3.05647E+00 7.51897E-01 2.45000E+00
 -1      1147-4.02991E+00 2.18338E+00 2.45000E+00
 -1      1148-2.69292E+00 1.62958E+00 2.45000E+00
 -1      1149-4.39346E+00 1.30569E+00 2.45000E+00
 -1      1150-1.41659E+00 5.90243E+00 2.45000E+00
 -1      1151 1.41659E+00 5.90243E+00 2.45000E+00
 -1      1152 1.96228E+00 7.21982E+00 2.45000E+00
 -1      1153 4.40165E+00 9.38527E+00 2.45000E+00
 -1      1154 3.83498E+00 8.01722E+00 2.45000E+00
 -1      1155 3.52396E+00 9.74886E+00 2.45000E+00
 -1      1156 7.51897E-01 3.05647E+00 2.45000E+00
 -1      1157 2.18338E+00 4.02991E+00 2.45000E+00
 -1      1158 1.62958E+00 2.69292E+00 2.45000E+00
 -1      1159 1.30569E+00 4.39346E+00 2.45000E+00
 -1      1160 3.17196E+00 5.17533E+00 2.45000E+00
 -1      1161 2.53607E+00 1.86432E+00 2.45000E+00
 -1      1162 2.88761E+00 3.55936E+00 2.45000E+00
 -1      1163 4.39346E+00 1.30569E+00 2.45000E+00
 -1      1164 3.05647E+00 7.51897E-01 2.45000E+00
 -1      1165 4.02991E+00 2.18338E+00 2.45000E+00
 -1      1166 3.11155E+00 4.74999E-01 2.45000E+00
 -1      1167 4.55870E+00 4.74999E-01 2.45000E+00
 -1      1168 3.11155E+00-4.74999E-01 2.45000E+00
 -1      1169 7.42117E+00 9.50000E-01 2.45000E+00
 -1      1170 7.42117E+00-9.50000E-01 2.45000E+00
 -1      1171 5.99524E+00-9.50000E-01 2.45000E+00
 -1      1172 1.03553E+01 4.74999E-01 2.45000E+00
 -1      1173 8.87453E+00-4.74999E-01 2.45000E+00
 -1      1174 3.71765E+00-6.49272E+00 2.45000E+00
 -1      1175 7.65819E+00 6.98643E+00 2.45000E+00
 -1      1176 6.61111E+00 5.93936E+00 2.45000E+00
 -1      1177 5.93936E+00 6.61111E+00 2.45000E+00
 -1      1178 6.98643E+00 7.65819E+00 2.45000E+00
 -1      1179 8.38078E+00 2.95729E+00 2.45000E+00
 -1      1180 8.01722E+00 3.83498E+00 2.45000E+00
 -1      1181 9.38527E+00 4.40165E+00 2.45000E+00
 -1      1182 7.21982E+00 1.96228E+00 2.45000E+00
 -1      1183 5.90243E+00 1.41659E+00 2.45000E+00
 -1      1184 4.57581E+00 5.91931E+00 2.45000E+00
 -1      1185 5.91931E+00 4.57581E+00 2.45000E+00
 -1      1186 4.91103E+00 3.56752E+00 2.45000E+00
 -1      1187 3.83498E+00-8.01722E+00 2.45000E+00
 -1      1188 4.40165E+00-9.38527E+00 2.45000E+00
 -1      1189 3.52396E+00-9.74886E+00 2.45000E+00
 -1      1190 2.95729E+00-8.38078E+00 2.45000E+00
 -1      1191 1.62958E+00-2.69292E+00 2.45000E+00
 -1      1192 2.18338E+00-4.02991E+00 2.45000E+00
 -1      1193 7.51897E-01-3.05647E+00 2.45000E+00
 -1      1194 4.74999E-01-4.55870E+00 2.45000E+00
 -1      1195 4.74999E-01-8.87453E+00 2.45000E+00
 -1      1196-4.74999E-01-4.55870E+00 2.45000E+00
 -1      1197-4.74999E-01-3.11155E+00 2.45000E+00
 -1      1198 4.74999E-01-1.03553E+01 2.45000E+00
 -1      1199-4.74999E-01-8.87453E+00 2.45000E+00
 -1      1200 3.05647E+00-7.51897E-01 2.45000E+00
 -1      1201 4.39346E+00-1.30569E+00 2.45000E+00
 -1      1202 2.69292E+00-1.62958E+00 2.45000E+00
 -1      1203 5.90243E+00-1.41659E+00 2.45000E+00
 -1      1204 7.21982E+00-1.96228E+00 2.45000E+00
 -1      1205 6.49272E+00-3.71765E+00 2.45000E+00
 -1      1206 5.17533E+00-3.17196E+00 2.45000E+00
 -1      1207 9.74886E+00-3.52396E+00 2.45000E+00
 -1      1208 8.01722E+00-3.83498E+00 2.45000E+00
 -1      1209 3.55936E+00-2.88761E+00 2.45000E+00
 -1      1210 1.86432E+00-2.53607E+00 2.45000E+00
 -1      1211 4.91103E+00-3.56752E+00 2.45000E+00
 -1      1212 5.91931E+00-4.57581E+00 2.45000E+00
 -1      1213 4.57581E+00-5.91931E+00 2.45000E+00
 -1      1214 3.56752E+00-4.91103E+00 2.45000E+00
 -1      1215 7.65819E+00-6.98643E+00 2.45000E+00
 -1      1216 5.93936E+00-6.61111E+00 2.45000E+00
 -1      1217-9.50000E-01-5.99524E+00 2.45000E+00
 -1      1218-2.18338E+00-4.02991E+00 2.45000E+00
 -1      1219-7.51897E-01-3.05647E+00 2.45000E+00
 -1      1220-1.30569E+00-4.39346E+00 2.45000E+00
 -1      1221-1.62958E+00-2.69292E+00 2.45000E+00
 -1      1222-4.40165E+00-9.38527E+00 2.45000E+00
 -1      1223-2.95729E+00-8.38078E+00 2.45000E+00
 -1      1224-3.52396E+00-9.74886E+00 2.45000E+00
 -1      1225-3.83498E+00-8.01722E+00 2.45000E+00
 -1      1226-9.50000E-01 5.99524E+00 2.45000E+00
 -1      1227-9.50000E-01 7.42117E+00 2.45000E+00
 -1      1228 4.74999E-01 1.03553E+01 2.45000E+00
 -1      1229 4.74999E-01 8.87453E+00 2.45000E+00
 -1      1230 4.74999E-01 3.11155E+00 2.45000E+00
 -1      1231-4.74999E-01 4.55870E+00 2.45000E+00
 -1      1232-4.74999E-01 8.87453E+00 2.45000E+00
 -1      1233-4.74999E-01 1.03553E+01 2.45000E+00
 -1      1234 9.50000E-01 7.42117E+00 2.45000E+00
 -1      1235-1.30569E+00 4.39346E+00 2.45000E+00
 -1      1236-7.51897E-01 3.05647E+00 2.45000E+00
 -1      1237-1.62958E+00 2.69292E+00 2.45000E+00
 -1      1238-2.18338E+00 4.02991E+00 2.45000E+00
 -1      1239-3.52396E+00 9.74886E+00 2.45000E+00
 -1      1240-2.95729E+00 8.38078E+00 2.45000E+00
 -1      1241-3.83498E+00 8.01722E+00 2.45000E+00
 -1      1242-4.40165E+00 9.38527E+00 2.45000E+00
 -1      1243 9.50000E-01 5.99524E+00 2.45000E+00
 -1      1244-4.91103E+00-3.56752E+00 2.45000E+00
 -1      1245 9.50000E-01-5.99524E+00 2.45000E+00
 -1      1246 9.50000E-01-7.42117E+00 2.45000E+00
 -1      1247-2.53607E+00 1.86432E+00 2.45000E+00
 -1      1248-3.55936E+00-2.88761E+00 2.45000E+00
 -1      1249-1.86432E+00-2.53607E+00 2.45000E+00
 -1      1250-2.88761E+00-3.55936E+00 2.45000E+00
 -1      1251-2.53607E+00-1.86432E+00 2.45000E+00
 -1      1252-2.88761E+00 3.55936E+00 2.45000E+00
 -1      1253-1.86432E+00 2.53607E+00 2.45000E+00
 -1      1254-3.55936E+00 2.88761E+00 2.45000E+00
 -1      1255-3.56752E+00-4.91103E+00 2.45000E+00
 -1      1256-4.57581E+00-5.91931E+00 2.45000E+00
 -1      1257-5.17533E+00-3.17196E+00 2.45000E+00
 -1      1258-6.49272E+00-3.71765E+00 2.45000E+00
 -1      1259-7.21982E+00-1.96228E+00 2.45000E+00
 -1      1260-5.90243E+00-1.41659E+00 2.45000E+00
 -1      1261-1.03553E+01 4.74999E-01 2.45000E+00
 -1      1262-8.87453E+00 4.74999E-01 2.45000E+00
 -1      1263-8.87453E+00-4.74999E-01 2.45000E+00
 -1      1264-1.03553E+01-4.74999E-01 2.45000E+00
 -1      1265-8.01722E+00 3.83498E+00 2.45000E+00
 -1      1266-9.74886E+00 3.52396E+00 2.45000E+00
 -1      1267-5.93936E+00 6.61111E+00 2.45000E+00
 -1      1268-6.61111E+00 5.93936E+00 2.45000E+00
 -1      1269-7.65819E+00 6.98643E+00 2.45000E+00
 -1      1270-5.99524E+00 9.50000E-01 2.45000E+00
 -1      1271-5.99524E+00-9.50000E-01 2.45000E+00
 -1      1272-7.42117E+00-9.50000E-01 2.45000E+00
 -1      1273-6.98643E+00-7.65819E+00 2.45000E+00
 -1      1274-6.61111E+00-5.93936E+00 2.45000E+00
 -1      1275-8.01722E+00-3.83498E+00 2.45000E+00
 -1      1276-9.38527E+00-4.40165E+00 2.45000E+00
 -1      1277-8.38078E+00-2.95729E+00 2.45000E+00
 -1      1278 1.03553E+01 4.74999E-01 5.00000E-01
 -1      1279 4.55870E+00 4.74999E-01 5.00000E-01
 -1      1280 3.11155E+00-4.74999E-01 5.00000E-01
 -1      1281 8.87453E+00-4.74999E-01 5.00000E-01
 -1      1282 5.99524E+00-9.50000E-01 5.00000E-01
 -1      1283 9.38527E+00 4.40165E+00 5.00000E-01
 -1      1284 4.02991E+00 2.18338E+00 5.00000E-01
 -1      1285 3.05647E+00 7.51897E-01 5.00000E-01
 -1      1286 8.38078E+00 2.95729E+00 5.00000E-01
 -1      1287 6.98643E+00 7.65819E+00 5.00000E-01
 -1      1288 2.88761E+00 3.55936E+00 5.00000E-01
 -1      1289 2.53607E+00 1.86432E+00 5.00000E-01
 -1      1290 6.61111E+00 5.93936E+00 5.00000E-01
 -1      1291 4.91103E+00 3.56752E+00 5.00000E-01
 -1      1292 3.52396E+00 9.74886E+00 5.00000E-01
 -1      1293 1.30569E+00 4.39346E+00 5.00000E-01
 -1      1294 1.62958E+00 2.69292E+00 5.00000E-01
 -1      1295 3.83498E+00 8.01722E+00 5.00000E-01
 -1      1296-4.74999E-01 1.03553E+01 5.00000E-01
 -1      1297-4.74999E-01 4.55870E+00 5.00000E-01
 -1      1298 4.74999E-01 3.11155E+00 5.00000E-01
 -1      1299 4.74999E-01 8.87453E+00 5.00000E-01
 -1      1300-2.18338E+00 4.02991E+00 5.00000E-01
 -1      1301-7.51897E-01 3.05647E+00 5.00000E-01
 -1      1302-2.95729E+00 8.38078E+00 5.00000E-01
 -1      1303-3.55936E+00 2.88761E+00 5.00000E-01
 -1      1304-1.86432E+00 2.53607E+00 5.00000E-01
 -1      1305-5.93936E+00 6.61111E+00 5.00000E-01
 -1      1306-4.39346E+00 1.30569E+00 5.00000E-01
 -1      1307-2.69292E+00 1.62958E+00 5.00000E-01
 -1      1308-8.01722E+00 3.83498E+00 5.00000E-01
 -1      1309-4.55870E+00-4.74999E-01 5.00000E-01
 -1      1310-3.11155E+00 4.74999E-01 5.00000E-01
 -1      1311-8.87453E+00 4.74999E-01 5.00000E-01
 -1      1312-4.02991E+00-2.18338E+00 5.00000E-01
 -1      1313-3.05647E+00-7.51897E-01 5.00000E-01
 -1      1314-8.38078E+00-2.95729E+00 5.00000E-01
 -1      1315-2.88761E+00-3.55936E+00 5.00000E-01
 -1      1316-2.53607E+00-1.86432E+00 5.00000E-01
 -1      1317-6.61111E+00-5.93936E+00 5.00000E-01
 -1      1318-3.52396E+00-9.74886E+00 5.00000E-01
 -1      1319-1.30569E+00-4.39346E+00 5.00000E-01
 -1      1320-1.62958E+00-2.69292E+00 5.00000E-01
 -1      1321-3.83498E+00-8.01722E+00 5.00000E-01
 -1      1322-3.17196E+00-5.17533E+00 5.00000E-01
 -1      1323 4.74999E-01-1.03553E+01 5.00000E-01
 -1      1324 4.74999E-01-4.55870E+00 5.00000E-01
 -1      1325-4.74999E-01-3.11155E+00 5.00000E-01
 -1      1326-4.74999E-01-8.87453E+00 5.00000E-01
 -1      1327 2.18338E+00-4.02991E+00 5.00000E-01
 -1      1328 7.51897E-01-3.05647E+00 5.00000E-01
 -1      1329 2.95729E+00-8.38078E+00 5.00000E-01
 -1      1330 3.55936E+00-2.88761E+00 5.00000E-01
 -1      1331 1.86432E+00-2.53607E+00 5.00000E-01
 -1      1332 5.93936E+00-6.61111E+00 5.00000E-01
 -1      1333 9.74886E+00-3.52396E+00 5.00000E-01
 -1      1334 4.39346E+00-1.30569E+00 5.00000E-01
 -1      1335 2.69292E+00-1.62958E+00 5.00000E-01
 -1      1336 8.01722E+00-3.83498E+00 5.00000E-01
 -1      1337 5.17533E+00-3.17196E+00 5.00000E-01
 -1      1338 8.90181E+00 1.20056E+01 5.00000E-01
 -1      1339 1.47838E+01-2.19476E+00 5.00000E-01
 -1      1340 1.49279E+01-7.31588E-01 5.00000E-01
 -1      1341 1.49279E+01-7.31588E-01-5.00000E-01
 -1      1342 1.47838E+01-2.19476E+00-5.00000E-01
 -1      1343-3.62983E+00-1.44984E+01 5.00000E-01
 -1      1344-3.62983E+00-1.44984E+01-5.00000E-01
 -1      1345-5.03678E+00-1.40716E+01-5.00000E-01
 -1      1346 1.10730E+01 1.00383E+01 5.00000E-01
 -1      1347 1.10730E+01 1.00383E+01-5.00000E-01
 -1      1348 1.20056E+01 8.90181E+00-5.00000E-01
 -1      1349-5.03678E+00 1.40716E+01 5.00000E-01
 -1      1350-5.03678E+00 1.40716E+01-5.00000E-01
 -1      1351-3.62983E+00 1.44984E+01-5.00000E-01
 -1      1352-1.35117E+01 6.38858E+00-5.00000E-01
 -1      1353-1.28186E+01 7.68523E+00-5.00000E-01
 -1      1354-1.28186E+01 7.68523E+00 5.00000E-01
 -1      1355-1.35117E+01 6.38858E+00 5.00000E-01
 -1      1356-1.35117E+01-6.38858E+00-5.00000E-01
 -1      1357-1.35117E+01-6.38858E+00 5.00000E-01
 -1      1358-1.28186E+01-7.68523E+00 5.00000E-01
 -1      1359 1.40716E+01 5.03678E+00 5.00000E-01
 -1      1360 1.40716E+01 5.03678E+00-5.00000E-01
 -1      1361 1.44984E+01 3.62983E+00-5.00000E-01
 -1      1362 1.28186E+01 7.68523E+00 5.00000E-01
 -1      1363 1.35117E+01 6.38858E+00-5.00000E-01
 -1      1364 7.68523E+00 1.28186E+01-5.00000E-01
 -1      1365 2.19476E+00 1.47838E+01 5.00000E-01
 -1      1366 7.31588E-01 1.49279E+01 5.00000E-01
 -1      1367 7.31588E-01 1.49279E+01-5.00000E-01
 -1      1368 2.19476E+00 1.47838E+01-5.00000E-01
 -1      1369-1.49279E+01 7.31588E-01-5.00000E-01
 -1      1370-1.47838E+01 2.19476E+00-5.00000E-01
 -1      1371-1.47838E+01 2.19476E+00 5.00000E-01
 -1      1372-1.49279E+01 7.31588E-01 5.00000E-01
 -1      1373-1.10730E+01 1.00383E+01-5.00000E-01
 -1      1374-1.20056E+01 8.90181E+00 5.00000E-01
 -1      1375-6.38858E+00 1.35117E+01-5.00000E-01
 -1      1376-2.19476E+00 1.47838E+01 5.00000E-01
 -1      1377-7.31588E-01 1.49279E+01-5.00000E-01
 -1      1378-8.90181E+00 1.20056E+01-5.00000E-01
 -1      1379 1.49279E+01 7.31588E-01-5.00000E-01
 -1      1380 2.19476E+00-1.47838E+01 5.00000E-01
 -1      1381 2.19476E+00-1.47838E+01-5.00000E-01
 -1      1382 7.31588E-01-1.49279E+01-5.00000E-01
 -1      1383 5.03678E+00-1.40716E+01 5.00000E-01
 -1      1384 3.62983E+00-1.44984E+01-5.00000E-01
 -1      1385 7.68523E+00-1.28186E+01 5.00000E-01
 -1      1386 6.38858E+00-1.35117E+01-5.00000E-01
 -1      1387-7.31588E-01-1.49279E+01 5.00000E-01
 -1      1388-2.19476E+00-1.47838E+01-5.00000E-01
 -1      1389-8.90181E+00-1.20056E+01 5.00000E-01
 -1      1390-8.90181E+00-1.20056E+01-5.00000E-01
 -1      1391-1.00383E+01-1.10730E+01-5.00000E-01
 -1      1392-1.47838E+01-2.19476E+00-5.00000E-01
 -1      1393-1.49279E+01-7.31588E-01-5.00000E-01
 -1      1394-1.49279E+01-7.31588E-01 5.00000E-01
 -1      1395-1.47838E+01-2.19476E+00 5.00000E-01
 -1      1396 1.44984E+01-3.62983E+00-5.00000E-01
 -1      1397 1.35117E+01-6.38858E+00-5.00000E-01
 -1      1398 1.20056E+01-8.90181E+00-5.00000E-01
 -1      1399-1.44984E+01 3.62983E+00-5.00000E-01
 -1      1400 3.62983E+00 1.44984E+01 5.00000E-01
 -1      1401 1.40716E+01-5.03678E+00 5.00000E-01
 -1      1402 1.28186E+01-7.68523E+00 5.00000E-01
 -1      1403 1.10730E+01-1.00383E+01 5.00000E-01
 -1      1404 8.90181E+00-1.20056E+01 5.00000E-01
 -1      1405-7.68523E+00-1.28186E+01 5.00000E-01
 -1      1406-1.40716E+01 5.03678E+00 5.00000E-01
 -1      1407-1.20056E+01-8.90181E+00 5.00000E-01
 -1      1408-1.44984E+01-3.62983E+00 5.00000E-01
 -1      1409-2.38798E+00 4.74999E-01 1.96250E+00
 -1      1410-2.32070E+00 4.61617E-01 1.96250E+00
 -1      1411 4.74999E-01 2.38798E+00 9.87500E-01
 -1      1412 4.61617E-01 2.32070E+00 9.87500E-01
 -1      1413-2.02443E+00 1.35268E+00 9.87500E-01
 -1      1414-1.96740E+00 1.31457E+00 9.87500E-01
 -1      1415-1.35268E+00 2.02443E+00 1.96250E+00
 -1      1416-1.31457E+00 1.96740E+00 1.96250E+00
 -1      1417 1.35268E+00-2.02443E+00 9.87500E-01
 -1      1418 1.31457E+00-1.96740E+00 9.87500E-01
 -1      1419-2.38798E+00-4.74999E-01 9.87500E-01
 -1      1420-2.32070E+00-4.61617E-01 9.87500E-01
 -1      1421-2.02443E+00-1.35268E+00 1.96250E+00
 -1      1422-1.96740E+00-1.31457E+00 1.96250E+00
 -1      1423-4.74999E-01 2.38798E+00 9.87500E-01
 -1      1424-4.61617E-01 2.32070E+00 9.87500E-01
 -1      1425-4.74999E-01-2.38798E+00 9.87500E-01
 -1      1426-4.61617E-01-2.32070E+00 9.87500E-01
 -1      1427-2.38798E+00-4.74999E-01 1.96250E+00
 -1      1428-2.32070E+00-4.61617E-01 1.96250E+00
 -1      1429-4.74999E-01-2.38798E+00 1.96250E+00
 -1      1430-4.61617E-01-2.32070E+00 1.96250E+00
 -1      1431-2.02443E+00-1.35268E+00 9.87500E-01
 -1      1432-1.96740E+00-1.31457E+00 9.87500E-01
 -1      1433-8.88093E-01-2.14405E+00 2.45000E+00
 -1      1434 0.00000E+00-2.32070E+00 5.00000E-01
 -1      1435-2.32070E+00 0.00000E+00 5.00000E-01
 -1      1436-1.35268E+00 2.02443E+00 9.87500E-01
 -1      1437-1.31457E+00 1.96740E+00 9.87500E-01
 -1      1438-2.14405E+00 8.88093E-01 2.45000E+00
 -1      1439 1.35268E+00 2.02443E+00 1.96250E+00
 -1      1440 1.31457E+00 1.96740E+00 1.96250E+00
 -1      1441-1.64099E+00 1.64099E+00 5.00000E-01
 -1      1442-8.88093E-01 2.14405E+00 5.00000E-01
 -1      1443-1.31457E+00-1.96740E+00 1.96250E+00
 -1      1444-1.35268E+00-2.02443E+00 1.96250E+00
 -1      1445 4.74999E-01 2.38798E+00 1.96250E+00
 -1      1446 4.61617E-01 2.32070E+00 1.96250E+00
 -1      1447 2.02443E+00 1.35268E+00 1.96250E+00
 -1      1448 1.96740E+00 1.31457E+00 1.96250E+00
 -1      1449 8.88093E-01-2.14405E+00 5.00000E-01
 -1      1450 4.74999E-01-2.38798E+00 1.96250E+00
 -1      1451 4.61617E-01-2.32070E+00 1.96250E+00
 -1      1452 2.38798E+00-4.74999E-01 9.87500E-01
 -1      1453 2.32070E+00-4.61617E-01 9.87500E-01
 -1      1454 2.02443E+00 1.35268E+00 9.87500E-01
 -1      1455 1.96740E+00 1.31457E+00 9.87500E-01
 -1      1456 2.02443E+00-1.35268E+00 9.87500E-01
 -1      1457 1.96740E+00-1.31457E+00 9.87500E-01
 -1      1458-2.38798E+00 4.74999E-01 1.71875E+00
 -1      1459-2.32070E+00 4.61617E-01 1.71875E+00
 -1      1460 1.35268E+00 2.02443E+00 9.87500E-01
 -1      1461 1.31457E+00 1.96740E+00 9.87500E-01
 -1      1462 2.38798E+00 4.74999E-01 1.96250E+00
 -1      1463 2.32070E+00 4.61617E-01 1.96250E+00
 -1      1464 2.38798E+00-4.74999E-01 1.96250E+00
 -1      1465 2.32070E+00-4.61617E-01 1.96250E+00
 -1      1466-2.38798E+00-4.74999E-01 1.71875E+00
 -1      1467-2.32070E+00-4.61617E-01 1.71875E+00
 -1      1468 2.02443E+00-1.35268E+00 1.96250E+00
 -1      1469 1.96740E+00-1.31457E+00 1.96250E+00
 -1      1470-2.02443E+00 1.35268E+00 1.96250E+00
 -1      1471-1.96740E+00 1.31457E+00 1.96250E+00
 -1      1472 2.32070E+00 0.00000E+00 2.45000E+00
 -1      1473 2.38798E+00-4.74999E-01 1.71875E+00
 -1      1474 2.32070E+00-4.61617E-01 1.71875E+00
 -1      1475-8.88093E-01 2.14405E+00 2.45000E+00
 -1      1476-1.64099E+00-1.64099E+00 2.45000E+00
 -1      1477 1.35268E+00-2.02443E+00 1.96250E+00
 -1      1478 1.31457E+00-1.96740E+00 1.96250E+00
 -1      1479 4.74999E-01-2.38798E+00 9.87500E-01
 -1      1480 4.61617E-01-2.32070E+00 9.87500E-01
 -1      1481-4.74999E-01 2.38798E+00 1.96250E+00
 -1      1482-4.61617E-01 2.32070E+00 1.96250E+00
 -1      1483 1.64099E+00 1.64099E+00 5.00000E-01
 -1      1484 1.31457E+00-1.96740E+00 7.43750E-01
 -1      1485 1.35268E+00-2.02443E+00 7.43750E-01
 -1      1486 0.00000E+00 2.32070E+00 2.45000E+00
 -1      1487-2.28025E+00-1.60850E+00 2.45000E+00
 -1      1488 2.38798E+00 4.74999E-01 9.87500E-01
 -1      1489 2.32070E+00 4.61617E-01 9.87500E-01
 -1      1490 0.00000E+00-2.32070E+00 2.45000E+00
 -1      1491 2.32070E+00 0.00000E+00 5.00000E-01
 -1      1492 8.88093E-01 2.14405E+00 2.45000E+00
 -1      1493-2.32070E+00 0.00000E+00 2.45000E+00
 -1      1494-1.35268E+00-2.02443E+00 9.87500E-01
 -1      1495-1.31457E+00-1.96740E+00 9.87500E-01
 -1      1496-1.64099E+00 1.64099E+00 2.45000E+00
 -1      1497 2.14405E+00-8.88093E-01 5.00000E-01
 -1      1498-4.74999E-01 2.38798E+00 1.23125E+00
 -1      1499-4.61617E-01 2.32070E+00 1.23125E+00
 -1      1500 1.35268E+00 2.02443E+00 1.71875E+00
 -1      1501 1.31457E+00 1.96740E+00 1.71875E+00
 -1      1502 1.64099E+00-1.64099E+00 2.45000E+00
 -1      1503-1.31457E+00 1.96740E+00 7.43750E-01
 -1      1504-1.35268E+00 2.02443E+00 7.43750E-01
 -1      1505-2.32070E+00 4.61617E-01 9.87500E-01
 -1      1506-2.38798E+00 4.74999E-01 9.87500E-01
 -1      1507 2.38798E+00 4.74999E-01 1.71875E+00
 -1      1508 2.32070E+00 4.61617E-01 1.71875E+00
 -1      1509-1.60850E+00-2.28025E+00 2.45000E+00
 -1      1510 2.38798E+00-4.74999E-01 1.23125E+00
 -1      1511 2.32070E+00-4.61617E-01 1.23125E+00
 -1      1512 2.14405E+00 8.88093E-01 5.00000E-01
 -1      1513 1.35268E+00-2.02443E+00 1.23125E+00
 -1      1514 1.31457E+00-1.96740E+00 1.23125E+00
 -1      1515 2.02443E+00-1.35268E+00 1.23125E+00
 -1      1516 1.96740E+00-1.31457E+00 1.23125E+00
 -1      1517-1.35268E+00-2.02443E+00 1.23125E+00
 -1      1518-1.31457E+00-1.96740E+00 1.23125E+00
 -1      1519 4.74999E-01 2.38798E+00 1.23125E+00
 -1      1520 4.61617E-01 2.32070E+00 1.23125E+00
 -1      1521 1.64099E+00-1.64099E+00 5.00000E-01
 -1      1522-4.74999E-01 2.38798E+00 1.71875E+00
 -1      1523-4.61617E-01 2.32070E+00 1.71875E+00
 -1      1524-2.14405E+00 8.88093E-01 5.00000E-01
 -1      1525-2.38798E+00-4.74999E-01 1.23125E+00
 -1      1526-2.32070E+00-4.61617E-01 1.23125E+00
 -1      1527-2.28025E+00 1.60850E+00 2.45000E+00
 -1      1528 4.74999E-01-2.38798E+00 1.23125E+00
 -1      1529 4.61617E-01-2.32070E+00 1.23125E+00
 -1      1530 1.96740E+00 1.31457E+00 7.43750E-01
 -1      1531 2.02443E+00 1.35268E+00 7.43750E-01
 -1      1532-6.74855E-01 2.23237E+00 2.45000E+00
 -1      1533 2.38798E+00-4.74999E-01 7.43750E-01
 -1      1534 2.32070E+00-4.61617E-01 7.43750E-01
 -1      1535 8.88093E-01-2.14405E+00 2.45000E+00
 -1      1536-2.38798E+00-4.74999E-01 1.59687E+00
 -1      1537-2.32070E+00-4.61617E-01 1.59687E+00
 -1      1538 2.38798E+00 4.74999E-01 1.23125E+00
 -1      1539 2.32070E+00 4.61617E-01 1.23125E+00
 -1      1540-2.02443E+00 1.35268E+00 1.23125E+00
 -1      1541-1.96740E+00 1.31457E+00 1.23125E+00
 -1      1542-8.88093E-01-2.14405E+00 5.00000E-01
 -1      1543 4.74999E-01-2.38798E+00 1.71875E+00
 -1      1544 4.61617E-01-2.32070E+00 1.71875E+00
 -1      1545-6.74855E-01-2.23237E+00 5.00000E-01
 -1      1546 1.35268E+00 2.02443E+00 1.23125E+00
 -1      1547 1.31457E+00 1.96740E+00 1.23125E+00
 -1      1548-1.64099E+00-1.64099E+00 5.00000E-01
 -1      1549 4.74999E-01 2.38798E+00 2.20625E+00
 -1      1550 4.61617E-01 2.32070E+00 2.20625E+00
 -1      1551 1.35268E+00-2.02443E+00 2.20625E+00
 -1      1552 1.31457E+00-1.96740E+00 2.20625E+00
 -1      1553-2.38798E+00-4.74999E-01 1.84063E+00
 -1      1554-2.32070E+00-4.61617E-01 1.84063E+00
 -1      1555 6.74855E-01 2.23237E+00 2.45000E+00
 -1      1556-2.02443E+00-1.35268E+00 1.23125E+00
 -1      1557-1.96740E+00-1.31457E+00 1.23125E+00
 -1      1558 6.13448E-01 2.72223E+00 2.45000E+00
 -1      1559-1.35268E+00-2.02443E+00 1.71875E+00
 -1      1560-1.31457E+00-1.96740E+00 1.71875E+00
 -1      1561 2.30808E-01-2.32070E+00 2.45000E+00
 -1      1562-1.35268E+00 2.02443E+00 1.71875E+00
 -1      1563-1.31457E+00 1.96740E+00 1.71875E+00
 -1      1564-2.02443E+00 1.35268E+00 7.43750E-01
 -1      1565-1.96740E+00 1.31457E+00 7.43750E-01
 -1      1566 1.10133E+00-2.05573E+00 2.45000E+00
 -1      1567 1.80419E+00-1.47778E+00 5.00000E-01
 -1      1568-1.47778E+00 1.80419E+00 5.00000E-01
 -1      1569 1.35268E+00 2.02443E+00 7.43750E-01
 -1      1570 1.31457E+00 1.96740E+00 7.43750E-01
 -1      1571-2.02443E+00 1.35268E+00 1.71875E+00
 -1      1572-1.96740E+00 1.31457E+00 1.71875E+00
 -1      1573-1.80419E+00 1.47778E+00 5.00000E-01
 -1      1574 2.02443E+00 1.35268E+00 1.23125E+00
 -1      1575 1.96740E+00 1.31457E+00 1.23125E+00
 -1      1576-2.05573E+00 1.10133E+00 5.00000E-01
 -1      1577-6.74855E-01 2.23237E+00 5.00000E-01
 -1      1578-4.74999E-01-2.38798E+00 1.23125E+00
 -1      1579-4.61617E-01-2.32070E+00 1.23125E+00
 -1      1580 8.88093E-01 2.14405E+00 5.00000E-01
 -1      1581 4.74999E-01-2.38798E+00 2.20625E+00
 -1      1582 4.61617E-01-2.32070E+00 2.20625E+00
 -1      1583 2.38798E+00 4.74999E-01 7.43750E-01
 -1      1584 2.32070E+00 4.61617E-01 7.43750E-01
 -1      1585 0.00000E+00 2.32070E+00 5.00000E-01
 -1      1586 2.02443E+00-1.35268E+00 1.71875E+00
 -1      1587 1.96740E+00-1.31457E+00 1.71875E+00
 -1      1588 1.35268E+00-2.02443E+00 1.71875E+00
 -1      1589 1.31457E+00-1.96740E+00 1.71875E+00
 -1      1590-4.74999E-01 2.38798E+00 2.20625E+00
 -1      1591-4.61617E-01 2.32070E+00 2.20625E+00
 -1      1592-4.74999E-01 2.38798E+00 7.43750E-01
 -1      1593-4.61617E-01 2.32070E+00 7.43750E-01
 -1      1594 4.74999E-01-2.38798E+00 7.43750E-01
 -1      1595 4.61617E-01-2.32070E+00 7.43750E-01
 -1      1596-2.02443E+00-1.35268E+00 1.71875E+00
 -1      1597-1.96740E+00-1.31457E+00 1.71875E+00
 -1      1598-1.35268E+00 2.02443E+00 1.23125E+00
 -1      1599-1.31457E+00 1.96740E+00 1.23125E+00
 -1      1600 2.02443E+00 1.35268E+00 1.71875E+00
 -1      1601 1.96740E+00 1.31457E+00 1.71875E+00
 -1      1602 1.64099E+00 1.64099E+00 2.45000E+00
 -1      1603-1.35268E+00 2.02443E+00 2.20625E+00
 -1      1604-1.31457E+00 1.96740E+00 2.20625E+00
 -1      1605-2.30808E-01 2.32070E+00 5.00000E-01
 -1      1606 1.35268E+00 2.02443E+00 1.59687E+00
 -1      1607 1.31457E+00 1.96740E+00 1.59687E+00
 -1      1608 2.05573E+00-1.10133E+00 5.00000E-01
 -1      1609-4.74999E-01-2.38798E+00 2.20625E+00
 -1      1610-4.61617E-01-2.32070E+00 2.20625E+00
 -1      1611 2.38798E+00 4.74999E-01 1.59687E+00
 -1      1612 2.32070E+00 4.61617E-01 1.59687E+00
 -1      1613-2.38798E+00-4.74999E-01 7.43750E-01
 -1      1614-2.32070E+00-4.61617E-01 7.43750E-01
 -1      1615-4.74999E-01-2.38798E+00 1.35312E+00
 -1      1616-4.61617E-01-2.32070E+00 1.35312E+00
 -1      1617-2.30808E-01-2.32070E+00 2.45000E+00
 -1      1618-2.32070E+00-2.30808E-01 5.00000E-01
 -1      1619 2.32070E+00 2.30808E-01 5.00000E-01
 -1      1620-2.14405E+00-8.88093E-01 5.00000E-01
 -1      1621-1.10133E+00 2.05573E+00 5.00000E-01
 -1      1622-2.38798E+00 4.74999E-01 1.84063E+00
 -1      1623-2.32070E+00 4.61617E-01 1.84063E+00
 -1      1624 2.38798E+00 4.74999E-01 1.35312E+00
 -1      1625 2.32070E+00 4.61617E-01 1.35312E+00
 -1      1626-2.14405E+00-8.88093E-01 2.45000E+00
 -1      1627 2.23237E+00-6.74855E-01 5.00000E-01
 -1      1628-2.74977E+00-4.74999E-01 2.45000E+00
 -1      1629-2.32070E+00-4.61617E-01 6.21875E-01
 -1      1630-2.38798E+00-4.74999E-01 6.21875E-01
 -1      1631 2.14405E+00-8.88093E-01 2.45000E+00
 -1      1632 2.02443E+00-1.35268E+00 1.59687E+00
 -1      1633 1.96740E+00-1.31457E+00 1.59687E+00
 -1      1634-4.74999E-01 2.38798E+00 6.21875E-01
 -1      1635-4.61617E-01 2.32070E+00 6.21875E-01
 -1      1636-2.02443E+00-1.35268E+00 1.10938E+00
 -1      1637-1.96740E+00-1.31457E+00 1.10938E+00
 -1      1638-1.31457E+00 1.96740E+00 1.84063E+00
 -1      1639-1.35268E+00 2.02443E+00 1.84063E+00
 -1      1640-2.38798E+00 4.74999E-01 2.20625E+00
 -1      1641-2.32070E+00 4.61617E-01 2.20625E+00
 -1      1642 2.02443E+00 1.35268E+00 1.10938E+00
 -1      1643 1.96740E+00 1.31457E+00 1.10938E+00
 -1      1644-1.47778E+00-1.80419E+00 2.45000E+00
 -1      1645-2.38798E+00 4.74999E-01 1.59687E+00
 -1      1646-2.32070E+00 4.61617E-01 1.59687E+00
 -1      1647-6.13448E-01 2.72223E+00 2.45000E+00
 -1      1648 2.02443E+00-1.35268E+00 1.10938E+00
 -1      1649 1.96740E+00-1.31457E+00 1.10938E+00
 -1      1650-1.10133E+00 2.05573E+00 2.45000E+00
 -1      1651 1.47778E+00-1.80419E+00 5.00000E-01
 -1      1652 6.74855E-01-2.23237E+00 5.00000E-01
 -1      1653 4.61617E-01-2.32070E+00 1.10938E+00
 -1      1654 4.74999E-01-2.38798E+00 1.10938E+00
 -1      1655 1.35268E+00 2.02443E+00 1.84063E+00
 -1      1656 1.31457E+00 1.96740E+00 1.84063E+00
 -1      1657 1.35268E+00 2.02443E+00 2.20625E+00
 -1      1658 1.31457E+00 1.96740E+00 2.20625E+00
 -1      1659 4.74999E-01 2.38798E+00 1.10938E+00
 -1      1660 4.61617E-01 2.32070E+00 1.10938E+00
 -1      1661 2.30808E-01 2.32070E+00 5.00000E-01
 -1      1662-1.47778E+00 1.80419E+00 2.45000E+00
 -1      1663 2.30808E-01 2.32070E+00 2.45000E+00
 -1      1664-6.74855E-01-2.23237E+00 2.45000E+00
 -1      1665-4.74999E-01-2.38798E+00 1.71875E+00
 -1      1666-4.61617E-01-2.32070E+00 1.71875E+00
 -1      1667 4.74999E-01 2.38798E+00 7.43750E-01
 -1      1668 4.61617E-01 2.32070E+00 7.43750E-01
 -1      1669-1.35268E+00-2.02443E+00 7.43750E-01
 -1      1670-1.31457E+00-1.96740E+00 7.43750E-01
 -1      1671-2.38798E+00 4.74999E-01 7.43750E-01
 -1      1672-2.32070E+00 4.61617E-01 7.43750E-01
 -1      1673-4.74999E-01-2.38798E+00 2.32812E+00
 -1      1674-4.61617E-01-2.32070E+00 2.32812E+00
 -1      1675 6.74855E-01-2.23237E+00 2.45000E+00
 -1      1676 2.38798E+00 4.74999E-01 1.84063E+00
 -1      1677 2.32070E+00 4.61617E-01 1.84063E+00
 -1      1678-2.30808E-01 2.32070E+00 2.45000E+00
 -1      1679 4.74999E-01-2.38798E+00 2.08437E+00
 -1      1680 4.61617E-01-2.32070E+00 2.08437E+00
 -1      1681-2.38798E+00-4.74999E-01 1.10938E+00
 -1      1682-2.32070E+00-4.61617E-01 1.10938E+00
 -1      1683 4.74999E-01 2.38798E+00 1.71875E+00
 -1      1684 4.61617E-01 2.32070E+00 1.71875E+00
 -1      1685-4.74999E-01-2.38798E+00 2.08437E+00
 -1      1686-4.61617E-01-2.32070E+00 2.08437E+00
 -1      1687-1.35268E+00-2.02443E+00 2.20625E+00
 -1      1688-1.31457E+00-1.96740E+00 2.20625E+00
 -1      1689 1.35268E+00-2.02443E+00 1.35312E+00
 -1      1690 1.31457E+00-1.96740E+00 1.35312E+00
 -1      1691 2.14405E+00 8.88093E-01 2.45000E+00
 -1      1692 2.35868E+00 1.49113E+00 2.45000E+00
 -1      1693 1.10133E+00 2.05573E+00 5.00000E-01
 -1      1694-2.38798E+00 4.74999E-01 1.23125E+00
 -1      1695-2.32070E+00 4.61617E-01 1.23125E+00
 -1      1696-2.02443E+00 1.35268E+00 6.21875E-01
 -1      1697-1.96740E+00 1.31457E+00 6.21875E-01
 -1      1698-4.74999E-01-2.38798E+00 1.59687E+00
 -1      1699-4.61617E-01-2.32070E+00 1.59687E+00
 -1      1700 1.49113E+00 2.35868E+00 2.45000E+00
 -1      1701 2.05573E+00 1.10133E+00 5.00000E-01
 -1      1702 2.38798E+00-4.74999E-01 2.20625E+00
 -1      1703 2.32070E+00-4.61617E-01 2.20625E+00
 -1      1704 1.35268E+00-2.02443E+00 1.10938E+00
 -1      1705 1.31457E+00-1.96740E+00 1.10938E+00
 -1      1706-2.23237E+00 6.74855E-01 2.45000E+00
 -1      1707-2.38798E+00 4.74999E-01 1.35312E+00
 -1      1708-2.32070E+00 4.61617E-01 1.35312E+00
 -1      1709-2.32070E+00 2.30808E-01 2.45000E+00
 -1      1710-4.74999E-01 2.74977E+00 2.45000E+00
 -1      1711 2.23237E+00 6.74855E-01 5.00000E-01
 -1      1712-1.35268E+00 2.02443E+00 2.32812E+00
 -1      1713-1.31457E+00 1.96740E+00 2.32812E+00
 -1      1714-1.35268E+00 2.02443E+00 1.59687E+00
 -1      1715-1.31457E+00 1.96740E+00 1.59687E+00
 -1      1716-5.68236E-01-2.27654E+00 2.45000E+00
 -1      1717-2.05573E+00 1.10133E+00 2.45000E+00
 -1      1718 2.30808E-01-2.32070E+00 5.00000E-01
 -1      1719 2.38798E+00-4.74999E-01 8.65625E-01
 -1      1720 2.32070E+00-4.61617E-01 8.65625E-01
 -1      1721 1.10133E+00-2.05573E+00 5.00000E-01
 -1      1722-4.74999E-01 2.38798E+00 1.59687E+00
 -1      1723-4.61617E-01 2.32070E+00 1.59687E+00
 -1      1724 6.74855E-01 2.23237E+00 5.00000E-01
 -1      1725-4.74999E-01 2.38798E+00 2.08437E+00
 -1      1726-4.61617E-01 2.32070E+00 2.08437E+00
 -1      1727-1.20795E+00 2.01156E+00 2.45000E+00
 -1      1728-2.02443E+00 1.35268E+00 2.20625E+00
 -1      1729-1.96740E+00 1.31457E+00 2.20625E+00
 -1      1730-2.38798E+00 4.74999E-01 8.65625E-01
 -1      1731-2.32070E+00 4.61617E-01 8.65625E-01
 -1      1732 4.74999E-01-2.74977E+00 2.45000E+00
 -1      1733 2.38798E+00 4.74999E-01 2.20625E+00
 -1      1734 2.32070E+00 4.61617E-01 2.20625E+00
 -1      1735 4.65895E+00 3.31545E+00 5.00000E-01
 -1      1736 4.78531E+00 3.01041E+00 5.00000E-01
 -1      1737 2.38798E+00-4.74999E-01 1.84063E+00
 -1      1738 2.32070E+00-4.61617E-01 1.84063E+00
 -1      1739-2.02443E+00 1.35268E+00 1.10938E+00
 -1      1740-1.96740E+00 1.31457E+00 1.10938E+00
 -1      1741-2.05573E+00-1.10133E+00 5.00000E-01
 -1      1742-2.38798E+00 4.74999E-01 2.08437E+00
 -1      1743-2.32070E+00 4.61617E-01 2.08437E+00
 -1      1744-1.49113E+00 2.35868E+00 2.45000E+00
 -1      1745 1.80419E+00-1.47778E+00 2.45000E+00
 -1      1746-1.10133E+00-2.05573E+00 2.45000E+00
 -1      1747-1.60850E+00 2.28025E+00 2.45000E+00
 -1      1748-2.02443E+00-1.35268E+00 1.59687E+00
 -1      1749-1.96740E+00-1.31457E+00 1.59687E+00
 -1      1750 2.32070E+00 2.30808E-01 2.45000E+00
 -1      1751-1.88580E+00 1.39617E+00 5.00000E-01
 -1      1752 2.02443E+00-1.35268E+00 7.43750E-01
 -1      1753 1.96740E+00-1.31457E+00 7.43750E-01
 -1      1754 2.23237E+00 6.74855E-01 2.45000E+00
 -1      1755-2.23237E+00-6.74855E-01 5.00000E-01
 -1      1756-4.74999E-01-2.38798E+00 7.43750E-01
 -1      1757-4.61617E-01-2.32070E+00 7.43750E-01
 -1      1758 4.74999E-01 2.38798E+00 2.32812E+00
 -1      1759 4.61617E-01 2.32070E+00 2.32812E+00
 -1      1760-2.72223E+00-6.13448E-01 2.45000E+00
 -1      1761-2.35868E+00 1.49113E+00 2.45000E+00
 -1      1762-2.02443E+00-1.35268E+00 2.20625E+00
 -1      1763-1.96740E+00-1.31457E+00 2.20625E+00
 -1      1764-1.35268E+00 2.02443E+00 8.65625E-01
 -1      1765-1.31457E+00 1.96740E+00 8.65625E-01
 -1      1766-1.35268E+00-2.02443E+00 1.10938E+00
 -1      1767-1.31457E+00-1.96740E+00 1.10938E+00
 -1      1768-2.38798E+00 4.74999E-01 1.10938E+00
 -1      1769-2.32070E+00 4.61617E-01 1.10938E+00
 -1      1770-2.05573E+00-1.10133E+00 2.45000E+00
 -1      1771-5.68236E-01 2.27654E+00 5.00000E-01
 -1      1772-4.74999E-01-2.74977E+00 2.45000E+00
 -1      1773-2.02443E+00 1.35268E+00 8.65625E-01
 -1      1774-1.96740E+00 1.31457E+00 8.65625E-01
 -1      1775 2.32070E+00-2.30808E-01 2.45000E+00
 -1      1776 1.49113E+00-2.35868E+00 2.45000E+00
 -1      1777-2.02443E+00 1.35268E+00 1.84063E+00
 -1      1778-1.96740E+00 1.31457E+00 1.84063E+00
 -1      1779-2.30808E-01-2.32070E+00 5.00000E-01
 -1      1780 6.13448E-01-2.72223E+00 2.45000E+00
 -1      1781-1.35268E+00-2.02443E+00 1.84063E+00
 -1      1782-1.31457E+00-1.96740E+00 1.84063E+00
 -1      1783-4.74999E-01-2.38798E+00 1.10938E+00
 -1      1784-4.61617E-01-2.32070E+00 1.10938E+00
 -1      1785 2.38798E+00 4.74999E-01 1.10938E+00
 -1      1786 2.32070E+00 4.61617E-01 1.10938E+00
 -1      1787-6.13448E-01-2.72223E+00 2.45000E+00
 -1      1788-2.38798E+00-4.74999E-01 1.35312E+00
 -1      1789-2.32070E+00-4.61617E-01 1.35312E+00
 -1      1790 1.47778E+00 1.80419E+00 5.00000E-01
 -1      1791-2.38798E+00-4.74999E-01 8.65625E-01
 -1      1792-2.32070E+00-4.61617E-01 8.65625E-01
 -1      1793-4.65895E+00 3.31545E+00 5.00000E-01
 -1      1794-4.78531E+00 3.01041E+00 5.00000E-01
 -1      1795-2.02443E+00-1.35268E+00 7.43750E-01
 -1      1796-1.96740E+00-1.31457E+00 7.43750E-01
 -1      1797 2.32070E+00-2.30808E-01 5.00000E-01
 -1      1798 1.35268E+00-2.02443E+00 1.84063E+00
 -1      1799 1.31457E+00-1.96740E+00 1.84063E+00
 -1      1800 2.72223E+00 6.13448E-01 2.45000E+00
 -1      1801 1.35268E+00 2.02443E+00 1.35312E+00
 -1      1802 1.31457E+00 1.96740E+00 1.35312E+00
 -1      1803 5.63875E+00-9.50000E-01 5.00000E-01
 -1      1804 5.51240E+00-1.25504E+00 5.00000E-01
 -1      1805-2.27654E+00-5.68236E-01 5.00000E-01
 -1      1806-2.32070E+00 2.30808E-01 5.00000E-01
 -1      1807-2.02443E+00-1.35268E+00 1.35312E+00
 -1      1808-1.96740E+00-1.31457E+00 1.35312E+00
 -1      1809-1.80419E+00-1.47778E+00 2.45000E+00
 -1      1810 2.02443E+00 1.35268E+00 1.35312E+00
 -1      1811 1.96740E+00 1.31457E+00 1.35312E+00
 -1      1812-1.96740E+00-1.31457E+00 1.84063E+00
 -1      1813-2.02443E+00-1.35268E+00 1.84063E+00
 -1      1814 2.74977E+00 4.74999E-01 2.45000E+00
 -1      1815-5.68236E-01-2.27654E+00 5.00000E-01
 -1      1816-4.74999E-01 2.38798E+00 1.10938E+00
 -1      1817-4.61617E-01 2.32070E+00 1.10938E+00
 -1      1818-1.35268E+00 2.02443E+00 6.21875E-01
 -1      1819-1.31457E+00 1.96740E+00 6.21875E-01
 -1      1820 1.47778E+00 1.80419E+00 2.45000E+00
 -1      1821-2.74977E+00 4.74999E-01 2.45000E+00
 -1      1822 1.35268E+00-2.02443E+00 1.59687E+00
 -1      1823 1.31457E+00-1.96740E+00 1.59687E+00
 -1      1824 2.02443E+00 1.35268E+00 2.20625E+00
 -1      1825 1.96740E+00 1.31457E+00 2.20625E+00
 -1      1826-2.32070E+00 3.46213E-01 5.00000E-01
 -1      1827 4.74999E-01 2.74977E+00 2.45000E+00
 -1      1828 2.02443E+00 1.35268E+00 1.84063E+00
 -1      1829 1.96740E+00 1.31457E+00 1.84063E+00
 -1      1830-4.74999E-01 2.38798E+00 1.84063E+00
 -1      1831-4.61617E-01 2.32070E+00 1.84063E+00
 -1      1832-1.35268E+00-2.02443E+00 8.65625E-01
 -1      1833-1.31457E+00-1.96740E+00 8.65625E-01
 -1      1834 2.74977E+00-4.74999E-01 2.45000E+00
 -1      1835 1.80419E+00 1.47778E+00 2.45000E+00
 -1      1836-2.72223E+00 6.13448E-01 2.45000E+00
 -1      1837 2.38798E+00 4.74999E-01 2.08437E+00
 -1      1838 2.32070E+00 4.61617E-01 2.08437E+00
 -1      1839-3.46213E-01-2.32070E+00 2.45000E+00
 -1      1840-1.35268E+00-2.02443E+00 1.35312E+00
 -1      1841-1.31457E+00-1.96740E+00 1.35312E+00
 -1      1842 2.02443E+00 1.35268E+00 1.59687E+00
 -1      1843 1.96740E+00 1.31457E+00 1.59687E+00
 -1      1844 1.60850E+00 2.28025E+00 2.45000E+00
 -1      1845-1.47778E+00-1.80419E+00 5.00000E-01
 -1      1846-3.46213E-01 2.32070E+00 5.00000E-01
 -1      1847 1.35268E+00 2.02443E+00 6.21875E-01
 -1      1848 1.31457E+00 1.96740E+00 6.21875E-01
 -1      1849 2.02443E+00-1.35268E+00 1.35312E+00
 -1      1850 1.96740E+00-1.31457E+00 1.35312E+00
 -1      1851-2.23237E+00 6.74855E-01 5.00000E-01
 -1      1852 2.32070E+00-4.61617E-01 2.08437E+00
 -1      1853 2.38798E+00-4.74999E-01 2.08437E+00
 -1      1854 2.02443E+00-1.35268E+00 1.84063E+00
 -1      1855 1.96740E+00-1.31457E+00 1.84063E+00
 -1      1856 2.38798E+00 4.74999E-01 6.21875E-01
 -1      1857 2.32070E+00 4.61617E-01 6.21875E-01
 -1      1858-1.10133E+00-2.05573E+00 5.00000E-01
 -1      1859 5.68236E-01 2.27654E+00 5.00000E-01
 -1      1860-4.74999E-01 2.56887E+00 2.45000E+00
 -1      1861-1.35268E+00-2.02443E+00 1.59687E+00
 -1      1862-1.31457E+00-1.96740E+00 1.59687E+00
 -1      1863-2.02443E+00 1.35268E+00 1.35312E+00
 -1      1864-1.96740E+00 1.31457E+00 1.35312E+00
 -1      1865-1.80419E+00-1.47778E+00 5.00000E-01
 -1      1866-2.56887E+00 4.74999E-01 2.45000E+00
 -1      1867 4.74999E-01 2.38798E+00 1.35312E+00
 -1      1868 4.61617E-01 2.32070E+00 1.35312E+00
 -1      1869 2.28025E+00 1.60850E+00 2.45000E+00
 -1      1870 4.74999E-01-2.38798E+00 1.84063E+00
 -1      1871 4.61617E-01-2.32070E+00 1.84063E+00
 -1      1872 5.68236E-01-2.27654E+00 2.45000E+00
 -1      1873 2.35868E+00-1.49113E+00 2.45000E+00
 -1      1874 2.02443E+00 1.35268E+00 8.65625E-01
 -1      1875 1.96740E+00 1.31457E+00 8.65625E-01
 -1      1876-1.39617E+00 1.88580E+00 5.00000E-01
 -1      1877 4.65895E+00-3.31545E+00 5.00000E-01
 -1      1878 4.78531E+00-3.01041E+00 5.00000E-01
 -1      1879-2.27654E+00 5.68236E-01 2.45000E+00
 -1      1880 4.74999E-01 2.38798E+00 1.59687E+00
 -1      1881 4.61617E-01 2.32070E+00 1.59687E+00
 -1      1882 1.20795E+00 2.01156E+00 5.00000E-01
 -1      1883 2.02443E+00 1.35268E+00 2.08437E+00
 -1      1884 1.96740E+00 1.31457E+00 2.08437E+00
 -1      1885-2.01156E+00 1.20795E+00 5.00000E-01
 -1      1886-2.02443E+00-1.35268E+00 8.65625E-01
 -1      1887-1.96740E+00-1.31457E+00 8.65625E-01
 -1      1888-1.35268E+00 2.02443E+00 2.08437E+00
 -1      1889-1.31457E+00 1.96740E+00 2.08437E+00
 -1      1890-1.49113E+00-2.35868E+00 2.45000E+00
 -1      1891 2.32070E+00 3.46213E-01 5.00000E-01
 -1      1892-1.80419E+00 1.47778E+00 2.45000E+00
 -1      1893-1.39617E+00 1.88580E+00 2.45000E+00
 -1      1894 2.72223E+00-6.13448E-01 2.45000E+00
 -1      1895 2.38798E+00-4.74999E-01 1.35312E+00
 -1      1896 2.32070E+00-4.61617E-01 1.35312E+00
 -1      1897-4.74999E-01 2.38798E+00 2.32812E+00
 -1      1898-4.61617E-01 2.32070E+00 2.32812E+00
 -1      1899 1.39617E+00 1.88580E+00 5.00000E-01
 -1      1900-4.74999E-01-2.38798E+00 8.65625E-01
 -1      1901-4.61617E-01-2.32070E+00 8.65625E-01
 -1      1902 3.46213E-01 2.32070E+00 2.45000E+00
 -1      1903 4.74999E-01 2.38798E+00 1.84063E+00
 -1      1904 4.61617E-01 2.32070E+00 1.84063E+00
 -1      1905-1.20795E+00 2.01156E+00 5.00000E-01
 -1      1906-2.38798E+00 4.74999E-01 2.32812E+00
 -1      1907-2.32070E+00 4.61617E-01 2.32812E+00
 -1      1908 2.02443E+00 1.35268E+00 2.32812E+00
 -1      1909 1.96740E+00 1.31457E+00 2.32812E+00
 -1      1910 1.10133E+00 2.05573E+00 2.45000E+00
 -1      1911 2.05573E+00 1.10133E+00 2.45000E+00
 -1      1912 1.31457E+00-1.96740E+00 6.21875E-01
 -1      1913 1.35268E+00-2.02443E+00 6.21875E-01
 -1      1914-5.68236E-01 2.27654E+00 2.45000E+00
 -1      1915-1.35268E+00-2.02443E+00 6.21875E-01
 -1      1916-1.31457E+00-1.96740E+00 6.21875E-01
 -1      1917 2.38798E+00-4.74999E-01 1.10938E+00
 -1      1918 2.32070E+00-4.61617E-01 1.10938E+00
 -1      1919 2.32070E+00 3.46213E-01 2.45000E+00
 -1      1920 2.02443E+00-1.35268E+00 2.20625E+00
 -1      1921 1.96740E+00-1.31457E+00 2.20625E+00
 -1      1922-4.74999E-01-2.38798E+00 6.21875E-01
 -1      1923-4.61617E-01-2.32070E+00 6.21875E-01
 -1      1924-4.74999E-01-2.38798E+00 1.84063E+00
 -1      1925-4.61617E-01-2.32070E+00 1.84063E+00
 -1      1926-1.20795E+00-2.01156E+00 2.45000E+00
 -1      1927 2.05573E+00-1.10133E+00 2.45000E+00
 -1      1928 2.28025E+00-1.60850E+00 2.45000E+00
 -1      1929-2.02443E+00 1.35268E+00 1.59687E+00
 -1      1930-1.96740E+00 1.31457E+00 1.59687E+00
 -1      1931 1.39617E+00 1.88580E+00 2.45000E+00
 -1      1932 1.88580E+00 1.39617E+00 2.45000E+00
 -1      1933-4.74999E-01 2.38798E+00 8.65625E-01
 -1      1934-4.61617E-01 2.32070E+00 8.65625E-01
 -1      1935 3.46213E-01-2.32070E+00 2.45000E+00
 -1      1936 2.38798E+00-4.74999E-01 2.32812E+00
 -1      1937 2.32070E+00-4.61617E-01 2.32812E+00
 -1      1938 1.47778E+00-1.80419E+00 2.45000E+00
 -1      1939-2.02443E+00 1.35268E+00 2.32812E+00
 -1      1940-1.96740E+00 1.31457E+00 2.32812E+00
 -1      1941 1.96740E+00-1.31457E+00 6.21875E-01
 -1      1942 2.02443E+00-1.35268E+00 6.21875E-01
 -1      1943 2.02443E+00-1.35268E+00 8.65625E-01
 -1      1944 1.96740E+00-1.31457E+00 8.65625E-01
 -1      1945-2.01156E+00 1.20795E+00 2.45000E+00
 -1      1946 2.01156E+00 1.20795E+00 2.45000E+00
 -1      1947 2.32070E+00 4.61617E-01 2.32812E+00
 -1      1948 2.38798E+00 4.74999E-01 2.32812E+00
 -1      1949-9.50000E-01-5.63875E+00 5.00000E-01
 -1      1950-1.25504E+00-5.51240E+00 5.00000E-01
 -1      1951-1.39617E+00-1.88580E+00 5.00000E-01
 -1      1952-2.32070E+00-3.46213E-01 5.00000E-01
 -1      1953-2.23237E+00-6.74855E-01 2.45000E+00
 -1      1954-1.20795E+00-2.01156E+00 5.00000E-01
 -1      1955 2.02443E+00-1.35268E+00 2.08437E+00
 -1      1956 1.96740E+00-1.31457E+00 2.08437E+00
 -1      1957 1.20795E+00-2.01156E+00 2.45000E+00
 -1      1958 1.35268E+00 2.02443E+00 8.65625E-01
 -1      1959 1.31457E+00 1.96740E+00 8.65625E-01
 -1      1960-2.02443E+00-1.35268E+00 2.32812E+00
 -1      1961-1.96740E+00-1.31457E+00 2.32812E+00
 -1      1962 3.46213E-01-2.32070E+00 5.00000E-01
 -1      1963-3.46213E-01 2.32070E+00 2.45000E+00
 -1      1964-1.88580E+00 1.39617E+00 2.45000E+00
 -1      1965-3.46213E-01-2.32070E+00 5.00000E-01
 -1      1966-2.01156E+00-1.20795E+00 5.00000E-01
 -1      1967 2.27654E+00 5.68236E-01 2.45000E+00
 -1      1968-2.01156E+00-1.20795E+00 2.45000E+00
 -1      1969-2.35868E+00-1.49113E+00 2.45000E+00
 -1      1970 2.32070E+00-3.46213E-01 2.45000E+00
 -1      1971 1.20795E+00-2.01156E+00 5.00000E-01
 -1      1972-1.96740E+00-1.31457E+00 2.08437E+00
 -1      1973-2.02443E+00-1.35268E+00 2.08437E+00
 -1      1974 2.32070E+00-3.46213E-01 5.00000E-01
 -1      1975 3.31545E+00-4.65895E+00 5.00000E-01
 -1      1976 3.01041E+00-4.78531E+00 5.00000E-01
 -1      1977 2.01156E+00-1.20795E+00 5.00000E-01
 -1      1978-4.74999E-01 2.38798E+00 1.35312E+00
 -1      1979-4.61617E-01 2.32070E+00 1.35312E+00
 -1      1980-4.74999E-01-2.56887E+00 2.45000E+00
 -1      1981 1.60850E+00-2.28025E+00 2.45000E+00
 -1      1982-2.38798E+00-4.74999E-01 2.20625E+00
 -1      1983-2.32070E+00-4.61617E-01 2.20625E+00
 -1      1984 4.74999E-01-2.38798E+00 2.32812E+00
 -1      1985 4.61617E-01-2.32070E+00 2.32812E+00
 -1      1986 1.80419E+00 1.47778E+00 5.00000E-01
 -1      1987 2.38798E+00-4.74999E-01 6.21875E-01
 -1      1988 2.32070E+00-4.61617E-01 6.21875E-01
 -1      1989-4.65895E+00-3.31545E+00 5.00000E-01
 -1      1990-4.78531E+00-3.01041E+00 5.00000E-01
 -1      1991-1.35268E+00-2.02443E+00 2.08437E+00
 -1      1992-1.31457E+00-1.96740E+00 2.08437E+00
 -1      1993 2.23237E+00-6.74855E-01 2.45000E+00
 -1      1994 1.88580E+00-1.39617E+00 5.00000E-01
 -1      1995 2.02443E+00 1.35268E+00 6.21875E-01
 -1      1996 1.96740E+00 1.31457E+00 6.21875E-01
 -1      1997 9.50000E-01 5.63875E+00 5.00000E-01
 -1      1998 1.25504E+00 5.51240E+00 5.00000E-01
 -1      1999 5.68236E-01-2.27654E+00 5.00000E-01
 -1      2000-1.35268E+00-2.02443E+00 2.32812E+00
 -1      2001-1.31457E+00-1.96740E+00 2.32812E+00
 -1      2002 1.88580E+00 1.39617E+00 5.00000E-01
 -1      2003 1.35268E+00 2.02443E+00 2.32812E+00
 -1      2004 1.31457E+00 1.96740E+00 2.32812E+00
 -1      2005 1.20795E+00 2.01156E+00 2.45000E+00
 -1      2006-1.39617E+00-1.88580E+00 2.45000E+00
 -1      2007 2.27654E+00-5.68236E-01 2.45000E+00
 -1      2008 2.27654E+00-5.68236E-01 5.00000E-01
 -1      2009 2.38798E+00-4.74999E-01 1.59687E+00
 -1      2010 2.32070E+00-4.61617E-01 1.59687E+00
 -1      2011 2.01156E+00 1.20795E+00 5.00000E-01
 -1      2012-5.63875E+00 9.50000E-01 5.00000E-01
 -1      2013-5.51240E+00 1.25504E+00 5.00000E-01
 -1      2014-5.63875E+00-9.50000E-01 5.00000E-01
 -1      2015-5.51240E+00-1.25504E+00 5.00000E-01
 -1      2016-2.32070E+00-2.30808E-01 2.45000E+00
 -1      2017-2.02443E+00-1.35268E+00 6.21875E-01
 -1      2018-1.96740E+00-1.31457E+00 6.21875E-01
 -1      2019 1.88580E+00-1.39617E+00 2.45000E+00
 -1      2020 3.31545E+00 4.65895E+00 5.00000E-01
 -1      2021 3.01041E+00 4.78531E+00 5.00000E-01
 -1      2022-2.38798E+00-4.74999E-01 2.08437E+00
 -1      2023-2.32070E+00-4.61617E-01 2.08437E+00
 -1      2024 4.74999E-01 2.38798E+00 8.65625E-01
 -1      2025 4.61617E-01 2.32070E+00 8.65625E-01
 -1      2026-1.88580E+00-1.39617E+00 5.00000E-01
 -1      2027-2.27654E+00-5.68236E-01 2.45000E+00
 -1      2028-2.32070E+00 3.46213E-01 2.45000E+00
 -1      2029 2.19155E+00 1.42191E+00 2.45000E+00
 -1      2030-2.32070E+00-3.46213E-01 2.45000E+00
 -1      2031 9.50000E-01-5.63875E+00 5.00000E-01
 -1      2032 1.25504E+00-5.51240E+00 5.00000E-01
 -1      2033 5.63875E+00 9.50000E-01 5.00000E-01
 -1      2034 5.51240E+00 1.25504E+00 5.00000E-01
 -1      2035-3.31545E+00 4.65895E+00 5.00000E-01
 -1      2036-3.01041E+00 4.78531E+00 5.00000E-01
 -1      2037-9.50000E-01 5.63875E+00 5.00000E-01
 -1      2038-1.25504E+00 5.51240E+00 5.00000E-01
 -1      2039-3.31545E+00-4.65895E+00 5.00000E-01
 -1      2040-3.01041E+00-4.78531E+00 5.00000E-01
 -1      2041-2.27654E+00 5.68236E-01 5.00000E-01
 -1      2042 2.65265E+00 2.65265E+00-5.00000E-01
 -1      2043-4.30523E+00-1.03939E+01-5.00000E-01
 -1      2044 9.35357E+00 6.24987E+00-5.00000E-01
 -1      2045-5.62656E+00-1.32265E+00-5.00000E-01
 -1      2046-7.95528E+00 7.95528E+00-5.00000E-01
 -1      2047 1.27016E+00-9.14579E+00-5.00000E-01
 -1      2048-1.12497E+01 0.00000E+00-5.00000E-01
 -1      2049 9.20579E+00 9.20579E+00 5.00000E-01
 -1      2050 7.01632E+00 1.05007E+01 5.00000E-01
 -1      2051 4.98223E+00 1.20279E+01 5.00000E-01
 -1      2052 2.46379E+00 1.23864E+01 5.00000E-01
 -1      2053 0.00000E+00 1.30190E+01 5.00000E-01
 -1      2054-2.46379E+00 1.23864E+01 5.00000E-01
 -1      2055-4.98223E+00 1.20279E+01 5.00000E-01
 -1      2056-7.01632E+00 1.05007E+01 5.00000E-01
 -1      2057 1.20279E+01 4.98223E+00 5.00000E-01
 -1      2058 1.05007E+01 7.01632E+00 5.00000E-01
 -1      2059 1.30190E+01 0.00000E+00 5.00000E-01
 -1      2060 1.23864E+01-2.46379E+00 5.00000E-01
 -1      2061 1.23864E+01 2.46379E+00 5.00000E-01
 -1      2062 1.20279E+01-4.98223E+00 5.00000E-01
 -1      2063 1.05007E+01-7.01632E+00 5.00000E-01
 -1      2064 9.08919E+00-6.07320E+00 5.00000E-01
 -1      2065 9.20579E+00-9.20579E+00 5.00000E-01
 -1      2066 7.01632E+00-1.05007E+01 5.00000E-01
 -1      2067 4.98223E+00-1.20279E+01 5.00000E-01
 -1      2068 2.46379E+00-1.23864E+01 5.00000E-01
 -1      2069 0.00000E+00-1.30190E+01 5.00000E-01
 -1      2070-2.46379E+00-1.23864E+01 5.00000E-01
 -1      2071-4.98223E+00-1.20279E+01 5.00000E-01
 -1      2072-7.01632E+00-1.05007E+01 5.00000E-01
 -1      2073-9.20579E+00-9.20579E+00 5.00000E-01
 -1      2074 3.66092E+00 1.17710E+01 5.00000E-01
 -1      2075-1.05007E+01-7.01632E+00 5.00000E-01
 -1      2076-1.20279E+01-4.98223E+00 5.00000E-01
 -1      2077-9.20579E+00 9.20579E+00 5.00000E-01
 -1      2078-6.95122E+00-1.02082E+01-5.00000E-01
 -1      2079-1.05007E+01 7.01632E+00 5.00000E-01
 -1      2080-1.20279E+01 4.98223E+00 5.00000E-01
 -1      2081-1.23864E+01-2.46379E+00 5.00000E-01
 -1      2082-1.23864E+01 2.46379E+00 5.00000E-01
 -1      2083-1.30190E+01 0.00000E+00 5.00000E-01
 -1      2084-1.29168E+01-3.82402E+00 5.00000E-01
 -1      2085 0.00000E+00 0.00000E+00 5.00000E-01
 -1      2086-4.85213E+00-1.21967E+01-5.00000E-01
 -1      2087 6.24987E+00-9.35357E+00-5.00000E-01
 -1      2088 4.30523E+00 1.03939E+01-5.00000E-01
 -1      2089 1.07215E+01 2.13262E+00 5.00000E-01
 -1      2090-8.67628E+00-9.99263E+00-5.00000E-01
 -1      2091 1.22759E+01 1.12232E+00 5.00000E-01
 -1      2092-3.82402E+00 1.29168E+01 5.00000E-01
 -1      2093-1.09119E+01 5.73466E+00 5.00000E-01
 -1      2094-1.33969E+01 1.41013E+00 5.00000E-01
 -1      2095-1.17710E+01 3.66092E+00 5.00000E-01
 -1      2096 1.12232E+00-1.22759E+01 5.00000E-01
 -1      2097 1.83484E+00-9.22438E+00 5.00000E-01
 -1      2098 5.65611E+00-8.46496E+00 5.00000E-01
 -1      2099 1.17710E+01 3.66092E+00 5.00000E-01
 -1      2100 6.07320E+00 9.08919E+00 5.00000E-01
 -1      2101-2.13262E+00 1.07215E+01 5.00000E-01
 -1      2102 0.00000E+00 1.12497E+01-5.00000E-01
 -1      2103-1.26926E+01 1.61946E+00-5.00000E-01
 -1      2104 1.03939E+01-4.30523E+00-5.00000E-01
 -1      2105 1.38684E+00 6.96987E+00-5.00000E-01
 -1      2106 1.17710E+01-3.66092E+00 5.00000E-01
 -1      2107 1.12497E+01 0.00000E+00-5.00000E-01
 -1      2108-1.16768E+01-3.52396E+00 5.00000E-01
 -1      2109 1.04702E+01-8.47592E+00 5.00000E-01
 -1      2110-9.86346E+00-4.08553E+00-5.00000E-01
 -1      2111 1.07215E+01-2.13262E+00 5.00000E-01
 -1      2112-3.66092E+00-1.17710E+01 5.00000E-01
 -1      2113 1.18375E+01-6.42965E+00 5.00000E-01
 -1      2114-1.12232E+00-1.22759E+01 5.00000E-01
 -1      2115 8.73672E+00-8.90749E+00-5.00000E-01
 -1      2116-5.73466E+00 1.09119E+01 5.00000E-01
 -1      2117-7.88674E+00 9.47394E+00 5.00000E-01
 -1      2118-5.73466E+00-1.09119E+01 5.00000E-01
 -1      2119 3.82402E+00-1.29168E+01 5.00000E-01
 -1      2120 3.60439E+00 1.31330E+01 5.00000E-01
 -1      2121 4.12763E+00 1.23408E+01-5.00000E-01
 -1      2122-1.18351E+01 6.73765E+00 5.00000E-01
 -1      2123 8.46496E+00 5.65611E+00 5.00000E-01
 -1      2124-9.88372E+00-9.53787E+00-5.00000E-01
 -1      2125 1.20554E+01-5.19336E+00-5.00000E-01
 -1      2126-4.30523E+00 1.03939E+01-5.00000E-01
 -1      2127-1.12232E+00 1.22759E+01 5.00000E-01
 -1      2128-1.01187E+01 4.99173E+00-5.00000E-01
 -1      2129 5.36353E+00 6.53610E+00-5.00000E-01
 -1      2130 2.13262E+00 1.07215E+01 5.00000E-01
 -1      2131-8.35386E+00-1.07586E+01 5.00000E-01
 -1      2132 2.84620E+00 1.31814E+01-5.00000E-01
 -1      2133-2.31557E+00 1.22603E+01-5.00000E-01
 -1      2134 5.95152E+00-9.73986E+00 5.00000E-01
 -1      2135 1.22570E+01-2.81795E+00-5.00000E-01
 -1      2136-8.16999E+00-6.81803E+00-5.00000E-01
 -1      2137 6.86620E+00-5.63450E+00-5.00000E-01
 -1      2138 7.88674E+00 9.47394E+00 5.00000E-01
 -1      2139-1.09033E+01-6.24469E+00-5.00000E-01
 -1      2140-1.37339E+01 9.83336E-01-5.00000E-01
 -1      2141-1.52770E+00-1.17609E+01-5.00000E-01
 -1      2142-1.07128E+01-2.13090E+00 5.00000E-01
 -1      2143 9.33865E+00-1.85757E+00 5.00000E-01
 -1      2144-6.73765E+00-1.18351E+01 5.00000E-01
 -1      2145 1.04702E+01 8.47592E+00 5.00000E-01
 -1      2146-1.04702E+01 8.47592E+00 5.00000E-01
 -1      2147-3.63810E+00 4.10766E+00-5.00000E-01
 -1      2148 1.18375E+01 6.42965E+00 5.00000E-01
 -1      2149 2.27767E+00-1.18754E+01-5.00000E-01
 -1      2150 1.33969E+01-1.41013E+00 5.00000E-01
 -1      2151-2.13262E+00-1.07215E+01 5.00000E-01
 -1      2152-9.09453E+00-6.07092E+00 5.00000E-01
 -1      2153 1.31249E+01 1.84671E-01-5.00000E-01
 -1      2154-1.07215E+01 2.13262E+00 5.00000E-01
 -1      2155 3.85198E+00-7.04558E+00-5.00000E-01
 -1      2156-1.20913E+01-2.51551E+00-5.00000E-01
 -1      2157 3.20117E+00 5.15766E+00-5.00000E-01
 -1      2158-1.17449E+01 5.86096E+00-5.00000E-01
 -1      2159 7.29288E+00 9.13942E+00-5.00000E-01
 -1      2160-9.08919E+00 6.07320E+00 5.00000E-01
 -1      2161 7.91689E+00-5.28990E+00 5.00000E-01
 -1      2162 1.31330E+01 3.60439E+00 5.00000E-01
 -1      2163-7.73776E-01-3.99611E+00-5.00000E-01
 -1      2164 1.89586E+00-1.10840E+01 5.00000E-01
 -1      2165-7.93796E+00-1.10945E+01-5.00000E-01
 -1      2166-7.18176E+00 2.32605E+00-5.00000E-01
 -1      2167 9.33865E+00 1.85757E+00 5.00000E-01
 -1      2168-1.01203E+01 7.83009E+00-5.00000E-01
 -1      2169 7.07590E+00 2.45286E+00-5.00000E-01
 -1      2170 2.44735E+00 1.35984E+01 5.00000E-01
 -1      2171 3.52268E+00 8.10513E+00-5.00000E-01
 -1      2172-1.96872E+00 9.89679E+00-5.00000E-01
 -1      2173 1.12981E+01 6.45571E+00-5.00000E-01
 -1      2174-7.03214E+00 1.03068E+01-5.00000E-01
 -1      2175 8.71357E+00 1.00381E+01-5.00000E-01
 -1      2176-9.40287E-01-1.32968E+01-5.00000E-01
 -1      2177-5.60610E+00 8.39001E+00-5.00000E-01
 -1      2178 8.76929E+00 1.04369E+01 5.00000E-01
 -1      2179 6.35347E+00 1.11068E+01-5.00000E-01
 -1      2180-9.87273E+00 2.31200E+00-5.00000E-01
 -1      2181 4.90579E+00 3.47184E+00-5.00000E-01
 -1      2182-8.80166E+00 9.64451E+00-5.00000E-01
 -1      2183 7.25346E+00 4.92799E+00-5.00000E-01
 -1      2184 1.02735E+01 3.11639E+00-5.00000E-01
 -1      2185 5.62647E+00 4.93050E+00-5.00000E-01
 -1      2186-9.94464E+00-1.83512E+00-5.00000E-01
 -1      2187 9.43936E+00-7.72426E+00 5.00000E-01
 -1      2188 1.23727E+01 5.36301E+00-5.00000E-01
 -1      2189-1.20962E+01 6.88230E+00-5.00000E-01
 -1      2190-1.40585E+00 1.11866E+01-5.00000E-01
 -1      2191 5.72946E+00 9.60088E+00-5.00000E-01
 -1      2192-5.19336E+00 1.20554E+01-5.00000E-01
 -1      2193-6.45413E+00 5.29380E+00-5.00000E-01
 -1      2194 4.76484E+00 3.51348E-01-5.00000E-01
 -1      2195-1.75370E+00-8.71483E+00-5.00000E-01
 -1      2196-5.65253E+00 9.84433E+00-5.00000E-01
 -1      2197-1.79331E+00 6.71095E+00-5.00000E-01
 -1      2198-7.91689E+00 5.28990E+00 5.00000E-01
 -1      2199-1.26672E+01 3.45845E+00-5.00000E-01
 -1      2200 9.04104E+00 1.01920E+00-5.00000E-01
 -1      2201-7.61799E+00-8.53374E+00-5.00000E-01
 -1      2202 4.88603E+00-1.14804E+01-5.00000E-01
 -1      2203-9.33865E+00 1.85757E+00 5.00000E-01
 -1      2204 7.44525E+00-1.08102E+01-5.00000E-01
 -1      2205 1.07486E+01 5.76486E+00 5.00000E-01
 -1      2206-5.99319E+00 9.51464E+00 5.00000E-01
 -1      2207-8.35581E+00 1.07539E+01 5.00000E-01
 -1      2208 1.07153E+01 4.80769E+00-5.00000E-01
 -1      2209-1.33969E+01-1.41013E+00 5.00000E-01
 -1      2210-1.31365E+01 3.60081E+00 5.00000E-01
 -1      2211-1.08179E+01 6.75088E+00-5.00000E-01
 -1      2212 8.97248E+00 4.52611E+00-5.00000E-01
 -1      2213-4.46122E+00 1.32985E+00-5.00000E-01
 -1      2214 4.18692E+00 1.94088E+00-5.00000E-01
 -1      2215 1.35126E+01 1.69567E+00 5.00000E-01
 -1      2216-3.56836E+00 1.30296E+01-5.00000E-01
 -1      2217 2.46805E+00 1.12078E+01-5.00000E-01
 -1      2218-7.88674E+00-9.47394E+00 5.00000E-01
 -1      2219 1.58353E+00 9.17660E+00-5.00000E-01
 -1      2220-6.07320E+00-9.08919E+00 5.00000E-01
 -1      2221 7.46988E+00 1.04319E+01-5.00000E-01
 -1      2222-1.70042E+00-1.35146E+01 5.00000E-01
 -1      2223 6.42965E+00-1.18375E+01 5.00000E-01
 -1      2224 8.47592E+00-1.04702E+01 5.00000E-01
 -1      2225 3.77732E+00 3.06746E+00-5.00000E-01
 -1      2226-1.25810E+01 2.66402E-01-5.00000E-01
 -1      2227 1.03697E+01-8.03472E+00-5.00000E-01
 -1      2228 2.82097E+00 3.92835E+00-5.00000E-01
 -1      2229 7.55919E+00-9.49787E+00-5.00000E-01
 -1      2230-2.53598E+00-1.03043E+01-5.00000E-01
 -1      2231-3.52396E+00 1.16768E+01 5.00000E-01
 -1      2232-3.87194E+00 1.16936E+01-5.00000E-01
 -1      2233 5.63141E+00 2.19687E+00-5.00000E-01
 -1      2234-1.85757E+00-9.33865E+00 5.00000E-01
 -1      2235-3.60439E+00-1.31330E+01 5.00000E-01
 -1      2236 1.07486E+01-5.76486E+00 5.00000E-01
 -1      2237 6.66165E+00 5.86904E-01-5.00000E-01
 -1      2238 3.52652E+00-1.28916E+01-5.00000E-01
 -1      2239-9.32997E+00-1.85585E+00 5.00000E-01
 -1      2240 8.70764E+00 2.62587E+00-5.00000E-01
 -1      2241 5.08694E+00 1.14467E+01-5.00000E-01
 -1      2242-7.67246E-01 1.26499E+01-5.00000E-01
 -1      2243-2.60968E+00-1.30550E+01-5.00000E-01
 -1      2244 5.48796E+00-1.26065E+01-5.00000E-01
 -1      2245-8.51625E+00 2.14293E-01-5.00000E-01
 -1      2246-9.07022E+00 8.45330E+00-5.00000E-01
 -1      2247-1.14888E+01 4.38433E+00-5.00000E-01
 -1      2248 3.81366E+00 6.58212E+00-5.00000E-01
 -1      2249-9.10916E+00 6.41148E+00-5.00000E-01
 -1      2250 4.49108E+00 9.05216E+00-5.00000E-01
 -1      2251-2.72233E+00 1.09934E+01-5.00000E-01
 -1      2252-4.35496E+00-5.71352E+00-5.00000E-01
 -1      2253 4.61728E+00 7.52496E+00-5.00000E-01
 -1      2254-6.56136E+00 6.98741E+00-5.00000E-01
 -1      2255-7.84206E+00 1.12937E+01-5.00000E-01
 -1      2256-8.20459E+00 4.14990E+00-5.00000E-01
 -1      2257-1.12659E+01-1.39312E+00-5.00000E-01
 -1      2258-1.01739E+01 9.11660E+00-5.00000E-01
 -1      2259-1.27571E+01 5.02212E+00-5.00000E-01
 -1      2260-3.35429E+00-1.16587E+01-5.00000E-01
 -1      2261-8.52399E+00 1.69672E+00-5.00000E-01
 -1      2262 9.89332E+00 9.54575E+00-5.00000E-01
 -1      2263-1.17103E+01-1.48933E+00 5.00000E-01
 -1      2264 5.22520E+00 7.82006E+00 5.00000E-01
 -1      2265 1.05898E+00-6.24914E+00-5.00000E-01
 -1      2266 1.68064E+00-1.33138E+01-5.00000E-01
 -1      2267-3.79360E+00-1.27896E+01-5.00000E-01
 -1      2268 1.85757E+00 9.33865E+00 5.00000E-01
 -1      2269 8.79772E+00 8.03303E+00-5.00000E-01
 -1      2270 1.19622E+00-8.04058E-01-5.00000E-01
 -1      2271 7.31799E+00-7.54730E+00-5.00000E-01
 -1      2272-5.35379E+00 3.10519E+00-5.00000E-01
 -1      2273-7.46491E+00 1.16267E+01 5.00000E-01
 -1      2274 3.68086E-01-1.36281E+01-5.00000E-01
 -1      2275-1.21365E+01 1.21273E+00 5.00000E-01
 -1      2276-5.86758E+00 8.25351E+00 5.00000E-01
 -1      2277 1.31330E+01-3.60439E+00 5.00000E-01
 -1      2278 6.42965E+00 1.18375E+01 5.00000E-01
 -1      2279-9.43936E+00 7.72426E+00 5.00000E-01
 -1      2280 1.12232E+00 1.22759E+01 5.00000E-01
 -1      2281 5.76486E+00 1.07486E+01 5.00000E-01
 -1      2282-5.08349E+00 4.61200E+00-5.00000E-01
 -1      2283 1.70042E+00-1.35146E+01 5.00000E-01
 -1      2284 1.30275E+00 5.07135E+00-5.00000E-01
 -1      2285 9.33548E+00 7.97036E+00 5.00000E-01
 -1      2286-1.18375E+01-6.42965E+00 5.00000E-01
 -1      2287-1.04702E+01-8.47592E+00 5.00000E-01
 -1      2288-9.43936E+00-7.72426E+00 5.00000E-01
 -1      2289 1.36689E+01-9.76935E-01-5.00000E-01
 -1      2290 1.33547E+01 1.68467E+00-5.00000E-01
 -1      2291 1.03786E+01 5.85380E+00-5.00000E-01
 -1      2292-6.71993E+00 3.78926E+00-5.00000E-01
 -1      2293-6.37730E+00-1.17045E+01-5.00000E-01
 -1      2294 6.62487E+00-1.18808E+01-5.00000E-01
 -1      2295-6.52240E-01 1.00900E+01-5.00000E-01
 -1      2296 1.30024E+01-4.32832E+00-5.00000E-01
 -1      2297 1.36149E+01-2.54935E+00 5.00000E-01
 -1      2298-7.69199E+00 6.06563E+00-5.00000E-01
 -1      2299 5.99876E+00 1.23147E+01-5.00000E-01
 -1      2300-7.30927E-01 2.35029E+00-5.00000E-01
 -1      2301-1.09085E+01-2.52060E+00-5.00000E-01
 -1      2302-7.75473E+00-1.83895E+00-5.00000E-01
 -1      2303-7.36065E+00 9.61563E-01-5.00000E-01
 -1      2304-5.28990E+00-7.91689E+00 5.00000E-01
 -1      2305 1.06961E+00 1.28446E+00-5.00000E-01
 -1      2306 9.58421E+00 6.18446E+00 5.00000E-01
 -1      2307 8.90990E+00-1.02773E+01-5.00000E-01
 -1      2308 8.35849E+00-1.98829E+00-5.00000E-01
 -1      2309 1.16934E+01-6.66702E+00-5.00000E-01
 -1      2310 3.97230E+00 4.24571E+00-5.00000E-01
 -1      2311-7.61923E+00 9.18031E+00-5.00000E-01
 -1      2312-5.30798E+00 1.09260E+01-5.00000E-01
 -1      2313-1.30610E+01-3.57788E+00-5.00000E-01
 -1      2314-3.42313E+00-3.06410E+00-5.00000E-01
 -1      2315 1.16453E+01-3.96229E+00-5.00000E-01
 -1      2316 1.34815E+01-2.93724E+00-5.00000E-01
 -1      2317-1.07486E+01-5.76486E+00 5.00000E-01
 -1      2318 1.20571E+01 3.55386E+00-5.00000E-01
 -1      2319 5.63738E+00-6.93450E+00-5.00000E-01
 -1      2320-5.74429E+00-3.73631E+00-5.00000E-01
 -1      2321 1.14779E+01-7.78286E+00-5.00000E-01
 -1      2322-1.37286E+01-2.93531E-01-5.00000E-01
 -1      2323-4.58384E+00 9.15055E+00-5.00000E-01
 -1      2324-1.35074E+00-6.33740E+00-5.00000E-01
 -1      2325 9.10407E+00-6.16169E+00-5.00000E-01
 -1      2326-9.35405E+00-5.66084E+00-5.00000E-01
 -1      2327-9.67038E+00-7.16888E+00-5.00000E-01
 -1      2328-9.67959E+00 9.49451E-01-5.00000E-01
 -1      2329 1.25498E+00 1.24633E+01-5.00000E-01
 -1      2330 6.17223E+00 3.34863E+00-5.00000E-01
 -1      2331 7.97036E+00-9.33548E+00 5.00000E-01
 -1      2332-1.85757E+00 9.33865E+00 5.00000E-01
 -1      2333-1.69567E+00 1.35126E+01 5.00000E-01
 -1      2334 5.98344E+00-1.70662E+00-5.00000E-01
 -1      2335 3.31874E+00-9.94040E+00-5.00000E-01
 -1      2336 6.62076E-01 1.01141E+01-5.00000E-01
 -1      2337 4.84574E+00-9.95388E+00-5.00000E-01
 -1      2338-7.92874E-01-1.01749E+01-5.00000E-01
 -1      2339 8.29946E+00-4.09261E+00-5.00000E-01
 -1      2340-1.41850E-01 6.08645E+00-5.00000E-01
 -1      2341 6.16920E+00-8.08692E+00-5.00000E-01
 -1      2342 3.52396E+00-1.16768E+01 5.00000E-01
 -1      2343-1.14960E+01-4.04431E+00-5.00000E-01
 -1      2344-1.34274E+01-2.26969E+00-5.00000E-01
 -1      2345 1.30586E+01-4.67683E+00 5.00000E-01
 -1      2346 3.77869E-01-1.17222E+01-5.00000E-01
 -1      2347-4.82370E+00-2.57151E+00-5.00000E-01
 -1      2348-6.46977E+00-2.49122E+00-5.00000E-01
 -1      2349-7.44573E+00-4.89259E+00-5.00000E-01
 -1      2350-1.04349E+01-5.14032E+00-5.00000E-01
 -1      2351 3.52441E+00-1.12986E+01-5.00000E-01
 -1      2352 1.94344E+00-1.04480E+01-5.00000E-01
 -1      2353 2.76069E+00-8.34108E+00-5.00000E-01
 -1      2354 1.06595E+01 8.27258E+00-5.00000E-01
 -1      2355 2.07526E+00-3.55048E+00-5.00000E-01
 -1      2356-8.27499E+00 2.91168E+00-5.00000E-01
 -1      2357 2.30328E+00 1.22624E+01-5.00000E-01
 -1      2358-8.85159E+00-2.92235E+00-5.00000E-01
 -1      2359-1.03020E+01-7.07629E-01-5.00000E-01
 -1      2360-8.89056E+00 5.18722E+00-5.00000E-01
 -1      2361-9.54772E+00 3.69299E+00-5.00000E-01
 -1      2362-6.56965E+00 1.18552E+01-5.00000E-01
 -1      2363-8.76049E+00 1.07243E+01-5.00000E-01
 -1      2364 6.19292E+00 7.93802E+00-5.00000E-01
 -1      2365 3.06797E+00 9.53875E+00-5.00000E-01
 -1      2366-1.06910E+00 8.34858E+00-5.00000E-01
 -1      2367 5.03657E+00 1.34997E+00-5.00000E-01
 -1      2368-6.80390E+00 8.29804E+00-5.00000E-01
 -1      2369 2.77630E+00 9.09681E-01-5.00000E-01
 -1      2370 3.61325E+00 1.13123E+01-5.00000E-01
 -1      2371-2.39911E+00 1.35290E+01-5.00000E-01
 -1      2372 9.04534E-01 6.04011E+00-5.00000E-01
 -1      2373 1.43989E+00-7.67739E+00-5.00000E-01
 -1      2374-2.60664E+00-4.83985E+00-5.00000E-01
 -1      2375-6.20697E+00-6.45749E+00-5.00000E-01
 -1      2376-4.46835E+00-3.79854E+00-5.00000E-01
 -1      2377 1.04177E+01-1.88638E+00-5.00000E-01
 -1      2378 5.98821E+00-1.06838E+01-5.00000E-01
 -1      2379 9.27506E+00-4.90422E+00-5.00000E-01
 -1      2380 1.06069E+01 1.50973E+00-5.00000E-01
 -1      2381-1.14192E+01 2.52159E+00-5.00000E-01
 -1      2382 4.55952E+00 5.58010E+00-5.00000E-01
 -1      2383-1.35225E+01 2.55056E+00-5.00000E-01
 -1      2384-3.10967E+00-7.26214E+00-5.00000E-01
 -1      2385-8.88839E+00-8.72547E+00-5.00000E-01
 -1      2386-5.51347E+00-8.66569E+00-5.00000E-01
 -1      2387-6.73107E+00-1.41416E+00-5.00000E-01
 -1      2388-7.74553E+00-9.55451E+00-5.00000E-01
 -1      2389-1.24842E+00 1.37109E+01-5.00000E-01
 -1      2390-6.16554E+00 1.23147E+01 5.00000E-01
 -1      2391 1.20870E+01 1.11127E+00-5.00000E-01
 -1      2392 7.53776E+00 5.03657E+00 5.00000E-01
 -1      2393-1.06611E+01-8.27391E+00-5.00000E-01
 -1      2394 1.07420E+01-5.65207E+00-5.00000E-01
 -1      2395 8.31150E+00 5.57624E+00-5.00000E-01
 -1      2396 1.02520E+01 7.05051E+00-5.00000E-01
 -1      2397-8.84836E+00-1.07672E+00-5.00000E-01
 -1      2398 9.28939E+00 3.51337E+00-5.00000E-01
 -1      2399-2.72942E+00 2.32755E+00-5.00000E-01
 -1      2400 3.42659E+00-1.60408E+00-5.00000E-01
 -1      2401-5.64682E+00-1.05661E+01-5.00000E-01
 -1      2402 1.18287E+01-1.38205E+00-5.00000E-01
 -1      2403 5.97049E+00-1.08388E+01 5.00000E-01
 -1      2404 4.59966E-01-2.55360E+00-5.00000E-01
 -1      2405-1.74851E+00 3.95025E+00-5.00000E-01
 -1      2406-2.85486E+00 1.35541E+01 5.00000E-01
 -1      2407 7.50044E+00 7.84514E+00-5.00000E-01
 -1      2408 1.15458E+00 1.36005E+01 5.00000E-01
 -1      2409 1.71423E+00 1.36549E+01-5.00000E-01
 -1      2410 1.00948E+01 3.99945E-01-5.00000E-01
 -1      2411-1.38176E+00-5.08802E+00-5.00000E-01
 -1      2412 2.51670E+00 8.57498E+00-5.00000E-01
 -1      2413-7.29689E+00-6.04751E+00-5.00000E-01
 -1      2414-1.07716E+01 1.48962E+00-5.00000E-01
 -1      2415 4.61611E+00-3.87222E+00-5.00000E-01
 -1      2416-1.73582E+00 2.83475E+00-5.00000E-01
 -1      2417 2.00468E+00-2.05919E+00-5.00000E-01
 -1      2418 4.72890E+00-1.05971E+00-5.00000E-01
 -1      2419 6.44145E+00 5.88829E+00-5.00000E-01
 -1      2420 1.34609E+01 2.93101E+00-5.00000E-01
 -1      2421-1.87730E+00-7.47101E+00-5.00000E-01
 -1      2422 7.77436E+00 3.64669E+00-5.00000E-01
 -1      2423 1.21365E+01-1.21273E+00 5.00000E-01
 -1      2424-3.36978E+00-7.31895E-01-5.00000E-01
 -1      2425-1.26283E+01-1.13687E+00-5.00000E-01
 -1      2426 5.81888E+00-3.81480E-01-5.00000E-01
 -1      2427-1.22186E+01-6.11421E+00-5.00000E-01
 -1      2428-3.27224E+00 9.50950E+00-5.00000E-01
 -1      2429-7.91954E+00-5.29167E+00 5.00000E-01
 -1      2430 2.55594E+00 7.34714E+00-5.00000E-01
 -1      2431-1.14298E+01 7.82443E+00 5.00000E-01
 -1      2432-3.79669E+00-1.88884E+00-5.00000E-01
 -1      2433-2.99482E+00 7.86361E-01-5.00000E-01
 -1      2434 8.10587E+00-5.38560E+00-5.00000E-01
 -1      2435 7.80615E-01-4.60363E+00-5.00000E-01
 -1      2436 9.77077E-01-3.52281E+00-5.00000E-01
 -1      2437 7.98729E+00 1.63846E+00-5.00000E-01
 -1      2438 2.06303E+00 1.73495E+00-5.00000E-01
 -1      2439-3.39963E+00-8.89198E+00-5.00000E-01
 -1      2440-1.35153E+01 2.53501E+00 5.00000E-01
 -1      2441-1.37188E+01-2.45922E+00 5.00000E-01
 -1      2442-1.13444E+01 7.85627E+00-5.00000E-01
 -1      2443 6.52440E-02 7.49244E+00-5.00000E-01
 -1      2444-6.41106E+00-5.34630E+00-5.00000E-01
 -1      2445-7.04781E+00-7.40364E+00-5.00000E-01
 -1      2446-3.88107E+00 7.13864E+00-5.00000E-01
 -1      2447 3.65746E+00-3.26434E-01-5.00000E-01
 -1      2448-1.58038E+00-2.05739E+00-5.00000E-01
 -1      2449 3.42962E+00-3.04848E+00-5.00000E-01
 -1      2450 9.99219E+00-9.29246E+00-5.00000E-01
 -1      2451-5.85288E+00 1.74222E+00-5.00000E-01
 -1      2452 1.14256E+01-7.76577E+00 5.00000E-01
 -1      2453 9.06284E+00-7.55365E+00-5.00000E-01
 -1      2454-3.44192E+00-4.14833E+00-5.00000E-01
 -1      2455 6.48106E+00 1.60595E+00-5.00000E-01
 -1      2456 2.33767E-01 1.36234E+01-5.00000E-01
 -1      2457-1.43160E-01-8.23841E+00-5.00000E-01
 -1      2458-5.26645E+00-4.87727E+00-5.00000E-01
 -1      2459 8.93363E-01 3.25682E+00-5.00000E-01
 -1      2460-6.85915E-01-2.82240E+00-5.00000E-01
 -1      2461 4.61620E-01 1.11444E+00 5.00000E-01
 -1      2462 8.52957E-01-8.52957E-01 5.00000E-01
 -1      2463 2.21252E+00 5.98218E+00-5.00000E-01
 -1      2464-2.09866E+00-3.53069E+00-5.00000E-01
 -1      2465 1.16206E+01 2.32705E+00-5.00000E-01
 -1      2466 3.85161E+00 9.19144E-01-5.00000E-01
 -1      2467-1.72154E+00 1.57993E+00-5.00000E-01
 -1      2468 2.46676E+00-7.70953E-01-5.00000E-01
 -1      2469-2.93059E-01-1.20702E+00-5.00000E-01
 -1      2470 2.85792E+00-1.35556E+01 5.00000E-01
 -1      2471 6.79244E-01-1.38533E+01 5.00000E-01
 -1      2472 5.17683E+00-8.78601E+00-5.00000E-01
 -1      2473 1.04978E+01-6.83433E+00-5.00000E-01
 -1      2474 9.38978E+00-3.77415E+00-5.00000E-01
 -1      2475 1.28677E+00-1.23072E+01-5.00000E-01
 -1      2476 5.07187E+00 1.29490E+01-5.00000E-01
 -1      2477 2.50105E-02 9.00727E+00-5.00000E-01
 -1      2478 8.23978E+00 6.83001E+00-5.00000E-01
 -1      2479 9.33544E+00-8.73266E-01-5.00000E-01
 -1      2480-1.68233E-01-5.68296E+00-5.00000E-01
 -1      2481 8.58592E+00-3.04766E+00-5.00000E-01
 -1      2482-6.59692E+00-9.09712E+00-5.00000E-01
 -1      2483-5.22346E+00 7.10281E+00-5.00000E-01
 -1      2484-1.56033E+00-9.70076E-02-5.00000E-01
 -1      2485-1.15715E+01-5.17906E+00-5.00000E-01
 -1      2486 1.30414E+01 4.31425E+00-5.00000E-01
 -1      2487-3.09289E+00 5.67659E+00-5.00000E-01
 -1      2488-2.66393E+00-1.64959E+00-5.00000E-01
 -1      2489 9.38642E+00-1.90343E+00-5.00000E-01
 -1      2490-2.64156E+00 3.38226E+00-5.00000E-01
 -1      2491 7.93491E+00 3.43144E-01-5.00000E-01
 -1      2492 2.81933E+00-5.37138E+00-5.00000E-01
 -1      2493-7.75269E+00-6.70353E-01-5.00000E-01
 -1      2494-3.84172E-01 8.82306E-01-5.00000E-01
 -1      2495 5.73310E-01-1.03312E+01-5.00000E-01
 -1      2496 2.36564E+00-6.66558E+00-5.00000E-01
 -1      2497-2.31123E+00 8.66229E+00-5.00000E-01
 -1      2498-5.85207E-01-1.12344E+01-5.00000E-01
 -1      2499-7.04110E+00-3.65803E+00-5.00000E-01
 -1      2500-8.68288E+00-4.57378E+00-5.00000E-01
 -1      2501 1.92509E+00 3.39760E+00-5.00000E-01
 -1      2502 1.15901E+01 7.57900E+00-5.00000E-01
 -1      2503 1.14396E+01 7.96178E+00 5.00000E-01
 -1      2504-8.10491E+00-3.68040E+00-5.00000E-01
 -1      2505-5.81815E+00 6.18426E+00-5.00000E-01
 -1      2506 1.74291E+00 2.77178E-01-5.00000E-01
 -1      2507-3.48426E+00 8.30034E+00-5.00000E-01
 -1      2508-4.73217E+00-1.33346E-01-5.00000E-01
 -1      2509-1.07171E+01 3.48050E+00-5.00000E-01
 -1      2510 6.48441E+00-3.53739E+00-5.00000E-01
 -1      2511 9.60186E+00 1.97350E+00-5.00000E-01
 -1      2512-6.29004E+00-2.60043E-02-5.00000E-01
 -1      2513-4.71299E+00-7.27642E+00-5.00000E-01
 -1      2514-2.59515E+00-6.10561E+00-5.00000E-01
 -1      2515-4.41325E+00-8.37438E+00-5.00000E-01
 -1      2516-1.15689E+01-7.35319E+00-5.00000E-01
 -1      2517-4.01949E+00 2.79100E+00-5.00000E-01
 -1      2518 7.98807E+00-6.56709E+00-5.00000E-01
 -1      2519-7.64276E-01-7.29891E+00-5.00000E-01
 -1      2520-7.61608E-01-9.10818E+00-5.00000E-01
 -1      2521-2.64233E+00 4.64083E+00-5.00000E-01
 -1      2522 1.04456E+01-7.71981E-01-5.00000E-01
 -1      2523-2.04755E-01 4.46147E+00-5.00000E-01
 -1      2524-1.36902E+00 5.33712E+00-5.00000E-01
 -1      2525 4.49247E+00-2.32404E+00-5.00000E-01
 -1      2526-4.72933E+00-9.40391E+00-5.00000E-01
 -1      2527-1.17686E+01 1.01452E+00-5.00000E-01
 -1      2528 4.65573E+00-5.56044E+00-5.00000E-01
 -1      2529 1.91661E+00-4.67779E+00-5.00000E-01
 -1      2530 6.78117E+00 6.96941E+00-5.00000E-01
 -1      2531-1.20626E+00 0.00000E+00 5.00000E-01
 -1      2532 1.07352E+00 8.10993E+00-5.00000E-01
 -1      2533-9.55585E-01 7.31943E+00-5.00000E-01
 -1      2534-4.61620E-01-1.11444E+00 5.00000E-01
 -1      2535 4.07280E-01 2.21933E+00-5.00000E-01
 -1      2536 1.19813E+00 2.38320E-01 5.00000E-01
 -1      2537 2.72568E+00-1.36366E+01-5.00000E-01
 -1      2538 3.91896E+00-8.83395E+00-5.00000E-01
 -1      2539 4.78926E+00-7.70657E+00-5.00000E-01
 -1      2540 4.86496E+00-7.75536E+00 5.00000E-01
 -1      2541 5.11009E+00 1.30471E+01 5.00000E-01
 -1      2542-1.28059E+01-4.83405E+00-5.00000E-01
 -1      2543-2.20545E-01 3.34425E+00-5.00000E-01
 -1      2544-5.03080E+00 7.52913E+00 5.00000E-01
 -1      2545 1.30586E+01 4.67683E+00 5.00000E-01
 -1      2546 5.69030E-01 1.91888E-01-5.00000E-01
 -1      2547-4.08752E+00 5.14304E+00-5.00000E-01
 -1      2548 3.44414E+00-4.29391E+00-5.00000E-01
 -1      2549 7.17374E+00-8.86014E-01-5.00000E-01
 -1      2550-2.60709E+00 7.53936E+00-5.00000E-01
 -1      2551-4.57959E+00-1.17904E+00-5.00000E-01
 -1      2552-5.39133E+00 7.45402E-01-5.00000E-01
 -1      2553 7.40791E+00-2.74645E+00-5.00000E-01
 -1      2554 7.18446E+00-4.49325E+00-5.00000E-01
 -1      2555 5.85018E+00-4.73616E+00-5.00000E-01
 -1      2556-5.17552E+00-6.34801E+00-5.00000E-01
 -1      2557-1.17335E+01-7.52200E+00 5.00000E-01
 -1      2558 5.42901E+00-3.02828E+00-5.00000E-01
 -1      2559 8.25355E+00-7.04440E-01-5.00000E-01
 -1      2560 3.68315E+00-5.99415E+00-5.00000E-01
 -1      2561-6.78683E-01 1.01573E+00 5.00000E-01
 -1      2562-1.30540E+01-4.84953E+00 5.00000E-01
 -1      2563-4.52762E+00 6.19704E+00-5.00000E-01
 -1      2564 5.72587E+00-5.83360E+00-5.00000E-01
 -1      2565 6.35172E+00-9.50000E-01 1.47500E+00
 -1      2566-9.50000E-01 6.35172E+00 1.47500E+00
 -1      2567 3.81959E+00 5.16310E+00 1.47500E+00
 -1      2568-8.88093E-01 2.14405E+00 1.71875E+00
 -1      2569 5.66724E+00-4.32374E+00 1.47500E+00
 -1      2570-1.04686E+00 6.18905E+00-5.00000E-01
 -1      2571 9.50000E-01 6.35172E+00 1.47500E+00
 -1      2572 3.29517E+00 4.45514E+00-5.00000E-01
 -1      2573-1.82900E+00-1.07456E+00-5.00000E-01
 -1      2574 5.66724E+00 4.32374E+00 1.47500E+00
 -1      2575-8.88093E-01-2.14405E+00 1.23125E+00
 -1      2576-2.14405E+00-8.88093E-01 1.23125E+00
 -1      2577-2.14405E+00 8.88093E-01 1.23125E+00
 -1      2578-2.12961E+00-9.22963E-01 1.71875E+00
 -1      2579-8.88093E-01 2.14405E+00 9.62301E-01
 -1      2580-1.61682E+00 2.66212E+00 1.23125E+00
 -1      2581-6.16337E+00 3.58123E+00 1.47500E+00
 -1      2582 0.00000E+00-2.32070E+00 1.71875E+00
 -1      2583 3.58123E+00 6.16337E+00 1.47500E+00
 -1      2584-2.32070E+00 0.00000E+00 1.71875E+00
 -1      2585 6.16337E+00-3.58123E+00 1.47500E+00
 -1      2586-5.16310E+00 3.81959E+00 1.47500E+00
 -1      2587 0.00000E+00 2.32070E+00 1.23125E+00
 -1      2588 8.88093E-01 2.14405E+00 1.23125E+00
 -1      2589 1.54642E+00 5.73774E+00-5.00000E-01
 -1      2590 2.32070E+00 0.00000E+00 1.23125E+00
 -1      2591-3.02717E+00 1.76803E+00 1.47500E+00
 -1      2592-3.32912E+00 8.64831E-01 1.47500E+00
 -1      2593 1.64099E+00-1.64099E+00 1.23125E+00
 -1      2594 2.14405E+00-8.88093E-01 1.23125E+00
 -1      2595 2.02320E+00 9.79662E-01-5.00000E-01
 -1      2596 6.16337E+00 3.58123E+00 1.47500E+00
 -1      2597-2.52580E+00 1.56035E+00 1.71875E+00
 -1      2598 2.12961E+00-9.22963E-01 1.71875E+00
 -1      2599 6.35172E+00 9.50000E-01 1.47500E+00
 -1      2600 6.23178E+00 1.55301E+00 1.47500E+00
 -1      2601 1.64099E+00 1.64099E+00 1.71875E+00
 -1      2602 2.14405E+00 8.88093E-01 1.71875E+00
 -1      2603 2.32070E+00 3.77457E-02 1.71875E+00
 -1      2604-9.82419E-01 2.10498E+00 2.08437E+00
 -1      2605 8.53224E-01 2.15849E+00 1.71875E+00
 -1      2606 3.02717E+00-1.76803E+00 1.47500E+00
 -1      2607 3.32912E+00-8.64831E-01 1.47500E+00
 -1      2608 6.08782E-01-1.58654E+00-5.00000E-01
 -1      2609 1.64099E+00 1.64099E+00 9.62307E-01
 -1      2610-8.88093E-01-2.14405E+00 1.98770E+00
 -1      2611 9.50000E-01-7.06469E+00 1.47500E+00
 -1      2612 8.88093E-01-2.14405E+00 1.23125E+00
 -1      2613 3.77457E-02 2.32070E+00 1.71875E+00
 -1      2614 6.89047E+00-1.82586E+00 1.47500E+00
 -1      2615-1.02100E-01-2.32070E+00 2.08437E+00
 -1      2616-7.39140E-01 3.02567E+00 1.23125E+00
 -1      2617-3.47334E+00-4.74999E-01 1.47500E+00
 -1      2618-3.40666E+00 4.74999E-01 1.47500E+00
 -1      2619-7.21281E-01-1.95834E+00-5.00000E-01
 -1      2620 1.36043E+00 2.40538E+00-5.00000E-01
 -1      2621-2.20496E+00-7.41036E-01 1.48878E+00
 -1      2622-2.32070E+00-2.30808E-01 1.59687E+00
 -1      2623-1.64099E+00-1.64099E+00 1.23125E+00
 -1      2624 2.22515E+00-6.92290E-01 1.59687E+00
 -1      2625-1.64099E+00 1.64099E+00 1.23125E+00
 -1      2626 1.06898E-01 2.32070E+00 2.08892E+00
 -1      2627-6.16337E+00-3.58123E+00 1.47500E+00
 -1      2628 2.85855E+00-6.69915E-01 1.23125E+00
 -1      2629-2.56668E+00-1.24804E-01-5.00000E-01
 -1      2630 1.82586E+00 6.89047E+00 1.47500E+00
 -1      2631 0.00000E+00-2.32070E+00 9.62304E-01
 -1      2632-7.34225E-01 2.20778E+00 1.96232E+00
 -1      2633 4.32374E+00-5.66724E+00 1.47500E+00
 -1      2634-2.08474E+00 6.57818E-01-5.00000E-01
 -1      2635-1.61429E+00-1.66768E+00 1.71875E+00
 -1      2636-2.32070E+00 1.02100E-01 2.08437E+00
 -1      2637 9.76642E-01 2.10737E+00 2.07845E+00
 -1      2638 9.82419E-01-2.10498E+00 8.65625E-01
 -1      2639-6.89047E+00-1.82586E+00 1.47500E+00
 -1      2640 1.76803E+00 3.02717E+00 1.47500E+00
 -1      2641 8.64831E-01 3.32912E+00 1.47500E+00
 -1      2642 2.32070E+00-1.59175E-01 1.48879E+00
 -1      2643 2.16315E-01-2.32070E+00 2.19253E+00
 -1      2644-5.16310E+00-3.81959E+00 1.47500E+00
 -1      2645 2.32070E+00-2.30808E-01 1.26655E+00
 -1      2646-7.07007E-01 2.94810E+00 1.84338E+00
 -1      2647 2.23237E+00 6.74855E-01 1.59687E+00
 -1      2648 1.47778E+00-1.80419E+00 1.35312E+00
 -1      2649 2.79189E+00-2.12014E+00 1.47500E+00
 -1      2650 2.07300E+00-2.74475E+00 1.47500E+00
 -1      2651-3.81959E+00 5.16310E+00 1.47500E+00
 -1      2652 2.58033E+00-1.58294E+00 1.09984E+00
 -1      2653-3.58123E+00 6.16337E+00 1.47500E+00
 -1      2654-1.82586E+00 6.89047E+00 1.47500E+00
 -1      2655-2.32070E+00 7.37907E-02 1.29951E+00
 -1      2656 7.62003E-01 4.23991E+00-5.00000E-01
 -1      2657-6.89047E+00 1.82586E+00 1.47500E+00
 -1      2658 2.32070E+00 9.66977E-02 1.46897E+00
 -1      2659 3.47334E+00 4.74999E-01 1.47500E+00
 -1      2660 3.40666E+00-4.74999E-01 1.47500E+00
 -1      2661 2.32070E+00 2.49681E-01 1.63693E+00
 -1      2662-6.35172E+00-9.50000E-01 1.47500E+00
 -1      2663-2.45314E+00 1.33551E+00-5.00000E-01
 -1      2664-7.06469E+00 9.50000E-01 1.47500E+00
 -1      2665-4.74999E-01 3.47334E+00 1.47500E+00
 -1      2666 4.74999E-01 3.40666E+00 1.47500E+00
 -1      2667-1.59175E-01 2.32070E+00 1.48879E+00
 -1      2668-1.18230E-01 2.66369E+00-5.00000E-01
 -1      2669 1.71318E+00-1.56879E+00 8.65625E-01
 -1      2670-1.64099E+00 1.64099E+00 1.74258E+00
 -1      2671-4.32374E+00-5.66724E+00 1.47500E+00
 -1      2672 2.32070E+00-1.57872E-01 9.71247E-01
 -1      2673 2.32070E+00-3.07295E-01 1.41387E+00
 -1      2674-2.32070E+00-5.69116E-02 9.08414E-01
 -1      2675-1.55301E+00-6.23178E+00 1.47500E+00
 -1      2676-3.58123E+00-6.16337E+00 1.47500E+00
 -1      2677 2.07794E+00-1.04769E+00 1.46309E+00
 -1      2678 1.82586E+00-6.89047E+00 1.47500E+00
 -1      2679 3.30838E+00-5.50468E+00 1.47500E+00
 -1      2680-2.32070E+00 2.24156E-01 1.85322E+00
 -1      2681-1.87746E-01-2.36926E+00-5.00000E-01
 -1      2682 2.23237E+00-6.74855E-01 1.34170E+00
 -1      2683 2.92796E+00-6.98665E-01 1.87573E+00
 -1      2684-1.07806E+00 4.51215E+00-5.00000E-01
 -1      2685-4.05289E+00-2.61727E+00-5.00000E-01
 -1      2686-1.52098E+00 2.43075E+00 8.53448E-01
 -1      2687 2.96557E+00 1.74251E+00 1.47500E+00
 -1      2688 3.32912E+00 8.64831E-01 1.47500E+00
 -1      2689-9.50000E-01-7.06469E+00 1.47500E+00
 -1      2690-2.18312E+00 7.93767E-01 1.59687E+00
 -1      2691 4.54281E+00 2.70802E+00-5.00000E-01
 -1      2692-2.10498E+00 9.82419E-01 8.65625E-01
 -1      2693 1.80841E+00 1.47356E+00 8.65625E-01
 -1      2694 2.98968E+00 4.74999E-01 1.09984E+00
 -1      2695-1.59905E-01 2.32070E+00 1.94722E+00
 -1      2696-2.32070E+00-2.21372E-01 1.85850E+00
 -1      2697-2.13342E+00 9.13759E-01 2.01400E+00
 -1      2698-9.54478E-02-2.32070E+00 1.34053E+00
 -1      2699 2.13659E+00 9.06103E-01 1.18321E+00
 -1      2700 2.32070E+00 1.06898E-01 2.08892E+00
 -1      2701 6.88243E-01-2.22683E+00 7.57472E-01
 -1      2702-8.06061E-01 2.17803E+00 1.34053E+00
 -1      2703 2.32070E+00 2.79418E-01 1.45619E+00
 -1      2704 2.22405E+00 6.94954E-01 1.32748E+00
 -1      2705 2.32070E+00-2.13957E-01 2.19029E+00
 -1      2706 2.32070E+00-2.11936E-01 1.73326E+00
 -1      2707 2.09951E+00 9.95623E-01 8.38560E-01
 -1      2708 9.22963E-01-2.12961E+00 1.71875E+00
 -1      2709 9.66977E-02 2.32070E+00 1.46897E+00
 -1      2710-4.52137E+00 3.64995E+00-5.00000E-01
 -1      2711-5.17427E+00-7.31829E-01-5.00000E-01
 -1      2712-1.52773E+00 1.75424E+00 1.48691E+00
 -1      2713 2.12014E+00 2.79189E+00 1.47500E+00
 -1      2714 2.74475E+00 2.07300E+00 1.47500E+00
 -1      2715 1.30154E+00-5.36181E+00-5.00000E-01
 -1      2716 4.50851E+00 9.57376E-01-5.00000E-01
 -1      2717 9.86852E-01-2.10314E+00 2.08892E+00
 -1      2718 2.26166E+00-6.04144E-01 1.47565E+00
 -1      2719 2.94431E+00 4.74999E-01 1.65768E+00
 -1      2720 1.18892E+00-2.17079E+00-5.00000E-01
 -1      2721-1.74251E+00-2.96557E+00 1.47500E+00
 -1      2722-8.90346E-01-3.39072E+00 1.47500E+00
 -1      2723 2.44990E+00-1.77815E+00 1.09984E+00
 -1      2724 2.57514E+00 7.79080E-02-5.00000E-01
 -1      2725 1.84418E+00-1.27463E+00-5.00000E-01
 -1      2726-2.98968E+00-4.74999E-01 1.85016E+00
 -1      2727-4.65723E+00 6.09462E-01-5.00000E-01
 -1      2728 2.38459E+00 1.71284E+00 1.23125E+00
 -1      2729-1.04411E+00 2.07943E+00 1.47957E+00
 -1      2730 8.90346E-01-3.39072E+00 1.47500E+00
 -1      2731 1.74251E+00-2.96557E+00 1.47500E+00
 -1      2732 4.74999E-01-3.40666E+00 1.47500E+00
 -1      2733-4.74999E-01-3.40666E+00 1.47500E+00
 -1      2734-2.22683E+00 6.88243E-01 7.57472E-01
 -1      2735-3.39072E+00-8.90346E-01 1.47500E+00
 -1      2736-2.96557E+00-1.74251E+00 1.47500E+00
 -1      2737-1.53416E+00 2.46257E+00 1.71875E+00
 -1      2738-1.03076E+00 2.08496E+00 1.19809E+00
 -1      2739-2.17995E-01-2.32070E+00 1.57261E+00
 -1      2740 2.05701E+00 1.09822E+00 1.05573E+00
 -1      2741 2.69966E+00 4.04032E+00 5.00000E-01
 -1      2742-1.71318E+00 1.56879E+00 8.65625E-01
 -1      2743 2.22500E+00 6.92666E-01 7.62004E-01
 -1      2744-4.76589E+00-9.47992E-01 5.00000E-01
 -1      2745 5.84911E+00 9.68435E-01-5.00000E-01
 -1      2746 1.16758E+00-2.02828E+00 8.65625E-01
 -1      2747 2.92796E+00 6.98665E-01 1.87573E+00
 -1      2748 5.50571E+00-1.09316E+00-5.00000E-01
 -1      2749-1.57635E+00-2.56441E+00 1.07427E+00
 -1      2750-6.81637E-01 2.22957E+00 1.10938E+00
 -1      2751-4.47034E+00-3.13415E+00-5.00000E-01
 -1      2752-6.87928E-01 2.22696E+00 1.57008E+00
 -1      2753-3.55284E+00-5.13253E+00-5.00000E-01
 -1      2754 1.07500E+00-2.06663E+00 1.09067E+00
 -1      2755 1.79949E+00-1.48248E+00 1.09678E+00
 -1      2756 9.62297E-01 1.91049E+00-5.00000E-01
 -1      2757-4.74999E-01 2.98968E+00 1.09984E+00
 -1      2758-1.72865E+00 1.55332E+00 1.48691E+00
 -1      2759 4.64914E+00-3.09056E+00-5.00000E-01
 -1      2760-9.30110E-01-5.70188E+00-5.00000E-01
 -1      2761-5.15095E-01-4.85536E+00-5.00000E-01
 -1      2762 4.76589E+00-9.47994E-01 5.00000E-01
 -1      2763-2.64313E+00-8.18585E+00-5.00000E-01
 -1      2764 5.02244E+00 8.17531E-01-5.00000E-01
 -1      2765 2.30304E-01 2.32070E+00 1.87432E+00
 -1      2766 9.47994E-01-4.76589E+00 5.00000E-01
 -1      2767-2.22515E+00-6.92290E-01 1.77969E+00
 -1      2768 1.57635E+00-2.56441E+00 1.07427E+00
 -1      2769-2.66748E+00-4.06311E+00-5.00000E-01
 -1      2770 2.21834E+00-7.08737E-01 1.87709E+00
 -1      2771-2.94431E+00-4.74999E-01 1.29232E+00
 -1      2772 2.25704E+00-6.15300E-01 1.74284E+00
 -1      2773-1.41736E+00 2.21088E+00-5.00000E-01
 -1      2774-4.95045E+00 1.07611E+00-5.00000E-01
 -1      2775 3.05166E-01 2.32070E+00 2.08437E+00
 -1      2776-5.47263E+00 1.31302E+00-5.00000E-01
 -1      2777-4.04032E+00 2.69966E+00 5.00000E-01
 -1      2778-3.38558E+00 4.83250E+00-5.00000E-01
 -1      2779-2.41473E+00 4.01168E+00-5.00000E-01
 -1      2780 4.04819E+00-2.81412E+00-5.00000E-01
 -1      2781-1.56539E+00-1.71658E+00 2.08892E+00
 -1      2782-2.23237E+00-6.74855E-01 1.26655E+00
 -1      2783-2.25277E+00-6.25605E-01 1.61636E+00
 -1      2784-2.97245E+00 4.74999E-01 1.87573E+00
 -1      2785-2.32070E+00-2.01198E-01 1.32252E+00
 -1      2786 2.70540E+00-4.58542E+00-5.00000E-01
 -1      2787-2.68794E+00-4.74999E-01 1.90156E+00
 -1      2788-1.09519E+00 2.05827E+00 1.85322E+00
 -1      2789 1.73641E+00 2.40816E+00 1.35312E+00
 -1      2790 1.47778E+00 1.80419E+00 1.59687E+00
 -1      2791-2.32070E+00-7.85928E-02 1.13305E+00
 -1      2792 1.70378E+00 1.57819E+00 1.34053E+00
 -1      2793 1.75408E+00-2.42583E+00 1.10938E+00
 -1      2794 2.04800E+00-2.86137E-01-5.00000E-01
 -1      2795 2.32070E+00 2.20293E-01 1.87619E+00
 -1      2796-2.05827E+00 1.09519E+00 1.09678E+00
 -1      2797 1.58294E+00 2.58033E+00 1.09984E+00
 -1      2798-2.04816E+00 1.11960E+00 7.12428E-01
 -1      2799 1.50994E+00-1.77203E+00 1.71875E+00
 -1      2800-2.22178E+00 7.00439E-01 1.85711E+00
 -1      2801-1.80419E+00 1.47778E+00 1.27722E+00
 -1      2802-1.74765E+00 1.53432E+00 1.07630E+00
 -1      2803-9.70126E-01-2.11007E+00 1.60947E+00
 -1      2804-1.47859E+00 1.80338E+00 1.70845E+00
 -1      2805 3.97951E+00 2.50322E+00-5.00000E-01
 -1      2806 1.48445E+00 1.79752E+00 1.85850E+00
 -1      2807-1.54762E-01 1.59912E+00 5.00000E-01
 -1      2808 2.56441E+00 1.57635E+00 1.07427E+00
 -1      2809 1.67353E-01-2.32070E+00 1.20569E+00
 -1      2810-2.12014E+00 2.79189E+00 1.47500E+00
 -1      2811-2.74475E+00 2.07300E+00 1.47500E+00
 -1      2812-2.38459E+00 1.71284E+00 1.59687E+00
 -1      2813-2.94997E+00-7.07784E-01 1.85260E+00
 -1      2814-2.56441E+00-1.57635E+00 1.07427E+00
 -1      2815 1.68410E+00-1.59787E+00 2.04543E+00
 -1      2816-1.02100E-01 2.32070E+00 8.65625E-01
 -1      2817-2.74475E+00-2.07300E+00 1.47500E+00
 -1      2818-2.07300E+00-2.74475E+00 1.47500E+00
 -1      2819 1.21228E-01-2.32070E+00 1.94967E+00
 -1      2820-1.55989E+00 1.72208E+00 2.09629E+00
 -1      2821-2.32070E+00-3.07762E-01 1.73063E+00
 -1      2822 2.17719E+00 8.08091E-01 9.67436E-01
 -1      2823-6.31083E-01 2.25051E+00 1.29606E+00
 -1      2824-2.32070E+00-3.01105E-01 1.45051E+00
 -1      2825-2.85602E-01-2.32070E+00 1.38851E+00
 -1      2826-1.75354E+00-1.52843E+00 1.48879E+00
 -1      2827-6.74855E-01-2.23237E+00 1.35312E+00
 -1      2828-2.29836E-01 1.69371E+00-5.00000E-01
 -1      2829-1.71318E+00-1.56879E+00 8.65625E-01
 -1      2830-2.30808E-01 2.32070E+00 1.26655E+00
 -1      2831 2.73396E+00 4.74999E-01 1.35981E+00
 -1      2832 9.82419E-01 2.10498E+00 8.65625E-01
 -1      2833-2.67019E+00-5.91896E-01 1.77969E+00
 -1      2834-1.79228E+00-1.48969E+00 2.19029E+00
 -1      2835-2.10704E+00-9.77433E-01 1.46897E+00
 -1      2836 7.05259E-01-2.94388E+00 1.85016E+00
 -1      2837 1.09519E+00 2.05827E+00 1.09678E+00
 -1      2838-1.31015E-01 2.32070E+00 2.21485E+00
 -1      2839-1.76596E+00-2.43771E+00 1.07427E+00
 -1      2840 2.88860E-01-2.32070E+00 2.02408E+00
 -1      2841-2.08032E+00 1.04196E+00 1.47482E+00
 -1      2842-2.97245E+00 4.74999E-01 1.07427E+00
 -1      2843-1.41893E+00 1.86304E+00 1.56032E+00
 -1      2844-2.94388E+00-7.05259E-01 1.09984E+00
 -1      2845-1.37586E+00 9.19317E-01 5.00000E-01
 -1      2846-1.42224E+00 1.85973E+00 2.08437E+00
 -1      2847-6.60304E-01 5.55600E+00-5.00000E-01
 -1      2848 1.51921E+00-1.76276E+00 2.21716E+00
 -1      2849-1.77815E+00 2.44990E+00 1.09984E+00
 -1      2850 7.28119E-01 2.21031E+00 1.97370E+00
 -1      2851 2.10498E+00-9.82419E-01 8.65625E-01
 -1      2852 1.72806E+00-1.55391E+00 1.55704E+00
 -1      2853-4.74999E-01-2.95565E+00 1.10938E+00
 -1      2854-2.57160E+00-8.89985E-01-5.00000E-01
 -1      2855 0.00000E+00-2.85877E+00 2.45000E+00
 -1      2856-7.77236E-01 2.18997E+00 2.21653E+00
 -1      2857-2.03492E+00 1.15157E+00 9.16750E-01
 -1      2858-2.92796E+00 6.98665E-01 1.87573E+00
 -1      2859-6.88950E-01-2.22654E+00 1.66151E+00
 -1      2860-1.79949E+00-1.48248E+00 1.09678E+00
 -1      2861-2.78937E+00-4.74999E-01 1.58568E+00
 -1      2862-2.32070E+00-2.23468E-01 7.38103E-01
 -1      2863-1.59396E+00 1.68801E+00 1.01561E+00
 -1      2864-2.32070E+00 2.85185E-01 2.03325E+00
 -1      2865-7.30953E-01 1.58962E+00 5.00000E-01
 -1      2866-1.08826E+00-2.06114E+00 1.37992E+00
 -1      2867-1.09400E+00 2.64116E+00 2.45000E+00
 -1      2868-2.50583E-01 2.32070E+00 7.12428E-01
 -1      2869 2.32070E+00 1.15404E-01 8.00729E-01
 -1      2870-2.04648E+00-1.65244E+00-5.00000E-01
 -1      2871 2.49500E+00 1.54760E+00 1.59128E+00
 -1      2872-1.79085E+00-1.49112E+00 1.73327E+00
 -1      2873 2.04850E+00-1.11877E+00 1.66719E+00
 -1      2874 1.03515E+00 2.08314E+00 1.48878E+00
 -1      2875-2.24907E+00 6.34548E-01 1.67970E+00
 -1      2876 2.26027E+00 6.07520E-01 1.45541E+00
 -1      2877 2.21111E+00-7.26196E-01 7.83771E-01
 -1      2878 1.50859E+00-4.99968E-01 5.00000E-01
 -1      2879 1.73106E-01-2.32070E+00 7.31152E-01
 -1      2880 7.12792E-01-2.21666E+00 1.03161E+00
 -1      2881 7.41036E-01-2.20496E+00 1.48878E+00
 -1      2882-4.74999E-01 2.98968E+00 1.85016E+00
 -1      2883-2.27017E+00 5.83618E-01 1.80490E+00
 -1      2884-2.44016E+00-1.76841E+00 1.07322E+00
 -1      2885 1.06008E+00 5.53783E+00-5.00000E-01
 -1      2886-7.28165E-01-2.21029E+00 2.21885E+00
 -1      2887-2.48326E+00 1.81151E+00 1.05477E+00
 -1      2888-6.27322E-01 2.75572E+00 1.50299E+00
 -1      2889-2.85855E+00 6.69915E-01 1.35872E+00
 -1      2890-9.94713E-01 2.09989E+00 7.31151E-01
 -1      2891 2.20796E+00 7.33804E-01 1.14093E+00
 -1      2892 2.32070E+00 1.76540E-01 1.29797E+00
 -1      2893-4.47710E-01 1.88872E+00 5.00000E-01
 -1      2894-1.48803E+00-1.79394E+00 7.57476E-01
 -1      2895-2.63754E+00-4.74999E-01 1.35312E+00
 -1      2896-2.32070E+00-2.81977E-01 1.13584E+00
 -1      2897-2.56887E+00-2.07113E-01 2.45000E+00
 -1      2898-2.21054E+00 7.27581E-01 2.22005E+00
 -1      2899 1.08390E+00 2.06295E+00 1.83068E+00
 -1      2900 2.80171E-01-2.32070E+00 1.81762E+00
 -1      2901-2.81759E+00 4.74999E-01 1.47500E+00
 -1      2902 4.74999E-01 2.97245E+00 1.87573E+00
 -1      2903-1.15097E+00-2.03516E+00 1.56812E+00
 -1      2904-1.84700E+00 1.43497E+00 1.44013E+00
 -1      2905 2.00922E+00 1.21362E+00 1.04844E+00
 -1      2906 2.32070E+00 3.03880E-01 8.65625E-01
 -1      2907 7.35109E-01-2.20742E+00 2.20461E+00
 -1      2908 2.16315E-01 2.32070E+00 7.57474E-01
 -1      2909-7.11633E-01 2.48576E+00 2.45000E+00
 -1      2910 1.21228E-01 2.32070E+00 1.00033E+00
 -1      2911-1.53798E+00 1.74399E+00 7.56853E-01
 -1      2912 1.51707E+00-1.76490E+00 7.83776E-01
 -1      2913-1.49883E+00 1.78314E+00 1.91093E+00
 -1      2914-1.86762E+00 1.41435E+00 1.12515E+00
 -1      2915 6.92290E-01-2.22515E+00 1.73326E+00
 -1      2916 6.82463E-01-2.22922E+00 1.97226E+00
 -1      2917-9.82419E-01-2.10498E+00 8.65625E-01
 -1      2918 1.57671E+00-1.70526E+00 1.00880E+00
 -1      2919 1.79321E+00-1.48876E+00 1.33605E+00
 -1      2920 1.71877E+00-2.39052E+00 1.63196E+00
 -1      2921 2.66572E+00 4.74999E-01 1.63121E+00
 -1      2922 9.68358E-01-1.45798E+00 5.00000E-01
 -1      2923 2.30808E-01 2.32070E+00 1.20514E+00
 -1      2924-1.41655E+00 1.86542E+00 1.82412E+00
 -1      2925 4.74999E-01 2.89732E+00 1.35872E+00
 -1      2926-1.45771E+00 1.82426E+00 9.33072E-01
 -1      2927 4.74999E-01-2.97245E+00 1.87573E+00
 -1      2928-2.93362E-01 2.32070E+00 2.09700E+00
 -1      2929-2.56441E+00-1.57635E+00 1.87573E+00
 -1      2930 2.05564E+00 1.10153E+00 1.29492E+00
 -1      2931-2.69684E+00 6.02933E-01 1.64812E+00
 -1      2932-1.81818E+00 1.46379E+00 7.12428E-01
 -1      2933-2.50583E-01-2.32070E+00 2.23757E+00
 -1      2934 1.51858E+00 1.76339E+00 7.31154E-01
 -1      2935-7.03621E-01-2.93992E+00 1.10938E+00
 -1      2936 2.22513E+00 1.55338E+00 1.04844E+00
 -1      2937-2.27809E+00 1.60634E+00 1.26910E+00
 -1      2938 5.76565E-01-2.27309E+00 1.84742E+00
 -1      2939-6.73879E-01-2.23278E+00 1.99445E+00
 -1      2940-2.43454E+00 1.52255E+00 8.65625E-01
 -1      2941 4.74999E-01-2.97591E+00 1.07322E+00
 -1      2942 1.90284E+00-2.30808E-01 5.00000E-01
 -1      2943 1.52099E+00 1.76098E+00 1.20168E+00
 -1      2944 2.30359E-01-2.32070E+00 9.83140E-01
 -1      2945-1.57635E+00-2.56441E+00 1.87573E+00
 -1      2946 2.09899E-01 2.32070E+00 2.25537E+00
 -1      2947-2.41599E-01-2.32070E+00 1.16213E+00
 -1      2948-7.05259E-01-2.94388E+00 1.85016E+00
 -1      2949 1.42591E+00-1.85606E+00 6.61694E-01
 -1      2950-1.11960E+00 2.04816E+00 2.23757E+00
 -1      2951-1.55527E+00-1.72670E+00 1.00033E+00
 -1      2952-2.82794E+00-4.74999E-01 8.53948E-01
 -1      2953 2.05573E+00-1.10133E+00 1.23955E+00
 -1      2954 1.66628E+00-2.33803E+00 2.08555E+00
 -1      2955 5.97916E-01-2.26424E+00 2.11787E+00
 -1      2956-1.75741E+00 1.52456E+00 1.99141E+00
 -1      2957 2.41783E+00-1.74608E+00 1.65766E+00
 -1      2958-1.46005E+00-2.28365E+00 1.84063E+00
 -1      2959-1.49137E+00 2.35925E+00 2.08437E+00
 -1      2960-1.82713E+00-1.45484E+00 1.30465E+00
 -1      2961-2.32070E+00 1.84609E-01 1.04509E+00
 -1      2962-1.10338E+00 2.05488E+00 9.34258E-01
 -1      2963 2.36484E+00 5.68979E-01-5.00000E-01
 -1      2964-2.32070E+00 2.18023E-01 1.60938E+00
 -1      2965 9.77433E-01-2.10704E+00 1.46897E+00
 -1      2966-2.38459E+00-1.71284E+00 1.58927E+00
 -1      2967 1.19681E+00 2.01618E+00 1.90156E+00
 -1      2968-2.64116E+00 1.09400E+00 2.45000E+00
 -1      2969 7.07784E-01-2.94997E+00 1.09740E+00
 -1      2970-1.47778E+00-1.80419E+00 1.20514E+00
 -1      2971 2.32070E+00-1.09570E-01 1.96223E+00
 -1      2972 2.32070E+00-2.85638E-01 1.90358E+00
 -1      2973-2.10314E+00-9.86852E-01 2.08892E+00
 -1      2974-9.47994E-01 4.76589E+00 5.00000E-01
 -1      2975 4.74999E-01 3.24934E+00 9.90457E-01
 -1      2976 1.58547E+00 2.58642E+00 1.85260E+00
 -1      2977-2.18312E+00-7.93767E-01 8.65625E-01
 -1      2978 2.03876E+00-1.14228E+00 1.04844E+00
 -1      2979 2.97245E+00-4.74999E-01 1.87573E+00
 -1      2980 2.86397E+00 6.72158E-01 1.36507E+00
 -1      2981 1.84427E+00-1.43770E+00 1.49586E+00
 -1      2982-1.87536E+00-1.40661E+00 1.18421E+00
 -1      2983-4.74999E-01-2.95565E+00 1.84063E+00
 -1      2984-6.47957E-01 2.24352E+00 1.77493E+00
 -1      2985 1.47703E+00 1.80494E+00 9.55553E-01
 -1      2986 6.57420E-01 2.23960E+00 1.76962E+00
 -1      2987 0.00000E+00 2.85877E+00 2.45000E+00
 -1      2988 1.42890E-01-2.32070E+00 1.48154E+00
 -1      2989 1.45352E+00-1.82845E+00 1.13860E+00
 -1      2990-6.22081E-01 2.25423E+00 2.11592E+00
 -1      2991-1.45051E+00 2.26062E+00 1.85181E+00
 -1      2992 5.14178E+00-5.08273E-01-5.00000E-01
 -1      2993 1.06547E+00-2.07058E+00 1.29168E+00
 -1      2994-7.54502E-01 2.19938E+00 7.45726E-01
 -1      2995-1.80554E+00 1.47643E+00 1.76749E+00
 -1      2996 2.01376E+00-1.20265E+00 1.16429E+00
 -1      2997-6.19068E-02-2.32070E+00 1.89853E+00
 -1      2998 2.30808E-01-1.60495E+00 5.00000E-01
 -1      2999-2.32070E+00 2.61684E-01 1.40056E+00
 -1      3000 2.17884E+00-8.04107E-01 1.00880E+00
 -1      3001 1.55877E+00 1.72320E+00 1.41227E+00
 -1      3002 3.51630E-01 2.32070E+00 1.17031E+00
 -1      3003-2.23699E+00-6.63707E-01 1.04156E+00
 -1      3004-1.57261E+00-1.70936E+00 1.46897E+00
 -1      3005-2.19044E+00 7.76090E-01 1.00033E+00
 -1      3006 5.80912E-01-2.27129E+00 6.34867E-01
 -1      3007 3.03525E-01-2.32070E+00 1.12405E+00
 -1      3008-2.60279E+00 4.74999E-01 1.53594E+00
 -1      3009-1.46169E+00-1.82028E+00 2.24039E+00
 -1      3010 2.26908E+00-1.59733E+00 1.35981E+00
 -1      3011 2.20933E+00-7.30493E-01 1.17116E+00
 -1      3012-2.58185E+00 4.24238E-01-5.00000E-01
 -1      3013 5.85435E-01-2.65460E+00 1.84063E+00
 -1      3014-4.67867E+00 2.98194E+00-5.00000E-01
 -1      3015-1.78281E+00 2.45456E+00 1.85260E+00
 -1      3016-1.07140E+00-1.26109E+00-5.00000E-01
 -1      3017-1.09519E+00-2.05827E+00 1.09678E+00
 -1      3018-1.71568E+00-3.46213E-01 5.00000E-01
 -1      3019-1.13669E+00 2.04108E+00 1.65566E+00
 -1      3020 2.30156E+00-1.46747E+00 1.04844E+00
 -1      3021-2.25459E+00 6.21221E-01 9.25917E-01
 -1      3022 1.44899E+00-1.83298E+00 9.48180E-01
 -1      3023 2.62741E+00 5.74172E-01 1.29219E+00
 -1      3024 2.32070E+00-3.53474E-01 1.29638E+00
 -1      3025-6.33493E-01-2.77062E+00 1.48084E+00
 -1      3026-1.15681E+00 2.03275E+00 2.04998E+00
 -1      3027 6.98665E-01 2.92796E+00 1.87573E+00
 -1      3028-1.47778E+00 1.80419E+00 1.18436E+00
 -1      3029 2.85693E+00 6.69243E-01 9.05604E-01
 -1      3030-2.04850E+00-1.11877E+00 1.63693E+00
 -1      3031 1.67765E+00-1.60432E+00 1.79612E+00
 -1      3032 1.47390E+00-2.31708E+00 8.65625E-01
 -1      3033-1.64937E+00 2.32112E+00 1.47785E+00
 -1      3034 2.27654E+00 5.68236E-01 1.56683E+00
 -1      3035-2.93795E-01 2.56887E+00 2.45000E+00
 -1      3036 1.14074E+00 2.03940E+00 1.64617E+00
 -1      3037 2.23296E+00-1.56121E+00 1.84063E+00
 -1      3038 2.32070E+00-1.24604E-01 7.20324E-01
 -1      3039-2.32070E+00 2.37867E-01 1.21963E+00
 -1      3040 2.32070E+00-2.86543E-01 8.26521E-01
 -1      3041 3.21382E-01-2.32070E+00 6.45388E-01
 -1      3042 2.24967E+00 6.33097E-01 9.41922E-01
 -1      3043 2.26045E+00-6.07085E-01 6.61692E-01
 -1      3044 1.39323E+00-1.88874E+00 1.04615E+00
 -1      3045 2.20302E+00-7.45714E-01 2.18288E+00
 -1      3046 1.51656E+00-1.76541E+00 1.96788E+00
 -1      3047 2.32070E+00 1.65658E-01 1.05984E+00
 -1      3048 2.22586E+00 6.90576E-01 1.84414E+00
 -1      3049 2.89732E+00-4.74999E-01 1.35312E+00
 -1      3050 6.74855E-01-2.23237E+00 1.26655E+00
 -1      3051 6.02910E-01-2.26218E+00 9.04782E-01
 -1      3052 7.98754E-01 2.18106E+00 1.46897E+00
 -1      3053 1.54760E+00-2.49500E+00 1.59128E+00
 -1      3054-2.26009E+00-1.58834E+00 1.29844E+00
 -1      3055-5.97926E-01 2.26424E+00 1.97050E+00
 -1      3056-2.32070E+00 1.72545E-01 7.32216E-01
 -1      3057 1.74782E+00 2.41957E+00 1.91382E+00
 -1      3058 3.31957E-01 2.32070E+00 2.21134E+00
 -1      3059 2.32070E+00-3.09881E-01 9.76831E-01
 -1      3060 1.41894E+00 1.86303E+00 8.14150E-01
 -1      3061 2.32070E+00 3.21170E-01 1.76714E+00
 -1      3062-1.86705E+00 1.41492E+00 1.61414E+00
 -1      3063-1.15676E+00 2.03276E+00 6.74338E-01
 -1      3064 1.58113E+00-2.25288E+00 8.65625E-01
 -1      3065-2.68250E+00 4.74999E-01 1.82020E+00
 -1      3066 3.41910E-01-2.32070E+00 2.14677E+00
 -1      3067-2.07359E+00 1.05819E+00 1.28409E+00
 -1      3068-1.76596E+00-2.43771E+00 1.87573E+00
 -1      3069-1.18317E+00 2.02183E+00 1.10938E+00
 -1      3070 2.31708E+00 1.47390E+00 8.65625E-01
 -1      3071-1.10335E+00-2.05489E+00 1.80811E+00
 -1      3072 5.96932E-01 2.26465E+00 1.91056E+00
 -1      3073 2.26185E+00 6.03688E-01 1.20720E+00
 -1      3074 1.11960E+00 2.04816E+00 7.12428E-01
 -1      3075 1.17556E+00 2.02498E+00 1.49861E+00
 -1      3076-2.53315E-01-2.32070E+00 1.78986E+00
 -1      3077 1.69474E+00 1.58723E+00 2.08437E+00
 -1      3078 5.96220E-01 2.68063E+00 2.08437E+00
 -1      3079 1.59676E+00 2.26851E+00 1.63939E+00
 -1      3080-1.47813E+00-1.80384E+00 1.87432E+00
 -1      3081-1.84665E+00 1.43532E+00 9.00018E-01
 -1      3082 1.41391E+00-1.86806E+00 8.08730E-01
 -1      3083 2.33135E+00 1.47981E+00 1.30158E+00
 -1      3084-1.40671E+00 1.87526E+00 1.06846E+00
 -1      3085-2.06127E+00-1.08794E+00 7.57472E-01
 -1      3086-5.69968E-01 2.27582E+00 1.53594E+00
 -1      3087-1.56925E+00 2.24100E+00 1.19038E+00
 -1      3088-9.58534E-01 1.41194E+00-5.00000E-01
 -1      3089 2.88860E-01 2.32070E+00 9.25921E-01
 -1      3090 1.41712E+00-1.86485E+00 1.84843E+00
 -1      3091 1.67813E+00 2.34988E+00 8.89909E-01
 -1      3092-2.01195E+00 1.20702E+00 8.01494E-01
 -1      3093-1.16489E+00-2.02940E+00 1.24045E+00
 -1      3094-2.06497E+00 1.07902E+00 2.19598E+00
 -1      3095 1.81822E+00-1.46375E+00 1.72523E+00
 -1      3096 2.32070E+00 3.05166E-01 2.08437E+00
 -1      3097-9.84592E-01 3.10856E+00-5.00000E-01
 -1      3098-3.07295E-01 2.32070E+00 1.41387E+00
 -1      3099 1.10086E+00-2.05592E+00 1.87432E+00
 -1      3100-2.32070E+00 3.29643E-01 1.52375E+00
 -1      3101-2.23521E+00-1.56346E+00 1.00208E+00
 -1      3102-2.32070E+00 3.10644E-01 1.72905E+00
 -1      3103 6.74855E-01 2.23237E+00 1.17031E+00
 -1      3104-2.22456E+00 6.93731E-01 1.36957E+00
 -1      3105-2.24352E+00 6.47961E-01 1.16223E+00
 -1      3106 1.84264E+00-1.43933E+00 9.16752E-01
 -1      3107 1.88134E+00-1.40063E+00 1.03566E+00
 -1      3108 2.27032E+00-5.83244E-01 1.87420E+00
 -1      3109 1.11877E+00-2.04850E+00 1.63693E+00
 -1      3110 2.32070E+00 3.20783E-01 1.31674E+00
 -1      3111 2.23665E+00-1.56490E+00 1.05894E+00
 -1      3112 6.83930E-01 2.22862E+00 2.20955E+00
 -1      3113 6.69915E-01 2.85855E+00 1.35872E+00
 -1      3114-2.27010E+00 5.83774E-01 1.28842E+00
 -1      3115 2.68639E+00-4.74999E-01 1.10938E+00
 -1      3116 1.19314E+00 2.01770E+00 1.76760E+00
 -1      3117-2.24627E+00 6.41302E-01 2.04495E+00
 -1      3118-1.44271E+00-1.83926E+00 1.39635E+00
 -1      3119 2.63201E+00-4.74999E-01 1.36958E+00
 -1      3120-7.26196E-01-2.21111E+00 7.83771E-01
 -1      3121 2.72144E+00-6.13122E-01 1.57517E+00
 -1      3122 4.74999E-01-2.67931E+00 1.04844E+00
 -1      3123-1.57034E+00 2.24209E+00 1.76903E+00
 -1      3124-1.73106E-01-2.32070E+00 7.31152E-01
 -1      3125-2.32070E+00 2.77428E-01 8.84841E-01
 -1      3126 1.48290E+00 2.33880E+00 2.09156E+00
 -1      3127-1.53702E+00 2.20877E+00 9.26562E-01
 -1      3128-2.27489E+00 5.72211E-01 8.03227E-01
 -1      3129-1.97860E+00 1.97860E+00 2.45000E+00
 -1      3130-2.23553E+00 6.67231E-01 1.03975E+00
 -1      3131 6.03616E-01-2.69849E+00 8.65625E-01
 -1      3132 2.26749E+00-5.90088E-01 8.10237E-01
 -1      3133 2.57666E+00 4.74999E-01 1.46454E+00
 -1      3134-1.84917E+00-1.43280E+00 1.58753E+00
 -1      3135-1.18677E+00-2.02034E+00 1.70197E+00
 -1      3136-5.91275E-01-2.66869E+00 1.19548E+00
 -1      3137-2.01398E+00 1.20212E+00 1.03566E+00
 -1      3138-6.33515E-01 2.24950E+00 2.28573E+00
 -1      3139-5.21422E+00-3.20905E+00-5.00000E-01
 -1      3140-6.83573E-01-2.22876E+00 1.09151E+00
 -1      3141-2.32070E+00 3.17870E-01 1.09982E+00
 -1      3142 2.49681E-01 2.32070E+00 1.63693E+00
 -1      3143-2.32070E+00 3.39904E-01 1.91434E+00
 -1      3144 3.25894E+00-4.90641E+00-5.00000E-01
 -1      3145-2.22593E+00-6.90422E-01 2.19030E+00
 -1      3146 5.98896E-01 2.26384E+00 2.32622E+00
 -1      3147 7.26196E-01 2.21111E+00 7.83771E-01
 -1      3148 1.42001E+00-1.86196E+00 2.09460E+00
 -1      3149-2.23702E+00 6.63644E-01 1.52453E+00
 -1      3150 9.94713E-01-2.09989E+00 2.28780E+00
 -1      3151 1.16205E+00-2.03057E+00 2.28108E+00
 -1      3152 1.15681E+00 2.03275E+00 9.00017E-01
 -1      3153 2.26966E+00 5.84829E-01 6.38881E-01
 -1      3154-2.27220E+00 5.78711E-01 1.42431E+00
 -1      3155-2.42876E-01 2.32070E+00 1.04156E+00
 -1      3156 2.58033E+00-1.58294E+00 1.85016E+00
 -1      3157 2.32070E+00 2.60977E-01 6.84085E-01
 -1      3158-2.23804E-01-2.32070E+00 1.96079E+00
 -1      3159 1.30290E+00 9.76484E-01 5.00000E-01
 -1      3160 2.80406E-01 2.32070E+00 1.39635E+00
 -1      3161 2.69613E+00 6.02637E-01 1.64974E+00
 -1      3162 4.74999E-01 2.81886E+00 9.31338E-01
 -1      3163-2.09766E+00-1.00010E+00 1.00033E+00
 -1      3164 2.32070E+00 3.12215E-01 1.01785E+00
 -1      3165-2.27167E+00-5.79980E-01 1.73580E+00
 -1      3166-3.11765E-01-2.32070E+00 8.65625E-01
 -1      3167-2.03712E+00-1.14624E+00 1.45620E+00
 -1      3168 1.55366E+00-2.22541E+00 1.82661E+00
 -1      3169 2.48822E+00 4.70471E+00-5.00000E-01
 -1      3170-2.23994E+00-6.56587E-01 7.12428E-01
 -1      3171-2.01438E+00 1.20114E+00 2.08437E+00
 -1      3172-2.59415E+00-1.58867E+00 1.47500E+00
 -1      3173-1.65646E+00-2.32821E+00 1.47500E+00
 -1      3174 2.26378E+00-5.99033E-01 1.21682E+00
 -1      3175-2.03351E+00-1.15497E+00 9.25917E-01
 -1      3176-2.66335E+00-4.74999E-01 1.07707E+00
 -1      3177 1.54868E+00 2.22043E+00 1.91268E+00
 -1      3178-2.67604E-01 2.32070E+00 8.77480E-01
 -1      3179-1.16097E+00 2.03102E+00 1.33197E+00
 -1      3180-2.09395E+00 1.00906E+00 1.75310E+00
 -1      3181 2.24134E+00 1.44253E+00 1.08678E+00
 -1      3182-2.03483E+00 1.15179E+00 1.63146E+00
 -1      3183-1.48475E+00 2.34328E+00 1.18812E+00
 -1      3184 1.48549E+00 2.15724E+00 1.74535E+00
 -1      3185-8.88095E-01-1.54092E+00 5.00000E-01
 -1      3186-2.32070E+00-2.55978E-01 9.36494E-01
 -1      3187-1.06452E+00-2.07097E+00 2.18112E+00
 -1      3188 2.16438E+00-1.49263E+00 1.22845E+00
 -1      3189-2.95660E-02-3.04356E+00-5.00000E-01
 -1      3190-4.74999E-01-2.73294E+00 2.10485E+00
 -1      3191-6.15465E-01-2.25697E+00 1.51087E+00
 -1      3192-1.96223E-01-2.62440E+00 2.45000E+00
 -1      3193-1.84264E+00-1.43933E+00 9.16752E-01
 -1      3194 5.16310E+00 3.81959E+00 1.18301E+00
 -1      3195 2.49550E-01 2.32070E+00 1.06339E+00
 -1      3196-2.32070E+00-3.33213E-01 1.32246E+00
 -1      3197-2.03123E+00 1.16048E+00 1.80233E+00
 -1      3198-1.19742E+00 2.01592E+00 1.92540E+00
 -1      3199 2.56976E+00-1.53489E+00-5.00000E-01
 -1      3200 1.56035E+00-2.52580E+00 2.03905E+00
 -1      3201-4.74999E-01 2.80578E+00 1.47500E+00
 -1      3202-1.44913E+00 2.25727E+00 1.59979E+00
 -1      3203-1.17985E+00 2.02320E+00 1.51252E+00
 -1      3204-2.69570E+00 4.74999E-01 9.26562E-01
 -1      3205-1.55938E+00 1.72259E+00 2.29197E+00
 -1      3206 1.16000E+00-2.03143E+00 2.05391E+00
 -1      3207-5.60898E-01 2.59536E+00 1.65781E+00
 -1      3208 1.44489E+00-1.83708E+00 1.54455E+00
 -1      3209 4.24032E-01 1.70091E+00 5.00000E-01
 -1      3210-1.68968E+00 2.00198E+00 2.45000E+00
 -1      3211 1.51325E+00 2.41207E+00 1.47785E+00
 -1      3212-2.52580E+00 1.56035E+00 2.10675E+00
 -1      3213-2.66110E+00 5.88127E-01 1.94191E+00
 -1      3214-1.42543E+00 1.85654E+00 7.78993E-01
 -1      3215 7.11633E-01-2.48576E+00 2.45000E+00
 -1      3216-2.04702E+00-1.12235E+00 2.24039E+00
 -1      3217 6.42009E-01-2.79118E+00 2.13195E+00
 -1      3218-1.42449E+00 1.85748E+00 1.36148E+00
 -1      3219-2.66541E+00-5.89913E-01 2.11764E+00
 -1      3220-2.72563E+00-6.14858E-01 1.41406E+00
 -1      3221-1.56756E+00-2.23931E+00 1.19613E+00
 -1      3222-2.32070E+00 3.20752E-01 6.45984E-01
 -1      3223-1.46137E+00 9.44867E-01-5.00000E-01
 -1      3224 2.06734E+00-1.07329E+00 1.92621E+00
 -1      3225 2.70409E+00-6.05937E-01 9.26562E-01
 -1      3226 5.60652E-01-2.59477E+00 2.05666E+00
 -1      3227 2.85877E+00 0.00000E+00 2.45000E+00
 -1      3228-1.46352E+00-2.29201E+00 1.04844E+00
 -1      3229 6.03455E-01-2.26195E+00 1.13199E+00
 -1      3230-1.80524E+00-1.47673E+00 1.96169E+00
 -1      3231 2.03039E+00 1.16251E+00 1.17430E+00
 -1      3232-2.02368E+00 1.17871E+00 1.21404E+00
 -1      3233-6.10912E-01 2.71610E+00 2.09475E+00
 -1      3234-2.81999E+00 6.53942E-01 8.92223E-01
 -1      3235-2.07649E+00-1.05120E+00 1.29797E+00
 -1      3236-1.43673E+00-1.84524E+00 9.25925E-01
 -1      3237-7.19180E-01 2.21402E+00 9.27811E-01
 -1      3238 1.16020E+00 2.03134E+00 2.09715E+00
 -1      3239 1.11680E+00 2.04932E+00 1.30204E+00
 -1      3240 2.25265E+00 6.25916E-01 1.07554E+00
 -1      3241-3.38154E-01-1.73915E+00 5.00000E-01
 -1      3242-6.08046E-01 2.70918E+00 1.15587E+00
 -1      3243-1.43465E+00 1.84732E+00 2.26237E+00
 -1      3244 2.06344E+00 1.08270E+00 1.55869E+00
 -1      3245 1.75867E+00 3.53730E-01 5.00000E-01
 -1      3246 4.74999E-01-2.69570E+00 2.02344E+00
 -1      3247 1.79419E+00 1.48778E+00 1.57008E+00
 -1      3248 1.79545E+00 1.48652E+00 1.86405E+00
 -1      3249 2.11697E+00 9.53480E-01 2.08437E+00
 -1      3250 2.06093E+00 1.08877E+00 1.86637E+00
 -1      3251-2.26078E+00 1.58903E+00 9.26562E-01
 -1      3252-8.89818E-01 5.04233E+00-5.00000E-01
 -1      3253 2.93795E-01-2.56887E+00 2.45000E+00
 -1      3254-2.33080E+00-1.47958E+00 1.29624E+00
 -1      3255 4.74999E-01-2.62184E+00 2.24951E+00
 -1      3256 2.02130E+00-1.18444E+00 1.38222E+00
 -1      3257 1.46956E+00 2.30659E+00 1.78267E+00
 -1      3258 2.22120E+00 7.01845E-01 2.11834E+00
 -1      3259 1.43513E+00 1.84684E+00 1.43161E+00
 -1      3260 6.07085E-01 2.26045E+00 6.61692E-01
 -1      3261-4.74999E-01 2.73976E+00 2.09810E+00
 -1      3262 1.42336E+00 1.85861E+00 1.73063E+00
 -1      3263-2.26895E+00-5.86549E-01 1.15886E+00
 -1      3264-2.26161E+00-6.04275E-01 1.41384E+00
 -1      3265-2.01636E+00 1.19638E+00 2.21235E+00
 -1      3266-1.22212E+00 1.38533E+00 5.00000E-01
 -1      3267 2.25830E+00 6.12263E-01 1.98528E+00
 -1      3268 2.69259E+00 6.01171E-01 2.10725E+00
 -1      3269 4.74999E-01 2.67161E+00 1.17926E+00
 -1      3270-1.19908E+00 2.01524E+00 1.77491E+00
 -1      3271 2.79234E+00 4.74999E-01 2.04041E+00
 -1      3272-2.77365E+00 4.74999E-01 2.12895E+00
 -1      3273-3.27427E-01-2.32070E+00 1.66631E+00
 -1      3274-5.74700E-01 2.27386E+00 1.17681E+00
 -1      3275-2.26963E+00-1.59788E+00 1.90156E+00
 -1      3276-2.42065E+00 1.51680E+00 1.29965E+00
 -1      3277 4.74999E-01 2.71768E+00 2.10725E+00
 -1      3278 1.20124E+00-2.01434E+00 1.93680E+00
 -1      3279 2.02990E+00-1.16369E+00 8.53209E-01
 -1      3280-6.04030E-01-2.26171E+00 1.82388E+00
 -1      3281 1.72259E+00-1.55938E+00 6.64841E-01
 -1      3282-1.79753E-01-2.32070E+00 9.90941E-01
 -1      3283-1.10427E+00 2.05451E+00 7.98089E-01
 -1      3284-2.68613E+00-5.98497E-01 9.26562E-01
 -1      3285-1.44340E+00 2.24346E+00 9.76823E-01
 -1      3286-2.05975E+00-1.09161E+00 1.87619E+00
 -1      3287-1.56756E+00-2.23931E+00 1.75387E+00
 -1      3288-1.84983E+00-1.43214E+00 1.44427E+00
 -1      3289-6.03760E-01-2.26182E+00 1.21937E+00
 -1      3290-2.63235E+00 4.74999E-01 1.17031E+00
 -1      3291-2.24646E+00-6.40861E-01 8.77480E-01
 -1      3292-2.32070E+00-3.42788E-01 1.02654E+00
 -1      3293 2.28699E+00 1.61524E+00 1.59687E+00
 -1      3294-1.11864E+00-2.60788E+00 2.45000E+00
 -1      3295-1.06275E+00-2.07170E+00 1.99203E+00
 -1      3296 2.68811E+00 4.74999E-01 1.05895E+00
 -1      3297 1.50271E+00 1.77926E+00 2.13320E+00
 -1      3298-2.60807E+00-4.74999E-01 8.64022E-01
 -1      3299-2.01321E+00-1.20398E+00 8.03227E-01
 -1      3300-2.32513E+00-1.47723E+00 1.62267E+00
 -1      3301-1.46443E+00-1.81754E+00 1.63692E+00
 -1      3302-4.04032E+00-2.69966E+00 5.00000E-01
 -1      3303-1.38595E+00-9.48819E-01 5.00000E-01
 -1      3304-2.48576E+00 7.11633E-01 2.45000E+00
 -1      3305-1.46453E+00-1.81744E+00 1.06339E+00
 -1      3306-1.18354E+00-2.02168E+00 1.92606E+00
 -1      3307 1.81223E+00 1.46974E+00 2.22961E+00
 -1      3308 1.54455E+00 2.21630E+00 1.29219E+00
 -1      3309-1.46975E+00 1.81222E+00 6.46303E-01
 -1      3310 1.53819E+00-2.20994E+00 1.56299E+00
 -1      3311 2.27464E+00 5.72815E-01 8.17027E-01
 -1      3312 2.61039E+00 5.67124E-01 8.65625E-01
 -1      3313 2.03304E+00 1.15610E+00 1.71090E+00
 -1      3314-1.87460E+00-1.40737E+00 2.31314E+00
 -1      3315-1.39922E+00-1.88275E+00 8.03231E-01
 -1      3316 2.02725E+00-1.17009E+00 1.52970E+00
 -1      3317-2.32070E+00 2.44189E-01 2.23982E+00
 -1      3318-1.53514E+00-2.46493E+00 1.47500E+00
 -1      3319 2.56887E+00 2.93795E-01 2.45000E+00
 -1      3320 2.27273E+00 5.77436E-01 1.33124E+00
 -1      3321-2.32070E+00-3.14111E-01 6.21733E-01
 -1      3322 1.18651E+00-2.02044E+00 1.76240E+00
 -1      3323 9.46954E-01 1.43999E+00 5.00000E-01
 -1      3324-2.27484E+00 1.45640E+00 1.07691E+00
 -1      3325-5.75012E-01-2.27373E+00 1.63031E+00
 -1      3326-4.74999E-01-2.78956E+00 1.47500E+00
 -1      3327-1.88515E+00-1.39682E+00 1.05767E+00
 -1      3328 1.40148E+00-1.88049E+00 1.42827E+00
 -1      3329-2.20841E+00 1.53666E+00 1.51287E+00
 -1      3330-1.14849E+00-2.03619E+00 9.18506E-01
 -1      3331-2.60148E+00 5.63433E-01 9.26562E-01
 -1      3332-1.94053E-01 2.32070E+00 1.71795E+00
 -1      3333 1.83461E+00 1.44736E+00 1.38786E+00
 -1      3334 2.72690E+00-4.74999E-01 2.11082E+00
 -1      3335-4.74999E-01-2.67911E+00 1.20429E+00
 -1      3336-1.40104E+00-1.88093E+00 1.27903E+00
 -1      3337 5.44228E-01 4.97311E+00-5.00000E-01
 -1      3338 2.99755E-01-2.32070E+00 1.35644E+00
 -1      3339-2.32070E+00-3.31633E-01 8.22237E-01
 -1      3340 1.76959E-01-2.32070E+00 1.66370E+00
 -1      3341 1.84982E+00 1.43215E+00 1.71660E+00
 -1      3342-2.95317E-01 2.32070E+00 1.85021E+00
 -1      3343-2.88511E-01 2.32070E+00 6.01763E-01
 -1      3344-3.26391E-01 2.32070E+00 1.15886E+00
 -1      3345 1.78268E+00 1.49929E+00 1.11479E+00
 -1      3346 1.14624E+00-2.03712E+00 1.45620E+00
 -1      3347-2.32070E+00 3.41913E-01 2.15186E+00
 -1      3348-1.75983E+00-8.53857E-01 5.00000E-01
 -1      3349-1.86322E+00-1.41875E+00 1.83927E+00
 -1      3350-2.07888E+00 1.04542E+00 1.91951E+00
 -1      3351-1.43288E+00-1.84909E+00 2.05391E+00
 -1      3352-2.07229E+00-2.07229E+00 2.45000E+00
 -1      3353 6.49691E-01-2.80973E+00 1.47247E+00
 -1      3354 1.48062E+00-2.33329E+00 1.30188E+00
 -1      3355 1.85853E+00 1.42344E+00 1.00321E+00
 -1      3356 2.02605E+00 1.17298E+00 1.43356E+00
 -1      3357-3.31023E-01-2.32070E+00 1.26222E+00
 -1      3358 2.62327E+00-5.72457E-01 1.32533E+00
 -1      3359-2.02920E+00-3.46213E-01 5.00000E-01
 -1      3360-2.28903E+00 1.46228E+00 1.56334E+00
 -1      3361-1.19532E+00-2.01680E+00 1.44447E+00
 -1      3362 2.03670E+00 1.14727E+00 8.91603E-01
 -1      3363 1.19742E+00 2.01592E+00 1.02460E+00
 -1      3364-2.03985E+00-1.13965E+00 1.11459E+00
 -1      3365 2.02627E+00-1.17243E+00 1.81241E+00
 -1      3366 2.03705E+00 1.14642E+00 2.06647E+00
 -1      3367-4.74999E-01 2.68987E+00 1.77969E+00
 -1      3368 2.32070E+00 2.09899E-01 2.25537E+00
 -1      3369 6.48681E-01 2.24322E+00 9.68974E-01
 -1      3370 2.25021E+00-6.31808E-01 1.01801E+00
 -1      3371 1.07081E+00 2.58516E+00 2.45000E+00
 -1      3372-1.50687E+00-2.17862E+00 1.40260E+00
 -1      3373 2.33433E+00-1.48105E+00 2.09156E+00
 -1      3374-2.59450E+00 4.74999E-01 2.01401E+00
 -1      3375 1.42893E+00-1.85304E+00 1.97127E+00
 -1      3376-2.28009E+00 1.45858E+00 2.18588E+00
 -1      3377 6.09787E-01 2.25933E+00 2.07050E+00
 -1      3378-1.25076E+00 2.26570E+00 2.45000E+00
 -1      3379 1.40866E+00-1.87331E+00 1.25875E+00
 -1      3380-2.02743E+00 1.16965E+00 1.39138E+00
 -1      3381 1.96223E-01 2.62440E+00 2.45000E+00
 -1      3382-1.41176E+00 1.87021E+00 1.95458E+00
 -1      3383-1.61847E+00 2.29022E+00 2.10626E+00
 -1      3384 2.32070E+00-2.28868E-01 1.11037E+00
 -1      3385 1.42829E+00 1.85368E+00 2.00453E+00
 -1      3386-6.21546E-01-2.25446E+00 2.31282E+00
 -1      3387-2.40420E-01-2.32070E+00 2.09887E+00
 -1      3388 2.19447E-01 2.32070E+00 1.51082E+00
 -1      3389 5.97066E-01-2.26460E+00 1.58308E+00
 -1      3390 2.42341E+00 1.51794E+00 2.02000E+00
 -1      3391-6.02190E-01-2.26247E+00 2.13466E+00
 -1      3392 7.27565E-01 2.21054E+00 1.61901E+00
 -1      3393 1.41018E+00 1.87179E+00 1.11035E+00
 -1      3394-2.20400E+00-1.53225E+00 1.54517E+00
 -1      3395 2.02421E+00 1.60872E+00 2.45000E+00
 -1      3396-2.98191E-01 2.32070E+00 2.28265E+00
 -1      3397 1.34193E+00 1.37488E+00 5.00000E-01
 -1      3398 2.32070E+00-2.34302E-01 2.04306E+00
 -1      3399-1.40611E+00-1.87586E+00 1.52521E+00
 -1      3400-5.85025E-01 2.82067E+00-5.00000E-01
 -1      3401 6.30156E-01 2.25089E+00 1.47006E+00
 -1      3402 5.81700E+00-9.50000E-01 1.11784E+00
 -1      3403 2.32070E+00 2.76069E-01 1.16845E+00
 -1      3404 1.18339E+00-2.02174E+00 1.00808E+00
 -1      3405 2.56887E+00-2.93795E-01 2.45000E+00
 -1      3406-2.22948E+00 1.43762E+00 8.60394E-01
 -1      3407-1.20218E+00-2.01395E+00 1.03579E+00
 -1      3408-1.11478E+00-2.05015E+00 7.10591E-01
 -1      3409 5.77933E-01-2.27252E+00 1.70775E+00
 -1      3410 3.42622E-01 2.32070E+00 1.54796E+00
 -1      3411-6.18917E-01-2.25555E+00 9.23688E-01
 -1      3412-1.81366E+00-1.46831E+00 7.10177E-01
 -1      3413 1.41225E+00-1.86972E+00 1.68031E+00
 -1      3414 3.13241E-01-2.32070E+00 8.31811E-01
 -1      3415-5.70840E-01-2.27546E+00 1.04389E+00
 -1      3416 3.32491E-01 2.32070E+00 6.34868E-01
 -1      3417-2.24107E+00-6.53866E-01 1.98479E+00
 -1      3418 1.17669E+00-2.02451E+00 1.19709E+00
 -1      3419 6.02933E-01 2.69684E+00 1.64812E+00
 -1      3420 2.24569E+00-6.42718E-01 2.04196E+00
 -1      3421-1.39896E+00-1.88301E+00 1.14776E+00
 -1      3422-1.58490E+00-2.25664E+00 8.68628E-01
 -1      3423-1.85796E+00 1.42401E+00 1.91233E+00
 -1      3424 2.02146E+00-2.02146E+00 2.45000E+00
 -1      3425 2.25175E+00-1.58000E+00 1.60032E+00
 -1      3426-2.26508E+00 5.95907E-01 2.18361E+00
 -1      3427 6.04191E-01-2.26164E+00 1.41387E+00
 -1      3428-6.21546E-01 2.25446E+00 6.58229E-01
 -1      3429-1.25450E+00-2.26090E+00 2.45000E+00
 -1      3430 1.85070E+00-1.43127E+00 6.68869E-01
 -1      3431-1.40131E+00-1.88066E+00 1.93680E+00
 -1      3432 8.63076E-02 1.92480E+00 5.00000E-01
 -1      3433-2.63215E+00 5.76137E-01 2.20435E+00
 -1      3434 2.63505E+00-1.05305E+00 2.45000E+00
 -1      3435 1.87638E+00 1.40559E+00 1.50647E+00
 -1      3436 1.85604E+00 1.42593E+00 1.23330E+00
 -1      3437 1.07500E+00-2.06663E+00 6.95434E-01
 -1      3438 2.32070E+00 3.45771E-01 1.89108E+00
 -1      3439 1.19190E+00 2.01821E+00 1.18881E+00
 -1      3440 2.07152E+00-1.06321E+00 6.90940E-01
 -1      3441-2.62360E+00-5.72595E-01 1.17812E+00
 -1      3442-1.68696E+00 3.86621E-01 5.00000E-01
 -1      3443-1.43768E+00 2.22963E+00 2.26695E+00
 -1      3444-2.32070E+00 2.90100E-01 7.63782E-01
 -1      3445 5.73304E-01-2.27444E+00 7.82078E-01
 -1      3446-1.20425E+00-2.01310E+00 8.00754E-01
 -1      3447-2.32764E+00 1.65589E+00 2.02227E+00
 -1      3448 2.32070E+00-3.39857E-01 1.77901E+00
 -1      3449 2.28674E+00 1.46133E+00 1.77190E+00
 -1      3450-1.44919E+00-2.25743E+00 1.58993E+00
 -1      3451 1.87868E+00-1.40329E+00 1.37765E+00
 -1      3452 2.04721E+00 1.12189E+00 6.96133E-01
 -1      3453-2.64475E+00 5.81356E-01 1.20206E+00
 -1      3454-6.58518E-01 2.23914E+00 1.43331E+00
 -1      3455-1.45370E+00-2.26830E+00 1.31404E+00
 -1      3456-2.21322E+00-1.43088E+00 1.45712E+00
 -1      3457 1.50488E+00-2.17663E+00 2.04750E+00
 -1      3458 3.23002E-01 2.32070E+00 1.76240E+00
 -1      3459 2.68258E+00-4.74999E-01 1.81875E+00
 -1      3460 2.41043E+00-1.51257E+00 1.47500E+00
 -1      3461 1.45041E+00-2.26036E+00 1.65781E+00
 -1      3462-6.09618E-01-2.71298E+00 2.09810E+00
 -1      3463-4.78499E+00 3.44149E+00 1.11784E+00
 -1      3464-4.74999E-01 2.69359E+00 1.18736E+00
 -1      3465 5.72263E-01 2.62280E+00 1.40201E+00
 -1      3466 6.07228E-01 2.70721E+00 1.04844E+00
 -1      3467-1.41259E+00-1.86938E+00 1.76240E+00
 -1      3468-2.60328E+00 5.64179E-01 1.43433E+00
 -1      3469-2.30873E+00-1.47044E+00 9.26562E-01
 -1      3470 1.44270E+00-2.24177E+00 1.08738E+00
 -1      3471 5.39057E-01 2.54263E+00 1.04844E+00
 -1      3472 2.03886E+00 2.88511E-01 5.00000E-01
 -1      3473 2.27149E+00 5.80415E-01 2.11226E+00
 -1      3474-1.86414E+00 1.41783E+00 2.09543E+00
 -1      3475 2.01821E+00 1.19189E+00 1.94134E+00
 -1      3476 5.85802E-01 2.26926E+00 8.26535E-01
 -1      3477-3.21382E-01-2.32070E+00 6.45388E-01
 -1      3478 2.32070E+00-3.01365E-01 1.58603E+00
 -1      3479 3.88578E-01 2.01410E+00 5.00000E-01
 -1      3480-4.03328E-01-2.02919E+00 5.00000E-01
 -1      3481-3.21263E-01-2.32070E+00 1.03658E+00
 -1      3482-2.03140E+00-1.16007E+00 2.05413E+00
 -1      3483-8.28787E-01-2.50045E+00 2.45000E+00
 -1      3484 7.90763E-01 1.78142E+00 5.00000E-01
 -1      3485-5.70287E-01-2.61803E+00 1.84063E+00
 -1      3486 2.70110E+00-6.04696E-01 2.11082E+00
 -1      3487 5.61527E-01-2.27932E+00 1.29638E+00
 -1      3488-4.74999E-01-2.58877E+00 1.53594E+00
 -1      3489 5.92365E-01-2.67133E+00 1.17589E+00
 -1      3490-5.91672E-01-2.26683E+00 7.81072E-01
 -1      3491 2.32070E+00-3.35537E-01 2.13207E+00
 -1      3492 2.26199E+00-6.03360E-01 2.19022E+00
 -1      3493-2.32070E+00 3.42906E-01 1.29784E+00
 -1      3494 1.70911E+00 7.95619E-01 5.00000E-01
 -1      3495 3.48991E-01 2.32070E+00 1.87827E+00
 -1      3496-5.76338E-01-2.63263E+00 9.26562E-01
 -1      3497 2.48576E+00 7.11633E-01 2.45000E+00
 -1      3498-4.74999E-01-2.72041E+00 8.74323E-01
 -1      3499 2.26265E+00 6.01763E-01 1.72654E+00
 -1      3500-3.42314E-01-2.32070E+00 2.01656E+00
 -1      3501-5.55841E-01-2.58315E+00 2.26719E+00
 -1      3502 2.68039E+00-5.96117E-01 1.84162E+00
 -1      3503 1.60872E+00 2.02421E+00 2.45000E+00
 -1      3504-2.47843E+00 3.18715E-01 2.45000E+00
 -1      3505 5.46757E-01-3.12985E+00-5.00000E-01
 -1      3506 2.42702E-03-1.76614E+00-5.00000E-01
 -1      3507 1.39575E+00-1.06767E+00 5.00000E-01
 -1      3508 2.23943E+00 1.56768E+00 2.14531E+00
 -1      3509-2.22163E+00-1.43436E+00 1.11827E+00
 -1      3510-1.15464E+00 2.03364E+00 2.34824E+00
 -1      3511 1.49816E+00 2.16991E+00 1.48759E+00
 -1      3512-2.28988E+00 1.46263E+00 1.85084E+00
 -1      3513 2.42297E+00 1.12854E+00 2.45000E+00
 -1      3514 5.92337E-01 2.26655E+00 1.63966E+00
 -1      3515 1.40308E+00 1.87889E+00 2.14107E+00
 -1      3516-5.44268E-01-2.55521E+00 2.01701E+00
 -1      3517 1.55338E+00-2.22513E+00 1.14959E+00
 -1      3518 1.39617E+00 1.88580E+00 1.54536E+00
 -1      3519 1.18293E+00-2.02192E+00 1.32960E+00
 -1      3520 2.32070E+00-3.15012E-01 1.18740E+00
 -1      3521 1.46312E+00 2.29105E+00 1.10938E+00
 -1      3522 4.74999E-01 2.68292E+00 1.81307E+00
 -1      3523-2.01695E+00-1.19493E+00 6.34846E-01
 -1      3524-6.03091E-01 2.26210E+00 1.65768E+00
 -1      3525 1.43698E+00 1.84499E+00 6.37183E-01
 -1      3526-4.74999E-01 2.59167E+00 1.95819E+00
 -1      3527-1.52935E+00-2.90315E+00-5.00000E-01
 -1      3528 7.94931E-01 2.49620E+00 2.45000E+00
 -1      3529 2.58696E+00-4.74999E-01 9.26562E-01
 -1      3530 1.42196E+00 1.86001E+00 1.27474E+00
 -1      3531 1.80069E+00-1.48128E+00 2.21415E+00
 -1      3532 2.27341E+00 5.75793E-01 1.86555E+00
 -1      3533 4.78499E+00 3.44149E+00 1.02756E+00
 -1      3534-2.17710E+00 1.50535E+00 1.10717E+00
 -1      3535 2.24994E+00-1.44609E+00 1.29343E+00
 -1      3536-8.87770E-01-5.19765E+00-5.00000E-01
 -1      3537 1.78692E+00-1.49505E+00 1.91529E+00
 -1      3538 1.80684E+00-1.47513E+00 1.60500E+00
 -1      3539 7.13696E-01 2.21629E+00 1.33087E+00
 -1      3540-4.74999E-01 2.60803E+00 1.57416E+00
 -1      3541-2.97610E-01 2.32070E+00 1.57861E+00
 -1      3542-3.53474E-01 2.32070E+00 1.29638E+00
 -1      3543-4.74999E-01 2.63279E+00 1.37677E+00
 -1      3544 1.09895E+00 1.71596E+00 5.00000E-01
 -1      3545-1.88976E-01 2.02925E+00 5.00000E-01
 -1      3546 5.82411E-01 2.27067E+00 1.08173E+00
 -1      3547 1.85676E+00-6.44185E-01 5.00000E-01
 -1      3548 1.86110E+00-1.42087E+00 1.21981E+00
 -1      3549-1.75429E+00-1.98424E+00 2.45000E+00
 -1      3550 2.45385E+00-7.88674E-01 2.45000E+00
 -1      3551 2.24924E+00 6.34131E-01 2.27900E+00
 -1      3552 1.79796E+00-1.48401E+00 7.89642E-01
 -1      3553-1.58080E+00-2.25255E+00 2.09471E+00
 -1      3554-2.26112E+00 6.05448E-01 1.92690E+00
 -1      3555 1.43730E+00 2.22872E+00 1.57731E+00
 -1      3556-2.81189E-01 2.32070E+00 1.97350E+00
 -1      3557-1.88276E+00-1.39921E+00 7.98140E-01
 -1      3558-1.94375E+00-6.26164E-01 5.00000E-01
 -1      3559 1.39758E+00 1.88439E+00 1.88630E+00
 -1      3560 2.06777E+00-1.07226E+00 2.18905E+00
 -1      3561 1.82263E+00 1.45934E+00 2.04510E+00
 -1      3562 1.78917E+00-1.49280E+00 2.06515E+00
 -1      3563-1.87835E+00-1.40362E+00 1.70709E+00
 -1      3564-1.29310E+00-1.37610E+00 5.00000E-01
 -1      3565 2.02342E+00-1.17933E+00 2.05813E+00
 -1      3566 1.87530E+00 1.40667E+00 1.93468E+00
 -1      3567-5.68416E-01 2.61351E+00 9.26562E-01
 -1      3568-4.74999E-01 2.64598E+00 9.26562E-01
 -1      3569 1.33662E+00-1.43207E+00 5.00000E-01
 -1      3570 2.01283E+00 1.20489E+00 7.83171E-01
 -1      3571 2.02019E+00-1.18712E+00 1.93490E+00
 -1      3572-2.02285E+00-1.18069E+00 1.25446E+00
 -1      3573 1.45991E+00-2.28330E+00 1.93798E+00
 -1      3574 1.88415E+00 1.39782E+00 2.14488E+00
 -1      3575 1.88790E+00 1.39407E+00 8.04688E-01
 -1      3576-2.60788E+00-1.11864E+00 2.45000E+00
 -1      3577 4.74999E-01-2.73403E+00 1.59687E+00
 -1      3578 1.44194E+00 2.23992E+00 1.33657E+00
 -1      3579-1.17475E+00-1.66530E+00 5.00000E-01
 -1      3580 2.58593E+00 4.74999E-01 2.02344E+00
 -1      3581 2.02031E+00-1.18682E+00 2.30647E+00
 -1      3582 6.63951E-03-1.92775E+00 5.00000E-01
 -1      3583 1.19206E+00-2.01815E+00 7.35428E-01
 -1      3584-2.02115E+00-1.18481E+00 1.76715E+00
 -1      3585-1.59939E+00 1.19137E+00 5.00000E-01
 -1      3586-1.81100E+00 1.06242E+00 5.00000E-01
 -1      3587-2.01534E+00-1.19882E+00 1.93226E+00
 -1      3588-6.26407E-01 2.25244E+00 8.11671E-01
 -1      3589-1.72538E+00 1.55659E+00 2.23593E+00
 -1      3590-2.02504E+00 1.17540E+00 1.94426E+00
 -1      3591-2.24300E+00 1.57125E+00 1.77928E+00
 -1      3592 5.65023E-01 2.60532E+00 1.86261E+00
 -1      3593-5.61062E-01 2.59576E+00 1.90156E+00
 -1      3594 2.32070E+00-2.80229E-01 6.59582E-01
 -1      3595-1.64259E+00-1.17573E+00 5.00000E-01
 -1      3596 1.88476E+00-1.39721E+00 7.82028E-01
 -1      3597-1.98506E+00-1.75129E+00 2.45000E+00
 -1      3598-2.10350E+00-5.59018E-01 5.00000E-01
 -1      3599-3.29055E-01-2.32070E+00 1.89095E+00
 -1      3600 2.22320E+00 1.55145E+00 1.86415E+00
 -1      3601 1.14623E+00-2.69733E+00 2.45000E+00
 -1      3602-2.32893E+00-1.20162E+00 2.45000E+00
 -1      3603-2.25446E+00-6.21546E-01 6.01763E-01
 -1      3604-2.59021E+00-5.58763E-01 1.57774E+00
 -1      3605 2.59436E+00 5.60483E-01 1.90156E+00
 -1      3606-5.97522E-01 2.26441E+00 9.93669E-01
 -1      3607 2.01620E+00 1.19677E+00 1.59108E+00
 -1      3608 1.87077E+00-1.41120E+00 1.98773E+00
 -1      3609-2.22398E+00-1.55223E+00 2.17776E+00
 -1      3610 2.32070E+00 3.31957E-01 2.21134E+00
 -1      3611-5.43133E-01 2.55247E+00 2.07366E+00
 -1      3612-2.26340E+00-5.99960E-01 1.86619E+00
 -1      3613-1.88026E+00-1.40171E+00 2.18895E+00
 -1      3614-1.15464E+00-2.03364E+00 6.01810E-01
 -1      3615 2.01689E+00-1.19508E+00 6.82813E-01
 -1      3616 1.41444E+00-1.86753E+00 2.30367E+00
 -1      3617-1.49519E+00-2.16694E+00 1.93043E+00
 -1      3618-1.19981E+00 2.01493E+00 8.66907E-01
 -1      3619-2.34954E+00 1.18560E+00 2.45000E+00
 -1      3620-2.00198E+00 1.68968E+00 2.45000E+00
 -1      3621 5.16310E+00-3.81959E+00 1.18301E+00
 -1      3622-3.27862E-01 2.32070E+00 1.70924E+00
 -1      3623 1.64753E+00 2.31928E+00 2.16599E+00
 -1      3624-1.06285E+00 1.69500E+00 5.00000E-01
 -1      3625 1.87546E+00-1.40651E+00 2.12720E+00
 -1      3626-4.74999E-01 2.56205E+00 2.13787E+00
 -1      3627 3.80331E-01-1.94802E+00 5.00000E-01
 -1      3628 2.07128E+00 1.06378E+00 2.24996E+00
 -1      3629 2.82392E+00-3.80395E+00-5.00000E-01
 -1      3630-3.34675E-01-2.32070E+00 1.51100E+00
 -1      3631-1.84499E+00 1.43698E+00 2.28390E+00
 -1      3632-1.83544E+00-1.44653E+00 2.08015E+00
 -1      3633 1.51359E+00 2.18534E+00 9.26562E-01
 -1      3634 2.28136E+00 1.45911E+00 1.53366E+00
 -1      3635-2.00032E+00 4.53823E-01 5.00000E-01
 -1      3636-9.09346E-01 1.89379E+00 5.00000E-01
 -1      3637 2.05082E+00-4.56559E-01 5.00000E-01
 -1      3638-2.29402E+00-1.46435E+00 1.91620E+00
 -1      3639-3.15223E-01-2.49428E+00 2.45000E+00
 -1      3640 6.21546E-01-2.25446E+00 2.30330E+00
 -1      3641 3.81959E+00-5.16310E+00 1.18301E+00
 -1      3642 2.11177E+00-2.55230E-01 5.00000E-01
 -1      3643-9.47994E-01-4.76589E+00 5.00000E-01
 -1      3644-2.27115E+00 5.81253E-01 6.34846E-01
 -1      3645 5.62593E-01-2.59945E+00 1.59104E+00
 -1      3646-2.15625E+00 1.48450E+00 1.34125E+00
 -1      3647 2.32070E+00-3.13282E-01 2.30324E+00
 -1      3648 3.21820E-01-2.32070E+00 1.67813E+00
 -1      3649-2.26956E+00 5.85072E-01 2.31717E+00
 -1      3650-1.50597E+00-2.39451E+00 2.13473E+00
 -1      3651 4.74999E-01-2.61934E+00 1.80157E+00
 -1      3652 3.14569E-01-2.32070E+00 2.30446E+00
 -1      3653 8.67999E-01-1.79397E+00 5.00000E-01
 -1      3654 1.86981E+00-1.41216E+00 1.84241E+00
 -1      3655 1.49555E+00 2.16730E+00 2.11938E+00
 -1      3656-2.03601E+00 1.14892E+00 1.51039E+00
 -1      3657 1.43698E+00 1.84499E+00 2.29721E+00
 -1      3658 4.78499E+00-3.44149E+00 1.02756E+00
 -1      3659-1.43260E+00-2.21738E+00 2.04142E+00
 -1      3660-4.74999E-01-2.67181E+00 1.80917E+00
 -1      3661-2.03364E+00 1.15464E+00 6.01763E-01
 -1      3662 1.25450E+00 2.26090E+00 2.45000E+00
 -1      3663 4.74999E-01 2.64806E+00 1.44056E+00
 -1      3664 1.05358E+00 2.07550E+00 2.25849E+00
 -1      3665 1.87624E+00 1.40573E+00 2.32163E+00
 -1      3666 2.17825E+00-1.41639E+00 2.14531E+00
 -1      3667-2.27751E+00-1.45751E+00 2.19003E+00
 -1      3668-7.03555E-01-1.84248E+00 5.00000E-01
 -1      3669 4.74999E-01 2.57002E+00 1.65781E+00
 -1      3670-1.08956E+00 1.87429E+00 5.00000E-01
 -1      3671-1.49527E+00-2.16702E+00 2.26719E+00
 -1      3672 1.18100E+00 2.02272E+00 2.30681E+00
 -1      3673 2.56437E+00-5.48062E-01 1.98761E+00
 -1      3674 1.16698E+00-2.37351E+00 2.45000E+00
 -1      3675 2.58065E+00-4.74999E-01 1.98362E+00
 -1      3676-1.71103E-01-2.08856E+00 5.00000E-01
 -1      3677 2.26352E+00 1.45171E+00 2.21251E+00
 -1      3678 4.04032E+00-2.69966E+00 5.00000E-01
 -1      3679 2.02421E+00-1.60872E+00 2.45000E+00
 -1      3680-1.15464E+00-2.03364E+00 2.30406E+00
 -1      3681 2.02105E+00 1.18505E+00 2.20040E+00
 -1      3682 5.26050E-01-5.33657E+00-5.00000E-01
 -1      3683-1.43698E+00-1.84499E+00 6.32395E-01
 -1      3684 1.62190E+00 1.14634E+00 5.00000E-01
 -1      3685-1.50710E+00 2.17885E+00 1.56766E+00
 -1      3686 3.44149E+00-4.78499E+00 1.02756E+00
 -1      3687 2.61750E+00-4.74999E-01 1.59865E+00
 -1      3688 1.58252E+00 1.38385E+00 5.00000E-01
 -1      3689 4.76589E+00 9.47994E-01 5.00000E-01
 -1      3690-3.01341E+00-4.48096E+00-5.00000E-01
 -1      3691-2.32070E+00-3.41258E-01 1.84638E+00
 -1      3692 2.02027E+00-1.18693E+00 2.18216E+00
 -1      3693-2.32070E+00-1.80065E-01 2.14390E+00
 -1      3694-1.17390E+00-2.02567E+00 2.08537E+00
 -1      3695-2.69966E+00-4.04032E+00 5.00000E-01
 -1      3696 1.82712E+00 1.01117E+00 5.00000E-01
 -1      3697 9.23079E-01-5.06379E+00-5.00000E-01
 -1      3698-2.69967E+00 4.04032E+00 5.00000E-01
 -1      3699-1.50644E+00 2.17819E+00 2.26719E+00
 -1      3700 2.27293E+00-5.76954E-01 1.62238E+00
 -1      3701 3.41910E-01 2.32070E+00 8.03229E-01
 -1      3702-3.01943E+00 4.14866E+00-5.00000E-01
 -1      3703-1.84499E+00 1.43698E+00 6.01763E-01
 -1      3704 4.04032E+00 2.69966E+00 5.00000E-01
 -1      3705 1.16193E+00-1.69878E+00 5.00000E-01
 -1      3706-2.20646E+00 1.53471E+00 2.21453E+00
 -1      3707-2.32070E+00-2.96245E-01 2.01502E+00
 -1      3708-2.66762E+00-4.74999E-01 2.18156E+00
 -1      3709 3.00994E+00-4.08956E-01-5.00000E-01
 -1      3710-5.81700E+00-9.50000E-01 1.11784E+00
 -1      3711-2.48576E+00-7.11633E-01 2.45000E+00
 -1      3712 1.80731E+00 1.20446E+00 5.00000E-01
 -1      3713 1.05303E+00-1.86391E+00 5.00000E-01
 -1      3714 4.74999E-01 2.59914E+00 9.26562E-01
 -1      3715 1.15464E+00 2.03364E+00 6.01763E-01
 -1      3716-6.61198E-01-2.23803E+00 6.50222E-01
 -1      3717 2.20748E+00 1.53573E+00 1.30973E+00
 -1      3718-9.50000E-01-6.35172E+00 1.18301E+00
 -1      3719-4.74999E-01-2.58626E+00 1.02510E+00
 -1      3720-2.32070E+00-2.97220E-01 2.28173E+00
 -1      3721-2.26801E+00-5.88833E-01 2.10491E+00
 -1      3722-9.50000E-01-5.81700E+00 1.02756E+00
 -1      3723 2.25446E+00-6.21546E-01 2.32577E+00
 -1      3724 1.84499E+00-1.43698E+00 2.33081E+00
 -1      3725 5.87751E-01 2.26845E+00 1.28078E+00
 -1      3726-2.32070E+00-3.14531E-01 2.14831E+00
 -1      3727 2.30324E+00-1.46817E+00 1.78689E+00
 -1      3728-2.25446E+00-6.21546E-01 2.31586E+00
 -1      3729-6.13138E-01-2.03183E+00 5.00000E-01
 -1      3730-4.76589E+00 9.47994E-01 5.00000E-01
 -1      3731-9.67162E-01-1.82838E+00 5.00000E-01
 -1      3732-4.78499E+00-3.44149E+00 1.11784E+00
 -1      3733 2.16431E+00-1.49256E+00 2.02344E+00
 -1      3734-1.92131E+00 5.80481E-02 5.00000E-01
 -1      3735-2.88511E-01-2.32070E+00 2.34824E+00
 -1      3736-1.30362E+00 1.62304E+00 5.00000E-01
 -1      3737-2.08335E+00 2.31475E-01 5.00000E-01
 -1      3738 2.69966E+00-4.04032E+00 5.00000E-01
 -1      3739-2.32070E+00 2.88511E-01 2.34816E+00
 -1      3740 9.50000E-01 5.81700E+00 1.11784E+00
 -1      3741 9.47994E-01 4.76589E+00 5.00000E-01
 -1      3742 2.61067E-01-2.32070E+00 1.55370E+00
 -1      3743 1.70355E+00-1.13827E+00 5.00000E-01
 -1      3744 1.84499E+00 1.43698E+00 6.52923E-01
 -1      3745 2.23188E+00 1.21576E+00 2.45000E+00
 -1      3746-6.30769E+00 9.03775E-01-5.00000E-01
 -1      3747-6.35172E+00 9.50000E-01 1.18301E+00
 -1      3748-1.83569E+00-1.06378E+00 5.00000E-01
 -1      3749 3.44149E+00 4.78499E+00 1.11784E+00
 -1      3750-1.84499E+00-1.43698E+00 6.01841E-01
 -1      3751 1.88272E+00-9.04759E-01 5.00000E-01
 -1      3752 1.57972E+00-1.35965E+00 5.00000E-01
 -1      3753 2.03116E+00 1.16064E+00 2.32906E+00
 -1      3754 9.50000E-01-6.35172E+00 1.18301E+00
 -1      3755-5.81700E+00 9.50000E-01 1.02756E+00
 -1      3756 5.81700E+00 9.50000E-01 1.11784E+00
 -1      3757 5.37693E+00 1.07292E-01-5.00000E-01
 -1      3758-5.91491E+00 4.46173E-01-5.00000E-01
 -1      3759-3.44149E+00 4.78499E+00 1.11784E+00
 -1      3760-9.50000E-01 5.81700E+00 1.11784E+00
 -1      3761-3.81959E+00-5.16310E+00 1.18301E+00
 -1      3762 1.87600E+00-1.08509E+00 5.00000E-01
 -1      3763 9.50000E-01-5.81700E+00 1.02756E+00
 -1      3764 4.94707E+00-8.11965E-02-5.00000E-01
 -1      3765 7.19937E+00-5.16260E-02-5.00000E-01
 -1      3766-1.18606E-01 5.13939E+00-5.00000E-01
 -1      3767 4.10576E-01 6.72333E+00-5.00000E-01
 -1      3768-3.44149E+00-4.78499E+00 1.02756E+00
 -1      3769 6.48340E+00-1.08883E-01-5.00000E-01
 -1      3770-3.49924E-01 6.84395E+00-5.00000E-01
 -1      3771 1.39048E-01 4.76221E+00-5.00000E-01
 -1      3772 6.82094E+00 1.75368E-01-5.00000E-01
 -1      3773 2.22784E-01 5.09601E+00-5.00000E-01
 -1      3774 6.97798E-02 7.03240E+00-5.00000E-01
 -1      3775-2.84102E-01 7.25895E+00-5.00000E-01
 -1      3776 1.15789E-01 5.61896E+00-5.00000E-01
 -1      3777 1.86137E+00 1.53496E+00-1.04249E-02
 -1      3778-1.73062E+00-1.73062E+00 4.99052E-02
 -1      3779-1.86137E+00 1.53496E+00 1.91182E-02
 -1      3780-7.05808E-01-2.30710E+00-3.10298E-02
 -1      3781 4.78031E+00 3.19409E+00 3.18202E-02
 -1      3782-9.60858E-01-2.62129E+00 2.99723E-01
 -1      3783-2.40158E+00-2.30808E-01 1.06586E-02
 -1      3784-5.63875E+00-1.12162E+00 5.79864E-02
 -1      3785-7.05808E-01 2.30710E+00 2.86587E-02
 -1      3786 2.30710E+00-7.05808E-01 1.50400E-02
 -1      3787-1.13229E+00 2.13046E+00 1.01738E-01
 -1      3788-1.34861E-01 2.42066E+00 2.87103E-02
 -1      3789 1.13229E+00 2.13046E+00-8.73390E-03
 -1      3790 7.05808E-01-2.30710E+00-3.06924E-02
 -1      3791 6.26266E-01 2.32292E+00-1.57859E-02
 -1      3792 3.19409E+00 4.78031E+00 2.02897E-02
 -1      3793-4.28071E+00-2.86029E+00-2.68964E-02
 -1      3794-1.53496E+00-1.86137E+00 2.79877E-01
 -1      3795 2.62129E+00-9.60858E-01 3.28956E-01
 -1      3796-2.13046E+00-1.13229E+00-1.71988E-02
 -1      3797-5.02388E+00-9.99311E-01-1.24833E-02
 -1      3798-1.95807E+00 2.02416E+00 8.68072E-01
 -1      3799-1.68988E+00 2.07031E+00 5.13895E-02
 -1      3800-1.17410E+00 2.53296E+00 5.32044E-01
 -1      3801-2.77993E+00 3.34340E-02 1.03050E+00
 -1      3802-3.46213E-01 2.37862E+00 2.32779E-01
 -1      3803 1.13229E+00-2.13046E+00 9.02460E-02
 -1      3804-4.68393E-02-2.75398E+00 1.15164E+00
 -1      3805-9.41916E-01 2.57266E+00 1.81933E+00
 -1      3806 1.73161E+00-2.09402E+00 3.63265E-02
 -1      3807 2.40158E+00-2.30808E-01 7.73648E-02
 -1      3808-5.90404E-01 2.33006E+00 2.81601E-01
 -1      3809 1.53496E+00 1.86137E+00 9.46375E-02
 -1      3810 3.46213E-01 2.37862E+00 1.79233E-01
 -1      3811 2.68208E+00 1.65658E-01 1.05984E+00
 -1      3812-2.64731E+00-1.81446E-01 1.71429E+00
 -1      3813-1.23012E+00 2.06508E+00 3.04420E-01
 -1      3814 2.56900E+00-1.00070E+00 1.12539E+00
 -1      3815 1.13789E+00 2.58187E+00 6.79408E-01
 -1      3816 2.33006E+00-5.90404E-01 2.60436E-01
 -1      3817 4.31870E+00 2.88567E+00-2.12123E-02
 -1      3818-2.78946E+00-1.15404E-01 5.32513E-01
 -1      3819-5.90404E-01-2.33006E+00 2.37148E-01
 -1      3820-1.12162E+00-5.63875E+00 5.79365E-02
 -1      3821-2.35687E+00 1.26645E+00 5.19589E-02
 -1      3822-2.02973E+00 1.86652E+00 3.25805E-01
 -1      3823 2.82432E+00-5.73678E-02 6.12953E-01
 -1      3824 4.78031E+00-3.19409E+00 6.43039E-02
 -1      3825-7.52719E-01-2.49620E+00 1.53594E+00
 -1      3826 1.92041E+00 1.98628E+00 1.28252E+00
 -1      3827 1.42941E+00-1.93191E+00 1.56923E-01
 -1      3828 2.53296E+00 1.17410E+00 5.50759E-01
 -1      3829 5.11981E+00-1.01839E+00-6.17213E-02
 -1      3830-2.40158E+00 2.30808E-01 9.87144E-02
 -1      3831-2.57381E+00-1.00323E+00 1.04513E+00
 -1      3832 2.86959E+00 4.29463E+00-4.31870E-02
 -1      3833 9.60858E-01-2.62129E+00 2.99933E-01
 -1      3834 2.57825E+00 1.08335E+00 1.05183E+00
 -1      3835-4.78031E+00 3.19409E+00 5.05977E-02
 -1      3836-2.00806E+00-4.57030E-01 1.44703E-01
 -1      3837 1.43713E+00-1.92675E+00 3.52635E-01
 -1      3838-2.37862E+00 3.46213E-01 3.02881E-01
 -1      3839-2.46747E+00-7.29852E-01 1.90156E+00
 -1      3840-1.80605E+00 8.73003E-01-4.75057E-03
 -1      3841-3.46213E-01 2.37862E+00 3.97587E-01
 -1      3842 1.29609E-01 2.76918E+00 1.64130E+00
 -1      3843 2.21691E+00 7.93362E-01-2.89738E-02
 -1      3844 1.19837E+00-2.40799E+00 1.99143E+00
 -1      3845 2.05405E+00-1.89084E+00 3.62844E-01
 -1      3846 2.81167E+00-1.50347E-02 1.57445E+00
 -1      3847 2.06508E+00-1.23012E+00-1.70528E-02
 -1      3848-7.61403E-01 2.48032E+00 1.20421E+00
 -1      3849-2.37862E+00-3.46213E-01 2.58219E-01
 -1      3850-4.78031E+00-3.19409E+00 4.25018E-02
 -1      3851-1.14299E+00 2.40462E+00 8.65484E-01
 -1      3852-6.32423E-02 2.82079E+00 6.79408E-01
 -1      3853-4.79768E-01 2.35206E+00 3.64675E-01
 -1      3854-1.76918E+00-1.96924E+00 1.12122E+00
 -1      3855 5.90404E-01 2.33006E+00 2.68982E-01
 -1      3856-1.78165E+00 1.94485E+00 5.82553E-01
 -1      3857 2.59490E+00 1.11755E+00 1.89430E+00
 -1      3858-2.37450E+00 7.42427E-01-5.75298E-02
 -1      3859-2.63381E+00-8.26903E-01 1.47673E-01
 -1      3860-2.91208E-01-2.55745E+00 2.14531E+00
 -1      3861 2.50742E+00 7.91723E-01 1.11306E+00
 -1      3862 5.90404E-01-2.33006E+00 2.37319E-01
 -1      3863 1.12162E+00 5.63875E+00 7.12802E-02
 -1      3864 3.63341E-02-2.77215E+00 1.90020E+00
 -1      3865-1.93674E+00-1.42218E+00 1.35981E-01
 -1      3866-9.99311E-01 5.02388E+00 2.84330E-02
 -1      3867 1.64702E+00-1.98965E+00 1.45170E+00
 -1      3868 3.46213E-01 2.37862E+00 3.65606E-01
 -1      3869 1.19974E+00-2.39181E+00 1.53481E+00
 -1      3870 2.06508E+00-1.23012E+00 2.57597E-01
 -1      3871-2.07108E-01-2.56866E+00 1.28294E+00
 -1      3872 1.17488E+00 2.47090E+00 1.21035E+00
 -1      3873-8.49230E-01-2.47399E+00 1.22462E+00
 -1      3874-2.56215E+00 1.09510E+00 1.86454E+00
 -1      3875 2.47517E+00 7.03386E-01 1.61584E+00
 -1      3876 1.85304E+00 1.98395E+00 1.77952E+00
 -1      3877 2.33006E+00 5.90404E-01 2.00237E-01
 -1      3878 1.90574E+00-1.92917E+00 7.56930E-01
 -1      3879-2.49115E+00 7.71191E-01 1.76923E+00
 -1      3880 2.02517E+00 1.95536E+00 7.44940E-01
 -1      3881-2.53296E+00 1.17410E+00 5.43404E-01
 -1      3882-4.31510E+00 2.88326E+00-2.75124E-02
 -1      3883 2.60441E+00 1.95046E-01 1.75165E+00
 -1      3884 9.89979E-01 2.53988E+00 1.58399E+00
 -1      3885 1.82661E-01 2.59263E+00 1.41776E+00
 -1      3886-1.67119E+00 2.02862E+00 1.96058E+00
 -1      3887-1.43713E+00-1.92675E+00 3.96361E-01
 -1      3888 2.47275E+00-7.03228E-01 9.26562E-01
 -1      3889-1.12502E+00-1.99205E+00-2.00925E-02
 -1      3890-2.60764E+00 1.82877E-01 1.73227E+00
 -1      3891-2.35080E+00 1.20635E+00 1.37093E+00
 -1      3892-1.99485E+00-1.67520E+00 1.20404E+00
 -1      3893 1.56884E-01 2.63850E+00 1.08986E+00
 -1      3894-4.15237E-01 2.06648E+00 2.36260E-01
 -1      3895-2.55946E+00-2.38582E-01 1.04013E+00
 -1      3896 1.27904E+00 2.03239E+00 2.20409E-01
 -1      3897-2.01499E+00 1.14691E+00 1.33763E-01
 -1      3898 1.23012E+00-2.06508E+00 2.98575E-01
 -1      3899 2.06508E+00 1.23012E+00 1.29442E-01
 -1      3900 2.66575E+00-1.08406E-01 2.10069E+00
 -1      3901-2.80220E+00 5.35147E-01 1.07719E-01
 -1      3902-2.43955E-01-2.74977E+00 1.55691E-01
 -1      3903-3.46213E-01-2.37862E+00 2.82376E-01
 -1      3904 7.12892E-01 2.46451E+00 1.65781E+00
 -1      3905-1.46634E-01 2.56155E+00 6.14970E-01
 -1      3906 2.01490E+00 1.67305E+00 1.47787E+00
 -1      3907 1.96595E+00 1.71707E+00 9.83989E-01
 -1      3908-2.35855E+00-6.64663E-01 2.01699E-01
 -1      3909 2.37862E+00-3.46213E-01 2.92029E-01
 -1      3910-2.06508E+00-1.23012E+00 2.67601E-01
 -1      3911-1.69884E+00 1.97705E+00 1.05326E+00
 -1      3912 1.99177E+00-1.88159E+00 1.20513E+00
 -1      3913 2.28574E+00-1.21148E+00 1.14204E+00
 -1      3914 2.31756E+00 1.20500E+00 1.97329E+00
 -1      3915-2.60416E+00 2.12825E-01 8.16886E-01
 -1      3916-1.38821E+00 1.95944E+00 3.23809E-01
 -1      3917 1.81961E-01 2.81467E+00 2.72420E-01
 -1      3918 1.09563E+00-2.51813E+00 7.19520E-01
 -1      3919-1.11109E+00-2.42840E+00 1.87288E+00
 -1      3920 3.46213E-01-2.37862E+00 2.82405E-01
 -1      3921 1.77654E+00-1.61333E+00 3.74623E-02
 -1      3922 4.85732E-01 2.35087E+00 3.63069E-01
 -1      3923 2.58805E+00 2.88511E-01 2.11851E-01
 -1      3924 1.64816E+00-1.98730E+00 1.90055E+00
 -1      3925-1.98422E+00 1.57621E+00 2.85871E-01
 -1      3926-1.98331E+00-1.70410E+00 1.84968E+00
 -1      3927-2.03239E+00 1.27904E+00 3.00127E-01
 -1      3928 4.32306E+00-2.88858E+00-2.17598E-02
 -1      3929-1.89084E+00-2.05405E+00 5.50844E-01
 -1      3930 2.36715E+00 4.03915E-01 2.98967E-01
 -1      3931-5.91809E-01 2.80269E+00 8.55127E-02
 -1      3932-2.34153E+00-5.32702E-01 3.30373E-01
 -1      3933 1.99038E+00-1.63716E+00 1.00510E+00
 -1      3934 1.96856E+00 2.77290E-01-2.29254E-02
 -1      3935-1.68031E+00-1.97566E+00 1.52047E+00
 -1      3936 2.64180E+00-1.46847E-01 1.18949E+00
 -1      3937 1.98792E+00-1.69952E+00 1.52274E+00
 -1      3938 1.24105E+00 1.81227E+00 3.23676E-01
 -1      3939 3.19409E+00-4.78031E+00 6.82112E-02
 -1      3940-8.81382E-01 2.43493E+00 1.47491E+00
 -1      3941 1.20671E+00 2.29670E+00 9.89440E-01
 -1      3942-5.32702E-01-2.34153E+00 3.72428E-01
 -1      3943 1.18053E+00-2.32140E+00 9.49913E-01
 -1      3944-1.20033E+00 2.28753E+00 1.95972E+00
 -1      3945-2.36655E+00-4.06919E-01 3.81722E-01
 -1      3946 2.54581E-01 2.58038E+00 2.18805E+00
 -1      3947 4.84150E-01-2.35119E+00 3.49055E-01
 -1      3948 2.47592E+00 7.32785E-01 2.18396E+00
 -1      3949-1.22134E+00-2.28475E+00 1.44909E+00
 -1      3950 2.32017E+00-1.22535E+00 1.48606E+00
 -1      3951-2.31260E+00 1.19879E+00 2.03467E+00
 -1      3952-1.27904E+00-2.03239E+00 3.00230E-01
 -1      3953 2.32068E+00 1.17099E+00 1.15519E+00
 -1      3954 1.97732E+00-1.80378E+00 2.15003E+00
 -1      3955 1.18777E+00 2.32337E+00 1.97786E+00
 -1      3956-2.57384E+00 2.52405E-01 1.30975E+00
 -1      3957-1.95944E+00 1.38821E+00 3.70656E-01
 -1      3958-2.53296E+00-1.17410E+00 4.69069E-01
 -1      3959 2.88275E+00-4.31433E+00-3.18740E-02
 -1      3960 1.38821E+00 1.95944E+00 3.39182E-01
 -1      3961 4.05728E-01-2.07895E+00 2.17585E-01
 -1      3962 1.01434E+00 5.09943E+00-2.32000E-02
 -1      3963 2.35238E+00-4.78181E-01 3.55560E-01
 -1      3964 2.49693E+00-8.29758E-01 1.48061E+00
 -1      3965-2.32444E-01 2.55695E+00 1.90546E+00
 -1      3966 1.98956E+00 1.64904E+00 1.95391E+00
 -1      3967-2.56623E+00 2.34229E-01 2.13049E+00
 -1      3968 2.33006E+00 5.90404E-01 3.77930E-01
 -1      3969 4.16263E-01 2.10742E+00 2.32086E-01
 -1      3970-2.46480E+00 8.85542E-01 1.46839E+00
 -1      3971 1.95944E+00-1.38821E+00 3.15541E-01
 -1      3972 2.34966E+00-1.59558E+00 1.20272E-01
 -1      3973 2.02788E+00-1.28580E+00 3.78801E-01
 -1      3974-3.41378E-01-1.95612E+00 2.08995E-03
 -1      3975 1.64299E+00-1.12335E+00 1.20272E-01
 -1      3976-2.29048E+00 1.10746E+00 6.14969E-01
 -1      3977 2.06508E+00 1.23012E+00 3.37219E-01
 -1      3978 2.48724E+00-1.06611E+00 7.21876E-01
 -1      3979-2.49342E+00 8.73432E-01 1.11840E+00
 -1      3980-2.52071E+00-1.11974E+00 1.46348E+00
 -1      3981 1.15404E-01-2.78946E+00 4.76460E-01
 -1      3982 2.57980E+00 2.51864E-01 2.18051E+00
 -1      3983 1.95944E+00 1.38821E+00 3.24411E-01
 -1      3984-1.92675E+00-1.43713E+00 3.40448E-01
 -1      3985-2.00536E+00-1.31950E+00 3.62090E-01
 -1      3986-1.74074E+00 1.22842E+00 2.34285E-01
 -1      3987-5.27475E+00 1.04921E+00-4.79957E-02
 -1      3988-1.08798E+00-2.47570E+00 6.80939E-01
 -1      3989 1.12162E+00-5.63875E+00 2.37319E-02
 -1      3990 2.28721E+00 1.20943E+00 7.97339E-01
 -1      3991 5.63875E+00 1.12162E+00 4.44095E-02
 -1      3992 2.50885E+00-9.41075E-01 2.01906E+00
 -1      3993-1.76974E+00-1.18947E+00 2.27761E-01
 -1      3994-3.19409E+00 4.78031E+00 5.85696E-02
 -1      3995 5.17702E-01-2.84171E+00 2.35848E-03
 -1      3996 7.36252E-01-2.47501E+00 8.28344E-01
 -1      3997-1.98434E+00-1.67271E+00 2.12185E+00
 -1      3998-2.33006E+00 5.90404E-01 2.86498E-01
 -1      3999 1.46732E+00 1.24273E+00 4.15335E-02
 -1      4000-1.01971E+00-5.12645E+00 3.33071E-03
 -1      4001-9.90089E-01 1.79748E+00 1.56114E-01
 -1      4002-1.12162E+00 5.63875E+00 1.34668E-02
 -1      4003 2.80810E+00-5.35335E-01 9.66997E-02
 -1      4004-3.19409E+00-4.78031E+00 1.71388E-02
 -1      4005 1.00424E+00-1.71326E+00 9.33249E-02
 -1      4006 1.11573E+00 2.31045E+00 6.14969E-01
 -1      4007 8.32123E-01-2.52155E+00 1.37805E+00
 -1      4008-2.34359E+00-1.18186E+00 1.75165E+00
 -1      4009-2.35347E+00 4.72672E-01 3.62306E-01
 -1      4010 1.63669E+00-1.99605E+00 1.04291E+00
 -1      4011 1.84041E+00-4.33107E-01 2.50468E-03
 -1      4012 8.44504E-01 2.51126E+00 1.24300E+00
 -1      4013 5.11243E+00 1.01693E+00-7.26674E-03
 -1      4014-2.84949E+00-4.26455E+00-3.84770E-03
 -1      4015 2.87660E-01 2.56132E+00 1.93599E+00
 -1      4016 9.99311E-01-5.02388E+00 3.08957E-02
 -1      4017 2.27090E+00 1.21951E+00 1.63099E+00
 -1      4018 1.27904E+00 2.03239E+00 3.83043E-01
 -1      4019-1.98430E+00 1.82883E+00 1.39052E+00
 -1      4020-2.43453E-01-2.56825E+00 1.87617E+00
 -1      4021 2.44378E+00 9.29878E-01 2.89084E-01
 -1      4022 2.27788E+00-1.22247E+00 1.99229E+00
 -1      4023-2.15875E+00-1.82911E+00 2.20102E-01
 -1      4024-2.84581E+00 4.25904E+00 1.34320E-02
 -1      4025-1.91138E+00 1.70401E+00 6.14971E-01
 -1      4026-2.09496E+00 4.11298E-01 2.13902E-01
 -1      4027-1.35353E+00 1.47311E+00 1.93325E-02
 -1      4028 1.69484E-01-2.63060E+00 1.57083E+00
 -1      4029-0.00000E+00 6.62621E+00 3.69683E-01
 -1      4030 7.06469E+00 1.52789E-01 3.51351E-01
 -3
    3C                         13297                                     1
 -1         1    3    0    1
 -2      2075      2152      2288      2327
 -1         2    3    0    1
 -2      3259      3826      3308      3511
 -1         3    3    0    1
 -2       539       992       988       936
 -1         4    3    0    1
 -2      1033       749      2439      2763
 -1         5    3    0    1
 -2      1077      2145      2354      2503
 -1         6    3    0    1
 -2      1638      1639      2924      3382
 -1         7    3    0    1
 -2       791       391      1049      1329
 -1         8    3    0    1
 -2       975      2372      3863      3776
 -1         9    3    0    1
 -2      1027      1312      2432      2685
 -1        10    3    0    1
 -2         9       696       700       899
 -1        11    3    0    1
 -2       933       737      2644      2671
 -1        12    3    0    1
 -2       659         8       665      1267
 -1        13    3    0    1
 -2       993      2487       987      3994
 -1        14    3    0    1
 -2        72       639      1239      1242
 -1        15    3    0    1
 -2       618       967       970      2463
 -1        16    3    0    1
 -2       699      1009      2617      2618
 -1        17    3    0    1
 -2      2217       361      2365      2370
 -1        18    3    0    1
 -2       347       239       751      1035
 -1        19    3    0    1
 -2       185      1000      1306      2213
 -1        20    3    0    1
 -2      2089      2167      2184      2511
 -1        21    3    0    1
 -2      1687      3009      2000      2001
 -1        22    3    0    1
 -2      2535      2668      3788      3810
 -1        23    3    0    1
 -2       229       398      1031      2556
 -1        24    3    0    1
 -2       479      1278       944       549
 -1        25    3    0    1
 -2      1090       309      2255      2273
 -1        26    3    0    1
 -2       514       749       756      1033
 -1        27    3    0    1
 -2       580       569       915      2596
 -1        28    3    0    1
 -2       940       711      1015      1276
 -1        29    3    0    1
 -2       185       187       682      1000
 -1        30    3    0    1
 -2       251      2141      2151      2498
 -1        31    3    0    1
 -2        68        74       629      1229
 -1        32    3    0    1
 -2       517      1233       974      1296
 -1        33    3    0    1
 -2       151      2443      2477      2532
 -1        34    3    0    1
 -2      2885      3337      3962      3776
 -1        35    3    0    1
 -2      2663      2634      3821      3858
 -1        36    3    0    1
 -2      2854      3783      3859      3908
 -1        37    3    0    1
 -2       836      1342      2150      2289
 -1        38    3    0    1
 -2      1592      1593      1934      3588
 -1        39    3    0    1
 -2       497      1043       774       496
 -1        40    3    0    1
 -2      1728      1939      3631      3706
 -1        41    3    0    1
 -2       934       674       997      1266
 -1        42    3    0    1
 -2       489       488      2567      2574
 -1        43    3    0    1
 -2       713       415      1021      1022
 -1        44    3    0    1
 -2      2277       879      2296      2316
 -1        45    3    0    1
 -2      1511      1510      3174      1918
 -1        46    3    0    1
 -2       735       734      2314      2488
 -1        47    3    0    1
 -2       739       736      1244      2644
 -1        48    3    0    1
 -2       398      1025      2375      2556
 -1        49    3    0    1
 -2        27      1167        28       551
 -1        50    3    0    1
 -2      2077      2182      2246      2258
 -1        51    3    0    1
 -2       535      1263       536      1007
 -1        52    3    0    1
 -2         3       678       682      1147
 -1        53    3    0    1
 -2      2061      2162      2215      2420
 -1        54    3    0    1
 -2      3013      2916      3226      3844
 -1        55    3    0    1
 -2      1323       767      2097      2352
 -1        56    3    0    1
 -2      1778      1777      3197      3590
 -1        57    3    0    1
 -2      1421      1422      3230      3349
 -1        58    3    0    1
 -2      1472      3227      3900      3982
 -1        59    3    0    1
 -2      1344       837      1343      2235
 -1        60    3    0    1
 -2       768       763      3389      3427
 -1        61    3    0    1
 -2      2966      3173      3854      3935
 -1        62    3    0    1
 -2       718       534      1260      2639
 -1        63    3    0    1
 -2      2118      2086      2293      2401
 -1        64    3    0    1
 -2      2789      3079      3826      3876
 -1        65    3    0    1
 -2       801       385       387      1061
 -1        66    3    0    1
 -2      2103      2094      2226      2275
 -1        67    3    0    1
 -2      2058      2148      2502      2503
 -1        68    3    0    1
 -2       660      2586      2651      3463
 -1        69    3    0    1
 -2      1468      1469      3565      3571
 -1        70    3    0    1
 -2       223       416       728      1028
 -1        71    3    0    1
 -2       609       606       618       970
 -1        72    3    0    1
 -2      1015       712      2429      2500
 -1        73    3    0    1
 -2       622      1299       630       517
 -1        74    3    0    1
 -2      2127      2053      2242      2333
 -1        75    3    0    1
 -2       389      1103      1385      2294
 -1        76    3    0    1
 -2       398      1031      2252      2458
 -1        77    3    0    1
 -2       889      2277      2296      2345
 -1        78    3    0    1
 -2       653       984      2197      2570
 -1        79    3    0    1
 -2      1549      1445      1550      2775
 -1        80    3    0    1
 -2      2052      2170      2357      2409
 -1        81    3    0    1
 -2      2707      2740      3953      3990
 -1        82    3    0    1
 -2      2162      1361      2420      2486
 -1        83    3    0    1
 -2      3812      2636      3890      3967
 -1        84    3    0    1
 -2       922      1336      1066       503
 -1        85    3    0    1
 -2        17        16       609      1157
 -1        86    3    0    1
 -2       342       160       641       985
 -1        87    3    0    1
 -2       223       416      1028      2445
 -1        88    3    0    1
 -2      3782      3496      1922      3988
 -1        89    3    0    1
 -2        54        53       825      1204
 -1        90    3    0    1
 -2      1378      1094      2207      2255
 -1        91    3    0    1
 -2      2326      2136      2413      2429
 -1        92    3    0    1
 -2      3147      1667      3260      3476
 -1        93    3    0    1
 -2      1283       568      2212      2398
 -1        94    3    0    1
 -2       798       797      2678      2679
 -1        95    3    0    1
 -2      3871      2825      3488      3630
 -1        96    3    0    1
 -2      2066      2204      2294      2378
 -1        97    3    0    1
 -2      3206      1551      3844      3573
 -1        98    3    0    1
 -2       371       372       569       954
 -1        99    3    0    1
 -2      2181      2233      2330      3781
 -1       100    3    0    1
 -2      2088       361      2241      2370
 -1       101    3    0    1
 -2      1383      1101      2119      2244
 -1       102    3    0    1
 -2       996       672      2710      3835
 -1       103    3    0    1
 -2      2305      2595      3777      3999
 -1       104    3    0    1
 -2      2164      1323      2352      2495
 -1       105    3    0    1
 -2       595        37        38      1186
 -1       106    3    0    1
 -2       503      1066       922       502
 -1       107    3    0    1
 -2      1556      1636      1637      2982
 -1       108    3    0    1
 -2      1033      1321      2384      2763
 -1       109    3    0    1
 -2      1608      3870      3973      3762
 -1       110    3    0    1
 -2      1152       611      2583      2630
 -1       111    3    0    1
 -2      1279      2194      2466      2716
 -1       112    3    0    1
 -2      2056      2116      2174      2362
 -1       113    3    0    1
 -2      4003       822      1280      1067
 -1       114    3    0    1
 -2       802      1213        58      1212
 -1       115    3    0    1
 -2       779      1039      1044      2324
 -1       116    3    0    1
 -2      3482      3638      3667      4008
 -1       117    3    0    1
 -2       503      1336      1066       826
 -1       118    3    0    1
 -2      2094      2103      2383      2440
 -1       119    3    0    1
 -2        96       941      1281      2491
 -1       120    3    0    1
 -2      2091      2061      2215      2290
 -1       121    3    0    1
 -2      1384       318      2470      2537
 -1       122    3    0    1
 -2      1001      2128      2360      2361
 -1       123    3    0    1
 -2       362       153      2219      2532
 -1       124    3    0    1
 -2      2201      2218      2388      2482
 -1       125    3    0    1
 -2      2055       156      2116      2312
 -1       126    3    0    1
 -2       620      1233        67       621
 -1       127    3    0    1
 -2       877       878      2209      2322
 -1       128    3    0    1
 -2       617       962       967      2157
 -1       129    3    0    1
 -2      2182      2117      2246      2311
 -1       130    3    0    1
 -2      1564      1565      2932      3081
 -1       131    3    0    1
 -2      2523       973      2656      3771
 -1       132    3    0    1
 -2       394       256      2195      2421
 -1       133    3    0    1
 -2       535       694      1006      1010
 -1       134    3    0    1
 -2      3504      1906      2028      3739
 -1       135    3    0    1
 -2       714        83       718      1260
 -1       136    3    0    1
 -2       780       779      1046      2611
 -1       137    3    0    1
 -2       599       582      1291      2181
 -1       138    3    0    1
 -2      3804      3335      3871      3719
 -1       139    3    0    1
 -2       685       682      1002      1794
 -1       140    3    0    1
 -2      1036      2220      2386      2526
 -1       141    3    0    1
 -2       581       582       953      2169
 -1       142    3    0    1
 -2      2469      2085      2484      2531
 -1       143    3    0    1
 -2       839      1347       840      2145
 -1       144    3    0    1
 -2       782       783      1052      1189
 -1       145    3    0    1
 -2       676       998      2203      2356
 -1       146    3    0    1
 -2      3130      3105      1768      1769
 -1       147    3    0    1
 -2       696       198      1009      1309
 -1       148    3    0    1
 -2      2054      2333      2371      2406
 -1       149    3    0    1
 -2       803      2137      2434      2518
 -1       150    3    0    1
 -2        17       609      1151      1160
 -1       151    3    0    1
 -2      2057      2173      2188      2205
 -1       152    3    0    1
 -2      2718       450      1895      1896
 -1       153    3    0    1
 -2      2663      2433      3012      3858
 -1       154    3    0    1
 -2        77       733      1248      1250
 -1       155    3    0    1
 -2       609       470      1160      2583
 -1       156    3    0    1
 -2       810       803      1061      2271
 -1       157    3    0    1
 -2       604       467       466       966
 -1       158    3    0    1
 -2      2072      2118      2144      2293
 -1       159    3    0    1
 -2       719       217      1016      1314
 -1       160    3    0    1
 -2      1540      3232      1863      3891
 -1       161    3    0    1
 -2       461       453      2675      2676
 -1       162    3    0    1
 -2      1303       173      2147      2517
 -1       163    3    0    1
 -2       823       822      1068      2400
 -1       164    3    0    1
 -2       226       398       730      1025
 -1       165    3    0    1
 -2      2313      2081      2344      2441
 -1       166    3    0    1
 -2      2168      2146      2246      2258
 -1       167    3    0    1
 -2      1361       847       848      2162
 -1       168    3    0    1
 -2      1640      1742      1743      3347
 -1       169    3    0    1
 -2      2043      1318      2230      2439
 -1       170    3    0    1
 -2      1408      2084      2313      2441
 -1       171    3    0    1
 -2      3508      3876      3623      1161
 -1       172    3    0    1
 -2       577       574       952      2034
 -1       173    3    0    1
 -2       126       403       960      2185
 -1       174    3    0    1
 -2       767       496       774      1043
 -1       175    3    0    1
 -2        92      1263      1262       695
 -1       176    3    0    1
 -2       958       592      2042      2225
 -1       177    3    0    1
 -2       708      1014      1020      2387
 -1       178    3    0    1
 -2       617       600      2157      2382
 -1       179    3    0    1
 -2       515       514      1033      1223
 -1       180    3    0    1
 -2      2314      1315      2454      2769
 -1       181    3    0    1
 -2       482      1178       959      1287
 -1       182    3    0    1
 -2       309       306      2255      2273
 -1       183    3    0    1
 -2      2084      2313      2542      2562
 -1       184    3    0    1
 -2      2097       792      2335      2353
 -1       185    3    0    1
 -2      2130      2052      2217      2280
 -1       186    3    0    1
 -2       380       818       817      1333
 -1       187    3    0    1
 -2       125      2225      2228      2310
 -1       188    3    0    1
 -2       360      2159      2269      2407
 -1       189    3    0    1
 -2      1033       755       396      1321
 -1       190    3    0    1
 -2        53       820       825      1204
 -1       191    3    0    1
 -2      3819      3903      3480      3942
 -1       192    3    0    1
 -2        83        84       718      1260
 -1       193    3    0    1
 -2      2694      2831      3811      3846
 -1       194    3    0    1
 -2       881       891      1124      2109
 -1       195    3    0    1
 -2      3429      3187      3919      3659
 -1       196    3    0    1
 -2      2257      2156      2263      2425
 -1       197    3    0    1
 -2      2080      2158      2247      2259
 -1       198    3    0    1
 -2       648      2428      2497      2507
 -1       199    3    0    1
 -2       965      1293       607      2640
 -1       200    3    0    1
 -2       515      1321      1225      1033
 -1       201    3    0    1
 -2       588       122       591       958
 -1       202    3    0    1
 -2      1037       755      1038      2676
 -1       203    3    0    1
 -2       296      1344      1343      2243
 -1       204    3    0    1
 -2       132       138       611      1154
 -1       205    3    0    1
 -2      2266      2068      2470      2537
 -1       206    3    0    1
 -2       912      1278       944       479
 -1       207    3    0    1
 -2       263       255      2031      3763
 -1       208    3    0    1
 -2      1662      3205      3210      3243
 -1       209    3    0    1
 -2      2070      2114      2141      2151
 -1       210    3    0    1
 -2       213       714      1020      1023
 -1       211    3    0    1
 -2      1350      2055       301      2192
 -1       212    3    0    1
 -2      1323       920       764      1198
 -1       213    3    0    1
 -2       266      1721      3898      3918
 -1       214    3    0    1
 -2       851      1364      1084      2278
 -1       215    3    0    1
 -2       640       980      2323      2507
 -1       216    3    0    1
 -2      3401      1867      3465      3725
 -1       217    3    0    1
 -2      2309      2063      2321      2452
 -1       218    3    0    1
 -2       731       738      2375      2445
 -1       219    3    0    1
 -2      1411      1412      1660      3195
 -1       220    3    0    1
 -2       681       679      1000      2213
 -1       221    3    0    1
 -2       385      2115      2271      2453
 -1       222    3    0    1
 -2       994       671       995      2282
 -1       223    3    0    1
 -2       713       724      1022      2627
 -1       224    3    0    1
 -2      1435      3783      3818      3830
 -1       225    3    0    1
 -2      2405       643      2416      3097
 -1       226    3    0    1
 -2       706       205       208      1272
 -1       227    3    0    1
 -2      3833      2720      3505      3995
 -1       228    3    0    1
 -2      1405       312      2144      2165
 -1       229    3    0    1
 -2        33       567       107       914
 -1       230    3    0    1
 -2      1500      1501      1607      3262
 -1       231    3    0    1
 -2       322      1351      2371      2406
 -1       232    3    0    1
 -2       377      2059      2153      2289
 -1       233    3    0    1
 -2       605       611      1152      2630
 -1       234    3    0    1
 -2      2142      2081      2156      2301
 -1       235    3    0    1
 -2       390      2202      2342      2351
 -1       236    3    0    1
 -2      1296       366      2102      2295
 -1       237    3    0    1
 -2      2920      2957      3924      3954
 -1       238    3    0    1
 -2       728       729      1024      1273
 -1       239    3    0    1
 -2       730       933      1256      2671
 -1       240    3    0    1
 -2      2939      3280      3485      3919
 -1       241    3    0    1
 -2       538       998       676       537
 -1       242    3    0    1
 -2      1321       756      2304      2515
 -1       243    3    0    1
 -2      2130      1292      2268      2365
 -1       244    3    0    1
 -2       667       663      1137      2651
 -1       245    3    0    1
 -2       714      1312      2735      2736
 -1       246    3    0    1
 -2       125       122      1288      2225
 -1       247    3    0    1
 -2       588      1186       917        22
 -1       248    3    0    1
 -2       587       120       960       961
 -1       249    3    0    1
 -2       582       581       955      2233
 -1       250    3    0    1
 -2      2399       664      2416      2490
 -1       251    3    0    1
 -2      2148      2057      2173      2188
 -1       252    3    0    1
 -2      1461      1460      3152      3363
 -1       253    3    0    1
 -2      1317      2375      2413      2444
 -1       254    3    0    1
 -2      1452      3370      3888      1917
 -1       255    3    0    1
 -2        30      1170       557        99
 -1       256    3    0    1
 -2      2578      2973      3839      4008
 -1       257    3    0    1
 -2       470      1152      2583      2630
 -1       258    3    0    1
 -2      1503      1504      3063      1818
 -1       259    3    0    1
 -2      1302       648      2497      2507
 -1       260    3    0    1
 -2      2668      2535      3788      2828
 -1       261    3    0    1
 -2      2844      3831      3284      3441
 -1       262    3    0    1
 -2       173      2147      2517      2710
 -1       263    3    0    1
 -2       993       169       996      2710
 -1       264    3    0    1
 -2      2042       589      2228      2501
 -1       265    3    0    1
 -2       783        41       265      1189
 -1       266    3    0    1
 -2       576       951      2184      2398
 -1       267    3    0    1
 -2       582       581       953      2596
 -1       268    3    0    1
 -2      2622      1536      1537      2821
 -1       269    3    0    1
 -2      2148       850      2173      2502
 -1       270    3    0    1
 -2       641      1240       163       647
 -1       271    3    0    1
 -2       116       117      3781      1736
 -1       272    3    0    1
 -2      3233      3805      3593      3611
 -1       273    3    0    1
 -2       887      1127      1399      2210
 -1       274    3    0    1
 -2      3766       148      3773      3776
 -1       275    3    0    1
 -2       694      1311       702       535
 -1       276    3    0    1
 -2      1655      1656      3262      3559
 -1       277    3    0    1
 -2       607       628      1293      2656
 -1       278    3    0    1
 -2      1342       835       836      2150
 -1       279    3    0    1
 -2      1813      1812      3584      3587
 -1       280    3    0    1
 -2      1298       625       628      2543
 -1       281    3    0    1
 -2       535      1311      1262      1007
 -1       282    3    0    1
 -2        29       548        97       912
 -1       283    3    0    1
 -2      1041      1325      2941      3804
 -1       284    3    0    1
 -2       343       342       986      2446
 -1       285    3    0    1
 -2      2225       958      2805      3817
 -1       286    3    0    1
 -2      2438      2305      2595      3777
 -1       287    3    0    1
 -2        65       624       931      1231
 -1       288    3    0    1
 -2       112      1180       569       109
 -1       289    3    0    1
 -2      1031       398      2252      2556
 -1       290    3    0    1
 -2       187      2213      3014      3882
 -1       291    3    0    1
 -2       176       419       659       989
 -1       292    3    0    1
 -2       766       252      1040      1326
 -1       293    3    0    1
 -2      1417      1418      1705      3044
 -1       294    3    0    1
 -2       975       635      2372      3767
 -1       295    3    0    1
 -2      2770      2598      3964      3992
 -1       296    3    0    1
 -2      1311       207      2245      2261
 -1       297    3    0    1
 -2       751       347      1035      1319
 -1       298    3    0    1
 -2      1058       803      2137      2161
 -1       299    3    0    1
 -2       915       569      1182      2596
 -1       300    3    0    1
 -2       167       368       656       992
 -1       301    3    0    1
 -2       271       269      1055      2155
 -1       302    3    0    1
 -2      2634      3012      3830      3858
 -1       303    3    0    1
 -2       993       996      2282      2710
 -1       304    3    0    1
 -2       993      2778      2487      3994
 -1       305    3    0    1
 -2      1347       840      2145      2262
 -1       306    3    0    1
 -2       832       831      2334      2510
 -1       307    3    0    1
 -2      3078      1549      3112      3528
 -1       308    3    0    1
 -2      3027      3078      3884      3955
 -1       309    3    0    1
 -2       510       481      2678      2679
 -1       310    3    0    1
 -2       324       369      2077      2182
 -1       311    3    0    1
 -2       199       200       700      3755
 -1       312    3    0    1
 -2      3224      2598      3992      4022
 -1       313    3    0    1
 -2      2135      2060      2277      2316
 -1       314    3    0    1
 -2      2838      2987      3946      3965
 -1       315    3    0    1
 -2      2148      2058      2173      2205
 -1       316    3    0    1
 -2       814       802      1212      2569
 -1       317    3    0    1
 -2        32      1185       593       124
 -1       318    3    0    1
 -2       153      1299      2219      2532
 -1       319    3    0    1
 -2      1315       224      2314      2454
 -1       320    3    0    1
 -2      2199      2210      2383      2440
 -1       321    3    0    1
 -2       950       573      2466      2716
 -1       322    3    0    1
 -2       110        34       570      1183
 -1       323    3    0    1
 -2       577        34       115      1183
 -1       324    3    0    1
 -2      2138      2159      2175      2269
 -1       325    3    0    1
 -2       569      1179       112       575
 -1       326    3    0    1
 -2      2084       886      2313      2562
 -1       327    3    0    1
 -2       678      1306      2591      2592
 -1       328    3    0    1
 -2       683       677       935       998
 -1       329    3    0    1
 -2       609       618       967       970
 -1       330    3    0    1
 -2      2117      2077      2182      2246
 -1       331    3    0    1
 -2       696       704      2662      3710
 -1       332    3    0    1
 -2      2673      3024      1895      1896
 -1       333    3    0    1
 -2       459      2736      2813      2929
 -1       334    3    0    1
 -2      2214       117      2233      2691
 -1       335    3    0    1
 -2       939       728      1024      1273
 -1       336    3    0    1
 -2      1355      2122      2158      2189
 -1       337    3    0    1
 -2       748      1145      2675      2676
 -1       338    3    0    1
 -2       133       136       609       965
 -1       339    3    0    1
 -2       237       754       902      1134
 -1       340    3    0    1
 -2      2087       387      2134      2331
 -1       341    3    0    1
 -2      1362      1082      2148      2502
 -1       342    3    0    1
 -2      1911      1691      3628      3745
 -1       343    3    0    1
 -2       962       599      1291      2310
 -1       344    3    0    1
 -2      1322      4004      2039      2040
 -1       345    3    0    1
 -2      2854      2488      3796      3859
 -1       346    3    0    1
 -2      2116      2055      2192      2390
 -1       347    3    0    1
 -2      3087      3911      3685      4019
 -1       348    3    0    1
 -2       755      1033      1223      1225
 -1       349    3    0    1
 -2       377       295      1340      2289
 -1       350    3    0    1
 -2       709      1807      1808      3288
 -1       351    3    0    1
 -2      3037      3537      3937      3954
 -1       352    3    0    1
 -2       733       740      1255      3761
 -1       353    3    0    1
 -2      2180       676      2203      2356
 -1       354    3    0    1
 -2       779       762      1039      2324
 -1       355    3    0    1
 -2       261       395      3820      1950
 -1       356    3    0    1
 -2       661       664       991      2810
 -1       357    3    0    1
 -2       173       996      2710      1793
 -1       358    3    0    1
 -2      1648      1456      1649      2978
 -1       359    3    0    1
 -2      2918      2912      3878      4010
 -1       360    3    0    1
 -2      2115       385      2187      2453
 -1       361    3    0    1
 -2         9      1271       696        10
 -1       362    3    0    1
 -2       771      1042      1319      2163
 -1       363    3    0    1
 -2       821      1334      2606      2607
 -1       364    3    0    1
 -2      2732      3804      3864      4028
 -1       365    3    0    1
 -2      1491      3823      1797      3909
 -1       366    3    0    1
 -2       567        33       566       914
 -1       367    3    0    1
 -2      1364      2179      2221      2278
 -1       368    3    0    1
 -2       304      1371      2383      2440
 -1       369    3    0    1
 -2      2851      3814      3913      3978
 -1       370    3    0    1
 -2       719      1275      1016       713
 -1       371    3    0    1
 -2        61       800       801       927
 -1       372    3    0    1
 -2      3323      2756      3484      3938
 -1       373    3    0    1
 -2       835       836      2150      2289
 -1       374    3    0    1
 -2       401       111      1286      2240
 -1       375    3    0    1
 -2       791      1187      1049       784
 -1       376    3    0    1
 -2      1234       623       516      1227
 -1       377    3    0    1
 -2       641       652       986      2653
 -1       378    3    0    1
 -2      1589      1588      3090      1799
 -1       379    3    0    1
 -2      1874      2693      3907      3575
 -1       380    3    0    1
 -2       529       530      2810      3015
 -1       381    3    0    1
 -2      2103      2082      2275      2381
 -1       382    3    0    1
 -2      2768      3869      3943      4007
 -1       383    3    0    1
 -2       599       600       961      2185
 -1       384    3    0    1
 -2       121       585       123      1175
 -1       385    3    0    1
 -2       557        96       945      4030
 -1       386    3    0    1
 -2      1413      2914      1739      1740
 -1       387    3    0    1
 -2      3825      1698      3191      3325
 -1       388    3    0    1
 -2      2114      2070      2141      2243
 -1       389    3    0    1
 -2      2277      2106      2296      2345
 -1       390    3    0    1
 -2       641       163       903       647
 -1       391    3    0    1
 -2       480      1281      1173       479
 -1       392    3    0    1
 -2       505      1210      2649      2650
 -1       393    3    0    1
 -2       992       666      2254      2368
 -1       394    3    0    1
 -2       125       122       962      3533
 -1       395    3    0    1
 -2       691       698      1536      2824
 -1       396    3    0    1
 -2      2827      1615      3825      3873
 -1       397    3    0    1
 -2       391      1049      1329      2353
 -1       398    3    0    1
 -2       149        65       627       931
 -1       399    3    0    1
 -2      1035      1319       752      2722
 -1       400    3    0    1
 -2      1406       434      2080      2259
 -1       401    3    0    1
 -2       832       831      1337      2334
 -1       402    3    0    1
 -2      1844       907      3503      3623
 -1       403    3    0    1
 -2      1354       843      1353      2189
 -1       404    3    0    1
 -2      1312      2347      2685      3793
 -1       405    3    0    1
 -2      2180      2203      2261      2356
 -1       406    3    0    1
 -2       338       224      2039      3768
 -1       407    3    0    1
 -2       712      2110      2358      2500
 -1       408    3    0    1
 -2      2054      2127      2133      2333
 -1       409    3    0    1
 -2       167       988      2249      2298
 -1       410    3    0    1
 -2       793       790      1053      2032
 -1       411    3    0    1
 -2       121       584      1175      1178
 -1       412    3    0    1
 -2       117       955      2233      3781
 -1       413    3    0    1
 -2      2781      3080      3351      3617
 -1       414    3    0    1
 -2      2111      2060      2402      2423
 -1       415    3    0    1
 -2        65       624       627       931
 -1       416    3    0    1
 -2       759       755      1037      2676
 -1       417    3    0    1
 -2      1409      1410      2864      3143
 -1       418    3    0    1
 -2      1783      1425      3481      3719
 -1       419    3    0    1
 -2       308       322      1092      2371
 -1       420    3    0    1
 -2       726       725      1021      2639
 -1       421    3    0    1
 -2       429      2048      2226      2527
 -1       422    3    0    1
 -2       147       632       624      3760
 -1       423    3    0    1
 -2       790       928      2678      2679
 -1       424    3    0    1
 -2      1433      2886      1664      3483
 -1       425    3    0    1
 -2       482      1290      1176       956
 -1       426    3    0    1
 -2      2186       694      2239      2397
 -1       427    3    0    1
 -2      1709      3317      3504      3739
 -1       428    3    0    1
 -2      1248       527      1250      2818
 -1       429    3    0    1
 -2      2072      2078      2218      2482
 -1       430    3    0    1
 -2       642       645       653      2654
 -1       431    3    0    1
 -2      3788      3802      3905      3917
 -1       432    3    0    1
 -2       255       346       772      1042
 -1       433    3    0    1
 -2       659       176       665       994
 -1       434    3    0    1
 -2      1050      3803      3806      3833
 -1       435    3    0    1
 -2      2347      1312      2432      2551
 -1       436    3    0    1
 -2       763       768      1543      3648
 -1       437    3    0    1
 -2       700       899      2617      2618
 -1       438    3    0    1
 -2      1417      1484      1485      2746
 -1       439    3    0    1
 -2      2990      1725      3055      3611
 -1       440    3    0    1
 -2        96       379       550       941
 -1       441    3    0    1
 -2      2079      2146      2168      2431
 -1       442    3    0    1
 -2      2186      1019      2301      2358
 -1       443    3    0    1
 -2      1300       345      2405      2779
 -1       444    3    0    1
 -2       429       196      2083      2226
 -1       445    3    0    1
 -2       829       825      1070      2585
 -1       446    3    0    1
 -2       220      1016      2349      2429
 -1       447    3    0    1
 -2      1669      1670      1833      3446
 -1       448    3    0    1
 -2       839      1077      2145      2354
 -1       449    3    0    1
 -2       100       355      3829      1804
 -1       450    3    0    1
 -2       942      1285      2369      3923
 -1       451    3    0    1
 -2       792      2335      2353      2538
 -1       452    3    0    1
 -2      1598      3028      3218      3911
 -1       453    3    0    1
 -2      1397      2113      2125      2309
 -1       454    3    0    1
 -2       617       609       618       967
 -1       455    3    0    1
 -2      1045       766      1046      2611
 -1       456    3    0    1
 -2       785       490       792      1048
 -1       457    3    0    1
 -2      1387      1105      2176      2274
 -1       458    3    0    1
 -2       825      1071      2585      2614
 -1       459    3    0    1
 -2        27       551       556       909
 -1       460    3    0    1
 -2      1038       396      2384      2421
 -1       461    3    0    1
 -2       258        63       766      1195
 -1       462    3    0    1
 -2       587        32       593      1176
 -1       463    3    0    1
 -2        55      1209        57       805
 -1       464    3    0    1
 -2        98       100      2762      3829
 -1       465    3    0    1
 -2      1098       866      2215      2290
 -1       466    3    0    1
 -2       550      1170       557        30
 -1       467    3    0    1
 -2       662      1863      3380      3891
 -1       468    3    0    1
 -2      1416      1415      3026      3198
 -1       469    3    0    1
 -2       942      2369      2724      3923
 -1       470    3    0    1
 -2       551        95       556       943
 -1       471    3    0    1
 -2      1459      1458      1623      2883
 -1       472    3    0    1
 -2       625       982      1297      2684
 -1       473    3    0    1
 -2      1906        12      3504      2028
 -1       474    3    0    1
 -2      2133      2127      2242      2333
 -1       475    3    0    1
 -2       768       763      1528      3338
 -1       476    3    0    1
 -2      2792      3001      3247      3906
 -1       477    3    0    1
 -2      3899      3977      3983      3712
 -1       478    3    0    1
 -2       353      1068      2525      3928
 -1       479    3    0    1
 -2      2067      2202      2223      2244
 -1       480    3    0    1
 -2      1065       816      2415      3824
 -1       481    3    0    1
 -2       480       944       479       912
 -1       482    3    0    1
 -2      1606      1607      3036      3075
 -1       483    3    0    1
 -2      2077      2117      2182      2207
 -1       484    3    0    1
 -2      1641      1640      1743      3347
 -1       485    3    0    1
 -2      1315      1027       734      2314
 -1       486    3    0    1
 -2      2878      3507      3975      3751
 -1       487    3    0    1
 -2      1053      2492      2496      2715
 -1       488    3    0    1
 -2      1488      1489      1584      2906
 -1       489    3    0    1
 -2       622       517       974      1296
 -1       490    3    0    1
 -2       196      1006      2142      2257
 -1       491    3    0    1
 -2       473       474      1165      2688
 -1       492    3    0    1
 -2      1133       683      2581      2657
 -1       493    3    0    1
 -2      2072      2118      2293      2401
 -1       494    3    0    1
 -2      3627      1652      3961      3653
 -1       495    3    0    1
 -2       586       482       594       959
 -1       496    3    0    1
 -2       726      1021      2627      2639
 -1       497    3    0    1
 -2      1391      1106      2090      2124
 -1       498    3    0    1
 -2      2083       429      2226      2275
 -1       499    3    0    1
 -2      1240       641       163      1241
 -1       500    3    0    1
 -2       732      1840      3361      3949
 -1       501    3    0    1
 -2       190      1003      2166      2292
 -1       502    3    0    1
 -2       841      1350       842      2092
 -1       503    3    0    1
 -2      2218       223      2220      2482
 -1       504    3    0    1
 -2      2404      3790      3506      3961
 -1       505    3    0    1
 -2       967       136      3792      2021
 -1       506    3    0    1
 -2        16       606      1157      1159
 -1       507    3    0    1
 -2       904      1295       963       466
 -1       508    3    0    1
 -2      1021       217      2302      2348
 -1       509    3    0    1
 -2       367       156      2055      2312
 -1       510    3    0    1
 -2       403       954       960      2183
 -1       511    3    0    1
 -2      3058      1549      1758      1759
 -1       512    3    0    1
 -2        74       633       154      1234
 -1       513    3    0    1
 -2       496      1323      1043       767
 -1       514    3    0    1
 -2       979       523       983      1239
 -1       515    3    0    1
 -2       843      1354       844      2189
 -1       516    3    0    1
 -2       756      1036      2304      2386
 -1       517    3    0    1
 -2      1810      1574      1811      3436
 -1       518    3    0    1
 -2       204       424       701      1012
 -1       519    3    0    1
 -2        53        54       825      1208
 -1       520    3    0    1
 -2      1524      1576      3821      3976
 -1       521    3    0    1
 -2      2415       816      2558      3824
 -1       522    3    0    1
 -2      1691      3513      3628      3745
 -1       523    3    0    1
 -2      1006       694      2186      2359
 -1       524    3    0    1
 -2       516      1234       525       629
 -1       525    3    0    1
 -2       133       970      2463      2589
 -1       526    3    0    1
 -2       185       187      1000      2213
 -1       527    3    0    1
 -2      3906      3436      3907      3717
 -1       528    3    0    1
 -2      2855      1197      1772      3190
 -1       529    3    0    1
 -2      3314      2834      3597      3997
 -1       530    3    0    1
 -2      3848      2580      3851      3940
 -1       531    3    0    1
 -2        22       588       591       906
 -1       532    3    0    1
 -2      2923      2709      3160      3885
 -1       533    3    0    1
 -2       623      1234       629        68
 -1       534    3    0    1
 -2      1351       841       842      2216
 -1       535    3    0    1
 -2      1510      1511      3174      1896
 -1       536    3    0    1
 -2       571      1285       573      3834
 -1       537    3    0    1
 -2      2150      2059      2289      2423
 -1       538    3    0    1
 -2      3809      3397      3938      3999
 -1       539    3    0    1
 -2      2115       387      2229      2331
 -1       540    3    0    1
 -2      3306      2958      3919      3659
 -1       541    3    0    1
 -2      1702      2705      3491      3647
 -1       542    3    0    1
 -2       638       639       983      1239
 -1       543    3    0    1
 -2      3847      3921      3971      3975
 -1       544    3    0    1
 -2       589      1288      2042      2228
 -1       545    3    0    1
 -2      1621      3800      3813      1905
 -1       546    3    0    1
 -2      1003       683      1004      2581
 -1       547    3    0    1
 -2       643      1301       646      2616
 -1       548    3    0    1
 -2      1815      1545      1922      3716
 -1       549    3    0    1
 -2       689       690      1004      2166
 -1       550    3    0    1
 -2       114       570       574       952
 -1       551    3    0    1
 -2      1364      2179      2278      2299
 -1       552    3    0    1
 -2       198      1014      2014      3710
 -1       553    3    0    1
 -2       587      1185      1184      2574
 -1       554    3    0    1
 -2       258        75       766      1246
 -1       555    3    0    1
 -2      1083       851      2278      2299
 -1       556    3    0    1
 -2      3815      1569      3941      4006
 -1       557    3    0    1
 -2      2083      2140      2226      2322
 -1       558    3    0    1
 -2       367      2055      2231      2232
 -1       559    3    0    1
 -2       984      4002      2037      2038
 -1       560    3    0    1
 -2      1286       568       576      2398
 -1       561    3    0    1
 -2       147      2340      4029      3776
 -1       562    3    0    1
 -2       851      1085       852      2299
 -1       563    3    0    1
 -2      1441      3779      3799      3916
 -1       564    3    0    1
 -2      3428      1592      3567      3588
 -1       565    3    0    1
 -2       774      1043      2234      2338
 -1       566    3    0    1
 -2       886      1408       896      2313
 -1       567    3    0    1
 -2      3075      2874      3555      3578
 -1       568    3    0    1
 -2       412      3343      1635      1846
 -1       569    3    0    1
 -2      2150      2289      2402      2423
 -1       570    3    0    1
 -2      1127      1399      2210      2383
 -1       571    3    0    1
 -2      2841      3180      3891      3970
 -1       572    3    0    1
 -2       566       914      1181      1283
 -1       573    3    0    1
 -2       727       732      2903      1861
 -1       574    3    0    1
 -2      2285      2269      2354      2396
 -1       575    3    0    1
 -2      2961      2674      3801      3915
 -1       576    3    0    1
 -2      3778      2448      2870      3016
 -1       577    3    0    1
 -2        70       642       645      1238
 -1       578    3    0    1
 -2      1479      2880      3051      3229
 -1       579    3    0    1
 -2      2116      2056      2273      2362
 -1       580    3    0    1
 -2      1545      1542      3782      3988
 -1       581    3    0    1
 -2       216       217      1314      2358
 -1       582    3    0    1
 -2      1335      1067       823      2400
 -1       583    3    0    1
 -2       582       953       954      2596
 -1       584    3    0    1
 -2      2177       979      2206      2276
 -1       585    3    0    1
 -2        67      1233       145       621
 -1       586    3    0    1
 -2       863      1378      1094      2363
 -1       587    3    0    1
 -2      3253        46      3255      1984
 -1       588    3    0    1
 -2       855      1372      1369      2140
 -1       589    3    0    1
 -2      1096       303      1098      2420
 -1       590    3    0    1
 -2      3237      2994      3567      3588
 -1       591    3    0    1
 -2      2052      2280      2329      2357
 -1       592    3    0    1
 -2      1053       267      2492      2715
 -1       593    3    0    1
 -2        78       660       663      1252
 -1       594    3    0    1
 -2      1128       885       895      2287
 -1       595    3    0    1
 -2      2146      2168      2431      2442
 -1       596    3    0    1
 -2      2144      1115      2165      2293
 -1       597    3    0    1
 -2       466      1295       963       612
 -1       598    3    0    1
 -2      2375      1025      2513      2556
 -1       599    3    0    1
 -2      2133      2054      2333      2371
 -1       600    3    0    1
 -2      2151      2230      2234      2338
 -1       601    3    0    1
 -2       658       989      2198      2298
 -1       602    3    0    1
 -2      2056      2174      2207      2255
 -1       603    3    0    1
 -2       120       126       593       960
 -1       604    3    0    1
 -2      1499      1498      1817      3274
 -1       605    3    0    1
 -2      1141       696       899      2617
 -1       606    3    0    1
 -2       187       185       682      1005
 -1       607    3    0    1
 -2      2042       957      2501      2620
 -1       608    3    0    1
 -2      3709      1280      3823      4003
 -1       609    3    0    1
 -2      2637      3238      3955      3664
 -1       610    3    0    1
 -2      2119      1101      2238      2244
 -1       611    3    0    1
 -2      2089       357      2099      2184
 -1       612    3    0    1
 -2      1368       320      2170      2409
 -1       613    3    0    1
 -2      2713      2714      3826      3880
 -1       614    3    0    1
 -2       747       746      1224      1318
 -1       615    3    0    1
 -2      1024       223      2201      2482
 -1       616    3    0    1
 -2      3962      3337      3773      3776
 -1       617    3    0    1
 -2       808       925      2649      2650
 -1       618    3    0    1
 -2       397      2043      2230      2260
 -1       619    3    0    1
 -2       821        49       824      1203
 -1       620    3    0    1
 -2      2497      1302      2507      2550
 -1       621    3    0    1
 -2      1506      1505      1768      3141
 -1       622    3    0    1
 -2       366       150      1296      2102
 -1       623    3    0    1
 -2       341      2043      2071      2118
 -1       624    3    0    1
 -2      1425      1783      1784      3415
 -1       625    3    0    1
 -2       641       163       157       903
 -1       626    3    0    1
 -2       720       712      1015      2110
 -1       627    3    0    1
 -2       575       111       948      1286
 -1       628    3    0    1
 -2      1003       689      2166      2292
 -1       629    3    0    1
 -2      2152      2075      2326      2327
 -1       630    3    0    1
 -2       368       167      2077      2246
 -1       631    3    0    1
 -2       809       813      1213      2633
 -1       632    3    0    1
 -2       306      1090      1088      2273
 -1       633    3    0    1
 -2       237        64       754      1134
 -1       634    3    0    1
 -2      3859       214      3932      3945
 -1       635    3    0    1
 -2       581       582      2169      2330
 -1       636    3    0    1
 -2       719       723      1259      2639
 -1       637    3    0    1
 -2      2227      2109      2321      2452
 -1       638    3    0    1
 -2      2117      2046      2246      2311
 -1       639    3    0    1
 -2      2340       975      4029      3776
 -1       640    3    0    1
 -2      1066       382      2308      2481
 -1       641    3    0    1
 -2      3826      2728      3906      3717
 -1       642    3    0    1
 -2       480       944       558       479
 -1       643    3    0    1
 -2       832       945      1071      2549
 -1       644    3    0    1
 -2       780      1046      2265      2373
 -1       645    3    0    1
 -2       160       365       985      2550
 -1       646    3    0    1
 -2      3828       949      3899      3977
 -1       647    3    0    1
 -2       252       259       766      1040
 -1       648    3    0    1
 -2       275       283      2137      2555
 -1       649    3    0    1
 -2       294      1122      2297      2316
 -1       650    3    0    1
 -2       820       825      1204      2614
 -1       651    3    0    1
 -2      2108      2081      2156      2313
 -1       652    3    0    1
 -2      2106      2062      2296      2345
 -1       653    3    0    1
 -2       904      1295       611       963
 -1       654    3    0    1
 -2      2226      2103      2275      2527
 -1       655    3    0    1
 -2      1665      1698      3273      3488
 -1       656    3    0    1
 -2       658       992       539       666
 -1       657    3    0    1
 -2        16       606       609      1157
 -1       658    3    0    1
 -2      2076      2286      2427      2485
 -1       659    3    0    1
 -2       236      2000      3671      2006
 -1       660    3    0    1
 -2      1478      1477      1552      3206
 -1       661    3    0    1
 -2      1801      3259      3308      3511
 -1       662    3    0    1
 -2      1031       761      1037      2252
 -1       663    3    0    1
 -2       886       896      2084      2313
 -1       664    3    0    1
 -2      2886      3386      3483      3501
 -1       665    3    0    1
 -2       418       211      2076      2343
 -1       666    3    0    1
 -2      3148      2848      3457      3924
 -1       667    3    0    1
 -2        77        80       736      1244
 -1       668    3    0    1
 -2       380       383      1333      2104
 -1       669    3    0    1
 -2      2150      2289      2297      2316
 -1       670    3    0    1
 -2        49       821       921      1201
 -1       671    3    0    1
 -2       570       952       955      2600
 -1       672    3    0    1
 -2       773       777       930      2689
 -1       673    3    0    1
 -2       361      2130      2217      2365
 -1       674    3    0    1
 -2      3016      3185      3303      3564
 -1       675    3    0    1
 -2       822       823      1067      2400
 -1       676    3    0    1
 -2      3003      3831      3263      3441
 -1       677    3    0    1
 -2      2399      1303      2490      2517
 -1       678    3    0    1
 -2      2898      1706      3304      3649
 -1       679    3    0    1
 -2       514       515       756      1036
 -1       680    3    0    1
 -2       628       973      2665      2666
 -1       681    3    0    1
 -2       684      2198      2256      2360
 -1       682    3    0    1
 -2       624      1243        65       627
 -1       683    3    0    1
 -2        95        98       556       943
 -1       684    3    0    1
 -2      1230       932      2882      2987
 -1       685    3    0    1
 -2       788      1050      2436      3833
 -1       686    3    0    1
 -2      2085      2469      2494      2546
 -1       687    3    0    1
 -2      3025      2948      3825      3919
 -1       688    3    0    1
 -2      1363       849       850      2148
 -1       689    3    0    1
 -2      3145      3219      3839      3711
 -1       690    3    0    1
 -2      1525      1788      1789      3196
 -1       691    3    0    1
 -2      1009       699      2508      2727
 -1       692    3    0    1
 -2      2177      2254      2276      2368
 -1       693    3    0    1
 -2       211       418       710      1019
 -1       694    3    0    1
 -2      2087      2134      2337      2378
 -1       695    3    0    1
 -2      2911      2742      3798      3856
 -1       696    3    0    1
 -2      1350       841      1349      2092
 -1       697    3    0    1
 -2      3359       209      3945      3598
 -1       698    3    0    1
 -2       622      1299       971      2477
 -1       699    3    0    1
 -2      3282      3166      3498      3719
 -1       700    3    0    1
 -2      1365      1368      2170      2409
 -1       701    3    0    1
 -2      1316       735      2488      4023
 -1       702    3    0    1
 -2       620      1233      1228        67
 -1       703    3    0    1
 -2      3166      1756      1900      1901
 -1       704    3    0    1
 -2      3946      2626      3965      4015
 -1       705    3    0    1
 -2        30      1173        99       557
 -1       706    3    0    1
 -2      3232      1540      1863      1864
 -1       707    3    0    1
 -2       642       464       645      2654
 -1       708    3    0    1
 -2       642       654      2653      2654
 -1       709    3    0    1
 -2       184       193       998      2356
 -1       710    3    0    1
 -2       353       290       824      1072
 -1       711    3    0    1
 -2      2063      2109      2227      2452
 -1       712    3    0    1
 -2       548       375       378       944
 -1       713    3    0    1
 -2      3247      1842      3341      3435
 -1       714    3    0    1
 -2      2087      2134      2229      2331
 -1       715    3    0    1
 -2       333       224      2376      2454
 -1       716    3    0    1
 -2       117       114      1284      2214
 -1       717    3    0    1
 -2       217       415       713      1016
 -1       718    3    0    1
 -2       573       571      1284      2214
 -1       719    3    0    1
 -2       615       611       968      2583
 -1       720    3    0    1
 -2       776        45       769      1245
 -1       721    3    0    1
 -2         8      1268      1267       659
 -1       722    3    0    1
 -2      1865       335      3984      4023
 -1       723    3    0    1
 -2      2159      2100      2191      2364
 -1       724    3    0    1
 -2       651       647       985      2654
 -1       725    3    0    1
 -2       124       597       127      1185
 -1       726    3    0    1
 -2      2129       961       120       404
 -1       727    3    0    1
 -2       168       181      1940      1964
 -1       728    3    0    1
 -2       587      1185       593        32
 -1       729    3    0    1
 -2       839      1348      1077      2354
 -1       730    3    0    1
 -2      2289      1342      2297      2316
 -1       731    3    0    1
 -2       454       642      1135      2653
 -1       732    3    0    1
 -2       419       995      2193      2282
 -1       733    3    0    1
 -2      2882      2666      2902      3842
 -1       734    3    0    1
 -2      3825      3025      3318      3873
 -1       735    3    0    1
 -2      3048      2647      3875      3499
 -1       736    3    0    1
 -2       190       184       683      1308
 -1       737    3    0    1
 -2      2794      2725      3786      4011
 -1       738    3    0    1
 -2       190      1308      2256      2356
 -1       739    3    0    1
 -2       989       419      2193      2505
 -1       740    3    0    1
 -2       672       671       996      2282
 -1       741    3    0    1
 -2       946       564      2237      4030
 -1       742    3    0    1
 -2       378      2107      2402      2522
 -1       743    3    0    1
 -2      3376      3265      1939      3619
 -1       744    3    0    1
 -2       966       130      2100      2191
 -1       745    3    0    1
 -2       209       214      1952      3945
 -1       746    3    0    1
 -2      1270       700      2662      3747
 -1       747    3    0    1
 -2      2118      2071      2144      2293
 -1       748    3    0    1
 -2       135       141       968      2248
 -1       749    3    0    1
 -2       660       169       663       991
 -1       750    3    0    1
 -2      1323       767      2352      2495
 -1       751    3    0    1
 -2        94       711       940      1276
 -1       752    3    0    1
 -2      2003      1657      2004      3672
 -1       753    3    0    1
 -2      1768      1505      1769      3141
 -1       754    3    0    1
 -2       333      2314      2376      2751
 -1       755    3    0    1
 -2       744       743      1032      2376
 -1       756    3    0    1
 -2       957      2620      3809      3896
 -1       757    3    0    1
 -2      1008      3783      3849      3859
 -1       758    3    0    1
 -2       336       220      2349      2429
 -1       759    3    0    1
 -2      2241      2051      2278      2299
 -1       760    3    0    1
 -2       952       114      3991      2034
 -1       761    3    0    1
 -2        93       728       939      1273
 -1       762    3    0    1
 -2       491       792      1048      1052
 -1       763    3    0    1
 -2      1398       437       446      2321
 -1       764    3    0    1
 -2       960       599      2185      2330
 -1       765    3    0    1
 -2       375       944      1278      2107
 -1       766    3    0    1
 -2      2807      2461      2828      3209
 -1       767    3    0    1
 -2       132       605       611      1152
 -1       768    3    0    1
 -2      3266      3624      4001      4027
 -1       769    3    0    1
 -2       173       169      1303      2147
 -1       770    3    0    1
 -2       566       108       951      1283
 -1       771    3    0    1
 -2      3098       626      3543      1978
 -1       772    3    0    1
 -2      1286       576      2167      2240
 -1       773    3    0    1
 -2       653       984       987      2487
 -1       774    3    0    1
 -2       970      2372      2589      3863
 -1       775    3    0    1
 -2      1480      1479      3051      3229
 -1       776    3    0    1
 -2      1621      2890      3800      3063
 -1       777    3    0    1
 -2       805       278      1060      1330
 -1       778    3    0    1
 -2       130      2088      2191      2250
 -1       779    3    0    1
 -2      2386       731      2375      2445
 -1       780    3    0    1
 -2      1475      1532      2856      2909
 -1       781    3    0    1
 -2      1071       831      2585      2614
 -1       782    3    0    1
 -2       879      1122      1396      2277
 -1       783    3    0    1
 -2      1691      3249      3513      3948
 -1       784    3    0    1
 -2      2092      2055      2192      2232
 -1       785    3    0    1
 -2      1755      3859      3908      3958
 -1       786    3    0    1
 -2      1075       833      1338      2178
 -1       787    3    0    1
 -2       997       538       934      1266
 -1       788    3    0    1
 -2       641       160       647       985
 -1       789    3    0    1
 -2      2238      2149      2342      2351
 -1       790    3    0    1
 -2      3809       957      3896      3960
 -1       791    3    0    1
 -2        92       695       701       937
 -1       792    3    0    1
 -2       689       682       690      1002
 -1       793    3    0    1
 -2      2848      3457      3924      3954
 -1       794    3    0    1
 -2      1479      1654      3007      3122
 -1       795    3    0    1
 -2      3833      3131      3918      3996
 -1       796    3    0    1
 -2      1995      3452      1996      2011
 -1       797    3    0    1
 -2       416       223      2073      2385
 -1       798    3    0    1
 -2      2739      2582      3076      4020
 -1       799    3    0    1
 -2      3354      2993      3470      3943
 -1       800    3    0    1
 -2       597       124       593      1185
 -1       801    3    0    1
 -2       733        77      1244      1255
 -1       802    3    0    1
 -2       656       936       988       992
 -1       803    3    0    1
 -2       690      1002      1005      2451
 -1       804    3    0    1
 -2       660       169       991      1303
 -1       805    3    0    1
 -2       623        68       629      1229
 -1       806    3    0    1
 -2      1511      1510      3024      1896
 -1       807    3    0    1
 -2       713       217       719      1021
 -1       808    3    0    1
 -2       647       160       980      1302
 -1       809    3    0    1
 -2       724       713      1258      2627
 -1       810    3    0    1
 -2       368       992      2046      2368
 -1       811    3    0    1
 -2      1695      1694      1769      3141
 -1       812    3    0    1
 -2       476      2659      2660      2979
 -1       813    3    0    1
 -2      1201       821      2606      2607
 -1       814    3    0    1
 -2       372       111      2169      2422
 -1       815    3    0    1
 -2       255      1047      3989      2031
 -1       816    3    0    1
 -2      1405       884      1115      2144
 -1       817    3    0    1
 -2       641       647       903      2654
 -1       818    3    0    1
 -2       671       654      2547      2563
 -1       819    3    0    1
 -2       646      2405      2684      3097
 -1       820    3    0    1
 -2       674       934       997      1001
 -1       821    3    0    1
 -2      2418       290      2525      3829
 -1       822    3    0    1
 -2       210        94       710       940
 -1       823    3    0    1
 -2       133       143      3962      3741
 -1       824    3    0    1
 -2      1725      2928      1726      3556
 -1       825    3    0    1
 -2      2090      2131      2165      2388
 -1       826    3    0    1
 -2       111       569       575       948
 -1       827    3    0    1
 -2       802       814      1064      2569
 -1       828    3    0    1
 -2      2669      3106      3933      3552
 -1       829    3    0    1
 -2      1137       660      2586      2651
 -1       830    3    0    1
 -2      1983      1982      2023      3721
 -1       831    3    0    1
 -2       167       988      2160      2249
 -1       832    3    0    1
 -2       397       341      1318      2043
 -1       833    3    0    1
 -2       821       832      1072      2614
 -1       834    3    0    1
 -2       948       569      1179      1180
 -1       835    3    0    1
 -2       960       403      2183      2185
 -1       836    3    0    1
 -2      1903      3458      3495      4015
 -1       837    3    0    1
 -2      2057      2099      2318      2486
 -1       838    3    0    1
 -2      1075      2175      2178      2221
 -1       839    3    0    1
 -2       585       584       959      1175
 -1       840    3    0    1
 -2       867      1382      1099      2471
 -1       841    3    0    1
 -2       549       558      1281      2479
 -1       842    3    0    1
 -2      1863      3232      1864      3380
 -1       843    3    0    1
 -2      1298       972      2543      3917
 -1       844    3    0    1
 -2      2060      2135      2150      2316
 -1       845    3    0    1
 -2      2156      2081      2263      2425
 -1       846    3    0    1
 -2      1523      1522      2984      1831
 -1       847    3    0    1
 -2      2269      2044      2285      2478
 -1       848    3    0    1
 -2      1022       726      1030      2320
 -1       849    3    0    1
 -2       584       959      1175      1178
 -1       850    3    0    1
 -2       761      1037      1038      2676
 -1       851    3    0    1
 -2      3494      3843      3934      3999
 -1       852    3    0    1
 -2        78      1138       660       174
 -1       853    3    0    1
 -2      2202      2223      2378      2403
 -1       854    3    0    1
 -2       652       157       164      1136
 -1       855    3    0    1
 -2       574       577       952      2600
 -1       856    3    0    1
 -2       670        90       179      1139
 -1       857    3    0    1
 -2       680       673      1707      3154
 -1       858    3    0    1
 -2      1309      2551      2744      3797
 -1       859    3    0    1
 -2      2807      3432      3894      3545
 -1       860    3    0    1
 -2       653       654       985      2197
 -1       861    3    0    1
 -2      1955      1920      3625      3733
 -1       862    3    0    1
 -2      1123      1397      2113      2125
 -1       863    3    0    1
 -2      1006      2142      2186      2239
 -1       864    3    0    1
 -2      2091      2059      2107      2391
 -1       865    3    0    1
 -2      2094      2103      2140      2383
 -1       866    3    0    1
 -2       567       108       357       951
 -1       867    3    0    1
 -2       636       653      2197      2570
 -1       868    3    0    1
 -2      1308       998       684      2356
 -1       869    3    0    1
 -2       539      1269       988       540
 -1       870    3    0    1
 -2      3091      2713      3826      3880
 -1       871    3    0    1
 -2      2966      3892      3926      3935
 -1       872    3    0    1
 -2      2044      2123      2212      2306
 -1       873    3    0    1
 -2      2895      2824      1788      3196
 -1       874    3    0    1
 -2      2122      2093      2158      2211
 -1       875    3    0    1
 -2      2997      2582      3864      4020
 -1       876    3    0    1
 -2       455      1139       898       659
 -1       877    3    0    1
 -2       641       903      1136      2653
 -1       878    3    0    1
 -2       147       148       627       973
 -1       879    3    0    1
 -2       400       113      3991      4013
 -1       880    3    0    1
 -2       278       805       808      3686
 -1       881    3    0    1
 -2       654       985       986      2653
 -1       882    3    0    1
 -2      1048       491      1052      1189
 -1       883    3    0    1
 -2      2949      1485      3064      3082
 -1       884    3    0    1
 -2      3035      1590      1897      3626
 -1       885    3    0    1
 -2      2968      2858      3874      3433
 -1       886    3    0    1
 -2       797       780      1053      2265
 -1       887    3    0    1
 -2        56      1551      1552      3616
 -1       888    3    0    1
 -2       950      2214      2367      2716
 -1       889    3    0    1
 -2       981      1301       643      2616
 -1       890    3    0    1
 -2       110       570       916      1183
 -1       891    3    0    1
 -2      2063      2325      2236      2473
 -1       892    3    0    1
 -2      1816      3155      1817      1423
 -1       893    3    0    1
 -2       751       754      1218      2722
 -1       894    3    0    1
 -2        79      1274        82       737
 -1       895    3    0    1
 -2      2704      3023      3861      3875
 -1       896    3    0    1
 -2      1730      1731      3125      3444
 -1       897    3    0    1
 -2      2230      2195      2234      2338
 -1       898    3    0    1
 -2      2196      2177      2206      2368
 -1       899    3    0    1
 -2       832       831      1071      2614
 -1       900    3    0    1
 -2      1479      1480      1653      3229
 -1       901    3    0    1
 -2       661       664      2399      2490
 -1       902    3    0    1
 -2      2150      2135      2289      2316
 -1       903    3    0    1
 -2      1007       695      1262      1263
 -1       904    3    0    1
 -2       111       372       569       948
 -1       905    3    0    1
 -2      2069      2114      2176      2222
 -1       906    3    0    1
 -2      3008      3100      3890      3956
 -1       907    3    0    1
 -2       882      1404       892      2224
 -1       908    3    0    1
 -2       371       569       580       954
 -1       909    3    0    1
 -2      3356      3083      3634      4017
 -1       910    3    0    1
 -2      3857      3268      3948      3605
 -1       911    3    0    1
 -2      1127       304      2383      2440
 -1       912    3    0    1
 -2      3366      3249      3914      3628
 -1       913    3    0    1
 -2      2224      2204      2229      2307
 -1       914    3    0    1
 -2      2335      1048      2337      2538
 -1       915    3    0    1
 -2      1748       716      3134      3394
 -1       916    3    0    1
 -2        37        22       591       906
 -1       917    3    0    1
 -2      3405      1936      1970      3647
 -1       918    3    0    1
 -2      1936         2      1937      2007
 -1       919    3    0    1
 -2      1348      1077      2354      2503
 -1       920    3    0    1
 -2       382       381      2143      2308
 -1       921    3    0    1
 -2       559        27       101      1171
 -1       922    3    0    1
 -2       566       567       914       951
 -1       923    3    0    1
 -2      2902      3277      3946      4015
 -1       924    3    0    1
 -2       749      1318      2230      2234
 -1       925    3    0    1
 -2       755      1033      1225      1321
 -1       926    3    0    1
 -2       695        92       701      1262
 -1       927    3    0    1
 -2      2062      1123      2125      2345
 -1       928    3    0    1
 -2       428       204      1013      2493
 -1       929    3    0    1
 -2        84        83       718      1143
 -1       930    3    0    1
 -2       602       966      1155      1292
 -1       931    3    0    1
 -2       226       730       737      1317
 -1       932    3    0    1
 -2      1924      3076      3599      4020
 -1       933    3    0    1
 -2      3561      1447      3566      3966
 -1       934    3    0    1
 -2       235       751      1218      1220
 -1       935    3    0    1
 -2       496      1199      1195      1040
 -1       936    3    0    1
 -2       599       600      2185      2382
 -1       937    3    0    1
 -2       730       737       933      2671
 -1       938    3    0    1
 -2      2104       380      2315      2377
 -1       939    3    0    1
 -2       538      1001       934       537
 -1       940    3    0    1
 -2      1498      1499      1817      3344
 -1       941    3    0    1
 -2      1702      3492      1936      1937
 -1       942    3    0    1
 -2       251      2151      2338      2498
 -1       943    3    0    1
 -2       912      1278       547       944
 -1       944    3    0    1
 -2      1035      2464      2769      3695
 -1       945    3    0    1
 -2       626      3848      3454      3940
 -1       946    3    0    1
 -2       679       681      1000      2591
 -1       947    3    0    1
 -2       386      2067      2202      2403
 -1       948    3    0    1
 -2       824       353      1337      1878
 -1       949    3    0    1
 -2      2044       108      2291      2306
 -1       950    3    0    1
 -2       887      1406       894      2259
 -1       951    3    0    1
 -2      3910      1741      1966      3748
 -1       952    3    0    1
 -2      2133      2231      2232      2251
 -1       953    3    0    1
 -2       550      1170        30      1169
 -1       954    3    0    1
 -2       561        99       557      1170
 -1       955    3    0    1
 -2      2043      2071      2086      2112
 -1       956    3    0    1
 -2       992       988      2046      2254
 -1       957    3    0    1
 -2       117       114       570      1284
 -1       958    3    0    1
 -2      1472      1750      3319      3368
 -1       959    3    0    1
 -2        63       766       773       930
 -1       960    3    0    1
 -2       148      3863      3962      3776
 -1       961    3    0    1
 -2       276       275       809      1332
 -1       962    3    0    1
 -2      1001       426      2128      2361
 -1       963    3    0    1
 -2       211       710       711      1019
 -1       964    3    0    1
 -2      3166      3282      3481      3719
 -1       965    3    0    1
 -2      1085       851      1083      2299
 -1       966    3    0    1
 -2      1334       822      2606      2607
 -1       967    3    0    1
 -2      1912      1913      3583      1971
 -1       968    3    0    1
 -2       825        54      1204      1205
 -1       969    3    0    1
 -2       253       249       764       920
 -1       970    3    0    1
 -2      1734      1733      1838      3473
 -1       971    3    0    1
 -2      2160      2093      2211      2249
 -1       972    3    0    1
 -2      2094      2082      2103      2440
 -1       973    3    0    1
 -2      1319      1035       752      2464
 -1       974    3    0    1
 -2       587      1185        32      1184
 -1       975    3    0    1
 -2       682       690      1002      1005
 -1       976    3    0    1
 -2      2127      2102      2190      2242
 -1       977    3    0    1
 -2       569       372       953       954
 -1       978    3    0    1
 -2      1638      1639      3198      3270
 -1       979    3    0    1
 -2      1293      2284      2501      2656
 -1       980    3    0    1
 -2       550      1173       911        30
 -1       981    3    0    1
 -2      3897      3927      3586      3986
 -1       982    3    0    1
 -2       160       342      2507      2550
 -1       983    3    0    1
 -2      1725      1481      1726      3055
 -1       984    3    0    1
 -2       943       556      2659      2660
 -1       985    3    0    1
 -2      2529      2435      3697      4016
 -1       986    3    0    1
 -2       550        96       941      1281
 -1       987    3    0    1
 -2      1032       744      2376      2753
 -1       988    3    0    1
 -2      2220       341      2401      2526
 -1       989    3    0    1
 -2      1410      1409      1743      3117
 -1       990    3    0    1
 -2       956       587      1176      1177
 -1       991    3    0    1
 -2       324      1087      1373      2258
 -1       992    3    0    1
 -2      1290       594      2183      2419
 -1       993    3    0    1
 -2      1293       133      3962      3741
 -1       994    3    0    1
 -2       749      2195      2439      2763
 -1       995    3    0    1
 -2      2378      2223      2066      2403
 -1       996    3    0    1
 -2       320      1365      1368      2170
 -1       997    3    0    1
 -2       866      1379      2215      2290
 -1       998    3    0    1
 -2      1187       791      1049      1190
 -1       999    3    0    1
 -2       260      1040      2047      2097
 -1      1000    3    0    1
 -2       501      1204      2585      2614
 -1      1001    3    0    1
 -2       117       955      3781      1736
 -1      1002    3    0    1
 -2      3818      1435      1806      3915
 -1      1003    3    0    1
 -2      2938      2915      3013      3409
 -1      1004    3    0    1
 -2       452       682      1131      1132
 -1      1005    3    0    1
 -2        31        43       791      1187
 -1      1006    3    0    1
 -2       521       522       643      2616
 -1      1007    3    0    1
 -2      1353       326      2431      2442
 -1      1008    3    0    1
 -2       549       479       558       944
 -1      1009    3    0    1
 -2      2123      1283      2212      2306
 -1      1010    3    0    1
 -2      1851      1524      3881      3976
 -1      1011    3    0    1
 -2      1451      1450      2900      1871
 -1      1012    3    0    1
 -2       408       405      3792      2021
 -1      1013    3    0    1
 -2      2817      2818      3068      3352
 -1      1014    3    0    1
 -2      1648      1649      3107      3548
 -1      1015    3    0    1
 -2       700      3710       198       696
 -1      1016    3    0    1
 -2      2051       361      2074      2241
 -1      1017    3    0    1
 -2       767       774      1326      2520
 -1      1018    3    0    1
 -2       524      1302       640       523
 -1      1019    3    0    1
 -2       607       610      2797      3815
 -1      1020    3    0    1
 -2       312      1389      2131      2165
 -1      1021    3    0    1
 -2       382       287      2308      2481
 -1      1022    3    0    1
 -2       880      1402       890      2309
 -1      1023    3    0    1
 -2      2973      3482      3667      4008
 -1      1024    3    0    1
 -2       997      1001       676      2361
 -1      1025    3    0    1
 -2      3662      1910      3664      3672
 -1      1026    3    0    1
 -2       565      1842      1843      3607
 -1      1027    3    0    1
 -2       518       519      2665      2882
 -1      1028    3    0    1
 -2       570        34       574      1183
 -1      1029    3    0    1
 -2      1179       569       112      1180
 -1      1030    3    0    1
 -2      1002       187      2272      3835
 -1      1031    3    0    1
 -2      2426        98      2992      3829
 -1      1032    3    0    1
 -2      3352      3275      3609      3997
 -1      1033    3    0    1
 -2      1345       837       838      2235
 -1      1034    3    0    1
 -2      1355      1352      2158      2259
 -1      1035    3    0    1
 -2      1432      1431      3175      1887
 -1      1036    3    0    1
 -2      1001       684      2256      2360
 -1      1037    3    0    1
 -2       502      1333      1069       819
 -1      1038    3    0    1
 -2      2400       822      2418      2447
 -1      1039    3    0    1
 -2      1579      1578      1784      3357
 -1      1040    3    0    1
 -2       975       148      4029      3776
 -1      1041    3    0    1
 -2       388       276      1332      2319
 -1      1042    3    0    1
 -2      2062       383      2104      2236
 -1      1043    3    0    1
 -2      1422      1421      3230      3632
 -1      1044    3    0    1
 -2       524       523       640       979
 -1      1045    3    0    1
 -2      1142       459      1144      2813
 -1      1046    3    0    1
 -2      1977      1608      3973      3762
 -1      1047    3    0    1
 -2       290      2334      2748      1804
 -1      1048    3    0    1
 -2       640       523       648       979
 -1      1049    3    0    1
 -2       904       611       132       605
 -1      1050    3    0    1
 -2       641       342       985       986
 -1      1051    3    0    1
 -2       582       955      2181      2330
 -1      1052    3    0    1
 -2       514      1318      1224      1036
 -1      1053    3    0    1
 -2      1363      1081      2148      2188
 -1      1054    3    0    1
 -2       375      2091      2107      2391
 -1      1055    3    0    1
 -2      2138       360      2159      2269
 -1      1056    3    0    1
 -2      2277      2060      2297      2316
 -1      1057    3    0    1
 -2      2060      2150      2297      2316
 -1      1058    3    0    1
 -2      1289       957      2438      3777
 -1      1059    3    0    1
 -2      3804      3282      3498      3719
 -1      1060    3    0    1
 -2       547       548       912       944
 -1      1061    3    0    1
 -2        29       547       912      1172
 -1      1062    3    0    1
 -2       486       487      2596      2600
 -1      1063    3    0    1
 -2      1477      1551      3206      3573
 -1      1064    3    0    1
 -2       645       982      1238      1300
 -1      1065    3    0    1
 -2      3803      3806      3827      3898
 -1      1066    3    0    1
 -2       930       511      2611      2689
 -1      1067    3    0    1
 -2       551      1171        27       556
 -1      1068    3    0    1
 -2       899       457      2617      2618
 -1      1069    3    0    1
 -2        44        42       790      1192
 -1      1070    3    0    1
 -2        55       805       808       925
 -1      1071    3    0    1
 -2      2149      2068      2238      2342
 -1      1072    3    0    1
 -2       685       187       682      1794
 -1      1073    3    0    1
 -2      1358       845       846      2286
 -1      1074    3    0    1
 -2       303      1080      1361      2420
 -1      1075    3    0    1
 -2      2101      2054      2127      2190
 -1      1076    3    0    1
 -2      1513      2989      1705      3379
 -1      1077    3    0    1
 -2      2769      2454      3690      4014
 -1      1078    3    0    1
 -2       351      1056      2492      3939
 -1      1079    3    0    1
 -2       640      2177      2323      2544
 -1      1080    3    0    1
 -2      2484      2469      2531      3016
 -1      1081    3    0    1
 -2       136       133       609       970
 -1      1082    3    0    1
 -2      1442      3785      3787      3800
 -1      1083    3    0    1
 -2       459      1143      2735      2736
 -1      1084    3    0    1
 -2      1034      1325      2163      2460
 -1      1085    3    0    1
 -2       108       567       566       951
 -1      1086    3    0    1
 -2      3249      1691      3513      3628
 -1      1087    3    0    1
 -2      1248       733      2817      2818
 -1      1088    3    0    1
 -2       689       996      1002      2272
 -1      1089    3    0    1
 -2      2889      2591      3970      3891
 -1      1090    3    0    1
 -2       699       679      2433      2727
 -1      1091    3    0    1
 -2      2172      2101      2251      2428
 -1      1092    3    0    1
 -2      2220      1024      2304      2386
 -1      1093    3    0    1
 -2      2462      2469      2608      2998
 -1      1094    3    0    1
 -2       375       378       944      2107
 -1      1095    3    0    1
 -2       850      1363      2148      2188
 -1      1096    3    0    1
 -2       690      1004      2166      2303
 -1      1097    3    0    1
 -2      2160      2249      2298      2360
 -1      1098    3    0    1
 -2      1299       153      2219      2268
 -1      1099    3    0    1
 -2      2885      2284      3863      3962
 -1      1100    3    0    1
 -2       630       622       974      2295
 -1      1101    3    0    1
 -2       369      1093      2077      2182
 -1      1102    3    0    1
 -2       838      1345      2235      2267
 -1      1103    3    0    1
 -2      2731      2836      3053      3869
 -1      1104    3    0    1
 -2      1714      3019      1715      3203
 -1      1105    3    0    1
 -2       807      2650      2723      2793
 -1      1106    3    0    1
 -2       749      2195      2234      2439
 -1      1107    3    0    1
 -2      1019       720      2186      2239
 -1      1108    3    0    1
 -2       361      2074      2241      2370
 -1      1109    3    0    1
 -2      2154       997      2180      2509
 -1      1110    3    0    1
 -2       267       351      1053      2492
 -1      1111    3    0    1
 -2      2207      1378      2255      2363
 -1      1112    3    0    1
 -2       408       405      2741      3832
 -1      1113    3    0    1
 -2      3354      1513      3418      3519
 -1      1114    3    0    1
 -2      1295       141      2171      2253
 -1      1115    3    0    1
 -2       979       156       983      2126
 -1      1116    3    0    1
 -2      3887      1845      1951      3579
 -1      1117    3    0    1
 -2       964      2459      2620      3791
 -1      1118    3    0    1
 -2       582       954      2169      2330
 -1      1119    3    0    1
 -2      1109       436      1403      2450
 -1      1120    3    0    1
 -2      2459      2668      3791      3917
 -1      1121    3    0    1
 -2       800       801       927      1061
 -1      1122    3    0    1
 -2       726      1023      1029      2320
 -1      1123    3    0    1
 -2       784      1055      2678      2679
 -1      1124    3    0    1
 -2       320      1400       330      2170
 -1      1125    3    0    1
 -2      2125      2113      2236      2394
 -1      1126    3    0    1
 -2      2573      3778      2870      3016
 -1      1127    3    0    1
 -2      1947        23      1948      1967
 -1      1128    3    0    1
 -2       295       377      2153      2289
 -1      1129    3    0    1
 -2      1578      1579      1784      3289
 -1      1130    3    0    1
 -2      3641       805      3658      3686
 -1      1131    3    0    1
 -2      1519      1659      3002      3269
 -1      1132    3    0    1
 -2       618       635       976      2105
 -1      1133    3    0    1
 -2       805       278       808      1060
 -1      1134    3    0    1
 -2      1560      1559      3135      1782
 -1      1135    3    0    1
 -2       703       700      3747      3755
 -1      1136    3    0    1
 -2       610      1294      2459      2501
 -1      1137    3    0    1
 -2       784        31       791      1187
 -1      1138    3    0    1
 -2      2051      2241      2278      2281
 -1      1139    3    0    1
 -2       652       641      1136      2653
 -1      1140    3    0    1
 -2       671       659       672      2586
 -1      1141    3    0    1
 -2        22       588       906      1162
 -1      1142    3    0    1
 -2       555       943      2418      2447
 -1      1143    3    0    1
 -2      1312      2347      2432      2685
 -1      1144    3    0    1
 -2      2088      2191      2241      2281
 -1      1145    3    0    1
 -2      2057      2099      2208      2318
 -1      1146    3    0    1
 -2        79       730       933      1256
 -1      1147    3    0    1
 -2      2317       211      2326      2350
 -1      1148    3    0    1
 -2       418      2108      2142      2301
 -1      1149    3    0    1
 -2       581      2169      2233      2330
 -1      1150    3    0    1
 -2      2461      2536      2546      3159
 -1      1151    3    0    1
 -2      1047      1044      3754      3763
 -1      1152    3    0    1
 -2       971       146      2366      2477
 -1      1153    3    0    1
 -2      2253      2250      2264      2364
 -1      1154    3    0    1
 -2       211       418      2110      2350
 -1      1155    3    0    1
 -2       600       961      2185      2382
 -1      1156    3    0    1
 -2      3883      2700      3900      3982
 -1      1157    3    0    1
 -2       803       810      2137      2271
 -1      1158    3    0    1
 -2      1473      1474      2772      1738
 -1      1159    3    0    1
 -2      2109      1124      2321      2452
 -1      1160    3    0    1
 -2      2168      2079      2211      2249
 -1      1161    3    0    1
 -2       553       449      2703      1611
 -1      1162    3    0    1
 -2        58       802       926      1216
 -1      1163    3    0    1
 -2        42       787       790      1192
 -1      1164    3    0    1
 -2        60        58       802       926
 -1      1165    3    0    1
 -2      1128      2073      2124      2287
 -1      1166    3    0    1
 -2      2320      1030      2444      2458
 -1      1167    3    0    1
 -2       552       555       943      2659
 -1      1168    3    0    1
 -2      1321      2304      2513      2515
 -1      1169    3    0    1
 -2         8       659       665       898
 -1      1170    3    0    1
 -2       582       599       960      2330
 -1      1171    3    0    1
 -2       264       266      2949      1913
 -1      1172    3    0    1
 -2      1040       767      2047      2097
 -1      1173    3    0    1
 -2       569       575      1182      2596
 -1      1174    3    0    1
 -2       388      2319      2528      2564
 -1      1175    3    0    1
 -2       667       663      2651      3759
 -1      1176    3    0    1
 -2      2599      2565      3402      4030
 -1      1177    3    0    1
 -2       954       582       960      2330
 -1      1178    3    0    1
 -2       935      1308       683       998
 -1      1179    3    0    1
 -2       386      1048      2134      2337
 -1      1180    3    0    1
 -2       546      1314       545       720
 -1      1181    3    0    1
 -2       417      1128      2073      2124
 -1      1182    3    0    1
 -2        49       821       824       921
 -1      1183    3    0    1
 -2       594      2123      2395      2478
 -1      1184    3    0    1
 -2       646       625      2543      2684
 -1      1185    3    0    1
 -2       702       694      1010      2359
 -1      1186    3    0    1
 -2       353       290      1072      2334
 -1      1187    3    0    1
 -2       239       347       751      1039
 -1      1188    3    0    1
 -2       509      1332      1216       508
 -1      1189    3    0    1
 -2      1053      3989      2031      2032
 -1      1190    3    0    1
 -2      2196       979      2206      2323
 -1      1191    3    0    1
 -2      2066      2087      2204      2378
 -1      1192    3    0    1
 -2      1090       859      1088      2362
 -1      1193    3    0    1
 -2      1024      2201      2445      2482
 -1      1194    3    0    1
 -2       190       184      1308      2356
 -1      1195    3    0    1
 -2       714       726      1023      2627
 -1      1196    3    0    1
 -2      1508      1507      2661      1612
 -1      1197    3    0    1
 -2       120       956      1290      2419
 -1      1198    3    0    1
 -2      2179      2050      2221      2278
 -1      1199    3    0    1
 -2       217       713       719      1016
 -1      1200    3    0    1
 -2       736       733      1244      2644
 -1      1201    3    0    1
 -2       278       349       808      1060
 -1      1202    3    0    1
 -2      1053       351      1056      2492
 -1      1203    3    0    1
 -2      2139      2317      2326      2350
 -1      1204    3    0    1
 -2       436       439      1110      2307
 -1      1205    3    0    1
 -2      2067      2202      2238      2342
 -1      1206    3    0    1
 -2      2080       425      2095      2247
 -1      1207    3    0    1
 -2       605       616       969      2630
 -1      1208    3    0    1
 -2       287       382      2308      2553
 -1      1209    3    0    1
 -2       245       250      1594      3041
 -1      1210    3    0    1
 -2       358       300      1346      2262
 -1      1211    3    0    1
 -2       346      2761      3536      4000
 -1      1212    3    0    1
 -2       654       986      2487      2563
 -1      1213    3    0    1
 -2      2142      1019      2186      2239
 -1      1214    3    0    1
 -2      1428      1427      2023      3707
 -1      1215    3    0    1
 -2       695       204      1012      1013
 -1      1216    3    0    1
 -2       120       126       960      2185
 -1      1217    3    0    1
 -2      3820      1039      1949      1950
 -1      1218    3    0    1
 -2      1223       755       243       748
 -1      1219    3    0    1
 -2      2939      1685      3391      3516
 -1      1220    3    0    1
 -2       766       930      2611      2689
 -1      1221    3    0    1
 -2       544      1028       738       543
 -1      1222    3    0    1
 -2      2187      2064      2325      2453
 -1      1223    3    0    1
 -2       517      1299      1229       971
 -1      1224    3    0    1
 -2        87        86       719      1259
 -1      1225    3    0    1
 -2      3453      2889      3970      3979
 -1      1226    3    0    1
 -2       367       983      2126      2428
 -1      1227    3    0    1
 -2      1304      2399      2416      3799
 -1      1228    3    0    1
 -2      3815      2641      3113      3872
 -1      1229    3    0    1
 -2      2149      2096      2164      2475
 -1      1230    3    0    1
 -2       787       794       913      2679
 -1      1231    3    0    1
 -2      2068      2149      2266      2475
 -1      1232    3    0    1
 -2       334       332      3793      3302
 -1      1233    3    0    1
 -2      2386      2220      2401      2526
 -1      1234    3    0    1
 -2      1292       966       604      2250
 -1      1235    3    0    1
 -2      2199       887      2210      2259
 -1      1236    3    0    1
 -2       622      1296      2295      2332
 -1      1237    3    0    1
 -2      2467      2399      2663      3779
 -1      1238    3    0    1
 -2       835      1342      1339      2150
 -1      1239    3    0    1
 -2       586       482       959      1287
 -1      1240    3    0    1
 -2       822       555      1334      2418
 -1      1241    3    0    1
 -2       726      1021      1022      2627
 -1      1242    3    0    1
 -2       269       784       791      1049
 -1      1243    3    0    1
 -2      2200       941      2491      2559
 -1      1244    3    0    1
 -2      2153      2091      2290      2391
 -1      1245    3    0    1
 -2      2703       553      1611      3133
 -1      1246    3    0    1
 -2       967       136      2463      3169
 -1      1247    3    0    1
 -2      2147       993      2282      2710
 -1      1248    3    0    1
 -2      1057       803      2161      2518
 -1      1249    3    0    1
 -2      2053      2242      2333      2389
 -1      1250    3    0    1
 -2       362      2219      2268      2412
 -1      1251    3    0    1
 -2       534       533       714      1257
 -1      1252    3    0    1
 -2      2092      2192      2216      2232
 -1      1253    3    0    1
 -2       942       552      2447      2466
 -1      1254    3    0    1
 -2        45       776       254      1245
 -1      1255    3    0    1
 -2       590      3259      3511      3518
 -1      1256    3    0    1
 -2      1406      2080      2210      2259
 -1      1257    3    0    1
 -2       290       353       824      1068
 -1      1258    3    0    1
 -2        95      2194      3757      3764
 -1      1259    3    0    1
 -2      3223      3779      3840      4027
 -1      1260    3    0    1
 -2      2073      2090      2124      2385
 -1      1261    3    0    1
 -2       960       599       961      2185
 -1      1262    3    0    1
 -2       884      1115      2144      2293
 -1      1263    3    0    1
 -2      1290       594      2419      2530
 -1      1264    3    0    1
 -2      2202      2238      2342      2351
 -1      1265    3    0    1
 -2       600       599       961      2574
 -1      1266    3    0    1
 -2      2070      2112      2151      2260
 -1      1267    3    0    1
 -2      3831      2814      3254      3980
 -1      1268    3    0    1
 -2      1613      2862      3298      3339
 -1      1269    3    0    1
 -2      1528      2809      3007      3122
 -1      1270    3    0    1
 -2      1588      1589      1823      3322
 -1      1271    3    0    1
 -2       514       515      1036      1222
 -1      1272    3    0    1
 -2       997       676      2180      2361
 -1      1273    3    0    1
 -2      2065      1125      2224      2307
 -1      1274    3    0    1
 -2       213       714       718      1020
 -1      1275    3    0    1
 -2      2931      3879      3468      3970
 -1      1276    3    0    1
 -2      3551      1947      1948      1967
 -1      1277    3    0    1
 -2      1522      1830      1831      3622
 -1      1278    3    0    1
 -2       797       798      1056      2679
 -1      1279    3    0    1
 -2       733       333       736      1027
 -1      1280    3    0    1
 -2       288       384      2510      2554
 -1      1281    3    0    1
 -2       345       987      2487      3994
 -1      1282    3    0    1
 -2       751       239       754      1035
 -1      1283    3    0    1
 -2       950       573      2214      2466
 -1      1284    3    0    1
 -2       803      1057      1061      2271
 -1      1285    3    0    1
 -2      1338       316      1075      2221
 -1      1286    3    0    1
 -2      3156      3373      3434      3992
 -1      1287    3    0    1
 -2       117       570       952       955
 -1      1288    3    0    1
 -2      2046       167      2246      2279
 -1      1289    3    0    1
 -2       903       454      2653      2654
 -1      1290    3    0    1
 -2      2092      2054      2216      2406
 -1      1291    3    0    1
 -2       149        73       627      1243
 -1      1292    3    0    1
 -2       151       153       976      2532
 -1      1293    3    0    1
 -2       705       701      1012      2664
 -1      1294    3    0    1
 -2      1684      1683      2986      3514
 -1      1295    3    0    1
 -2       167      2077      2246      2279
 -1      1296    3    0    1
 -2       798       797      2492      2496
 -1      1297    3    0    1
 -2       747       341       746      1318
 -1      1298    3    0    1
 -2       831      2334      2510      2558
 -1      1299    3    0    1
 -2       755       897      1145      2676
 -1      1300    3    0    1
 -2      2203      2180      2261      2328
 -1      1301    3    0    1
 -2       315      1348      2502      2503
 -1      1302    3    0    1
 -2       604       466       612       966
 -1      1303    3    0    1
 -2       721        84        85      1260
 -1      1304    3    0    1
 -2       624       147       627       973
 -1      1305    3    0    1
 -2      2374      1035      2411      2769
 -1      1306    3    0    1
 -2       500       821       824      1203
 -1      1307    3    0    1
 -2       696       704      1271      2662
 -1      1308    3    0    1
 -2      1285       571       573      2369
 -1      1309    3    0    1
 -2      1287      2364      2407      2530
 -1      1310    3    0    1
 -2      3282      3871      3481      3719
 -1      1311    3    0    1
 -2       290       821       824      1072
 -1      1312    3    0    1
 -2        32       124       593      1176
 -1      1313    3    0    1
 -2      2246      2168      2249      2279
 -1      1314    3    0    1
 -2       582       581      2596      2600
 -1      1315    3    0    1
 -2       810      1061      2098      2341
 -1      1316    3    0    1
 -2      1078      2092      2216      2406
 -1      1317    3    0    1
 -2      1050       788      1328      3833
 -1      1318    3    0    1
 -2        42        44       790       928
 -1      1319    3    0    1
 -2      1288       958      2042      2225
 -1      1320    3    0    1
 -2       514      1318      1036       749
 -1      1321    3    0    1
 -2      2083      1372      2094      2140
 -1      1322    3    0    1
 -2      1068      1330      2780      3678
 -1      1323    3    0    1
 -2      3800       170      3813      1905
 -1      1324    3    0    1
 -2      2066       389      2204      2224
 -1      1325    3    0    1
 -2       750       745      2825      1615
 -1      1326    3    0    1
 -2       783      1048      1052      1189
 -1      1327    3    0    1
 -2       631       627      2571      3740
 -1      1328    3    0    1
 -2      2106       380      2111      2315
 -1      1329    3    0    1
 -2      2170      2132      2357      2409
 -1      1330    3    0    1
 -2      1290       586       594      2530
 -1      1331    3    0    1
 -2      3876      2601      3906      3966
 -1      1332    3    0    1
 -2       855      1371       856      2094
 -1      1333    3    0    1
 -2      3390      1447      3449      3914
 -1      1334    3    0    1
 -2      3765      2491      3772      4030
 -1      1335    3    0    1
 -2      2235      2070      2243      2267
 -1      1336    3    0    1
 -2       609       606       965      2640
 -1      1337    3    0    1
 -2       133       606       609       970
 -1      1338    3    0    1
 -2      1134       754      2675      2676
 -1      1339    3    0    1
 -2       927       800      1057      1215
 -1      1340    3    0    1
 -2      1087      2077      2146      2258
 -1      1341    3    0    1
 -2       611       963       140       605
 -1      1342    3    0    1
 -2       586      1290       594       482
 -1      1343    3    0    1
 -2      3470      3404      3418      1704
 -1      1344    3    0    1
 -2       186      1307      3821      3881
 -1      1345    3    0    1
 -2      1640      1641      1743      3426
 -1      1346    3    0    1
 -2       380      2111      2315      2377
 -1      1347    3    0    1
 -2      1645      2875      1646      3149
 -1      1348    3    0    1
 -2      2634      2663      3821      3897
 -1      1349    3    0    1
 -2       570       116       578      1736
 -1      1350    3    0    1
 -2      3710      1014      3747      3755
 -1      1351    3    0    1
 -2      2228       125      2310      2572
 -1      1352    3    0    1
 -2      2817      2818      2966      3068
 -1      1353    3    0    1
 -2      1830      1481      3342      3965
 -1      1354    3    0    1
 -2      1114      2071       399      2086
 -1      1355    3    0    1
 -2       840      2145      2262      2354
 -1      1356    3    0    1
 -2      1311      2203      2261      2328
 -1      1357    3    0    1
 -2       963       611       140      1295
 -1      1358    3    0    1
 -2      2787      1427      3691      3707
 -1      1359    3    0    1
 -2      1312       213      3793      3302
 -1      1360    3    0    1
 -2       885      1128      1116      2287
 -1      1361    3    0    1
 -2       611       615       905      2583
 -1      1362    3    0    1
 -2      2186      2239      2358      2397
 -1      1363    3    0    1
 -2       642       345       645      1300
 -1      1364    3    0    1
 -2       351      2492      2529      2786
 -1      1365    3    0    1
 -2      1334      2418      2762      3829
 -1      1366    3    0    1
 -2      1943      3106      1944      3596
 -1      1367    3    0    1
 -2       661      2810      2811      2887
 -1      1368    3    0    1
 -2      1598       637      1599      3179
 -1      1369    3    0    1
 -2       813        58       809      1213
 -1      1370    3    0    1
 -2      1310      3818      3838      3915
 -1      1371    3    0    1
 -2      2822      2707      3953      3990
 -1      1372    3    0    1
 -2       972      1298      3852      3917
 -1      1373    3    0    1
 -2      1296      2172      2295      2332
 -1      1374    3    0    1
 -2      1543      1544      2900      1871
 -1      1375    3    0    1
 -2      2113      2062      2125      2236
 -1      1376    3    0    1
 -2       800       927      1057      1061
 -1      1377    3    0    1
 -2       769      1196        45      1194
 -1      1378    3    0    1
 -2       183       427      1671      3644
 -1      1379    3    0    1
 -2       612      1295      2171      2253
 -1      1380    3    0    1
 -2       172       169      3994      4024
 -1      1381    3    0    1
 -2       551      1171       556      2565
 -1      1382    3    0    1
 -2       784       791       929      2678
 -1      1383    3    0    1
 -2      1170       478       557      2565
 -1      1384    3    0    1
 -2       694       702      2245      2328
 -1      1385    3    0    1
 -2       283      1064      2554      2555
 -1      1386    3    0    1
 -2       714       726      2627      2639
 -1      1387    3    0    1
 -2      1165       474      2687      2688
 -1      1388    3    0    1
 -2      2902      2987      3842      3946
 -1      1389    3    0    1
 -2      1397       880      2113      2309
 -1      1390    3    0    1
 -2       245      1594      1595      3041
 -1      1391    3    0    1
 -2       857      1374      1086      2146
 -1      1392    3    0    1
 -2       712      1015      2110      2500
 -1      1393    3    0    1
 -2      1264       692      1006       693
 -1      1394    3    0    1
 -2      2174      2116      2312      2362
 -1      1395    3    0    1
 -2       500       821      1203      2614
 -1      1396    3    0    1
 -2       642       653       984       987
 -1      1397    3    0    1
 -2       959       373      2123      2478
 -1      1398    3    0    1
 -2       426      1001      2128      2360
 -1      1399    3    0    1
 -2        90       670       659      1139
 -1      1400    3    0    1
 -2       345       414       645      1300
 -1      1401    3    0    1
 -2      3462      3294      3483      3919
 -1      1402    3    0    1
 -2       642       653       654      2654
 -1      1403    3    0    1
 -2      1657      1658      2004      3672
 -1      1404    3    0    1
 -2       426       674       997      1001
 -1      1405    3    0    1
 -2       754        64       757      1134
 -1      1406    3    0    1
 -2      2049      2175      2178      2262
 -1      1407    3    0    1
 -2      3109      1588      1823      3322
 -1      1408    3    0    1
 -2      1020       725      2045      2348
 -1      1409    3    0    1
 -2      2105       618      2372      2589
 -1      1410    3    0    1
 -2      1027      1315       734      2818
 -1      1411    3    0    1
 -2       130      2088      2241      2281
 -1      1412    3    0    1
 -2       323       417      1106      2124
 -1      1413    3    0    1
 -2      2211      2122      2431      2442
 -1      1414    3    0    1
 -2      1035       753      2721      2722
 -1      1415    3    0    1
 -2      1124       437      2321      2452
 -1      1416    3    0    1
 -2      2076      2084      2108      2343
 -1      1417    3    0    1
 -2       390      2335      2337      2351
 -1      1418    3    0    1
 -2        28        27       551       910
 -1      1419    3    0    1
 -2      2162       374      2215      2420
 -1      1420    3    0    1
 -2      2201      2218      2385      2388
 -1      1421    3    0    1
 -2       725      1020      2045      2387
 -1      1422    3    0    1
 -2      3166      1900      3498      3719
 -1      1423    3    0    1
 -2       239       751       754      1039
 -1      1424    3    0    1
 -2       604      1292      2250      2365
 -1      1425    3    0    1
 -2       394       396      1038      2421
 -1      1426    3    0    1
 -2      2119      2067      2238      2342
 -1      1427    3    0    1
 -2      3013      1543      3409      3645
 -1      1428    3    0    1
 -2       187      1002      2272      2451
 -1      1429    3    0    1
 -2      1295       904       611      1154
 -1      1430    3    0    1
 -2      2216      2054      2371      2406
 -1      1431    3    0    1
 -2      3124      3804      3282      3498
 -1      1432    3    0    1
 -2      1689      1513      1690      3379
 -1      1433    3    0    1
 -2      2271       385      2453      2518
 -1      1434    3    0    1
 -2      2291      2044      2306      2396
 -1      1435    3    0    1
 -2      2333      2133      2371      2389
 -1      1436    3    0    1
 -2      1854      1468      1855      3654
 -1      1437    3    0    1
 -2      2591       462      2858      3874
 -1      1438    3    0    1
 -2       401      2169      2240      2437
 -1      1439    3    0    1
 -2      2070      2222      2235      2243
 -1      1440    3    0    1
 -2      2059      2107      2153      2423
 -1      1441    3    0    1
 -2      1394      2083      2209      2322
 -1      1442    3    0    1
 -2        41       783       782      1189
 -1      1443    3    0    1
 -2       725       726      1021      2348
 -1      1444    3    0    1
 -2       256      2195      2421      2519
 -1      1445    3    0    1
 -2       275       276      2528      2564
 -1      1446    3    0    1
 -2      2071      1114       399      1126
 -1      1447    3    0    1
 -2      1574      1642      3436      3717
 -1      1448    3    0    1
 -2       821       500       824      2614
 -1      1449    3    0    1
 -2       659       455      2586      2651
 -1      1450    3    0    1
 -2      3830      3818      3838      3901
 -1      1451    3    0    1
 -2      2048       196      2257      2359
 -1      1452    3    0    1
 -2       616       605      1152      2630
 -1      1453    3    0    1
 -2       936       656       988      1269
 -1      1454    3    0    1
 -2       956      2129      2264      2364
 -1      1455    3    0    1
 -2       185       678       682      1005
 -1      1456    3    0    1
 -2      3343       412      1635      1634
 -1      1457    3    0    1
 -2        99       561       102      1170
 -1      1458    3    0    1
 -2      3065      2784      3890      3967
 -1      1459    3    0    1
 -2       537      1308       998       684
 -1      1460    3    0    1
 -2       822      2606      2607      2652
 -1      1461    3    0    1
 -2      3190      1772      3192      3860
 -1      1462    3    0    1
 -2        63       766      1195      1199
 -1      1463    3    0    1
 -2       214      1755      1805      3603
 -1      1464    3    0    1
 -2       156       979      2196      2323
 -1      1465    3    0    1
 -2       386       782       783      1052
 -1      1466    3    0    1
 -2      3783      1435      3818      3849
 -1      1467    3    0    1
 -2       824       831       832      2614
 -1      1468    3    0    1
 -2        82        79       737       933
 -1      1469    3    0    1
 -2       618       617       969      2630
 -1      1470    3    0    1
 -2      1335      1067      2400      3795
 -1      1471    3    0    1
 -2       925       505      2649      2650
 -1      1472    3    0    1
 -2      1342       447      2297      2316
 -1      1473    3    0    1
 -2       644       637      3179      3203
 -1      1474    3    0    1
 -2      1828      1447      1829      3475
 -1      1475    3    0    1
 -2       204      1007      1311      2245
 -1      1476    3    0    1
 -2       517      1233      1228       974
 -1      1477    3    0    1
 -2       797      1054      2373      2496
 -1      1478    3    0    1
 -2      2149      2164      2352      2475
 -1      1479    3    0    1
 -2       848      1361      2162      2486
 -1      1480    3    0    1
 -2      1551      1477      3148      3457
 -1      1481    3    0    1
 -2       564       947      2237      4030
 -1      1482    3    0    1
 -2      3836      3018      3359      3558
 -1      1483    3    0    1
 -2      2663      3779      3821      3897
 -1      1484    3    0    1
 -2       714       213       718      1312
 -1      1485    3    0    1
 -2       766       773       930      2689
 -1      1486    3    0    1
 -2       620      1233       974      1228
 -1      1487    3    0    1
 -2       659       176       989      1305
 -1      1488    3    0    1
 -2       654       986      2197      2487
 -1      1489    3    0    1
 -2      2739      3076      3273      4020
 -1      1490    3    0    1
 -2       224       333      1027      2314
 -1      1491    3    0    1
 -2       676       997      2180      2203
 -1      1492    3    0    1
 -2      2649      1210      3424      2650
 -1      1493    3    0    1
 -2      2044       108      2212      2291
 -1      1494    3    0    1
 -2       887      1399      2199      2210
 -1      1495    3    0    1
 -2       426      2080      2093      2247
 -1      1496    3    0    1
 -2       454       464       642      2654
 -1      1497    3    0    1
 -2      2087      2066      2204      2229
 -1      1498    3    0    1
 -2      3189      1041      3505      3995
 -1      1499    3    0    1
 -2       966       467      1153      1155
 -1      1500    3    0    1
 -2       157       641       903      1136
 -1      1501    3    0    1
 -2       823       822      1067      2652
 -1      1502    3    0    1
 -2      1337       353      2334      2558
 -1      1503    3    0    1
 -2       821       828      1072      1804
 -1      1504    3    0    1
 -2       641       903      2653      2654
 -1      1505    3    0    1
 -2      1011       198      1014      2512
 -1      1506    3    0    1
 -2       162       345      3994      2036
 -1      1507    3    0    1
 -2       386      2202      2378      2403
 -1      1508    3    0    1
 -2      2068      2149      2164      2342
 -1      1509    3    0    1
 -2       699      1009       697      2617
 -1      1510    3    0    1
 -2       870      1384      2119      2238
 -1      1511    3    0    1
 -2       156       367       638       983
 -1      1512    3    0    1
 -2       345       642       984       987
 -1      1513    3    0    1
 -2      1659      3002      3269      3893
 -1      1514    3    0    1
 -2       660        78       663      1137
 -1      1515    3    0    1
 -2       467       963       604       466
 -1      1516    3    0    1
 -2       163      1241       641       157
 -1      1517    3    0    1
 -2       980       641      1240      1241
 -1      1518    3    0    1
 -2      1114       884      2144      2293
 -1      1519    3    0    1
 -2       523      1302       640       648
 -1      1520    3    0    1
 -2       140       362      2412      2430
 -1      1521    3    0    1
 -2       465       606       609      1151
 -1      1522    3    0    1
 -2       388       271      2155      2539
 -1      1523    3    0    1
 -2       345       642       645       984
 -1      1524    3    0    1
 -2       630      1299      2219      2268
 -1      1525    3    0    1
 -2      1367       854      2408      2409
 -1      1526    3    0    1
 -2       715       735      2432      2488
 -1      1527    3    0    1
 -2       744       761      1031      2252
 -1      1528    3    0    1
 -2      1059       806      1331      2417
 -1      1529    3    0    1
 -2       537       676       684       998
 -1      1530    3    0    1
 -2       654       653       985      2654
 -1      1531    3    0    1
 -2       989      2193      2198      2298
 -1      1532    3    0    1
 -2       985       641      2653      2654
 -1      1533    3    0    1
 -2       624       632      1226      2566
 -1      1534    3    0    1
 -2      1882      1693      3715      4006
 -1      1535    3    0    1
 -2       654       985      2653      2654
 -1      1536    3    0    1
 -2       454       642      2653      2654
 -1      1537    3    0    1
 -2       791       784      1054      2678
 -1      1538    3    0    1
 -2      2325      2236      2379      2064
 -1      1539    3    0    1
 -2      3818      2952      3298      3895
 -1      1540    3    0    1
 -2      2101      1296      2172      2295
 -1      1541    3    0    1
 -2       730       742      1031      2671
 -1      1542    3    0    1
 -2        76      3314      1960      1961
 -1      1543    3    0    1
 -2      1840      3118      3336      3372
 -1      1544    3    0    1
 -2       645       464      1150      2654
 -1      1545    3    0    1
 -2       539      1268       989      1267
 -1      1546    3    0    1
 -2       656       657       988      1269
 -1      1547    3    0    1
 -2       656        91       657      1269
 -1      1548    3    0    1
 -2       676       684       998      2356
 -1      1549    3    0    1
 -2      1681      2896      3292      3895
 -1      1550    3    0    1
 -2      2262      2049      2269      2285
 -1      1551    3    0    1
 -2       668       174       660      1138
 -1      1552    3    0    1
 -2      2446       980      2507      2544
 -1      1553    3    0    1
 -2      2209       877      2322      2344
 -1      1554    3    0    1
 -2      1413      1414      2914      1740
 -1      1555    3    0    1
 -2       300      1073      1074      2262
 -1      1556    3    0    1
 -2      1073       358      2178      2262
 -1      1557    3    0    1
 -2      1033       394      2195      2763
 -1      1558    3    0    1
 -2       717      2424      2432      2551
 -1      1559    3    0    1
 -2        13         3       682      1147
 -1      1560    3    0    1
 -2        77       733       736      1248
 -1      1561    3    0    1
 -2       973       628      2523      2656
 -1      1562    3    0    1
 -2      1149       678      2591      2592
 -1      1563    3    0    1
 -2        80        77       736      1248
 -1      1564    3    0    1
 -2       769      1196      1194      2733
 -1      1565    3    0    1
 -2       167       656       988       992
 -1      1566    3    0    1
 -2       299      1348       315      2503
 -1      1567    3    0    1
 -2      1512      2743      3828      3990
 -1      1568    3    0    1
 -2      2072      2131      2218      2388
 -1      1569    3    0    1
 -2       160       342       641       980
 -1      1570    3    0    1
 -2       385      2065      2115      2187
 -1      1571    3    0    1
 -2       160       641       647       980
 -1      1572    3    0    1
 -2       174       668       175      1138
 -1      1573    3    0    1
 -2      2089      2091      2391      2465
 -1      1574    3    0    1
 -2         9      1141        10       696
 -1      1575    3    0    1
 -2       385      2064      2187      2453
 -1      1576    3    0    1
 -2       761       762      2675      2676
 -1      1577    3    0    1
 -2       785      2472      2538      2539
 -1      1578    3    0    1
 -2       678       185       682      1000
 -1      1579    3    0    1
 -2      2543       972      3097      3931
 -1      1580    3    0    1
 -2       383      2104      2236      2394
 -1      1581    3    0    1
 -2       550       477      1169      2599
 -1      1582    3    0    1
 -2      1092       862      2333      2389
 -1      1583    3    0    1
 -2       970       975      2372      3863
 -1      1584    3    0    1
 -2       259       260      1040      2047
 -1      1585    3    0    1
 -2      2086      2071      2118      2293
 -1      1586    3    0    1
 -2      2393      2075      2516      2557
 -1      1587    3    0    1
 -2       659       665       671       994
 -1      1588    3    0    1
 -2      1590      2928      1725      3626
 -1      1589    3    0    1
 -2      1087       369      2077      2258
 -1      1590    3    0    1
 -2       688       677      1133      2657
 -1      1591    3    0    1
 -2      2130       150      2217      2336
 -1      1592    3    0    1
 -2       546      1019      1015       940
 -1      1593    3    0    1
 -2      1381      2266      2283      2537
 -1      1594    3    0    1
 -2      2433      3012      3858      3901
 -1      1595    3    0    1
 -2      1029       743      2320      2376
 -1      1596    3    0    1
 -2      1515      1516      1649      3548
 -1      1597    3    0    1
 -2       171        91       656       936
 -1      1598    3    0    1
 -2      3017      2917      3873      3988
 -1      1599    3    0    1
 -2       452       678       682      1132
 -1      1600    3    0    1
 -2       959      1287      2407      2530
 -1      1601    3    0    1
 -2      1074       834      2175      2178
 -1      1602    3    0    1
 -2      1074       833       834      2178
 -1      1603    3    0    1
 -2       678       686      1132      2657
 -1      1604    3    0    1
 -2      2408      1367      2409      2456
 -1      1605    3    0    1
 -2        87       719      1275      1277
 -1      1606    3    0    1
 -2         3        13       682      1132
 -1      1607    3    0    1
 -2       678         3       682      1132
 -1      1608    3    0    1
 -2       284      3973      3743      3762
 -1      1609    3    0    1
 -2       306      1378       309      2255
 -1      1610    3    0    1
 -2       727       732      1861      3399
 -1      1611    3    0    1
 -2       679       999      2591      2592
 -1      1612    3    0    1
 -2       326      1086      2431      2442
 -1      1613    3    0    1
 -2       606       609      1157      2640
 -1      1614    3    0    1
 -2         4       677       683      1133
 -1      1615    3    0    1
 -2      3796      1620      3910      3993
 -1      1616    3    0    1
 -2      3799      3787      3916      4027
 -1      1617    3    0    1
 -2      3910      1966      3993      3748
 -1      1618    3    0    1
 -2       699      1009      1306      2727
 -1      1619    3    0    1
 -2      3055      1481      3593      3611
 -1      1620    3    0    1
 -2      2087      2098      2341      2472
 -1      1621    3    0    1
 -2      1816      1498      3344      3464
 -1      1622    3    0    1
 -2      2156      2108      2313      2343
 -1      1623    3    0    1
 -2      1002       187      3835      1794
 -1      1624    3    0    1
 -2      2047      1040      2457      2520
 -1      1625    3    0    1
 -2       451       452       682      1131
 -1      1626    3    0    1
 -2      1092      2333      2371      2389
 -1      1627    3    0    1
 -2      3221      2839      3854      3422
 -1      1628    3    0    1
 -2      1411      3089      2024      2025
 -1      1629    3    0    1
 -2      1348       839       840      2354
 -1      1630    3    0    1
 -2       789       788      1328      2969
 -1      1631    3    0    1
 -2      2047       260      2373      2457
 -1      1632    3    0    1
 -2       556       909      2659      2660
 -1      1633    3    0    1
 -2      1291       122      2310      3781
 -1      1634    3    0    1
 -2      2126       156      2196      2323
 -1      1635    3    0    1
 -2      3595      3348      3993      3748
 -1      1636    3    0    1
 -2      1006       535      1010      1261
 -1      1637    3    0    1
 -2       535      1263      1007      1262
 -1      1638    3    0    1
 -2       709       716      1748      3167
 -1      1639    3    0    1
 -2       730      1274       938        79
 -1      1640    3    0    1
 -2       682       678       690      1005
 -1      1641    3    0    1
 -2       979       156      2126      2323
 -1      1642    3    0    1
 -2      3029      3834      3312      3861
 -1      1643    3    0    1
 -2       205       706       695      1272
 -1      1644    3    0    1
 -2       754       757      1322      2676
 -1      1645    3    0    1
 -2      2424       715      2432      2488
 -1      1646    3    0    1
 -2      3069      1598      3179      3183
 -1      1647    3    0    1
 -2      2288      2327      2385      2393
 -1      1648    3    0    1
 -2      2071      2112      2235      2267
 -1      1649    3    0    1
 -2      2618      2771      2901      3812
 -1      1650    3    0    1
 -2      2101       983      2172      2332
 -1      1651    3    0    1
 -2       704        10       696      1271
 -1      1652    3    0    1
 -2       770      1041      1325      2941
 -1      1653    3    0    1
 -2      2591       999      3234      2592
 -1      1654    3    0    1
 -2      3037      1586      3095      3654
 -1      1655    3    0    1
 -2      3542      3098      3543      1978
 -1      1656    3    0    1
 -2      2492       267      2529      2715
 -1      1657    3    0    1
 -2      2987      3842      3946      3965
 -1      1658    3    0    1
 -2       543       939      1024      1273
 -1      1659    3    0    1
 -2       789       770      1041      2436
 -1      1660    3    0    1
 -2      1728      1729      3474      3631
 -1      1661    3    0    1
 -2      2062      2125      2296      2345
 -1      1662    3    0    1
 -2      2535      2756      3791      3969
 -1      1663    3    0    1
 -2      3789      2756      3484      3969
 -1      1664    3    0    1
 -2       701       705       937      2664
 -1      1665    3    0    1
 -2       964      1298      2459      3917
 -1      1666    3    0    1
 -2       718       331      1020      2015
 -1      1667    3    0    1
 -2       544      1317      1274       543
 -1      1668    3    0    1
 -2       523       648       979       983
 -1      1669    3    0    1
 -2       755      1033       396       748
 -1      1670    3    0    1
 -2      3395      1824      1908      3665
 -1      1671    3    0    1
 -2      1508      1507      1677      3061
 -1      1672    3    0    1
 -2      2111      2060      2135      2402
 -1      1673    3    0    1
 -2       358      1346      2049      2262
 -1      1674    3    0    1
 -2       695       701       937      2664
 -1      1675    3    0    1
 -2       339      1916       231      1951
 -1      1676    3    0    1
 -2      1014      1020      2387      3784
 -1      1677    3    0    1
 -2      1704      1417      1705      3044
 -1      1678    3    0    1
 -2      1039       754      1322      2675
 -1      1679    3    0    1
 -2      1531      1530      3575      3744
 -1      1680    3    0    1
 -2       887       894      1127      2210
 -1      1681    3    0    1
 -2       843      1355      1352      2189
 -1      1682    3    0    1
 -2      1124      1398      2109      2321
 -1      1683    3    0    1
 -2       187       682      1002      1005
 -1      1684    3    0    1
 -2      1015       546       940      1276
 -1      1685    3    0    1
 -2       536       535       694      1006
 -1      1686    3    0    1
 -2        83       714      1257      1260
 -1      1687    3    0    1
 -2      1525      2896      1681      3895
 -1      1688    3    0    1
 -2       184       998      1308      2356
 -1      1689    3    0    1
 -2       731       543       738      1028
 -1      1690    3    0    1
 -2      2152      1015      2429      2500
 -1      1691    3    0    1
 -2       711       710       940      1019
 -1      1692    3    0    1
 -2       728       939      1024      1028
 -1      1693    3    0    1
 -2       730       226      1025      1317
 -1      1694    3    0    1
 -2      2836      2731      3053      3200
 -1      1695    3    0    1
 -2       751       235       754       902
 -1      1696    3    0    1
 -2       806       807      1060      2649
 -1      1697    3    0    1
 -2      1327       789       788      2355
 -1      1698    3    0    1
 -2       714       725      1020      1023
 -1      1699    3    0    1
 -2      3023      3029      3312      3861
 -1      1700    3    0    1
 -2       204       424      1012      2493
 -1      1701    3    0    1
 -2      1409      1622      1623      3143
 -1      1702    3    0    1
 -2      1049       785      2539      2540
 -1      1703    3    0    1
 -2       194      1264       195       693
 -1      1704    3    0    1
 -2      3814      3000      3888      3978
 -1      1705    3    0    1
 -2      1280      3115      3823      3529
 -1      1706    3    0    1
 -2       464       454       642      1135
 -1      1707    3    0    1
 -2       235       237       754       902
 -1      1708    3    0    1
 -2      1038       748      2675      2676
 -1      1709    3    0    1
 -2       198      1009      1309      2508
 -1      1710    3    0    1
 -2      1434      3902      3920      3981
 -1      1711    3    0    1
 -2       941       379      2200      2491
 -1      1712    3    0    1
 -2      2219       630      2268      2336
 -1      1713    3    0    1
 -2      1282       563      2334      2426
 -1      1714    3    0    1
 -2      1295       963       612      2171
 -1      1715    3    0    1
 -2      1028      2136      2413      2445
 -1      1716    3    0    1
 -2      2494      2561      2828      2865
 -1      1717    3    0    1
 -2       303       374      1080      2420
 -1      1718    3    0    1
 -2       788      1050      2355      2436
 -1      1719    3    0    1
 -2      1163       473      1165      2688
 -1      1720    3    0    1
 -2      1390       312       440      2165
 -1      1721    3    0    1
 -2      2424       697      2508      2551
 -1      1722    3    0    1
 -2       462       463      2591      2858
 -1      1723    3    0    1
 -2      3335      3326      3871      3488
 -1      1724    3    0    1
 -2      3037      3095      3537      3654
 -1      1725    3    0    1
 -2       714       534      1257      1260
 -1      1726    3    0    1
 -2      1477      1478      3090      1799
 -1      1727    3    0    1
 -2       220       415       713      1022
 -1      1728    3    0    1
 -2       207      1311      2203      2261
 -1      1729    3    0    1
 -2       555       822      1280      2447
 -1      1730    3    0    1
 -2      2325      2063      2236      2064
 -1      1731    3    0    1
 -2      2079      2093      2122      2211
 -1      1732    3    0    1
 -2       956       586      2129      2364
 -1      1733    3    0    1
 -2       746       341      1036      1318
 -1      1734    3    0    1
 -2      3623      3508      1161      3395
 -1      1735    3    0    1
 -2       692      1264      1261       194
 -1      1736    3    0    1
 -2      2063      2236      2309      2473
 -1      1737    3    0    1
 -2      2304       756      2386      2515
 -1      1738    3    0    1
 -2       148       147      4029      3776
 -1      1739    3    0    1
 -2      2152      2136      2326      2429
 -1      1740    3    0    1
 -2       360       373       959      2407
 -1      1741    3    0    1
 -2       120       126      2185      2419
 -1      1742    3    0    1
 -2      3806      2417      3921      3972
 -1      1743    3    0    1
 -2      2304      2386      2513      2515
 -1      1744    3    0    1
 -2       680      3149      3154      3468
 -1      1745    3    0    1
 -2       531       532      2644      2671
 -1      1746    3    0    1
 -2      2092      2216      2231      2232
 -1      1747    3    0    1
 -2      2534      3016      3185      3303
 -1      1748    3    0    1
 -2      2056      2255      2273      2362
 -1      1749    3    0    1
 -2       136       609       967       970
 -1      1750    3    0    1
 -2      1021       725      2348      2387
 -1      1751    3    0    1
 -2      3145      2973      3839      3417
 -1      1752    3    0    1
 -2      2055      2092      2231      2232
 -1      1753    3    0    1
 -2      2835      2578      3980      4008
 -1      1754    3    0    1
 -2      2979      3846      3459      3900
 -1      1755    3    0    1
 -2      1534      1533      1720      3132
 -1      1756    3    0    1
 -2      1921      1920      1956      3692
 -1      1757    3    0    1
 -2      1824      1908      3681      3745
 -1      1758    3    0    1
 -2      1840      3118      1841      3336
 -1      1759    3    0    1
 -2       222        93       728       939
 -1      1760    3    0    1
 -2      1054       798      1055      2496
 -1      1761    3    0    1
 -2      1063       815      1064      2528
 -1      1762    3    0    1
 -2       379        96       550      4030
 -1      1763    3    0    1
 -2       537      1001       684       676
 -1      1764    3    0    1
 -2       316      1338       370      2221
 -1      1765    3    0    1
 -2      1494      1495      1767      3407
 -1      1766    3    0    1
 -2      2229      2224      2307      2331
 -1      1767    3    0    1
 -2      3062      1571      1929      1930
 -1      1768    3    0    1
 -2       701       695      1012      2664
 -1      1769    3    0    1
 -2      1390       875      1389      2131
 -1      1770    3    0    1
 -2      2175      2138      2178      2221
 -1      1771    3    0    1
 -2      2753      2374      3690      4004
 -1      1772    3    0    1
 -2       730       226       737      1030
 -1      1773    3    0    1
 -2       784       269      1054      1055
 -1      1774    3    0    1
 -2      2124      2287      2385      2393
 -1      1775    3    0    1
 -2      2111      2135      2377      2402
 -1      1776    3    0    1
 -2       747       232       233      1224
 -1      1777    3    0    1
 -2      1036       514      1222      1224
 -1      1778    3    0    1
 -2       974      2295      2102      2336
 -1      1779    3    0    1
 -2      1035       751      1319      2722
 -1      1780    3    0    1
 -2        16        17       609      1151
 -1      1781    3    0    1
 -2       754       751      1035      2722
 -1      1782    3    0    1
 -2      2078      2220      2401      2482
 -1      1783    3    0    1
 -2      2112      2070      2235      2267
 -1      1784    3    0    1
 -2      3434      1873      1927      3581
 -1      1785    3    0    1
 -2       850       849      1082      2148
 -1      1786    3    0    1
 -2      1114      2071      2086      2293
 -1      1787    3    0    1
 -2      1563      1562      1638      3270
 -1      1788    3    0    1
 -2       850      2148      2173      2188
 -1      1789    3    0    1
 -2      2159       360      2364      2407
 -1      1790    3    0    1
 -2       749       514       756      1036
 -1      1791    3    0    1
 -2      1092       861      1376      2333
 -1      1792    3    0    1
 -2      2133      2054      2216      2231
 -1      1793    3    0    1
 -2      1447      1448      1829      3475
 -1      1794    3    0    1
 -2      2302      1013      2387      2493
 -1      1795    3    0    1
 -2      1425      3166      3481      3719
 -1      1796    3    0    1
 -2       807       806      1331      2723
 -1      1797    3    0    1
 -2       449       553      1624      2876
 -1      1798    3    0    1
 -2      3392      2605      3884      3904
 -1      1799    3    0    1
 -2      2202      2067      2223      2403
 -1      1800    3    0    1
 -2       751      1218      1220      2722
 -1      1801    3    0    1
 -2      1402      2309      2321      2452
 -1      1802    3    0    1
 -2      2156      2257      2263      2301
 -1      1803    3    0    1
 -2       453      1134      2675      2676
 -1      1804    3    0    1
 -2         8      1139       659       898
 -1      1805    3    0    1
 -2      2187      2227      2453      2473
 -1      1806    3    0    1
 -2       865      1098       866      2215
 -1      1807    3    0    1
 -2       513      1218      2721      2722
 -1      1808    3    0    1
 -2      1318      1036       749      2439
 -1      1809    3    0    1
 -2       720      2186      2239      2358
 -1      1810    3    0    1
 -2      2134      2087      2337      2472
 -1      1811    3    0    1
 -2       337       338      4004      2040
 -1      1812    3    0    1
 -2       430      3977      2011      3712
 -1      1813    3    0    1
 -2       653       645       984      2654
 -1      1814    3    0    1
 -2       659       455       665       898
 -1      1815    3    0    1
 -2       708       725      1013      2387
 -1      1816    3    0    1
 -2       647       641       985      2654
 -1      1817    3    0    1
 -2       894      1406      2210      2259
 -1      1818    3    0    1
 -2      1522      1722      3540      3622
 -1      1819    3    0    1
 -2      2242      2133      2333      2389
 -1      1820    3    0    1
 -2      2058      2291      2306      2396
 -1      1821    3    0    1
 -2      1739      1413      1740      3137
 -1      1822    3    0    1
 -2       135       140      1295      2171
 -1      1823    3    0    1
 -2      2154      2180      2381      2509
 -1      1824    3    0    1
 -2      2278      1083      2299      2541
 -1      1825    3    0    1
 -2      3823       555      2447       552
 -1      1826    3    0    1
 -2       678       682       690      2657
 -1      1827    3    0    1
 -2      2845      3840      3442      3586
 -1      1828    3    0    1
 -2       713      1259      2627      2639
 -1      1829    3    0    1
 -2      1042       769      2732      2733
 -1      1830    3    0    1
 -2       235       751       754      1218
 -1      1831    3    0    1
 -2      3025      2749      3318      3873
 -1      1832    3    0    1
 -2        83       714       718      1143
 -1      1833    3    0    1
 -2       446       437      1108      2321
 -1      1834    3    0    1
 -2       761       762      1322      2675
 -1      1835    3    0    1
 -2       766        75       778      1246
 -1      1836    3    0    1
 -2      1196       494      1194      2733
 -1      1837    3    0    1
 -2      2080      1355      2122      2158
 -1      1838    3    0    1
 -2      1783      1578      1784      3289
 -1      1839    3    0    1
 -2       237       235       754      1218
 -1      1840    3    0    1
 -2      2115      2229      2307      2331
 -1      1841    3    0    1
 -2       611       905      1152      2583
 -1      1842    3    0    1
 -2      3531      1920      3625      3724
 -1      1843    3    0    1
 -2      3821      1524      3858      3897
 -1      1844    3    0    1
 -2       497      1326      1199       496
 -1      1845    3    0    1
 -2      1088       859      2273      2362
 -1      1846    3    0    1
 -2      2183       594      2392      2395
 -1      1847    3    0    1
 -2        50        49       824       921
 -1      1848    3    0    1
 -2       780      1047      1053      2265
 -1      1849    3    0    1
 -2       217       216      2302      2358
 -1      1850    3    0    1
 -2      2667      3332      3540      3541
 -1      1851    3    0    1
 -2       622       517       630       974
 -1      1852    3    0    1
 -2      1080       374      2162      2420
 -1      1853    3    0    1
 -2       386       390       782      1052
 -1      1854    3    0    1
 -2      1424      1423      3155      3178
 -1      1855    3    0    1
 -2      1525      1681      1682      3263
 -1      1856    3    0    1
 -2      2064      2063      2187      2325
 -1      1857    3    0    1
 -2      1762      1763      3314      3613
 -1      1858    3    0    1
 -2       795       791      1054      2678
 -1      1859    3    0    1
 -2       941      1281      2491      2559
 -1      1860    3    0    1
 -2      1528       768      3338      4028
 -1      1861    3    0    1
 -2       686       678      1005      2657
 -1      1862    3    0    1
 -2      2384      1321      2439      2763
 -1      1863    3    0    1
 -2       689      2166      2272      2451
 -1      1864    3    0    1
 -2      2127      2054      2133      2190
 -1      1865    3    0    1
 -2       784       269       791      1054
 -1      1866    3    0    1
 -2       125       405      3792      3832
 -1      1867    3    0    1
 -2       482      1178      1175       959
 -1      1868    3    0    1
 -2       779      1045      2421      2519
 -1      1869    3    0    1
 -2      2102       366      2190      2295
 -1      1870    3    0    1
 -2      2180      2154      2381      2414
 -1      1871    3    0    1
 -2        31       784       791       929
 -1      1872    3    0    1
 -2       927       508      1057      1061
 -1      1873    3    0    1
 -2      2673      3024      3119      1895
 -1      1874    3    0    1
 -2      1763      1762      3482      1972
 -1      1875    3    0    1
 -2      2859      3825      3191      3325
 -1      1876    3    0    1
 -2      2070      2114      2222      2243
 -1      1877    3    0    1
 -2      1344       296       298      2243
 -1      1878    3    0    1
 -2      3232      1540      3324      3891
 -1      1879    3    0    1
 -2      3939      1056      1975      1976
 -1      1880    3    0    1
 -2        58       813       280      1213
 -1      1881    3    0    1
 -2        61      1215       800       927
 -1      1882    3    0    1
 -2      3830      3858      3998      4026
 -1      1883    3    0    1
 -2      2286      1079      2516      2557
 -1      1884    3    0    1
 -2      1027       734      2817      2818
 -1      1885    3    0    1
 -2       772       769      1042      2733
 -1      1886    3    0    1
 -2       770      1042      2732      2733
 -1      1887    3    0    1
 -2       769       255       772      1042
 -1      1888    3    0    1
 -2        63      1246       766       930
 -1      1889    3    0    1
 -2      1634      1592      3905      3568
 -1      1890    3    0    1
 -2      2157       617      2248      2463
 -1      1891    3    0    1
 -2      1028       738      2413      2429
 -1      1892    3    0    1
 -2      1348       299      1077      2503
 -1      1893    3    0    1
 -2       945       563      2565      4030
 -1      1894    3    0    1
 -2       779      2324      2480      2519
 -1      1895    3    0    1
 -2      1010      2048      2328      2359
 -1      1896    3    0    1
 -2        43       791      1187      1190
 -1      1897    3    0    1
 -2       606       133       609       965
 -1      1898    3    0    1
 -2      1312       715      2735      2736
 -1      1899    3    0    1
 -2      3170      1613      3284      3291
 -1      1900    3    0    1
 -2        43        31       791       929
 -1      1901    3    0    1
 -2       389      1385      2223      2294
 -1      1902    3    0    1
 -2      2059       378      2107      2423
 -1      1903    3    0    1
 -2      2349      2326      2429      2500
 -1      1904    3    0    1
 -2       612       604       966      2250
 -1      1905    3    0    1
 -2      1053       790      2678      2679
 -1      1906    3    0    1
 -2       269       391       791      1054
 -1      1907    3    0    1
 -2       551       910      2565      2599
 -1      1908    3    0    1
 -2      1055       798      2678      2679
 -1      1909    3    0    1
 -2      1053       797      1056      2679
 -1      1910    3    0    1
 -2       794       787      1056      2679
 -1      1911    3    0    1
 -2      1174       784      2678      2679
 -1      1912    3    0    1
 -2       269       796       271      1055
 -1      1913    3    0    1
 -2      2719      2921      3846      3883
 -1      1914    3    0    1
 -2      1427      1428      1554      3691
 -1      1915    3    0    1
 -2       448       445      2125      2345
 -1      1916    3    0    1
 -2      3271      2719      3846      3883
 -1      1917    3    0    1
 -2      1336       922       825      1208
 -1      1918    3    0    1
 -2       772        45        48      1217
 -1      1919    3    0    1
 -2       988       658      2198      2298
 -1      1920    3    0    1
 -2      2521      3994      3702      4024
 -1      1921    3    0    1
 -2      1259       533      2627      2639
 -1      1922    3    0    1
 -2       802       275      1063      1064
 -1      1923    3    0    1
 -2      1372      1369      2140      2322
 -1      1924    3    0    1
 -2      1213       802        58       809
 -1      1925    3    0    1
 -2       811        55       277      1214
 -1      1926    3    0    1
 -2      1417      1704      1705      3404
 -1      1927    3    0    1
 -2       824       821       832      1072
 -1      1928    3    0    1
 -2       384      1070      2510      2554
 -1      1929    3    0    1
 -2      3476      1411      3471      2024
 -1      1930    3    0    1
 -2      1347       839      1346      2145
 -1      1931    3    0    1
 -2      2487       414      2521      2524
 -1      1932    3    0    1
 -2       772       769        45      1217
 -1      1933    3    0    1
 -2       508       927      1057      1215
 -1      1934    3    0    1
 -2      2043       397      2071      2112
 -1      1935    3    0    1
 -2      1412      1411      3089      3195
 -1      1936    3    0    1
 -2      1511      1510      1918      3520
 -1      1937    3    0    1
 -2       490       491      1048      1188
 -1      1938    3    0    1
 -2       391       269       791      1049
 -1      1939    3    0    1
 -2       509      1061       810       508
 -1      1940    3    0    1
 -2       148       975      1997      3776
 -1      1941    3    0    1
 -2       787       790      1053      2679
 -1      1942    3    0    1
 -2       581       582       955      2600
 -1      1943    3    0    1
 -2       837      1345      1076      2235
 -1      1944    3    0    1
 -2      1006       196      1010      2048
 -1      1945    3    0    1
 -2      2164       390      2342      2351
 -1      1946    3    0    1
 -2       275       802       809      1332
 -1      1947    3    0    1
 -2      2100      2050      2138      2159
 -1      1948    3    0    1
 -2      2175      1074      2178      2262
 -1      1949    3    0    1
 -2       200      1009      2508      2727
 -1      1950    3    0    1
 -2      2239      2302      2358      2397
 -1      1951    3    0    1
 -2       362       140       969      2430
 -1      1952    3    0    1
 -2      1780      3215      3217      3226
 -1      1953    3    0    1
 -2       503      1069       826       502
 -1      1954    3    0    1
 -2      1032      2376      2454      2753
 -1      1955    3    0    1
 -2       136       133       970      2463
 -1      1956    3    0    1
 -2      2784      2726      3812      3967
 -1      1957    3    0    1
 -2       817       818      1207      1333
 -1      1958    3    0    1
 -2       821       290      1068      1334
 -1      1959    3    0    1
 -2      1702      2705      3900      3491
 -1      1960    3    0    1
 -2      1667      2908      3416      3701
 -1      1961    3    0    1
 -2       769       255      1042      1324
 -1      1962    3    0    1
 -2      1061       810      2271      2341
 -1      1963    3    0    1
 -2       977      2366       146      2533
 -1      1964    3    0    1
 -2      2622      1536      2821      3812
 -1      1965    3    0    1
 -2       879      1401       889      2345
 -1      1966    3    0    1
 -2       809       802      1216      1332
 -1      1967    3    0    1
 -2        50       824      1203      1206
 -1      1968    3    0    1
 -2       672       995      2282      2292
 -1      1969    3    0    1
 -2      2419       594      2478      2530
 -1      1970    3    0    1
 -2      2288      2075      2327      2393
 -1      1971    3    0    1
 -2       409      1790      1899      3960
 -1      1972    3    0    1
 -2       437      1398      1124      2321
 -1      1973    3    0    1
 -2       819       502       826      1069
 -1      1974    3    0    1
 -2      1366       321      1367      2456
 -1      1975    3    0    1
 -2       821       290       824      1068
 -1      1976    3    0    1
 -2        54       829       291      1205
 -1      1977    3    0    1
 -2       425      2128      2361      2509
 -1      1978    3    0    1
 -2      1023       726      2348      3139
 -1      1979    3    0    1
 -2       285       286       817      1207
 -1      1980    3    0    1
 -2       455       659       665      2651
 -1      1981    3    0    1
 -2       156       367      2126      2312
 -1      1982    3    0    1
 -2        58        60       802      1212
 -1      1983    3    0    1
 -2       586       956      2129      2530
 -1      1984    3    0    1
 -2       245       250      1962      3947
 -1      1985    3    0    1
 -2      1523      1522      1831      3622
 -1      1986    3    0    1
 -2      1333       923       818      1207
 -1      1987    3    0    1
 -2      1158      1156      2976      3371
 -1      1988    3    0    1
 -2       923      1333      1069       502
 -1      1989    3    0    1
 -2       731      2386      2375      2304
 -1      1990    3    0    1
 -2      3492      3045      3550      3723
 -1      1991    3    0    1
 -2      1060      2355      3629      3738
 -1      1992    3    0    1
 -2      1102       310      2067      2244
 -1      1993    3    0    1
 -2       187       685       423      1794
 -1      1994    3    0    1
 -2      2256      2198      2298      2360
 -1      1995    3    0    1
 -2       538      1001       537       676
 -1      1996    3    0    1
 -2       125       122      2225      2310
 -1      1997    3    0    1
 -2       581       952       955      2233
 -1      1998    3    0    1
 -2      2132      2052      2170      2357
 -1      1999    3    0    1
 -2       842       841      2092      2216
 -1      2000    3    0    1
 -2      1308       684      2256      2356
 -1      2001    3    0    1
 -2      2136       416      2201      2445
 -1      2002    3    0    1
 -2       797      1053      2492      2496
 -1      2003    3    0    1
 -2       418      2108      2301      2343
 -1      2004    3    0    1
 -2       250       245      3006      1999
 -1      2005    3    0    1
 -2      2418       943      2992      3764
 -1      2006    3    0    1
 -2       961       600      2248      2382
 -1      2007    3    0    1
 -2       169       993       996      3759
 -1      2008    3    0    1
 -2      1355       327      1352      2259
 -1      2009    3    0    1
 -2      3781       955      1735      1736
 -1      2010    3    0    1
 -2       715       717      2424      2432
 -1      2011    3    0    1
 -2      2155       388      2319      2528
 -1      2012    3    0    1
 -2       792      1052      2097      2335
 -1      2013    3    0    1
 -2       743       726      1029      2320
 -1      2014    3    0    1
 -2       342       652       343       986
 -1      2015    3    0    1
 -2       696       198       700      1009
 -1      2016    3    0    1
 -2       447       294      2297      2316
 -1      2017    3    0    1
 -2       211       418      1019      2110
 -1      2018    3    0    1
 -2      2366       146      2443      2477
 -1      2019    3    0    1
 -2       223       728      1024      1028
 -1      2020    3    0    1
 -2      2216      2133      2231      2232
 -1      2021    3    0    1
 -2       117       114      2214      2367
 -1      2022    3    0    1
 -2      2129       120      2185      2419
 -1      2023    3    0    1
 -2      1343      1344      2235      2243
 -1      2024    3    0    1
 -2       555       943      2659      2660
 -1      2025    3    0    1
 -2      1716      1664      3386      3483
 -1      2026    3    0    1
 -2      3850      1023      1989      1990
 -1      2027    3    0    1
 -2       694       702      2328      2359
 -1      2028    3    0    1
 -2       582       581      2233      2330
 -1      2029    3    0    1
 -2      2106      2135      2277      2315
 -1      2030    3    0    1
 -2      2270      2462      2469      2608
 -1      2031    3    0    1
 -2      1779       234      3498      1922
 -1      2032    3    0    1
 -2       211      2110      2326      2350
 -1      2033    3    0    1
 -2      1340       835      2150      2289
 -1      2034    3    0    1
 -2       951       576      2184      2511
 -1      2035    3    0    1
 -2      2100      2050      2191      2281
 -1      2036    3    0    1
 -2       151       976      2443      2532
 -1      2037    3    0    1
 -2       341      2043      2401      2526
 -1      2038    3    0    1
 -2      2050      2159      2191      2221
 -1      2039    3    0    1
 -2      2332       648      2428      2497
 -1      2040    3    0    1
 -2      2136      1028      2413      2429
 -1      2041    3    0    1
 -2      1061       387      2098      2341
 -1      2042    3    0    1
 -2       711       940      1015      1019
 -1      2043    3    0    1
 -2      2068      2096      2149      2475
 -1      2044    3    0    1
 -2      2079      2168      2211      2442
 -1      2045    3    0    1
 -2       226      1025      1317      2375
 -1      2046    3    0    1
 -2       125       122       588      1288
 -1      2047    3    0    1
 -2       130       361      2051      2241
 -1      2048    3    0    1
 -2      2110       418      2343      2350
 -1      2049    3    0    1
 -2      1354      2122      2189      2431
 -1      2050    3    0    1
 -2      2528      1062      2415      2548
 -1      2051    3    0    1
 -2      2129      2253      2264      2364
 -1      2052    3    0    1
 -2       419       176       995      2282
 -1      2053    3    0    1
 -2      3768       333       733       224
 -1      2054    3    0    1
 -2      1067       354      3795      3225
 -1      2055    3    0    1
 -2       383      1069      1333      2104
 -1      2056    3    0    1
 -2      3709      1280       822      2447
 -1      2057    3    0    1
 -2       341      2118      2220      2401
 -1      2058    3    0    1
 -2       671       659       994       995
 -1      2059    3    0    1
 -2      2693      3345      3355      3907
 -1      2060    3    0    1
 -2      1388       296      1104      2222
 -1      2061    3    0    1
 -2      3916      3813      3670      4001
 -1      2062    3    0    1
 -2      2110       418      2301      2343
 -1      2063    3    0    1
 -2      2180       676      2356      2361
 -1      2064    3    0    1
 -2       998       193      2203      2261
 -1      2065    3    0    1
 -2      1194       494      2732      2733
 -1      2066    3    0    1
 -2        34       110       570      1165
 -1      2067    3    0    1
 -2       958       591      2713      2714
 -1      2068    3    0    1
 -2      2091       375      2380      2391
 -1      2069    3    0    1
 -2       640      2323      2428      2507
 -1      2070    3    0    1
 -2      2227      2063      2321      2473
 -1      2071    3    0    1
 -2      1071      2334      2549      2553
 -1      2072    3    0    1
 -2      2101       367      2231      2251
 -1      2073    3    0    1
 -2      1067      1335      2652      3814
 -1      2074    3    0    1
 -2       318       393      1100      2470
 -1      2075    3    0    1
 -2      2084      2081      2313      2441
 -1      2076    3    0    1
 -2      2225      2181      3781      3817
 -1      2077    3    0    1
 -2      2061      2099      2318      2465
 -1      2078    3    0    1
 -2      2309      2236      2394      2473
 -1      2079    3    0    1
 -2      2117      2182      2207      2363
 -1      2080    3    0    1
 -2      1318      1036      2439      2526
 -1      2081    3    0    1
 -2       599      2181      2185      2330
 -1      2082    3    0    1
 -2      1353      1354      2189      2431
 -1      2083    3    0    1
 -2       331       213       718      1020
 -1      2084    3    0    1
 -2       404       956      2129      2264
 -1      2085    3    0    1
 -2      1076      1345      2086      2267
 -1      2086    3    0    1
 -2       211      2076      2343      2485
 -1      2087    3    0    1
 -2      2706      2642      3846      3478
 -1      2088    3    0    1
 -2       702      1010      2203      2328
 -1      2089    3    0    1
 -2       126       120      1290      2419
 -1      2090    3    0    1
 -2      1531      2936      3880      3907
 -1      2091    3    0    1
 -2      3277      1445      3946      4015
 -1      2092    3    0    1
 -2       774      1043      2338      2495
 -1      2093    3    0    1
 -2       712       545       720      1015
 -1      2094    3    0    1
 -2       389      2066      2204      2223
 -1      2095    3    0    1
 -2      1128       323      1116      2124
 -1      2096    3    0    1
 -2       360      2100      2159      2364
 -1      2097    3    0    1
 -2       327      1406      1120      2259
 -1      2098    3    0    1
 -2       563      1282      2565      4030
 -1      2099    3    0    1
 -2       204       428      2397      2493
 -1      2100    3    0    1
 -2      2128      2093      2158      2247
 -1      2101    3    0    1
 -2      1287       586      2264      2364
 -1      2102    3    0    1
 -2       882      1125      1110      2307
 -1      2103    3    0    1
 -2       448       445      1123      2125
 -1      2104    3    0    1
 -2       678       185      1000      1306
 -1      2105    3    0    1
 -2       308      1092      1376      2371
 -1      2106    3    0    1
 -2       896      1408      2084      2313
 -1      2107    3    0    1
 -2      2084      2081      2108      2313
 -1      2108    3    0    1
 -2      2295       971      2366      2477
 -1      2109    3    0    1
 -2       600       617      2248      2382
 -1      2110    3    0    1
 -2       600       962      2157      2310
 -1      2111    3    0    1
 -2       223      1024      2220      2482
 -1      2112    3    0    1
 -2       190      2256      2292      2356
 -1      2113    3    0    1
 -2      2106      2111      2135      2315
 -1      2114    3    0    1
 -2      1106      2073      2090      2124
 -1      2115    3    0    1
 -2      2241      2051      2299      2476
 -1      2116    3    0    1
 -2      3273      2739      3488      3630
 -1      2117    3    0    1
 -2      2055      1350       301      1349
 -1      2118    3    0    1
 -2      1040       259      2047      2457
 -1      2119    3    0    1
 -2       256       252      1326      2520
 -1      2120    3    0    1
 -2       392      1323      2164      2495
 -1      2121    3    0    1
 -2       211       711      1015      1019
 -1      2122    3    0    1
 -2      1734      1733      3551      1947
 -1      2123    3    0    1
 -2       295      1097      1379      2153
 -1      2124    3    0    1
 -2      3830      3838      3737      4026
 -1      2125    3    0    1
 -2       323      1128       417      2124
 -1      2126    3    0    1
 -2       689       672      2272      2292
 -1      2127    3    0    1
 -2       351       787      1053      1056
 -1      2128    3    0    1
 -2       130       966      1292      2088
 -1      2129    3    0    1
 -2      1590      1591      2990      1726
 -1      2130    3    0    1
 -2       845      1358      1079      2286
 -1      2131    3    0    1
 -2       818       380       383      1333
 -1      2132    3    0    1
 -2      1571      2995      1777      1778
 -1      2133    3    0    1
 -2      2160       988      2198      2298
 -1      2134    3    0    1
 -2       196       692      1006      1010
 -1      2135    3    0    1
 -2       451      1133      2581      2657
 -1      2136    3    0    1
 -2      2112      2086      2260      2267
 -1      2137    3    0    1
 -2      1445      1549      1550      3377
 -1      2138    3    0    1
 -2      2204      2066      2224      2229
 -1      2139    3    0    1
 -2      1544      1543      2900      3648
 -1      2140    3    0    1
 -2      1035       239      2374      2411
 -1      2141    3    0    1
 -2      1021       726      1022      2348
 -1      2142    3    0    1
 -2       517       520       622       971
 -1      2143    3    0    1
 -2      2048       196      2226      2425
 -1      2144    3    0    1
 -2        12      3304      1879      1906
 -1      2145    3    0    1
 -2      2062      2106      2296      2315
 -1      2146    3    0    1
 -2      1488      1489      3164      1786
 -1      2147    3    0    1
 -2      2063      2227      2321      2452
 -1      2148    3    0    1
 -2      2073      2287      2288      2385
 -1      2149    3    0    1
 -2       939       543      1024      1028
 -1      2150    3    0    1
 -2       433      3984      3993      2026
 -1      2151    3    0    1
 -2       114       117      2233      2367
 -1      2152    3    0    1
 -2       320      2132      2170      2409
 -1      2153    3    0    1
 -2      2072      2078      2220      2401
 -1      2154    3    0    1
 -2      2083      2209      2322      2425
 -1      2155    3    0    1
 -2       251      2114      2141      2498
 -1      2156    3    0    1
 -2      2236      2325      2379      2394
 -1      2157    3    0    1
 -2      2078      2072      2220      2482
 -1      2158    3    0    1
 -2       948      2183      2212      2422
 -1      2159    3    0    1
 -2       922      1336       825      1066
 -1      2160    3    0    1
 -2       226       398      2375      2444
 -1      2161    3    0    1
 -2       714       718       725      2639
 -1      2162    3    0    1
 -2       803       508       810      1061
 -1      2163    3    0    1
 -2      1331       807      2723      2793
 -1      2164    3    0    1
 -2      1093       863      2207      2363
 -1      2165    3    0    1
 -2      2167       549      2200      2511
 -1      2166    3    0    1
 -2      1377      1091      2389      2456
 -1      2167    3    0    1
 -2       552      1279      2194      2466
 -1      2168    3    0    1
 -2      2427      2076      2485      2542
 -1      2169    3    0    1
 -2      2078      2072      2293      2401
 -1      2170    3    0    1
 -2      2943      3308      3393      3530
 -1      2171    3    0    1
 -2      2138      2050      2178      2221
 -1      2172    3    0    1
 -2       992       368      2276      2368
 -1      2173    3    0    1
 -2       427      1851      3881      3644
 -1      2174    3    0    1
 -2       979       640      2177      2323
 -1      2175    3    0    1
 -2      1001       684       676      2361
 -1      2176    3    0    1
 -2       361      1292      2130      2365
 -1      2177    3    0    1
 -2       140       963      2171      2412
 -1      2178    3    0    1
 -2      1311       702      2203      2328
 -1      2179    3    0    1
 -2      1356      1357      2427      2562
 -1      2180    3    0    1
 -2      1322       761      2675      2676
 -1      2181    3    0    1
 -2         3       678      1147      1149
 -1      2182    3    0    1
 -2       976      2443      3767      3774
 -1      2183    3    0    1
 -2       683      1004      2581      2657
 -1      2184    3    0    1
 -2       238       759       242       897
 -1      2185    3    0    1
 -2       759       238       755       897
 -1      2186    3    0    1
 -2         8      1139        90       659
 -1      2187    3    0    1
 -2         8       669       177       898
 -1      2188    3    0    1
 -2       669         8       665       898
 -1      2189    3    0    1
 -2      2572      3792      3169      3832
 -1      2190    3    0    1
 -2      2171       141      2248      2253
 -1      2191    3    0    1
 -2      1295       141      2253      2264
 -1      2192    3    0    1
 -2       647       651       903      2654
 -1      2193    3    0    1
 -2       235       758       240       902
 -1      2194    3    0    1
 -2       758       235       751       902
 -1      2195    3    0    1
 -2       163       651       165       903
 -1      2196    3    0    1
 -2       651       163       647       903
 -1      2197    3    0    1
 -2       603        15       131      1155
 -1      2198    3    0    1
 -2       467       963       466       904
 -1      2199    3    0    1
 -2       467       466       966      1153
 -1      2200    3    0    1
 -2       138       615       139       905
 -1      2201    3    0    1
 -2       615       138       611       905
 -1      2202    3    0    1
 -2       577       574      1183      2600
 -1      2203    3    0    1
 -2       284      1977      3973      3762
 -1      2204    3    0    1
 -2        34       570       574      1165
 -1      2205    3    0    1
 -2      3378      2950      3443      3944
 -1      2206    3    0    1
 -2      2616      2580      3800      3851
 -1      2207    3    0    1
 -2      1171       551        27       910
 -1      2208    3    0    1
 -2        28       560       104       910
 -1      2209    3    0    1
 -2       560        28       551       910
 -1      2210    3    0    1
 -2      2902      3842      3522      4015
 -1      2211    3    0    1
 -2       548        29       547       912
 -1      2212    3    0    1
 -2       550      1173        30       557
 -1      2213    3    0    1
 -2        25      1936      3550      2007
 -1      2214    3    0    1
 -2       599       582      2181      2330
 -1      2215    3    0    1
 -2       796       784      1174      2679
 -1      2216    3    0    1
 -2        40       787       794       913
 -1      2217    3    0    1
 -2        40        42       787       913
 -1      2218    3    0    1
 -2      1630      1614      1629      3321
 -1      2219    3    0    1
 -2       569        35       580       915
 -1      2220    3    0    1
 -2       109        35       569       915
 -1      2221    3    0    1
 -2       575       569       953      2596
 -1      2222    3    0    1
 -2        36       570       578       916
 -1      2223    3    0    1
 -2        36       110       570       916
 -1      2224    3    0    1
 -2        22      1186        37       591
 -1      2225    3    0    1
 -2        22       596        39       917
 -1      2226    3    0    1
 -2       596        22       588       917
 -1      2227    3    0    1
 -2      3187      3295      3919      3694
 -1      2228    3    0    1
 -2       787      1327      2730      2731
 -1      2229    3    0    1
 -2      2648      2593      3867      4010
 -1      2230    3    0    1
 -2       920      1323      1043       496
 -1      2231    3    0    1
 -2       249       764       920      1198
 -1      2232    3    0    1
 -2      2721       513      2722      2948
 -1      2233    3    0    1
 -2      2195      2234      2338      2520
 -1      2234    3    0    1
 -2       766        63       773      1199
 -1      2235    3    0    1
 -2       357      2184      2208      2318
 -1      2236    3    0    1
 -2       497      1043       496       920
 -1      2237    3    0    1
 -2      1698       750      3825      3191
 -1      2238    3    0    1
 -2       502      1066       819       826
 -1      2239    3    0    1
 -2       807      1060      2649      2650
 -1      2240    3    0    1
 -2       503      1069       502       923
 -1      2241    3    0    1
 -2       707      2512      3746      3758
 -1      2242    3    0    1
 -2        57        55       805      1211
 -1      2243    3    0    1
 -2       533       714      1257      2627
 -1      2244    3    0    1
 -2      2188      2057      2318      2486
 -1      2245    3    0    1
 -2      2241      2179      2278      2281
 -1      2246    3    0    1
 -2      2308      1071      2549      2553
 -1      2247    3    0    1
 -2      3362      1454      1874      1875
 -1      2248    3    0    1
 -2       818       383      1069      1333
 -1      2249    3    0    1
 -2        61      1215       274       800
 -1      2250    3    0    1
 -2       983       367      2251      2428
 -1      2251    3    0    1
 -2        42       787       913       928
 -1      2252    3    0    1
 -2       787        42       790       928
 -1      2253    3    0    1
 -2       793        44        62       928
 -1      2254    3    0    1
 -2        44       793       790       928
 -1      2255    3    0    1
 -2        43       795       268       929
 -1      2256    3    0    1
 -2       795        43       791       929
 -1      2257    3    0    1
 -2        63      1246       258       766
 -1      2258    3    0    1
 -2        63       777       257       930
 -1      2259    3    0    1
 -2       777        63       773       930
 -1      2260    3    0    1
 -2       971       623      1229      1232
 -1      2261    3    0    1
 -2       623        68      1229      1232
 -1      2262    3    0    1
 -2      2347      1023      3139      3850
 -1      2263    3    0    1
 -2      1634      1577      1771      3428
 -1      2264    3    0    1
 -2        79       730       737       933
 -1      2265    3    0    1
 -2        82       741       225       933
 -1      2266    3    0    1
 -2       741        82       737       933
 -1      2267    3    0    1
 -2       675        88        89      1266
 -1      2268    3    0    1
 -2       538       998       537       935
 -1      2269    3    0    1
 -2       644       637      1598      3179
 -1      2270    3    0    1
 -2       696         9       700      1270
 -1      2271    3    0    1
 -2      3395      3077      3503      3966
 -1      2272    3    0    1
 -2      1024       731      2304      2386
 -1      2273    3    0    1
 -2        92      1272       695       937
 -1      2274    3    0    1
 -2        92      1272       205       695
 -1      2275    3    0    1
 -2        92       705       203       937
 -1      2276    3    0    1
 -2       705        92       701       937
 -1      2277    3    0    1
 -2        86        87       719      1275
 -1      2278    3    0    1
 -2       730      1274        79       737
 -1      2279    3    0    1
 -2       713        86       719      1275
 -1      2280    3    0    1
 -2       710        94       711       940
 -1      2281    3    0    1
 -2      2056      2174      2255      2362
 -1      2282    3    0    1
 -2       167      2046      2249      2279
 -1      2283    3    0    1
 -2      1466      2783      1537      3165
 -1      2284    3    0    1
 -2      2700      1472      3900      3982
 -1      2285    3    0    1
 -2      2126       979      2323      2428
 -1      2286    3    0    1
 -2       480      1281       479       558
 -1      2287    3    0    1
 -2       103      2167      2200      2437
 -1      2288    3    0    1
 -2      2748      1072      1803      1804
 -1      2289    3    0    1
 -2       416      1028      2136      2152
 -1      2290    3    0    1
 -2       941       103      2167      2200
 -1      2291    3    0    1
 -2      3693      2787      3707      3708
 -1      2292    3    0    1
 -2       624      1243       627      2571
 -1      2293    3    0    1
 -2       955      2181      2330      3781
 -1      2294    3    0    1
 -2      2326      2152      2429      2500
 -1      2295    3    0    1
 -2      2494      2561      2865      3088
 -1      2296    3    0    1
 -2       714       534       718      2639
 -1      2297    3    0    1
 -2       695       706      1013      2662
 -1      2298    3    0    1
 -2        27      1167       551       909
 -1      2299    3    0    1
 -2      2661      1507      1611      1612
 -1      2300    3    0    1
 -2       375       548       547       944
 -1      2301    3    0    1
 -2       756      1036      2386      2515
 -1      2302    3    0    1
 -2       570       916      1183      2600
 -1      2303    3    0    1
 -2      2108      2156      2301      2343
 -1      2304    3    0    1
 -2       561        96       381       945
 -1      2305    3    0    1
 -2        96       561       557       945
 -1      2306    3    0    1
 -2       767      2047      2097      2352
 -1      2307    3    0    1
 -2      1070       825      1071      2585
 -1      2308    3    0    1
 -2      2077       324      2182      2258
 -1      2309    3    0    1
 -2      1108      1402      2309      2321
 -1      2310    3    0    1
 -2      2043       397      2112      2260
 -1      2311    3    0    1
 -2       103       550       562       946
 -1      2312    3    0    1
 -2       103       379       550       946
 -1      2313    3    0    1
 -2       989       658      2254      2298
 -1      2314    3    0    1
 -2       311      1105      1387      2274
 -1      2315    3    0    1
 -2       569       111       575       953
 -1      2316    3    0    1
 -2      2968      2858      1148      3874
 -1      2317    3    0    1
 -2      2076      2084      2343      2542
 -1      2318    3    0    1
 -2       617      2157      2248      2382
 -1      2319    3    0    1
 -2       485       948      1179      1180
 -1      2320    3    0    1
 -2      1299       630      2219      2477
 -1      2321    3    0    1
 -2      2201       223      2218      2482
 -1      2322    3    0    1
 -2      1694      1707      3114      3453
 -1      2323    3    0    1
 -2      2617      2618      2726      3812
 -1      2324    3    0    1
 -2       108      2208      2212      2291
 -1      2325    3    0    1
 -2      2174      2116      2196      2312
 -1      2326    3    0    1
 -2      2181      1291      2310      3781
 -1      2327    3    0    1
 -2       825       820      1071      2614
 -1      2328    3    0    1
 -2       570      1165      2687      2688
 -1      2329    3    0    1
 -2      3795      2468      3199      3847
 -1      2330    3    0    1
 -2       700       696      1270      2662
 -1      2331    3    0    1
 -2      2079      2160      2249      2279
 -1      2332    3    0    1
 -2       114       117       570       952
 -1      2333    3    0    1
 -2      2107      2059      2153      2391
 -1      2334    3    0    1
 -2       390       386      2202      2337
 -1      2335    3    0    1
 -2       156       367       983      2126
 -1      2336    3    0    1
 -2      1404       882      1111      2224
 -1      2337    3    0    1
 -2       967       617      2157      2463
 -1      2338    3    0    1
 -2      2651      3463       996      3759
 -1      2339    3    0    1
 -2       690       707      2303      3746
 -1      2340    3    0    1
 -2       372       111       569       953
 -1      2341    3    0    1
 -2       296      1388       298      2222
 -1      2342    3    0    1
 -2       579       111       401       953
 -1      2343    3    0    1
 -2       111       579       575       953
 -1      2344    3    0    1
 -2      1311       694       702      2245
 -1      2345    3    0    1
 -2      3092      1564      1773      1774
 -1      2346    3    0    1
 -2       570       578       955      1736
 -1      2347    3    0    1
 -2      1671      1730      3128      3331
 -1      2348    3    0    1
 -2      2147      2778      3994      3702
 -1      2349    3    0    1
 -2      3101      2829      3193      3892
 -1      2350    3    0    1
 -2      2079      2160      2211      2249
 -1      2351    3    0    1
 -2       482       483       586       956
 -1      2352    3    0    1
 -2       341      1036      1318      2043
 -1      2353    3    0    1
 -2       752      2163      2464      3527
 -1      2354    3    0    1
 -2       260       259      1046      2373
 -1      2355    3    0    1
 -2      2059       375      2091      2107
 -1      2356    3    0    1
 -2       587        32      1176      1177
 -1      2357    3    0    1
 -2      3341      1600      3600      3966
 -1      2358    3    0    1
 -2       126       120       593      1290
 -1      2359    3    0    1
 -2      1318       397      2043      2230
 -1      2360    3    0    1
 -2      2189      1353      2431      2442
 -1      2361    3    0    1
 -2       643      1300      2405      2779
 -1      2362    3    0    1
 -2      3297      3503      3655      3657
 -1      2363    3    0    1
 -2       193       207      2203      2261
 -1      2364    3    0    1
 -2      2177      2276      2483      2544
 -1      2365    3    0    1
 -2      1271       541      1270      2662
 -1      2366    3    0    1
 -2      1845      2894      3929      3683
 -1      2367    3    0    1
 -2       585       360       373       959
 -1      2368    3    0    1
 -2       360       585       584       959
 -1      2369    3    0    1
 -2      1042      1319      2163      3643
 -1      2370    3    0    1
 -2       483      1287      1178       482
 -1      2371    3    0    1
 -2      1111       389      1404      2204
 -1      2372    3    0    1
 -2      2262      2145      2285      2354
 -1      2373    3    0    1
 -2       637       644      1714      3203
 -1      2374    3    0    1
 -2       587       120       593       960
 -1      2375    3    0    1
 -2       597       126       403       960
 -1      2376    3    0    1
 -2       126       597       593       960
 -1      2377    3    0    1
 -2       779      1045      1046      2611
 -1      2378    3    0    1
 -2       120       598       404       961
 -1      2379    3    0    1
 -2       598       120       587       961
 -1      2380    3    0    1
 -2      2250      2100      2264      2364
 -1      2381    3    0    1
 -2       136       408      3792      2021
 -1      2382    3    0    1
 -2      3792       405      2020      2021
 -1      2383    3    0    1
 -2       335      2017      4023      3750
 -1      2384    3    0    1
 -2       882      1111      2224      2307
 -1      2385    3    0    1
 -2      1908        21      1909      1946
 -1      2386    3    0    1
 -2       702      1311      2245      2328
 -1      2387    3    0    1
 -2       345      2487      2521      3994
 -1      2388    3    0    1
 -2       611       605       904       963
 -1      2389    3    0    1
 -2       466       604       612       963
 -1      2390    3    0    1
 -2      2275      2381      2414      2527
 -1      2391    3    0    1
 -2       625      1298       972      2543
 -1      2392    3    0    1
 -2       467      1292      1155       966
 -1      2393    3    0    1
 -2       620      1233       621      1296
 -1      2394    3    0    1
 -2      2461      2085      2494      2546
 -1      2395    3    0    1
 -2       151       146       629      1299
 -1      2396    3    0    1
 -2       761      1037      2252      2514
 -1      2397    3    0    1
 -2      2146      2079      2168      2279
 -1      2398    3    0    1
 -2       847       848      2162      2486
 -1      2399    3    0    1
 -2      1094      1378      2207      2363
 -1      2400    3    0    1
 -2       469      1159      2640      2641
 -1      2401    3    0    1
 -2      1340       295      1341      2289
 -1      2402    3    0    1
 -2      3103      1659      3471      3546
 -1      2403    3    0    1
 -2      3335      1783      3871      3719
 -1      2404    3    0    1
 -2       436      1125      2065      2307
 -1      2405    3    0    1
 -2       467      1292       966       604
 -1      2406    3    0    1
 -2       954       960      2183      2330
 -1      2407    3    0    1
 -2      3547      2878      3975      3751
 -1      2408    3    0    1
 -2       810      2137      2271      2319
 -1      2409    3    0    1
 -2      2404      2720      3790      3995
 -1      2410    3    0    1
 -2      3920      3862      3947      3995
 -1      2411    3    0    1
 -2      2404      3790      3920      3995
 -1      2412    3    0    1
 -2       401      1286      2167      2240
 -1      2413    3    0    1
 -2       997      2154      2180      2203
 -1      2414    3    0    1
 -2      1338      1075      2178      2221
 -1      2415    3    0    1
 -2       615       135       141       968
 -1      2416    3    0    1
 -2       135       615       611       968
 -1      2417    3    0    1
 -2      1454      1642      1643      2905
 -1      2418    3    0    1
 -2      1004      2261       207       193
 -1      2419    3    0    1
 -2      1072       832      1337      2334
 -1      2420    3    0    1
 -2       611       140       135       969
 -1      2421    3    0    1
 -2       611       135       968       969
 -1      2422    3    0    1
 -2       140       616       362       969
 -1      2423    3    0    1
 -2      2145      2049      2262      2285
 -1      2424    3    0    1
 -2       616       140       605       969
 -1      2425    3    0    1
 -2       314       376      1081      2188
 -1      2426    3    0    1
 -2      2054      2092      2216      2231
 -1      2427    3    0    1
 -2      2683      3156      3434      3992
 -1      2428    3    0    1
 -2      2176      2114      2346      2498
 -1      2429    3    0    1
 -2       734      1315      2314      2464
 -1      2430    3    0    1
 -2       173       169       660      1303
 -1      2431    3    0    1
 -2       666      2254      2276      2483
 -1      2432    3    0    1
 -2       305      1394      1393      2322
 -1      2433    3    0    1
 -2       416      2073      2288      2385
 -1      2434    3    0    1
 -2      2098      2341      2472      2539
 -1      2435    3    0    1
 -2      1694      1695      1708      3493
 -1      2436    3    0    1
 -2       618      2105      2463      2589
 -1      2437    3    0    1
 -2       549      2200      2380      2410
 -1      2438    3    0    1
 -2      1106       875      2090      2131
 -1      2439    3    0    1
 -2       520      1296       517       622
 -1      2440    3    0    1
 -2      1810       572      3356      3634
 -1      2441    3    0    1
 -2       520      1296      1233       517
 -1      2442    3    0    1
 -2       310      1386       317      2244
 -1      2443    3    0    1
 -2      3863       970      1997      1998
 -1      2444    3    0    1
 -2       143       133      3863      1998
 -1      2445    3    0    1
 -2       945        96      3765      4030
 -1      2446    3    0    1
 -2       623      1234       516       629
 -1      2447    3    0    1
 -2      2237       947      3769      4030
 -1      2448    3    0    1
 -2       563      3765      3769      4030
 -1      2449    3    0    1
 -2      2174      2117      2207      2363
 -1      2450    3    0    1
 -2      1060       805      1330      2649
 -1      2451    3    0    1
 -2       633       151       153       976
 -1      2452    3    0    1
 -2       151       633       629       976
 -1      2453    3    0    1
 -2       141       135      1295      2171
 -1      2454    3    0    1
 -2       947      1282      3769      4030
 -1      2455    3    0    1
 -2      3769      3765      3772      4030
 -1      2456    3    0    1
 -2      1371       855      1370      2094
 -1      2457    3    0    1
 -2       146       634       364       977
 -1      2458    3    0    1
 -2       634       146       623       977
 -1      2459    3    0    1
 -2       223       416      2201      2385
 -1      2460    3    0    1
 -2       645       414       984      2038
 -1      2461    3    0    1
 -2      2166       689      2272      2292
 -1      2462    3    0    1
 -2       414       345       645       984
 -1      2463    3    0    1
 -2       606        16       609      1151
 -1      2464    3    0    1
 -2      2349      2326      2413      2429
 -1      2465    3    0    1
 -2       420      1308      2198      2256
 -1      2466    3    0    1
 -2       524       980      1240      1241
 -1      2467    3    0    1
 -2      1076      2086      2235      2267
 -1      2468    3    0    1
 -2      1756      3477      1922      1923
 -1      2469    3    0    1
 -2       402      3923      3930      3968
 -1      2470    3    0    1
 -2       639       979       983      1239
 -1      2471    3    0    1
 -2       156       638       639       983
 -1      2472    3    0    1
 -2       156       639       979       983
 -1      2473    3    0    1
 -2       645       642       653       984
 -1      2474    3    0    1
 -2      2072      2144      2165      2293
 -1      2475    3    0    1
 -2      2191      2179      2241      2281
 -1      2476    3    0    1
 -2      1334      1068       822      2400
 -1      2477    3    0    1
 -2      2093      2079      2160      2211
 -1      2478    3    0    1
 -2      3791      1580      4006      3855
 -1      2479    3    0    1
 -2       427      1851      3644      2041
 -1      2480    3    0    1
 -2      3863      2885      3962      3776
 -1      2481    3    0    1
 -2      3973      3975      3762      3870
 -1      2482    3    0    1
 -2       651       160       365       985
 -1      2483    3    0    1
 -2       160       651       647       985
 -1      2484    3    0    1
 -2      1608      1497      3795      3870
 -1      2485    3    0    1
 -2       652       342       641       986
 -1      2486    3    0    1
 -2       550       562       946      2599
 -1      2487    3    0    1
 -2       653       642       654       987
 -1      2488    3    0    1
 -2       962       125      3533      3749
 -1      2489    3    0    1
 -2      2733      2732      2941      3804
 -1      2490    3    0    1
 -2      2726      3812      3967      3708
 -1      2491    3    0    1
 -2      2960      1556      1807      1808
 -1      2492    3    0    1
 -2       658       992       988       539
 -1      2493    3    0    1
 -2       540       539       658       988
 -1      2494    3    0    1
 -2       167       656       657       988
 -1      2495    3    0    1
 -2       584       959      1178      1287
 -1      2496    3    0    1
 -2       539      1269       936       988
 -1      2497    3    0    1
 -2      2094      2083      2226      2275
 -1      2498    3    0    1
 -2       539       540       658       989
 -1      2499    3    0    1
 -2       989       659      1267      1268
 -1      2500    3    0    1
 -2       658      1305       666       539
 -1      2501    3    0    1
 -2      1105       873      1387      2176
 -1      2502    3    0    1
 -2       176       659       665      1305
 -1      2503    3    0    1
 -2       863      1095       864      2363
 -1      2504    3    0    1
 -2      1278       549      2380      2410
 -1      2505    3    0    1
 -2        78      1254       660      1252
 -1      2506    3    0    1
 -2       108      2044      2212      2306
 -1      2507    3    0    1
 -2       779       780      1046      2519
 -1      2508    3    0    1
 -2       396      1033      2384      2763
 -1      2509    3    0    1
 -2      1126       884       893      2144
 -1      2510    3    0    1
 -2      1063       815      2528      2560
 -1      2511    3    0    1
 -2       352      1335      3972      3973
 -1      2512    3    0    1
 -2      1712       155      1713      1727
 -1      2513    3    0    1
 -2      2116       156      2196      2312
 -1      2514    3    0    1
 -2       345       987      3994      2036
 -1      2515    3    0    1
 -2      1182       486      2596      2600
 -1      2516    3    0    1
 -2      2077      1093      2207      2363
 -1      2517    3    0    1
 -2       754       751       902      2675
 -1      2518    3    0    1
 -2       669       176       344       994
 -1      2519    3    0    1
 -2       176       669       665       994
 -1      2520    3    0    1
 -2      1757      1756      3166      1901
 -1      2521    3    0    1
 -2       659       671       672       995
 -1      2522    3    0    1
 -2       419       176       659       995
 -1      2523    3    0    1
 -2       659       176       994       995
 -1      2524    3    0    1
 -2       419       670       422       995
 -1      2525    3    0    1
 -2       670       419       659       995
 -1      2526    3    0    1
 -2       187       423      3835      1794
 -1      2527    3    0    1
 -2      3155      2830      3893      3464
 -1      2528    3    0    1
 -2      2892      2590      3811      3936
 -1      2529    3    0    1
 -2      3835       421      1793      1794
 -1      2530    3    0    1
 -2      1001       538       997       676
 -1      2531    3    0    1
 -2       539      1268       540       989
 -1      2532    3    0    1
 -2       538      1001       997       934
 -1      2533    3    0    1
 -2       425       426       674       997
 -1      2534    3    0    1
 -2       425       674       675       997
 -1      2535    3    0    1
 -2      1581      2955      1679      1680
 -1      2536    3    0    1
 -2      2205      2058      2291      2306
 -1      2537    3    0    1
 -2      1298       628      2459      2543
 -1      2538    3    0    1
 -2      2534      2531      3016      3303
 -1      2539    3    0    1
 -2      2087       387      2229      2341
 -1      2540    3    0    1
 -2       674       675       997      1266
 -1      2541    3    0    1
 -2       156      2126      2196      2312
 -1      2542    3    0    1
 -2      1321      1033      2439      2763
 -1      2543    3    0    1
 -2      3193      1886      1887      3557
 -1      2544    3    0    1
 -2      1108       437      1402      2321
 -1      2545    3    0    1
 -2       665       659      1267      1305
 -1      2546    3    0    1
 -2      1310       697      1008      3801
 -1      2547    3    0    1
 -2       659       989      1267      1305
 -1      2548    3    0    1
 -2      2107       378      2402      2423
 -1      2549    3    0    1
 -2       571       573      2369      2466
 -1      2550    3    0    1
 -2       558       549       944      2410
 -1      2551    3    0    1
 -2       750       745      1615      3191
 -1      2552    3    0    1
 -2      3987      1005      2012      2013
 -1      2553    3    0    1
 -2       311       319      2274      2471
 -1      2554    3    0    1
 -2      2090      2073      2218      2385
 -1      2555    3    0    1
 -2      2224      2065      2307      2331
 -1      2556    3    0    1
 -2       687       190       420      1003
 -1      2557    3    0    1
 -2       190       687       683      1003
 -1      2558    3    0    1
 -2      2179      2050      2191      2221
 -1      2559    3    0    1
 -2       677       184       683      1004
 -1      2560    3    0    1
 -2      1051      1327       789      2730
 -1      2561    3    0    1
 -2       184       190       683      1004
 -1      2562    3    0    1
 -2       683       190      1003      1004
 -1      2563    3    0    1
 -2       184       688       193      1004
 -1      2564    3    0    1
 -2       949      1289      2042      2438
 -1      2565    3    0    1
 -2       688       184       677      1004
 -1      2566    3    0    1
 -2       347       751      1039      1950
 -1      2567    3    0    1
 -2      3531      1920      3954      3625
 -1      2568    3    0    1
 -2       196       692       693      1006
 -1      2569    3    0    1
 -2        10       704       201      1271
 -1      2570    3    0    1
 -2       951       357      2089      2184
 -1      2571    3    0    1
 -2      1426      1425      1784      3415
 -1      2572    3    0    1
 -2       535       536       694      1007
 -1      2573    3    0    1
 -2      1606       590      3075      3555
 -1      2574    3    0    1
 -2       880       890      1123      2113
 -1      2575    3    0    1
 -2       998       193      2261      2356
 -1      2576    3    0    1
 -2      2072      2218      2220      2482
 -1      2577    3    0    1
 -2      2222       296      2235      2243
 -1      2578    3    0    1
 -2       198       200       700      1009
 -1      2579    3    0    1
 -2       424       204       701      1311
 -1      2580    3    0    1
 -2      1562      3019      1714      3202
 -1      2581    3    0    1
 -2       719      1016      1277      1314
 -1      2582    3    0    1
 -2       216       428      1021      2302
 -1      2583    3    0    1
 -2      3825      2859      3280      3325
 -1      2584    3    0    1
 -2      1358      1079      2286      2557
 -1      2585    3    0    1
 -2      1019      2142      2186      2301
 -1      2586    3    0    1
 -2       788      2730      2731      2969
 -1      2587    3    0    1
 -2      1692      3390      3513      3677
 -1      2588    3    0    1
 -2         9      1141       696       899
 -1      2589    3    0    1
 -2      2215      1098      2290      2420
 -1      2590    3    0    1
 -2       694       535       702      1010
 -1      2591    3    0    1
 -2       196       429       692      1010
 -1      2592    3    0    1
 -2      2061      2318      2420      2465
 -1      2593    3    0    1
 -2      2046      2246      2249      2279
 -1      2594    3    0    1
 -2       189       185      3987      2013
 -1      2595    3    0    1
 -2       199      3987      2012      2013
 -1      2596    3    0    1
 -2       695       204       701      1012
 -1      2597    3    0    1
 -2      2828      2494      2865      3088
 -1      2598    3    0    1
 -2       534       714       718      1260
 -1      2599    3    0    1
 -2       424       207       701      1012
 -1      2600    3    0    1
 -2       701       207       705      1012
 -1      2601    3    0    1
 -2       628       973       625      2665
 -1      2602    3    0    1
 -2       141       135      2171      2248
 -1      2603    3    0    1
 -2       804       799      1849      3451
 -1      2604    3    0    1
 -2      1974         1      1987      1988
 -1      2605    3    0    1
 -2      1388       298      2222      2243
 -1      2606    3    0    1
 -2       204       706       428      1013
 -1      2607    3    0    1
 -2       706       204       695      1013
 -1      2608    3    0    1
 -2       721       718      1020      2015
 -1      2609    3    0    1
 -2      1020       331      3784      2015
 -1      2610    3    0    1
 -2       415       217       713      1021
 -1      2611    3    0    1
 -2       367      2055      2126      2312
 -1      2612    3    0    1
 -2       545       546       720      1015
 -1      2613    3    0    1
 -2      2099      2162      2486      2545
 -1      2614    3    0    1
 -2       360      2100      2138      2159
 -1      2615    3    0    1
 -2       692      1006      1010      1261
 -1      2616    3    0    1
 -2       546      1019       720      1015
 -1      2617    3    0    1
 -2       547       375       944      1278
 -1      2618    3    0    1
 -2       953       581      2169      2455
 -1      2619    3    0    1
 -2       951      2089      2167      2184
 -1      2620    3    0    1
 -2       618       635      2105      2372
 -1      2621    3    0    1
 -2      1297      2523      3766      3771
 -1      2622    3    0    1
 -2       730      1274       737      1317
 -1      2623    3    0    1
 -2      2888       626      3848      1978
 -1      2624    3    0    1
 -2      1894        25      1936      3550
 -1      2625    3    0    1
 -2       617       968       969      2583
 -1      2626    3    0    1
 -2      1297       973      2523      3771
 -1      2627    3    0    1
 -2      1056      1062      3144      3939
 -1      2628    3    0    1
 -2       193       184      2166      2356
 -1      2629    3    0    1
 -2      3823      1280      3529      1987
 -1      2630    3    0    1
 -2      1143       714      2735      2736
 -1      2631    3    0    1
 -2       718       714       725      1020
 -1      2632    3    0    1
 -2       720      1019      2186      2358
 -1      2633    3    0    1
 -2       114       950      1284      2214
 -1      2634    3    0    1
 -2      2464      1315      2769      3695
 -1      2635    3    0    1
 -2      1035      1315      2464      3695
 -1      2636    3    0    1
 -2      3821      3779      3925      3927
 -1      2637    3    0    1
 -2       314      1081      1363      2188
 -1      2638    3    0    1
 -2       196      2257      2263      2425
 -1      2639    3    0    1
 -2       217       216       719      1021
 -1      2640    3    0    1
 -2       719       216       723      1021
 -1      2641    3    0    1
 -2      2380      2089      2391      2465
 -1      2642    3    0    1
 -2       220       713       724      1022
 -1      2643    3    0    1
 -2       725       714       726      1023
 -1      2644    3    0    1
 -2       349      1060      3629      3959
 -1      2645    3    0    1
 -2       349      2548      3939      3959
 -1      2646    3    0    1
 -2       350       281      3939      3959
 -1      2647    3    0    1
 -2       494      1196       495      2733
 -1      2648    3    0    1
 -2      1885      1576      3927      3586
 -1      2649    3    0    1
 -2       544      1028       543       939
 -1      2650    3    0    1
 -2       332       334      3850      1990
 -1      2651    3    0    1
 -2       223       728       729      1024
 -1      2652    3    0    1
 -2      1461      1460      2985      3060
 -1      2653    3    0    1
 -2       769        45      1217      1245
 -1      2654    3    0    1
 -2       130      2100      2191      2281
 -1      2655    3    0    1
 -2      3093      1517      1766      3228
 -1      2656    3    0    1
 -2      2093      2080      2158      2247
 -1      2657    3    0    1
 -2      3804      2853      3326      3335
 -1      2658    3    0    1
 -2       635      2105      2372      3767
 -1      2659    3    0    1
 -2       387      1061      2271      2341
 -1      2660    3    0    1
 -2      2095       425      2154      2509
 -1      2661    3    0    1
 -2       338       337      4004      4014
 -1      2662    3    0    1
 -2       176       994      2282      2563
 -1      2663    3    0    1
 -2      2077      2146      2246      2279
 -1      2664    3    0    1
 -2       983       367      2101      2251
 -1      2665    3    0    1
 -2        98       100      3829      1803
 -1      2666    3    0    1
 -2       425       997      2154      2509
 -1      2667    3    0    1
 -2      2074      2217      2357      2370
 -1      2668    3    0    1
 -2       543       731      1024      1028
 -1      2669    3    0    1
 -2       213      1023      3850      1990
 -1      2670    3    0    1
 -2       334       213      3850      1990
 -1      2671    3    0    1
 -2       341       747       397      1318
 -1      2672    3    0    1
 -2       290       353      1068      2525
 -1      2673    3    0    1
 -2       224      1032      2376      2454
 -1      2674    3    0    1
 -2       741       226       336      1030
 -1      2675    3    0    1
 -2       226       741       737      1030
 -1      2676    3    0    1
 -2      1317      2349      2413      2429
 -1      2677    3    0    1
 -2       511       526      2611      3754
 -1      2678    3    0    1
 -2      1598      1436      1599      3084
 -1      2679    3    0    1
 -2       398       226       730      1031
 -1      2680    3    0    1
 -2       730       226      1030      1031
 -1      2681    3    0    1
 -2       229       730       742      1031
 -1      2682    3    0    1
 -2       229       398       730      1031
 -1      2683    3    0    1
 -2       576      2240      2398      2511
 -1      2684    3    0    1
 -2       765       764      1198      1323
 -1      2685    3    0    1
 -2      2108      2084      2313      2343
 -1      2686    3    0    1
 -2       383       380      2062      2104
 -1      2687    3    0    1
 -2       298       296      2222      2243
 -1      2688    3    0    1
 -2      3977       430      3983      3712
 -1      2689    3    0    1
 -2       515       514       756      1033
 -1      2690    3    0    1
 -2       497      1326       496       774
 -1      2691    3    0    1
 -2       682       689       690      2657
 -1      2692    3    0    1
 -2       766      1040      1199      1326
 -1      2693    3    0    1
 -2      1218       512      1220      2722
 -1      2694    3    0    1
 -2       440       312      1115      2165
 -1      2695    3    0    1
 -2      1303       661      2810      2811
 -1      2696    3    0    1
 -2       875       876      2090      2131
 -1      2697    3    0    1
 -2       733      1027      2817      2818
 -1      2698    3    0    1
 -2      2209      2081      2344      2425
 -1      2699    3    0    1
 -2       969       617      2583      2630
 -1      2700    3    0    1
 -2       397       341      2043      2071
 -1      2701    3    0    1
 -2      2203       998      2261      2356
 -1      2702    3    0    1
 -2       966      1292      2088      2250
 -1      2703    3    0    1
 -2      2354      2058      2502      2503
 -1      2704    3    0    1
 -2       754      1322      2675      2676
 -1      2705    3    0    1
 -2       340       241       755      1037
 -1      2706    3    0    1
 -2       755       241       759      1037
 -1      2707    3    0    1
 -2      2638      3918      3943      3996
 -1      2708    3    0    1
 -2       426       425      2080      2247
 -1      2709    3    0    1
 -2      2199      2080      2247      2259
 -1      2710    3    0    1
 -2      2205      2173      2208      2291
 -1      2711    3    0    1
 -2       755       396       340      1038
 -1      2712    3    0    1
 -2       755       340      1037      1038
 -1      2713    3    0    1
 -2      1237      2646      2867      3805
 -1      2714    3    0    1
 -2       394       396       748      1038
 -1      2715    3    0    1
 -2       394       748       760      1038
 -1      2716    3    0    1
 -2      1317       226      2375      2444
 -1      2717    3    0    1
 -2       748       755      1145      2676
 -1      2718    3    0    1
 -2       353      2525      2558      3824
 -1      2719    3    0    1
 -2       351       267       787      1327
 -1      2720    3    0    1
 -2       491      1329       490       792
 -1      2721    3    0    1
 -2      3319      1472      3368      3982
 -1      2722    3    0    1
 -2      2966      3275      3352      3926
 -1      2723    3    0    1
 -2      3783      2854      3836      3908
 -1      2724    3    0    1
 -2       496      1199      1040      1326
 -1      2725    3    0    1
 -2       791      1049      1190      1329
 -1      2726    3    0    1
 -2      2107       944      2410      2522
 -1      2727    3    0    1
 -2       347      1035      1319      2411
 -1      2728    3    0    1
 -2      2896      1525      1681      1682
 -1      2729    3    0    1
 -2      2305      2461      2546      3159
 -1      2730    3    0    1
 -2       752       753      1035      2722
 -1      2731    3    0    1
 -2      1418      1417      3022      3044
 -1      2732    3    0    1
 -2      1367       853      1366      2408
 -1      2733    3    0    1
 -2      1398       881      2109      2321
 -1      2734    3    0    1
 -2      1783      1578      3289      3873
 -1      2735    3    0    1
 -2      1303      2517      2777      3882
 -1      2736    3    0    1
 -2       347      1039      3820      1950
 -1      2737    3    0    1
 -2      1427      1428      3691      3707
 -1      2738    3    0    1
 -2      2632      2604      2856      3805
 -1      2739    3    0    1
 -2       766       252       773      1045
 -1      2740    3    0    1
 -2       130       966      2088      2250
 -1      2741    3    0    1
 -2       790       787       928      2679
 -1      2742    3    0    1
 -2       777       252       256      1045
 -1      2743    3    0    1
 -2       252       777       773      1045
 -1      2744    3    0    1
 -2      3857      3390      3914      3513
 -1      2745    3    0    1
 -2      1687      3187      3659      3694
 -1      2746    3    0    1
 -2       169       173       996      2710
 -1      2747    3    0    1
 -2       259       252       766      1046
 -1      2748    3    0    1
 -2       766       252      1045      1046
 -1      2749    3    0    1
 -2       259       778       260      1046
 -1      2750    3    0    1
 -2       778       259       766      1046
 -1      2751    3    0    1
 -2       957       589      2042      2501
 -1      2752    3    0    1
 -2       481      1174      2678      2679
 -1      2753    3    0    1
 -2       943      1279      2194      2447
 -1      2754    3    0    1
 -2       490       491       792      1048
 -1      2755    3    0    1
 -2       491      1048      1188      1189
 -1      2756    3    0    1
 -2       252      1040      1326      2457
 -1      2757    3    0    1
 -2       790       267      1053      2032
 -1      2758    3    0    1
 -2       787      1053      1056      2679
 -1      2759    3    0    1
 -2      1081      2057      2148      2188
 -1      2760    3    0    1
 -2      2091      2061      2290      2391
 -1      2761    3    0    1
 -2       169       993      2147      2710
 -1      2762    3    0    1
 -2      1574      1642      1643      3436
 -1      2763    3    0    1
 -2      1042       769      1324      2732
 -1      2764    3    0    1
 -2       381       382      1071      2308
 -1      2765    3    0    1
 -2      2121      2074      2132      2357
 -1      2766    3    0    1
 -2      1684      1683      1881      3410
 -1      2767    3    0    1
 -2       770       771      1042      2733
 -1      2768    3    0    1
 -2       573      1285      2369      2466
 -1      2769    3    0    1
 -2      2217       150      2280      2329
 -1      2770    3    0    1
 -2      2070      2112      2260      2267
 -1      2771    3    0    1
 -2      2181      2691      3781      3817
 -1      2772    3    0    1
 -2       386       783      1048      1052
 -1      2773    3    0    1
 -2       267       787       790      1053
 -1      2774    3    0    1
 -2      1636      1637      2982      3327
 -1      2775    3    0    1
 -2       267       351       787      1053
 -1      2776    3    0    1
 -2       752      1034      2749      2935
 -1      2777    3    0    1
 -2       169       660       663      3759
 -1      2778    3    0    1
 -2        95      2194      4013      3757
 -1      2779    3    0    1
 -2       947       952      3991      2033
 -1      2780    3    0    1
 -2      2065       436      2307      2450
 -1      2781    3    0    1
 -2       391       272       791      1054
 -1      2782    3    0    1
 -2       791       272       795      1054
 -1      2783    3    0    1
 -2      2114      2176      2222      2243
 -1      2784    3    0    1
 -2       787       913       928      2679
 -1      2785    3    0    1
 -2       796       269       784      1055
 -1      2786    3    0    1
 -2      1972      1762      1973      3613
 -1      2787    3    0    1
 -2       275       276       809      1063
 -1      2788    3    0    1
 -2      2552       200      2727      3987
 -1      2789    3    0    1
 -2       361       130      2088      2241
 -1      2790    3    0    1
 -2       509      1061       508       927
 -1      2791    3    0    1
 -2      2078      2072      2165      2293
 -1      2792    3    0    1
 -2       371       372       954      2330
 -1      2793    3    0    1
 -2       731      1024      1028      2445
 -1      2794    3    0    1
 -2      3799      1441      3822      3925
 -1      2795    3    0    1
 -2      3732       733      3761      3768
 -1      2796    3    0    1
 -2       368      2206      2276      2368
 -1      2797    3    0    1
 -2      2136      2152      2326      2327
 -1      2798    3    0    1
 -2       743      1029      1032      2376
 -1      2799    3    0    1
 -2       425       426       997      2361
 -1      2800    3    0    1
 -2      1060       808      2649      2650
 -1      2801    3    0    1
 -2      1192       787      2730      2731
 -1      2802    3    0    1
 -2       945       381      2308      2549
 -1      2803    3    0    1
 -2        55      1209       805       925
 -1      2804    3    0    1
 -2      3842      3946      3965      4015
 -1      2805    3    0    1
 -2       385       800      1057      1061
 -1      2806    3    0    1
 -2       385       801       800      1061
 -1      2807    3    0    1
 -2       508       803      1057      1061
 -1      2808    3    0    1
 -2       294      1396      1122      2316
 -1      2809    3    0    1
 -2      2081      2209      2263      2425
 -1      2810    3    0    1
 -2       351      1056      3939      1976
 -1      2811    3    0    1
 -2       350       351      3939      1976
 -1      2812    3    0    1
 -2      2122      2158      2189      2211
 -1      2813    3    0    1
 -2      1310      3801      3818      3915
 -1      2814    3    0    1
 -2       802       275       809      1063
 -1      2815    3    0    1
 -2       375      1278      2380      2410
 -1      2816    3    0    1
 -2       813       276       388      1063
 -1      2817    3    0    1
 -2       276       813       809      1063
 -1      2818    3    0    1
 -2       734       735      2817      2884
 -1      2819    3    0    1
 -2       275       814       283      1064
 -1      2820    3    0    1
 -2       814       275       802      1064
 -1      2821    3    0    1
 -2       689       690      2166      2451
 -1      2822    3    0    1
 -2      1337      3824      1877      1878
 -1      2823    3    0    1
 -2      1337       353      3824      1878
 -1      2824    3    0    1
 -2       108      2205      2208      2291
 -1      2825    3    0    1
 -2      2059      2153      2289      2423
 -1      2826    3    0    1
 -2       825       820       922      1066
 -1      2827    3    0    1
 -2      2097      1052      2164      2352
 -1      2828    3    0    1
 -2      2047       272      2353      2373
 -1      2829    3    0    1
 -2       824       353      1072      1337
 -1      2830    3    0    1
 -2      2825       750      3488      3630
 -1      2831    3    0    1
 -2       503      1066       502       826
 -1      2832    3    0    1
 -2      1093      2077      2182      2363
 -1      2833    3    0    1
 -2      2118      2086      2043      2071
 -1      2834    3    0    1
 -2       288       287       825      1336
 -1      2835    3    0    1
 -2        96       550       557      1281
 -1      2836    3    0    1
 -2       993      2147      2282      2547
 -1      2837    3    0    1
 -2      2665       628      2666      2975
 -1      2838    3    0    1
 -2      1342       294      1339      2297
 -1      2839    3    0    1
 -2       726       725      1023      2348
 -1      2840    3    0    1
 -2       666      1305      2254      2483
 -1      2841    3    0    1
 -2       744       743      1031      2671
 -1      2842    3    0    1
 -2      2068      2096      2266      2283
 -1      2843    3    0    1
 -2       290       821      1072      1804
 -1      2844    3    0    1
 -2      1577      3808      1771      3894
 -1      2845    3    0    1
 -2       360      1287      2364      2407
 -1      2846    3    0    1
 -2       829       288       384      1070
 -1      2847    3    0    1
 -2       288       829       825      1070
 -1      2848    3    0    1
 -2       944      1278      2107      2410
 -1      2849    3    0    1
 -2       820       287       825      1071
 -1      2850    3    0    1
 -2      2729      3019      3202      3203
 -1      2851    3    0    1
 -2       287       288       825      1071
 -1      2852    3    0    1
 -2       825       288      1070      1071
 -1      2853    3    0    1
 -2       287       830       382      1071
 -1      2854    3    0    1
 -2       830       287       820      1071
 -1      2855    3    0    1
 -2      1504      1503      1764      3214
 -1      2856    3    0    1
 -2       418       211      2343      2350
 -1      2857    3    0    1
 -2      1378       863       864      2363
 -1      2858    3    0    1
 -2       426       425      2128      2361
 -1      2859    3    0    1
 -2      3810      3855      3922      3969
 -1      2860    3    0    1
 -2       207       424      2245      2303
 -1      2861    3    0    1
 -2      1395       877       878      2209
 -1      2862    3    0    1
 -2      1312       717       715      2432
 -1      2863    3    0    1
 -2      1334      2400      2418      2525
 -1      2864    3    0    1
 -2       425      2095      2247      2509
 -1      2865    3    0    1
 -2       404      2129      2253      2264
 -1      2866    3    0    1
 -2       974       150      2130      2336
 -1      2867    3    0    1
 -2      2066      2224      2229      2331
 -1      2868    3    0    1
 -2      2245       694      2328      2359
 -1      2869    3    0    1
 -2      2096      2266      2283      2471
 -1      2870    3    0    1
 -2       960       587       961      2574
 -1      2871    3    0    1
 -2       774       767      1043      2495
 -1      2872    3    0    1
 -2       403      2183      2185      2419
 -1      2873    3    0    1
 -2       211      2152      2317      2326
 -1      2874    3    0    1
 -2      2061      2099      2162      2318
 -1      2875    3    0    1
 -2      1001      2160      2198      2360
 -1      2876    3    0    1
 -2       661      1304       990      2399
 -1      2877    3    0    1
 -2      1378       306      1094      2255
 -1      2878    3    0    1
 -2       451       452      1133      2657
 -1      2879    3    0    1
 -2       604       963      2268      2412
 -1      2880    3    0    1
 -2       859      2273      2362      2390
 -1      2881    3    0    1
 -2       606       614       970      1998
 -1      2882    3    0    1
 -2      2099      2184      2318      2465
 -1      2883    3    0    1
 -2      1015       211      2110      2326
 -1      2884    3    0    1
 -2      2247      2095      2381      2509
 -1      2885    3    0    1
 -2       544      1317       543       738
 -1      2886    3    0    1
 -2      2064       385      2325      2453
 -1      2887    3    0    1
 -2      1342      2150      2289      2297
 -1      2888    3    0    1
 -2       994       671      2547      2563
 -1      2889    3    0    1
 -2      2549       381        96       945
 -1      2890    3    0    1
 -2      1062       349      2415      2548
 -1      2891    3    0    1
 -2      2131      2072      2165      2388
 -1      2892    3    0    1
 -2      2054      2101      2231      2251
 -1      2893    3    0    1
 -2       604      2268      2365      2412
 -1      2894    3    0    1
 -2       963       362      2268      2412
 -1      2895    3    0    1
 -2       708       707      2664      3747
 -1      2896    3    0    1
 -2      2081      2142      2156      2263
 -1      2897    3    0    1
 -2      2067       390      2202      2342
 -1      2898    3    0    1
 -2      2100       966      2250      2264
 -1      2899    3    0    1
 -2       770      1324      2163      2435
 -1      2900    3    0    1
 -2      2116      2192      2312      2362
 -1      2901    3    0    1
 -2      2384      1321      2513      2515
 -1      2902    3    0    1
 -2       196       429      1010      2048
 -1      2903    3    0    1
 -2       684      1001      2198      2360
 -1      2904    3    0    1
 -2       735      2314      2432      2488
 -1      2905    3    0    1
 -2      1603      2846      1888      1889
 -1      2906    3    0    1
 -2       425       426      2128      2247
 -1      2907    3    0    1
 -2      1033       749      2195      2234
 -1      2908    3    0    1
 -2      1376      1092      2333      2371
 -1      2909    3    0    1
 -2      2086      2118      2043      2401
 -1      2910    3    0    1
 -2       108      2205      2291      2306
 -1      2911    3    0    1
 -2      3989       263      2031      2032
 -1      2912    3    0    1
 -2      2067      2119      2238      2244
 -1      2913    3    0    1
 -2      2049       360      2269      2285
 -1      2914    3    0    1
 -2       733       740      3761      3768
 -1      2915    3    0    1
 -2      2814      2736      3172      3980
 -1      2916    3    0    1
 -2       768       763      1543      3389
 -1      2917    3    0    1
 -2      1050      1331      2355      3806
 -1      2918    3    0    1
 -2      2085      2461      2494      2561
 -1      2919    3    0    1
 -2      2157       600      2310      2382
 -1      2920    3    0    1
 -2       290      1068      1334      2525
 -1      2921    3    0    1
 -2       111       372       948      2422
 -1      2922    3    0    1
 -2      2071      1076      2086      2235
 -1      2923    3    0    1
 -2      2613      3842      3965      4015
 -1      2924    3    0    1
 -2       963       604      2171      2412
 -1      2925    3    0    1
 -2      2117      2174      2182      2363
 -1      2926    3    0    1
 -2      1444      1443      1781      3431
 -1      2927    3    0    1
 -2       368      2117      2206      2311
 -1      2928    3    0    1
 -2      2061      2089      2099      2465
 -1      2929    3    0    1
 -2       752      1034      2163      2460
 -1      2930    3    0    1
 -2      1333      2104      2377       380
 -1      2931    3    0    1
 -2      1619       402      3823      3923
 -1      2932    3    0    1
 -2      1057       385      1061      2271
 -1      2933    3    0    1
 -2      1283       568      2123      2212
 -1      2934    3    0    1
 -2      1748      3030      3167      3456
 -1      2935    3    0    1
 -2      2196      2206      2311      2368
 -1      2936    3    0    1
 -2      1346       300      1347      2262
 -1      2937    3    0    1
 -2      1900      3411      1901      3490
 -1      2938    3    0    1
 -2      1009       697      1309      2508
 -1      2939    3    0    1
 -2      2735       459      2736      2813
 -1      2940    3    0    1
 -2      2085      2461      2536      2546
 -1      2941    3    0    1
 -2       341      1036      2043      2526
 -1      2942    3    0    1
 -2       592       958       589      2713
 -1      2943    3    0    1
 -2      1318      2151      2230      2234
 -1      2944    3    0    1
 -2       484      1286       568       576
 -1      2945    3    0    1
 -2       551        95       943      1279
 -1      2946    3    0    1
 -2       320       330      1365      2170
 -1      2947    3    0    1
 -2      2128       425      2247      2509
 -1      2948    3    0    1
 -2      2189      2122      2211      2442
 -1      2949    3    0    1
 -2       217      1016      1314      2504
 -1      2950    3    0    1
 -2      2081      2108      2156      2301
 -1      2951    3    0    1
 -2      3798      3822      3856      4025
 -1      2952    3    0    1
 -2      2049       360      2138      2269
 -1      2953    3    0    1
 -2      1006       196      2048      2359
 -1      2954    3    0    1
 -2       389       438      1103      2294
 -1      2955    3    0    1
 -2      2102       150      2217      2329
 -1      2956    3    0    1
 -2      2641       964      3815      3113
 -1      2957    3    0    1
 -2      2271       810      2319      2341
 -1      2958    3    0    1
 -2      2059      2091      2153      2391
 -1      2959    3    0    1
 -2       122       125       962      2310
 -1      2960    3    0    1
 -2       404       961       968      2248
 -1      2961    3    0    1
 -2      2233      2181      2691      3781
 -1      2962    3    0    1
 -2      1430      1429      3280      1925
 -1      2963    3    0    1
 -2       370      1338      2050      2221
 -1      2964    3    0    1
 -2      1030       743      1031      2458
 -1      2965    3    0    1
 -2      2134      2066      2229      2331
 -1      2966    3    0    1
 -2      2113      2063      2236      2309
 -1      2967    3    0    1
 -2       509      1332       508       810
 -1      2968    3    0    1
 -2        95       560       551      3756
 -1      2969    3    0    1
 -2      1112       883      2120      2132
 -1      2970    3    0    1
 -2       340       396      1321      2384
 -1      2971    3    0    1
 -2      2166      1004      2261      2303
 -1      2972    3    0    1
 -2      1052      2097      2335      2352
 -1      2973    3    0    1
 -2      2085      2462      2469      2546
 -1      2974    3    0    1
 -2       436      1110      1125      2307
 -1      2975    3    0    1
 -2       988      2160      2249      2298
 -1      2976    3    0    1
 -2      1048      1052      2335      2337
 -1      2977    3    0    1
 -2      2236      2325      2394      2473
 -1      2978    3    0    1
 -2       600       617       961      2248
 -1      2979    3    0    1
 -2      1324      2163      2435      2761
 -1      2980    3    0    1
 -2       822      1334      2400      2418
 -1      2981    3    0    1
 -2      2466      1279       573       552
 -1      2982    3    0    1
 -2      1103       871      1385      2294
 -1      2983    3    0    1
 -2      2305      2461      2494      2546
 -1      2984    3    0    1
 -2      1376       308      2371      2406
 -1      2985    3    0    1
 -2      1357       845      1356      2427
 -1      2986    3    0    1
 -2      1960       212      1968      3602
 -1      2987    3    0    1
 -2       388      2155      2319      2539
 -1      2988    3    0    1
 -2      2139      2286      2427      2516
 -1      2989    3    0    1
 -2       319      1382      2274      2471
 -1      2990    3    0    1
 -2      1019       720      1015      2110
 -1      2991    3    0    1
 -2      1402       880      1108      2309
 -1      2992    3    0    1
 -2       367      2126      2232      2251
 -1      2993    3    0    1
 -2      2324       779      2480      2760
 -1      2994    3    0    1
 -2      2206       368      2311      2368
 -1      2995    3    0    1
 -2       424      2245      2303      2493
 -1      2996    3    0    1
 -2      2346      2164      2352      2495
 -1      2997    3    0    1
 -2      1045       256      2421      2519
 -1      2998    3    0    1
 -2       215       331      3784      3797
 -1      2999    3    0    1
 -2       702      1010      2328      2359
 -1      3000    3    0    1
 -2      2047       272      2097      2353
 -1      3001    3    0    1
 -2       862       861      1092      2333
 -1      3002    3    0    1
 -2       216      1314      2239      2358
 -1      3003    3    0    1
 -2      2075      2286      2516      2557
 -1      3004    3    0    1
 -2      2054      2133      2216      2371
 -1      3005    3    0    1
 -2      2116      2192      2362      2390
 -1      3006    3    0    1
 -2       200       199      3987      2012
 -1      3007    3    0    1
 -2       366      1296      2101      2190
 -1      3008    3    0    1
 -2      1036      2220      2304      2386
 -1      3009    3    0    1
 -2      3167      3235      3456      3980
 -1      3010    3    0    1
 -2      1399      2199      2210      2383
 -1      3011    3    0    1
 -2      2188      2057      2486      2545
 -1      3012    3    0    1
 -2       628       625      2523      2543
 -1      3013    3    0    1
 -2      1645       680      3149      3154
 -1      3014    3    0    1
 -2      2114       251      2141      2151
 -1      3015    3    0    1
 -2      2438      2305      3777      3809
 -1      3016    3    0    1
 -2      2324       779      2421      2519
 -1      3017    3    0    1
 -2      1380      2283      2470      2537
 -1      3018    3    0    1
 -2       213      1312      2347      2551
 -1      3019    3    0    1
 -2       752       771      1319      2163
 -1      3020    3    0    1
 -2      1486      2838      1678      3035
 -1      3021    3    0    1
 -2       949      1285      3828      4021
 -1      3022    3    0    1
 -2       555       552       943      2447
 -1      3023    3    0    1
 -2      1856      1711       106      3153
 -1      3024    3    0    1
 -2       953       582       954      2169
 -1      3025    3    0    1
 -2       822       555      2418      2447
 -1      3026    3    0    1
 -2      1082       849      1362      2148
 -1      3027    3    0    1
 -2      2254      2177      2276      2483
 -1      3028    3    0    1
 -2      1291       599      2181      2310
 -1      3029    3    0    1
 -2      1292       604      2268      2365
 -1      3030    3    0    1
 -2       658       992       666      2254
 -1      3031    3    0    1
 -2      2174      2117      2182      2311
 -1      3032    3    0    1
 -2       312      1390      1389      2165
 -1      3033    3    0    1
 -2       873      1387      2176      2222
 -1      3034    3    0    1
 -2      2080      2199      2210      2259
 -1      3035    3    0    1
 -2       395      3820      1950      4000
 -1      3036    3    0    1
 -2       120      2129      2185      2382
 -1      3037    3    0    1
 -2      2091      2059      2153      2215
 -1      3038    3    0    1
 -2      1386      2223       871      2294
 -1      3039    3    0    1
 -2      2045       331      2347      2551
 -1      3040    3    0    1
 -2       872       871      1103      2294
 -1      3041    3    0    1
 -2      2071      1126      2144      2293
 -1      3042    3    0    1
 -2      2202      2223      2294      2378
 -1      3043    3    0    1
 -2       515      1321      1033       756
 -1      3044    3    0    1
 -2      2266       868      2283      2471
 -1      3045    3    0    1
 -2      2149      2164      2351      2352
 -1      3046    3    0    1
 -2       217      2302      2499      2504
 -1      3047    3    0    1
 -2      3482      1421      1973      3638
 -1      3048    3    0    1
 -2      2813      2833      3839      3980
 -1      3049    3    0    1
 -2      2219       630      2336      2477
 -1      3050    3    0    1
 -2       622       971      2295      2477
 -1      3051    3    0    1
 -2       974       630      2295      2336
 -1      3052    3    0    1
 -2       301       307      2192      2390
 -1      3053    3    0    1
 -2       308      1351       322      2406
 -1      3054    3    0    1
 -2      1025       731      1317      2375
 -1      3055    3    0    1
 -2       816       815      1065      2415
 -1      3056    3    0    1
 -2      2091      2061      2391      2465
 -1      3057    3    0    1
 -2      1391       875       876      2090
 -1      3058    3    0    1
 -2       207      1004      1012      2303
 -1      3059    3    0    1
 -2      2063      2187      2325      2473
 -1      3060    3    0    1
 -2       810      1332      2319      2540
 -1      3061    3    0    1
 -2      1341       835      1340      2289
 -1      3062    3    0    1
 -2      2231       367      2232      2251
 -1      3063    3    0    1
 -2      1590      3396      1897      1898
 -1      3064    3    0    1
 -2      1379       865       866      2215
 -1      3065    3    0    1
 -2      2446       343      2483      2563
 -1      3066    3    0    1
 -2       111       401      2169      2240
 -1      3067    3    0    1
 -2       140       135       969      2430
 -1      3068    3    0    1
 -2      2874      3075      3239      3578
 -1      3069    3    0    1
 -2       804       799      1632      3316
 -1      3070    3    0    1
 -2       859      1375      1089      2390
 -1      3071    3    0    1
 -2      1352      1355      2158      2189
 -1      3072    3    0    1
 -2      3038      1491      3823      1797
 -1      3073    3    0    1
 -2       387       385      2115      2271
 -1      3074    3    0    1
 -2       720       712      2110      2358
 -1      3075    3    0    1
 -2      1522      1523      1723      3622
 -1      3076    3    0    1
 -2      1346      1347      2145      2262
 -1      3077    3    0    1
 -2      2290      2061      2420      2465
 -1      3078    3    0    1
 -2      1571      3182      1929      1930
 -1      3079    3    0    1
 -2      1995       406      1996      2002
 -1      3080    3    0    1
 -2      1752      1943      1944      3596
 -1      3081    3    0    1
 -2      1372       305      1369      2322
 -1      3082    3    0    1
 -2      2329      2053      2408      2456
 -1      3083    3    0    1
 -2      2131      2072      2144      2165
 -1      3084    3    0    1
 -2      3834      2980      3857      3875
 -1      3085    3    0    1
 -2       191       683       687      1130
 -1      3086    3    0    1
 -2       191       192       683      1130
 -1      3087    3    0    1
 -2       685        13       188      1131
 -1      3088    3    0    1
 -2        13       685       682      1131
 -1      3089    3    0    1
 -2       682        13      1131      1132
 -1      3090    3    0    1
 -2         3       686         5      1132
 -1      3091    3    0    1
 -2       686         3       678      1132
 -1      3092    3    0    1
 -2       192         4       683      1133
 -1      3093    3    0    1
 -2       192       683      1130      1133
 -1      3094    3    0    1
 -2       688         4         6      1133
 -1      3095    3    0    1
 -2         4       688       677      1133
 -1      3096    3    0    1
 -2      2618      2617      2842      3801
 -1      3097    3    0    1
 -2      3093      3017      1766      3407
 -1      3098    3    0    1
 -2         7       642       650      1135
 -1      3099    3    0    1
 -2         7       161       642      1135
 -1      3100    3    0    1
 -2       157       652       641      1136
 -1      3101    3    0    1
 -2        78      1138      1137       660
 -1      3102    3    0    1
 -2       713       719      1259      2639
 -1      3103    3    0    1
 -2       667        78       178      1137
 -1      3104    3    0    1
 -2        78       667       663      1137
 -1      3105    3    0    1
 -2       697      1009      1309      2617
 -1      3106    3    0    1
 -2       455      1139       659       456
 -1      3107    3    0    1
 -2       599      2185      2310      2382
 -1      3108    3    0    1
 -2       762       761      1038      2676
 -1      3109    3    0    1
 -2      2467      2399      3779      3799
 -1      3110    3    0    1
 -2       805      1214       808      3641
 -1      3111    3    0    1
 -2      3298      1791      3339      3895
 -1      3112    3    0    1
 -2        96      2491      3765      4030
 -1      3113    3    0    1
 -2      1501      1500      1607      3036
 -1      3114    3    0    1
 -2        84       718       901      1143
 -1      3115    3    0    1
 -2      3174      2682      1895      1896
 -1      3116    3    0    1
 -2       238       755       897      1145
 -1      3117    3    0    1
 -2       755       243       748      1145
 -1      3118    3    0    1
 -2       760       243       244      1145
 -1      3119    3    0    1
 -2       243       760       748      1145
 -1      3120    3    0    1
 -2      1791      3186      3339      3895
 -1      3121    3    0    1
 -2      3779      3925      3957      3986
 -1      3122    3    0    1
 -2       618       970      2372      2589
 -1      3123    3    0    1
 -2       642       464      1135      1150
 -1      3124    3    0    1
 -2       464       642       645      1150
 -1      3125    3    0    1
 -2       642        70       645      1150
 -1      3126    3    0    1
 -2       161        70       642      1150
 -1      3127    3    0    1
 -2       161       642      1135      1150
 -1      3128    3    0    1
 -2       649        70       166      1150
 -1      3129    3    0    1
 -2        70       649       645      1150
 -1      3130    3    0    1
 -2        14       606       614      1151
 -1      3131    3    0    1
 -2        14        16       606      1151
 -1      3132    3    0    1
 -2      2722      2721      2948      3025
 -1      3133    3    0    1
 -2       138       132       611      1152
 -1      3134    3    0    1
 -2       138       611       905      1152
 -1      3135    3    0    1
 -2       616       132       142      1152
 -1      3136    3    0    1
 -2       132       616       605      1152
 -1      3137    3    0    1
 -2       611       904       132      1154
 -1      3138    3    0    1
 -2        15       603       602      1155
 -1      3139    3    0    1
 -2       602       966      1153      1155
 -1      3140    3    0    1
 -2        15       602      1153      1155
 -1      3141    3    0    1
 -2      3078      3027      3884      3592
 -1      3142    3    0    1
 -2      1577      1634      3800      3428
 -1      3143    3    0    1
 -2      2990      2909      3138      3611
 -1      3144    3    0    1
 -2      1917      3384      3520      3936
 -1      3145    3    0    1
 -2       553       449      1611      3034
 -1      3146    3    0    1
 -2       470       465       609      1160
 -1      3147    3    0    1
 -2       609       465      1151      1160
 -1      3148    3    0    1
 -2       613        17       137      1160
 -1      3149    3    0    1
 -2        17       613       609      1160
 -1      3150    3    0    1
 -2      2136       416      2152      2288
 -1      3151    3    0    1
 -2       661      1304       664      3798
 -1      3152    3    0    1
 -2      2573      2629      2854      3836
 -1      3153    3    0    1
 -2       550      1170       477       557
 -1      3154    3    0    1
 -2       570       574      1165      2688
 -1      3155    3    0    1
 -2      1284       570      2687      2688
 -1      3156    3    0    1
 -2        18        20      2003      2005
 -1      3157    3    0    1
 -2       182        12      1879      1907
 -1      3158    3    0    1
 -2      3794      3889      3579      3952
 -1      3159    3    0    1
 -2        34       574      1163      1165
 -1      3160    3    0    1
 -2      3180      3197      3512      3951
 -1      3161    3    0    1
 -2       477      1170       478       557
 -1      3162    3    0    1
 -2      1170       550       477      1169
 -1      3163    3    0    1
 -2       550        26       562      1169
 -1      3164    3    0    1
 -2        30        26       550      1169
 -1      3165    3    0    1
 -2        27       559       556      1171
 -1      3166    3    0    1
 -2       608       601      1867      3401
 -1      3167    3    0    1
 -2      1278       912       547      1172
 -1      3168    3    0    1
 -2       756      1321      2439      2515
 -1      3169    3    0    1
 -2        31       784       929      1174
 -1      3170    3    0    1
 -2       796        31       270      1174
 -1      3171    3    0    1
 -2        31       796       784      1174
 -1      3172    3    0    1
 -2       585       121       584      1175
 -1      3173    3    0    1
 -2       690       707      1012      2303
 -1      3174    3    0    1
 -2       482      1177       483       956
 -1      3175    3    0    1
 -2       588       122       958      1288
 -1      3176    3    0    1
 -2       482      1177       956      1176
 -1      3177    3    0    1
 -2       483      1287       482       586
 -1      3178    3    0    1
 -2      2803      3825      3919      3949
 -1      3179    3    0    1
 -2       485      1286       568       484
 -1      3180    3    0    1
 -2        33       566       914      1181
 -1      3181    3    0    1
 -2      1286       485       948      1179
 -1      3182    3    0    1
 -2       584       360       959      1287
 -1      3183    3    0    1
 -2       485      1286       948       568
 -1      3184    3    0    1
 -2       485      1283      1181       484
 -1      3185    3    0    1
 -2       485      1283       484       568
 -1      3186    3    0    1
 -2       352      1567      3845      1942
 -1      3187    3    0    1
 -2       569       109       915      1182
 -1      3188    3    0    1
 -2       569       112       109      1182
 -1      3189    3    0    1
 -2       112       579       118      1182
 -1      3190    3    0    1
 -2       579       112       575      1182
 -1      3191    3    0    1
 -2        34       577       574      1183
 -1      3192    3    0    1
 -2       598        32       128      1184
 -1      3193    3    0    1
 -2        32       598       587      1184
 -1      3194    3    0    1
 -2        37       595       591      1186
 -1      3195    3    0    1
 -2       588      1186        22       591
 -1      3196    3    0    1
 -2      2535      3791      3810      3969
 -1      3197    3    0    1
 -2       769      1196       772        45
 -1      3198    3    0    1
 -2      2109       881      2227      2321
 -1      3199    3    0    1
 -2       491      1329      1190       490
 -1      3200    3    0    1
 -2       783       265      1188      1189
 -1      3201    3    0    1
 -2      1048       783      1188      1189
 -1      3202    3    0    1
 -2      2174      2196      2206      2311
 -1      3203    3    0    1
 -2      1049       490      1187      1190
 -1      3204    3    0    1
 -2       569       112      1182       575
 -1      3205    3    0    1
 -2       830       820      1204      2614
 -1      3206    3    0    1
 -2      3287      3068      3926      3935
 -1      3207    3    0    1
 -2      1983      1982      3721      3728
 -1      3208    3    0    1
 -2        44       790       918      1192
 -1      3209    3    0    1
 -2      2770      3502      3673      3992
 -1      3210    3    0    1
 -2      2920      3310      3867      3517
 -1      3211    3    0    1
 -2       252       766       773      1326
 -1      3212    3    0    1
 -2        45      1196       772        48
 -1      3213    3    0    1
 -2      2718      3964      2009      3700
 -1      3214    3    0    1
 -2       948       568      2398      2422
 -1      3215    3    0    1
 -2      1473      2706      3448      3687
 -1      3216    3    0    1
 -2       140       362       963      2412
 -1      3217    3    0    1
 -2       764       249       765      1198
 -1      3218    3    0    1
 -2       920      1323       764      1043
 -1      3219    3    0    1
 -2       770      2163      3189      3505
 -1      3220    3    0    1
 -2       766      1040      1195      1199
 -1      3221    3    0    1
 -2      1906      3317      1907      3739
 -1      3222    3    0    1
 -2        49        50       824      1203
 -1      3223    3    0    1
 -2      2463       969      2105       618
 -1      3224    3    0    1
 -2      1627      3816      3637      2008
 -1      3225    3    0    1
 -2      1498      1816      1817      3274
 -1      3226    3    0    1
 -2       275      2528      2555      2564
 -1      3227    3    0    1
 -2      2659      2660      2979      3846
 -1      3228    3    0    1
 -2       625      2523      2543      2684
 -1      3229    3    0    1
 -2      1316      3101      3929      2017
 -1      3230    3    0    1
 -2      3794      1026      3887      3929
 -1      3231    3    0    1
 -2        49       828       289      1203
 -1      3232    3    0    1
 -2       828        49       821      1203
 -1      3233    3    0    1
 -2      1613      1630      3170      3284
 -1      3234    3    0    1
 -2       830        53       293      1204
 -1      3235    3    0    1
 -2        53       830       820      1204
 -1      3236    3    0    1
 -2       829        54       825      1205
 -1      3237    3    0    1
 -2       501       500       824      1206
 -1      3238    3    0    1
 -2       824       500      1203      1206
 -1      3239    3    0    1
 -2       827        50       292      1206
 -1      3240    3    0    1
 -2        50       827       824      1206
 -1      3241    3    0    1
 -2       285       817       818      1207
 -1      3242    3    0    1
 -2       923      1333       818      1069
 -1      3243    3    0    1
 -2       285       818       923      1207
 -1      3244    3    0    1
 -2       922       825        53       820
 -1      3245    3    0    1
 -2       825       922        53      1208
 -1      3246    3    0    1
 -2      3452      3570      1995      1996
 -1      3247    3    0    1
 -2       805      1214        55       808
 -1      3248    3    0    1
 -2      1722      1522      1723      3622
 -1      3249    3    0    1
 -2      1214       805        55      1211
 -1      3250    3    0    1
 -2      3332      3540      3541      3622
 -1      3251    3    0    1
 -2        57       812       279      1211
 -1      3252    3    0    1
 -2       812        57       805      1211
 -1      3253    3    0    1
 -2       802        59       814      1212
 -1      3254    3    0    1
 -2        60        59       802      1212
 -1      3255    3    0    1
 -2        55       811       808      1214
 -1      3256    3    0    1
 -2      3540      1722      3541      3622
 -1      3257    3    0    1
 -2       802        58       809      1216
 -1      3258    3    0    1
 -2       923      1333       502      1207
 -1      3259    3    0    1
 -2      2728      3826      3907      3717
 -1      3260    3    0    1
 -2      2058      2173      2291      2396
 -1      3261    3    0    1
 -2      1350      2092      2192      2216
 -1      3262    3    0    1
 -2      3871      1783      3481      3719
 -1      3263    3    0    1
 -2       775        48       262      1217
 -1      3264    3    0    1
 -2        48       775       772      1217
 -1      3265    3    0    1
 -2       513       512      1218      2722
 -1      3266    3    0    1
 -2      1033       515      1223      1225
 -1      3267    3    0    1
 -2       754      1035      2721      2722
 -1      3268    3    0    1
 -2      3234      3331      3881      3979
 -1      3269    3    0    1
 -2      1225       243       755       238
 -1      3270    3    0    1
 -2       748       755      1033      1223
 -1      3271    3    0    1
 -2      1652      3833      3918      3996
 -1      3272    3    0    1
 -2       232       747       746      1224
 -1      3273    3    0    1
 -2       746      1036      1222      1224
 -1      3274    3    0    1
 -2       232       746      1222      1224
 -1      3275    3    0    1
 -2       755      1223       243      1225
 -1      3276    3    0    1
 -2      1243       624        65      1226
 -1      3277    3    0    1
 -2        65      1243       149       627
 -1      3278    3    0    1
 -2        65       632       152      1226
 -1      3279    3    0    1
 -2       632        65       624      1226
 -1      3280    3    0    1
 -2        71       639       638      1239
 -1      3281    3    0    1
 -2       623        66       634      1227
 -1      3282    3    0    1
 -2        68        66       623      1227
 -1      3283    3    0    1
 -2       517      1232       520       971
 -1      3284    3    0    1
 -2       517      1232       971      1229
 -1      3285    3    0    1
 -2       751       758      1039      1950
 -1      3286    3    0    1
 -2       633        74       629      1234
 -1      3287    3    0    1
 -2       623      1234        68      1227
 -1      3288    3    0    1
 -2        68      1234       629        74
 -1      3289    3    0    1
 -2       639        71        72      1239
 -1      3290    3    0    1
 -2       627        73       631      1243
 -1      3291    3    0    1
 -2       683      1130      1133      2581
 -1      3292    3    0    1
 -2      1394       305       313      2322
 -1      3293    3    0    1
 -2        70       161       642      1238
 -1      3294    3    0    1
 -2       522      1300      1238       521
 -1      3295    3    0    1
 -2       522      1300       521       643
 -1      3296    3    0    1
 -2       982       521      1235      1238
 -1      3297    3    0    1
 -2       645       982      1235      1238
 -1      3298    3    0    1
 -2        70       645      1235      1238
 -1      3299    3    0    1
 -2      1302       524       980      1240
 -1      3300    3    0    1
 -2      3821      2433      3858      3901
 -1      3301    3    0    1
 -2       639       979      1239      1242
 -1      3302    3    0    1
 -2       524      1302       980       640
 -1      3303    3    0    1
 -2       524       523       979      1242
 -1      3304    3    0    1
 -2       979       523      1239      1242
 -1      3305    3    0    1
 -2       789      1327       788      2730
 -1      3306    3    0    1
 -2      3987      1011      3746      3758
 -1      3307    3    0    1
 -2       733        77       736      1244
 -1      3308    3    0    1
 -2       739        80       228      1244
 -1      3309    3    0    1
 -2        80       739       736      1244
 -1      3310    3    0    1
 -2      2987      2902      3277      3946
 -1      3311    3    0    1
 -2      3408      1915      3614      3988
 -1      3312    3    0    1
 -2      1795      3469      3958      2017
 -1      3313    3    0    1
 -2       411       147      3866      4002
 -1      3314    3    0    1
 -2      1436      1437      1599      3084
 -1      3315    3    0    1
 -2        78      1254       174       660
 -1      3316    3    0    1
 -2       460       459      2735      2813
 -1      3317    3    0    1
 -2      1254       660      2810      2811
 -1      3318    3    0    1
 -2      2725      2468      3786      3847
 -1      3319    3    0    1
 -2      2643      1490      3192      3253
 -1      3320    3    0    1
 -2      2697      3094      3350      3951
 -1      3321    3    0    1
 -2      2677      2598      3950      3964
 -1      3322    3    0    1
 -2        77       740        81      1255
 -1      3323    3    0    1
 -2       740        77       733      1255
 -1      3324    3    0    1
 -2       742        79       227      1256
 -1      3325    3    0    1
 -2        79       742       730      1256
 -1      3326    3    0    1
 -2       692      1264      1006      1261
 -1      3327    3    0    1
 -2       535      1264      1261      1006
 -1      3328    3    0    1
 -2        83       722       221      1257
 -1      3329    3    0    1
 -2       722        83       714      1257
 -1      3330    3    0    1
 -2      3811      2906      3047      3164
 -1      3331    3    0    1
 -2       724        86       218      1258
 -1      3332    3    0    1
 -2        86       724       713      1258
 -1      3333    3    0    1
 -2       713        86      1258      1259
 -1      3334    3    0    1
 -2        86       713       719      1259
 -1      3335    3    0    1
 -2        87       723       219      1259
 -1      3336    3    0    1
 -2       723        87       719      1259
 -1      3337    3    0    1
 -2        84       721       718      1260
 -1      3338    3    0    1
 -2       535      1264      1006       536
 -1      3339    3    0    1
 -2       296      1343      2235      2243
 -1      3340    3    0    1
 -2        92      1263       695       205
 -1      3341    3    0    1
 -2       692      1264       194       693
 -1      3342    3    0    1
 -2       935      1308       998       537
 -1      3343    3    0    1
 -2         4       192       683      1265
 -1      3344    3    0    1
 -2      1308       935       683      1265
 -1      3345    3    0    1
 -2       445      1107      2296      2345
 -1      3346    3    0    1
 -2       935       683         4       677
 -1      3347    3    0    1
 -2       683       935         4      1265
 -1      3348    3    0    1
 -2        88       675       674      1266
 -1      3349    3    0    1
 -2        88       674       934      1266
 -1      3350    3    0    1
 -2       539      1305      1267       989
 -1      3351    3    0    1
 -2        91       656       936      1269
 -1      3352    3    0    1
 -2         8      1268       659        90
 -1      3353    3    0    1
 -2      1166      2719      3227      3271
 -1      3354    3    0    1
 -2         9      1271      1270       696
 -1      3355    3    0    1
 -2       122       407      3781      1735
 -1      3356    3    0    1
 -2       703         9       206      1270
 -1      3357    3    0    1
 -2         9       703       700      1270
 -1      3358    3    0    1
 -2       728        93       729      1273
 -1      3359    3    0    1
 -2       746      1036      1224      1318
 -1      3360    3    0    1
 -2       573       950      1284      2688
 -1      3361    3    0    1
 -2       386       390      1052      2337
 -1      3362    3    0    1
 -2      1288       125      2225      2228
 -1      3363    3    0    1
 -2       545       546      1015      1276
 -1      3364    3    0    1
 -2      1275       719      1016      1277
 -1      3365    3    0    1
 -2      1114      1126      2071      2293
 -1      3366    3    0    1
 -2       546      1314      1277       545
 -1      3367    3    0    1
 -2       733       224      1027      1315
 -1      3368    3    0    1
 -2       299       315      2502      2503
 -1      3369    3    0    1
 -2      1016       545      1275      1277
 -1      3370    3    0    1
 -2       912      1278       479      1172
 -1      3371    3    0    1
 -2      1531      3452      1995      3990
 -1      3372    3    0    1
 -2      1029       224      1032      2376
 -1      3373    3    0    1
 -2      2219      2130      2268      2365
 -1      3374    3    0    1
 -2       184       190      2166      2356
 -1      3375    3    0    1
 -2       945        96      2549      3765
 -1      3376    3    0    1
 -2       541      1271       542      2662
 -1      3377    3    0    1
 -2      2057      2099      2486      2545
 -1      3378    3    0    1
 -2       141       404       968      2248
 -1      3379    3    0    1
 -2       550      1173       557      1281
 -1      3380    3    0    1
 -2       479       549       558      1281
 -1      3381    3    0    1
 -2      1173       550       911      1281
 -1      3382    3    0    1
 -2       479       941       549      1281
 -1      3383    3    0    1
 -2       941       479       911      1281
 -1      3384    3    0    1
 -2       479      1173       911      1281
 -1      3385    3    0    1
 -2       911       550       941      1281
 -1      3386    3    0    1
 -2       914       566       951      1283
 -1      3387    3    0    1
 -2      1053       797      2265      2496
 -1      3388    3    0    1
 -2      2116      2056      2196      2206
 -1      3389    3    0    1
 -2       484       576       568      1283
 -1      3390    3    0    1
 -2       484       951       576      1283
 -1      3391    3    0    1
 -2       914       484      1181      1283
 -1      3392    3    0    1
 -2       951       484       914      1283
 -1      3393    3    0    1
 -2       570       114       574      1284
 -1      3394    3    0    1
 -2      2354      2058      2396      2502
 -1      3395    3    0    1
 -2       574       114       950      1284
 -1      3396    3    0    1
 -2      3042      1488      3311      3312
 -1      3397    3    0    1
 -2       950       574      1284      2688
 -1      3398    3    0    1
 -2      2053      2102      2127      2242
 -1      3399    3    0    1
 -2       575       948      1179      1286
 -1      3400    3    0    1
 -2       948       575      1179       569
 -1      3401    3    0    1
 -2      2662       708      2664      3747
 -1      3402    3    0    1
 -2       595       122       591      3533
 -1      3403    3    0    1
 -2       485      1286       484      1179
 -1      3404    3    0    1
 -2      2071      2086      2112      2267
 -1      3405    3    0    1
 -2      2080      1355      2158      2259
 -1      3406    3    0    1
 -2       591       906      2713      2714
 -1      3407    3    0    1
 -2      3569      3921      3975      3752
 -1      3408    3    0    1
 -2       680       673      1645      3100
 -1      3409    3    0    1
 -2      2164      1052      2335      2352
 -1      3410    3    0    1
 -2      1484      1417      1485      3082
 -1      3411    3    0    1
 -2      3090      1588      1798      1799
 -1      3412    3    0    1
 -2      2254       666      2276      2368
 -1      3413    3    0    1
 -2       576       568      1283      2398
 -1      3414    3    0    1
 -2      1624      1538      1625      3320
 -1      3415    3    0    1
 -2      2074       361      2130      2217
 -1      3416    3    0    1
 -2       587       956      1176      1290
 -1      3417    3    0    1
 -2       593       587      1176      1290
 -1      3418    3    0    1
 -2       120       587       593      1290
 -1      3419    3    0    1
 -2      2099      2089      2184      2465
 -1      3420    3    0    1
 -2      1036      2386      2515      2526
 -1      3421    3    0    1
 -2       586      1290       482       956
 -1      3422    3    0    1
 -2      1350       301       307      2192
 -1      3423    3    0    1
 -2       587       120       956      1290
 -1      3424    3    0    1
 -2      2055       367      2126      2232
 -1      3425    3    0    1
 -2       283      1058      2137      2161
 -1      3426    3    0    1
 -2      3430      3878      3933      3552
 -1      3427    3    0    1
 -2       603       602      1155      1292
 -1      3428    3    0    1
 -2       130       603       361      1292
 -1      3429    3    0    1
 -2       606       133       965      1293
 -1      3430    3    0    1
 -2       602       130       966      1292
 -1      3431    3    0    1
 -2       603       130       602      1292
 -1      3432    3    0    1
 -2       771       752      1325      2163
 -1      3433    3    0    1
 -2      1321       340      2384      2513
 -1      3434    3    0    1
 -2       642       650      1135      2653
 -1      3435    3    0    1
 -2      2862      3818      3298      3895
 -1      3436    3    0    1
 -2       140      1295       611       135
 -1      3437    3    0    1
 -2      2257      2142      2263      2301
 -1      3438    3    0    1
 -2      2193       989      2254      2298
 -1      3439    3    0    1
 -2       904      1295       466      1154
 -1      3440    3    0    1
 -2       226       398      1025      2375
 -1      3441    3    0    1
 -2      1233       620       974      1296
 -1      3442    3    0    1
 -2       383      1069      2104      2379
 -1      3443    3    0    1
 -2       169       991      1303      2147
 -1      3444    3    0    1
 -2       150       621       366      1296
 -1      3445    3    0    1
 -2       620       150       974      1296
 -1      3446    3    0    1
 -2       621       150       620      1296
 -1      3447    3    0    1
 -2       624       147       973      1297
 -1      3448    3    0    1
 -2       114       950      2214      2367
 -1      3449    3    0    1
 -2      2086      2043      2112      2260
 -1      3450    3    0    1
 -2       957      2042      2438      2620
 -1      3451    3    0    1
 -2       672      2272      2282      2710
 -1      3452    3    0    1
 -2      2152      2075      2317      2326
 -1      3453    3    0    1
 -2       623       971      1229      1299
 -1      3454    3    0    1
 -2       629       623      1229      1299
 -1      3455    3    0    1
 -2       146       623       629      1299
 -1      3456    3    0    1
 -2      1436      1437      2962      3069
 -1      3457    3    0    1
 -2       816       831      2510      2558
 -1      3458    3    0    1
 -2       622      1299       517       971
 -1      3459    3    0    1
 -2       623       146       971      1299
 -1      3460    3    0    1
 -2       642       645      1238      1300
 -1      3461    3    0    1
 -2       982       521      1238      1300
 -1      3462    3    0    1
 -2       643       521       646      1300
 -1      3463    3    0    1
 -2       365       364      2366      2497
 -1      3464    3    0    1
 -2       645       414       982      1300
 -1      3465    3    0    1
 -2       646       521       982      1300
 -1      3466    3    0    1
 -2      1283       108      2212      2306
 -1      3467    3    0    1
 -2       647       980      1240      1302
 -1      3468    3    0    1
 -2       980       647      1240       641
 -1      3469    3    0    1
 -2       885       895      2287      2393
 -1      3470    3    0    1
 -2       524      1302       523      1240
 -1      3471    3    0    1
 -2      1605      1585      3802      3841
 -1      3472    3    0    1
 -2       134       964      3815      3855
 -1      3473    3    0    1
 -2      2069      2096      2274      2475
 -1      3474    3    0    1
 -2      2318      2162      2420      2486
 -1      3475    3    0    1
 -2       763      1543      1544      3648
 -1      3476    3    0    1
 -2       883      2120      2121      2476
 -1      3477    3    0    1
 -2       676       684      2256      2361
 -1      3478    3    0    1
 -2       707      1011      1014      2512
 -1      3479    3    0    1
 -2       658      1305       539       989
 -1      3480    3    0    1
 -2      1319       752      2163      2464
 -1      3481    3    0    1
 -2      3436      3345      3906      3907
 -1      3482    3    0    1
 -2      1785      1488      1786      3240
 -1      3483    3    0    1
 -2       683       677      1004      2657
 -1      3484    3    0    1
 -2      2056      2174      2196      2206
 -1      3485    3    0    1
 -2       853      1367       854      2408
 -1      3486    3    0    1
 -2      2369       942      2447      2466
 -1      3487    3    0    1
 -2       683       998       184       677
 -1      3488    3    0    1
 -2       998       683       184      1308
 -1      3489    3    0    1
 -2       935      1308       537      1265
 -1      3490    3    0    1
 -2      1014      2387      2512      3784
 -1      3491    3    0    1
 -2       619      3454      1978      1979
 -1      3492    3    0    1
 -2       679      1306      2213      2727
 -1      3493    3    0    1
 -2       658      1305       989      2254
 -1      3494    3    0    1
 -2       878      1394      2209      2322
 -1      3495    3    0    1
 -2      1039      1044      3820      1949
 -1      3496    3    0    1
 -2      1236      1237      2646      2867
 -1      3497    3    0    1
 -2      1400       883       888      2120
 -1      3498    3    0    1
 -2       695      1007      1262      1311
 -1      3499    3    0    1
 -2       701       695      1262      1311
 -1      3500    3    0    1
 -2       204       695       701      1311
 -1      3501    3    0    1
 -2      1394       313      2083      2322
 -1      3502    3    0    1
 -2      1031       744      2252      2458
 -1      3503    3    0    1
 -2       694      1311       535      1007
 -1      3504    3    0    1
 -2       695       204      1007      1311
 -1      3505    3    0    1
 -2       213       331       718      1312
 -1      3506    3    0    1
 -2       718       331      1018      1312
 -1      3507    3    0    1
 -2       694      1311      1007      2245
 -1      3508    3    0    1
 -2      2095      2154      2381      2509
 -1      3509    3    0    1
 -2      2153      2107      2402      2423
 -1      3510    3    0    1
 -2      2289      2153      2402      2423
 -1      3511    3    0    1
 -2       545       712       720      1314
 -1      3512    3    0    1
 -2      1016       545      1277      1314
 -1      3513    3    0    1
 -2       275       283      1058      2137
 -1      3514    3    0    1
 -2       712       545      1016      1314
 -1      3515    3    0    1
 -2      1069      2064      2161      2379
 -1      3516    3    0    1
 -2      1488      1489      2906      3164
 -1      3517    3    0    1
 -2       187       185      1005      2451
 -1      3518    3    0    1
 -2      2265      1053      2496      3989
 -1      3519    3    0    1
 -2      1027       733      1315      2818
 -1      3520    3    0    1
 -2       135       140      2171      2430
 -1      3521    3    0    1
 -2      2366       977       146       364
 -1      3522    3    0    1
 -2       978       147      2340      4029
 -1      3523    3    0    1
 -2       543       731       738      1317
 -1      3524    3    0    1
 -2      1274       730       938      1317
 -1      3525    3    0    1
 -2      1314       720      2239      2358
 -1      3526    3    0    1
 -2      2042      1288      2225      2228
 -1      3527    3    0    1
 -2       664      1304      2399      2416
 -1      3528    3    0    1
 -2      2129       961      2248      2382
 -1      3529    3    0    1
 -2        21      3395      1908      1932
 -1      3530    3    0    1
 -2       543      1025       731      1317
 -1      3531    3    0    1
 -2      1025       543       938      1317
 -1      3532    3    0    1
 -2       543      1274       938      1317
 -1      3533    3    0    1
 -2       938       730      1025      1317
 -1      3534    3    0    1
 -2       806       807      2649      2723
 -1      3535    3    0    1
 -2       465       606      1151      2630
 -1      3536    3    0    1
 -2      2658      2603      3846      3883
 -1      3537    3    0    1
 -2       224       333      2314      2454
 -1      3538    3    0    1
 -2       396      1321       755       340
 -1      3539    3    0    1
 -2       196       429      2048      2226
 -1      3540    3    0    1
 -2      2256      1001      2360      2361
 -1      3541    3    0    1
 -2       754       239      1039      1322
 -1      3542    3    0    1
 -2      1036       341      2220      2526
 -1      3543    3    0    1
 -2       755       759       897      2676
 -1      3544    3    0    1
 -2       755       748      1038      2676
 -1      3545    3    0    1
 -2       183       427      3644      2041
 -1      3546    3    0    1
 -2      2269       373      2407      2478
 -1      3547    3    0    1
 -2       251       765       392      1323
 -1      3548    3    0    1
 -2       920      1323       496      1198
 -1      3549    3    0    1
 -2       765       251       764      1323
 -1      3550    3    0    1
 -2       764       251      1043      1323
 -1      3551    3    0    1
 -2      1385       871      2223      2294
 -1      3552    3    0    1
 -2       968       611       969      2583
 -1      3553    3    0    1
 -2       769      1194      2732      2733
 -1      3554    3    0    1
 -2       559       556      2565      3402
 -1      3555    3    0    1
 -2      1533      3040      1719      3529
 -1      3556    3    0    1
 -2       773       766      1199      1326
 -1      3557    3    0    1
 -2       496       767       774      1326
 -1      3558    3    0    1
 -2      1034      2749      2935      3988
 -1      3559    3    0    1
 -2       684      1001      2256      2361
 -1      3560    3    0    1
 -2       767       496      1040      1326
 -1      3561    3    0    1
 -2      2101      2172      2190      2295
 -1      3562    3    0    1
 -2       787       267       790      1327
 -1      3563    3    0    1
 -2      1661      2908      3852      3905
 -1      3564    3    0    1
 -2       790       267      1051      1327
 -1      3565    3    0    1
 -2      3373      3434      3992      4022
 -1      3566    3    0    1
 -2       492      1192      2730      2731
 -1      3567    3    0    1
 -2      1066       382      2143      2308
 -1      3568    3    0    1
 -2      1121       329       359      2541
 -1      3569    3    0    1
 -2      2199      2082      2210      2440
 -1      3570    3    0    1
 -2       883       888      2120      2541
 -1      3571    3    0    1
 -2       490       785       792      1329
 -1      3572    3    0    1
 -2      1049       490      1190      1329
 -1      3573    3    0    1
 -2      2104      1333      2377      2474
 -1      3574    3    0    1
 -2      1394       877      1393      2322
 -1      3575    3    0    1
 -2       785       490      1049      1329
 -1      3576    3    0    1
 -2      2209      2083      2263      2425
 -1      3577    3    0    1
 -2       665       659       671      2651
 -1      3578    3    0    1
 -2       671       659      2586      2651
 -1      3579    3    0    1
 -2       663       660      1137      2651
 -1      3580    3    0    1
 -2      2096      2069      2274      2471
 -1      3581    3    0    1
 -2       508       803       810      1332
 -1      3582    3    0    1
 -2       802       926      1216      1332
 -1      3583    3    0    1
 -2       834       833      1075      2178
 -1      3584    3    0    1
 -2       753       752      1035      2464
 -1      3585    3    0    1
 -2      1381       867      1380      2283
 -1      3586    3    0    1
 -2       984       653      2197      2487
 -1      3587    3    0    1
 -2       802       275      1058      1332
 -1      3588    3    0    1
 -2      2275      2103      2381      2527
 -1      3589    3    0    1
 -2       508      1058       803      1332
 -1      3590    3    0    1
 -2      1058       508       926      1332
 -1      3591    3    0    1
 -2       508      1216       926      1332
 -1      3592    3    0    1
 -2       926       802      1058      1332
 -1      3593    3    0    1
 -2       376       314      1359      2545
 -1      3594    3    0    1
 -2       401       953      2169      2437
 -1      3595    3    0    1
 -2       825      1066       287       820
 -1      3596    3    0    1
 -2      1066       825       287      1336
 -1      3597    3    0    1
 -2       922      1336       503      1208
 -1      3598    3    0    1
 -2      1401       445       448      2345
 -1      3599    3    0    1
 -2       630      2295      2336      2477
 -1      3600    3    0    1
 -2       831       824       832      1337
 -1      3601    3    0    1
 -2       832       824      1072      1337
 -1      3602    3    0    1
 -2      1610      1609      1674      3386
 -1      3603    3    0    1
 -2      2369      3843      3877      4021
 -1      3604    3    0    1
 -2      1609      1673      1674      3386
 -1      3605    3    0    1
 -2       883      1400      1112      2120
 -1      3606    3    0    1
 -2       122       962      1291      2310
 -1      3607    3    0    1
 -2       333       224      1029      2376
 -1      3608    3    0    1
 -2      2082      2095      2199      2210
 -1      3609    3    0    1
 -2       640       979      2177      2276
 -1      3610    3    0    1
 -2      1336       826      2161      2339
 -1      3611    3    0    1
 -2      2135      2150      2289      2402
 -1      3612    3    0    1
 -2      2083      1372      2140      2322
 -1      3613    3    0    1
 -2      1882      1693      4006      4018
 -1      3614    3    0    1
 -2      1953      3145      3711      3728
 -1      3615    3    0    1
 -2      1064       275      2528      2555
 -1      3616    3    0    1
 -2       414       345      2487      2521
 -1      3617    3    0    1
 -2      2198      2193      2256      2298
 -1      3618    3    0    1
 -2      1387       311      2274      2471
 -1      3619    3    0    1
 -2       733      1255      2644      3761
 -1      3620    3    0    1
 -2       600       599       962      2310
 -1      3621    3    0    1
 -2      2121      2074      2357      2370
 -1      3622    3    0    1
 -2      1115       312      1405      2165
 -1      3623    3    0    1
 -2       779       762      2324      2421
 -1      3624    3    0    1
 -2       150      2102      2280      2329
 -1      3625    3    0    1
 -2      2104       383      2379      2394
 -1      3626    3    0    1
 -2      2484      2085      2494      2531
 -1      3627    3    0    1
 -2      1102      2067      2223      2244
 -1      3628    3    0    1
 -2      1123       448      2125      2345
 -1      3629    3    0    1
 -2       874       873      2176      2222
 -1      3630    3    0    1
 -2      1024       223      1028      2445
 -1      3631    3    0    1
 -2       255       776       769      3763
 -1      3632    3    0    1
 -2      2160       167      2249      2279
 -1      3633    3    0    1
 -2       600       599      2310      2382
 -1      3634    3    0    1
 -2       141       404      2253      2264
 -1      3635    3    0    1
 -2      2212      2183      2392      2395
 -1      3636    3    0    1
 -2      1279       943       552      2447
 -1      3637    3    0    1
 -2      2193       420      2256      2292
 -1      3638    3    0    1
 -2      2193       420      2198      2256
 -1      3639    3    0    1
 -2      2100      2050      2159      2191
 -1      3640    3    0    1
 -2       884      1126      1114      2144
 -1      3641    3    0    1
 -2      1022       726      2320      2348
 -1      3642    3    0    1
 -2      2096      2069      2346      2475
 -1      3643    3    0    1
 -2      2164      2335      2351      2352
 -1      3644    3    0    1
 -2       648       640       979      2428
 -1      3645    3    0    1
 -2      1960        76      1961      1968
 -1      3646    3    0    1
 -2      1704      1513      1705      3418
 -1      3647    3    0    1
 -2      1344       838      2235      2267
 -1      3648    3    0    1
 -2      1323      1043       767      2495
 -1      3649    3    0    1
 -2       361      2088      2365      2370
 -1      3650    3    0    1
 -2      2334      1282      2426      2748
 -1      3651    3    0    1
 -2       313      1372      2083      2322
 -1      3652    3    0    1
 -2      2159      2138      2175      2221
 -1      3653    3    0    1
 -2       368      2046      2311      2368
 -1      3654    3    0    1
 -2      1028       416      2136      2445
 -1      3655    3    0    1
 -2       426      2128      2160      2360
 -1      3656    3    0    1
 -2       635       618       970      2372
 -1      3657    3    0    1
 -2       316      1084      1364      2278
 -1      3658    3    0    1
 -2       752      1034      1325      2163
 -1      3659    3    0    1
 -2      2068      2149      2238      2537
 -1      3660    3    0    1
 -2      1411      1659      1660      3546
 -1      3661    3    0    1
 -2      1323      2097      2164      2352
 -1      3662    3    0    1
 -2      2332      2172      2366      2497
 -1      3663    3    0    1
 -2      1305       658       666      2254
 -1      3664    3    0    1
 -2      1317       336      2349      2429
 -1      3665    3    0    1
 -2       868       867      2283      2471
 -1      3666    3    0    1
 -2      2081      2156      2313      2344
 -1      3667    3    0    1
 -2      1204       825      1205      2585
 -1      3668    3    0    1
 -2      1043      2151      2234      2338
 -1      3669    3    0    1
 -2       378      2111      2402      2423
 -1      3670    3    0    1
 -2      2117      2056      2174      2207
 -1      3671    3    0    1
 -2       422       419       995      2193
 -1      3672    3    0    1
 -2      2174      2207      2255      2363
 -1      3673    3    0    1
 -2      1013      1021      2302      2387
 -1      3674    3    0    1
 -2       979       640      2323      2428
 -1      3675    3    0    1
 -2      2133      2127      2190      2242
 -1      3676    3    0    1
 -2      1106       417      2073      2124
 -1      3677    3    0    1
 -2      2055       301      2192      2390
 -1      3678    3    0    1
 -2       193      2166      2261      2356
 -1      3679    3    0    1
 -2       961       120      2185      2382
 -1      3680    3    0    1
 -2      2847       147      3866      3766
 -1      3681    3    0    1
 -2      2265       797      2373      2496
 -1      3682    3    0    1
 -2      3267      1462      1837      1838
 -1      3683    3    0    1
 -2       252       256      2457      2520
 -1      3684    3    0    1
 -2      2108      2081      2142      2301
 -1      3685    3    0    1
 -2      2329      2408      2409      2456
 -1      3686    3    0    1
 -2      2269      2262      2285      2354
 -1      3687    3    0    1
 -2      1396       294       447      2316
 -1      3688    3    0    1
 -2      2462      2270      2469      2546
 -1      3689    3    0    1
 -2       305      1372       313      2322
 -1      3690    3    0    1
 -2       973       625      1297      2523
 -1      3691    3    0    1
 -2      1048       386      1052      2337
 -1      3692    3    0    1
 -2       419       422       989      2193
 -1      3693    3    0    1
 -2       671       993      2282      2547
 -1      3694    3    0    1
 -2       992       658       988      2254
 -1      3695    3    0    1
 -2      2186      2142      2257      2301
 -1      3696    3    0    1
 -2       306      1094      2255      2273
 -1      3697    3    0    1
 -2      2322      2209      2344      2425
 -1      3698    3    0    1
 -2      1094      2207      2255      2273
 -1      3699    3    0    1
 -2      3013      2915      3869      4007
 -1      3700    3    0    1
 -2      1101       869      1383      2119
 -1      3701    3    0    1
 -2      1386       310      1102      2244
 -1      3702    3    0    1
 -2      1296      2101      2190      2295
 -1      3703    3    0    1
 -2      2110      1015      2326      2500
 -1      3704    3    0    1
 -2      2217      2130      2219      2365
 -1      3705    3    0    1
 -2      2104      2062      2125      2315
 -1      3706    3    0    1
 -2       392      2164      2346      2495
 -1      3707    3    0    1
 -2       311       319      1105      2274
 -1      3708    3    0    1
 -2      1411      3089      3195      3714
 -1      3709    3    0    1
 -2       689       672       996      2272
 -1      3710    3    0    1
 -2      1003       689      1004      2166
 -1      3711    3    0    1
 -2      2122      2079      2211      2431
 -1      3712    3    0    1
 -2       386      2202      2337      2378
 -1      3713    3    0    1
 -2      1093       324      1095      2182
 -1      3714    3    0    1
 -2      3218      3087      3911      3685
 -1      3715    3    0    1
 -2      2086      2071      2235      2267
 -1      3716    3    0    1
 -2       611       969      2583      2630
 -1      3717    3    0    1
 -2      2065      2115      2187      2450
 -1      3718    3    0    1
 -2      1122      2277      2297      2316
 -1      3719    3    0    1
 -2       986      2446      2487      2563
 -1      3720    3    0    1
 -2      1355       843       844      2189
 -1      3721    3    0    1
 -2       810      1332      2137      2319
 -1      3722    3    0    1
 -2       988       167      2046      2298
 -1      3723    3    0    1
 -2       207      2245      2261      2303
 -1      3724    3    0    1
 -2      1095       863      1093      2363
 -1      3725    3    0    1
 -2       391      2155      2353      2496
 -1      3726    3    0    1
 -2      1058       803      1332      2137
 -1      3727    3    0    1
 -2      2078      2072      2218      2388
 -1      3728    3    0    1
 -2      1016      2349      2500      2504
 -1      3729    3    0    1
 -2      1044       779      2324      2760
 -1      3730    3    0    1
 -2       671       993       996      2282
 -1      3731    3    0    1
 -2       269       271      1049      2155
 -1      3732    3    0    1
 -2       290      1334      2418      2525
 -1      3733    3    0    1
 -2       420       190      2256      2292
 -1      3734    3    0    1
 -2      2046       992      2254      2368
 -1      3735    3    0    1
 -2      2123      2212      2392      2395
 -1      3736    3    0    1
 -2       672       689       995      2292
 -1      3737    3    0    1
 -2      3789      1294      3815      4006
 -1      3738    3    0    1
 -2      1292       361      2088      2365
 -1      3739    3    0    1
 -2       420       422      1003      2292
 -1      3740    3    0    1
 -2       869      1384      1100      2119
 -1      3741    3    0    1
 -2       731       738      1317      2375
 -1      3742    3    0    1
 -2      2074      2052      2132      2357
 -1      3743    3    0    1
 -2       422       995      1003      2292
 -1      3744    3    0    1
 -2       390      2164      2335      2351
 -1      3745    3    0    1
 -2       302       326      1086      2431
 -1      3746    3    0    1
 -2       684       676      2256      2356
 -1      3747    3    0    1
 -2      1015      2152      2326      2500
 -1      3748    3    0    1
 -2      1351       308      1078      2406
 -1      3749    3    0    1
 -2       294      1342       447      2297
 -1      3750    3    0    1
 -2      2155      1049      2353      2538
 -1      3751    3    0    1
 -2       316       370      1084      2278
 -1      3752    3    0    1
 -2      2060      2150      2402      2423
 -1      3753    3    0    1
 -2       589       958      1288      2713
 -1      3754    3    0    1
 -2      1304       661       664      2399
 -1      3755    3    0    1
 -2       356       282      3824      1878
 -1      3756    3    0    1
 -2      1066       819       826      2481
 -1      3757    3    0    1
 -2      1019      2110      2301      2358
 -1      3758    3    0    1
 -2       367      2126      2251      2428
 -1      3759    3    0    1
 -2      1845      3887      1951      3683
 -1      3760    3    0    1
 -2       428      1013      2302      2493
 -1      3761    3    0    1
 -2      2198      2160      2298      2360
 -1      3762    3    0    1
 -2      1402      2113      2309      2452
 -1      3763    3    0    1
 -2      2261      1004       207      2303
 -1      3764    3    0    1
 -2       951       357      2184      2398
 -1      3765    3    0    1
 -2      2082      2199      2383      2440
 -1      3766    3    0    1
 -2      2049      2138      2175      2269
 -1      3767    3    0    1
 -2       403       371      2183      2392
 -1      3768    3    0    1
 -2       353      1072      1337      2334
 -1      3769    3    0    1
 -2       385       387      2115      2331
 -1      3770    3    0    1
 -2      2202      2223      2244      2294
 -1      3771    3    0    1
 -2      2183       960      2185      2330
 -1      3772    3    0    1
 -2       386      2378      2134      2403
 -1      3773    3    0    1
 -2      2287      2075      2393      2557
 -1      3774    3    0    1
 -2      2314       333      2376      2454
 -1      3775    3    0    1
 -2      2129       956      2419      2530
 -1      3776    3    0    1
 -2       879       889      1122      2277
 -1      3777    3    0    1
 -2      2097      2047      2335      2352
 -1      3778    3    0    1
 -2      2202       390      2337      2351
 -1      3779    3    0    1
 -2      2114      2141      2176      2243
 -1      3780    3    0    1
 -2       993       169      2035      3759
 -1      3781    3    0    1
 -2      2073      1106      2090      2131
 -1      3782    3    0    1
 -2      2064      2161      2434      2518
 -1      3783    3    0    1
 -2      2255      1090      2273      2362
 -1      3784    3    0    1
 -2       357      2099      2184      2318
 -1      3785    3    0    1
 -2       974      2130      2268      2336
 -1      3786    3    0    1
 -2      2775      2626      3946      4015
 -1      3787    3    0    1
 -2       452       451       682      2657
 -1      3788    3    0    1
 -2      1052       390      2164      2335
 -1      3789    3    0    1
 -2       358      2049      2178      2262
 -1      3790    3    0    1
 -2       300       358      1073      2262
 -1      3791    3    0    1
 -2      1344      2235      2243      2267
 -1      3792    3    0    1
 -2      1038       762      2421      2514
 -1      3793    3    0    1
 -2      1366      1367      2408      2456
 -1      3794    3    0    1
 -2       347      2374      2411      2514
 -1      3795    3    0    1
 -2       863      1094      2207      2363
 -1      3796    3    0    1
 -2       618       617       967      2463
 -1      3797    3    0    1
 -2       877      1394       878      2322
 -1      3798    3    0    1
 -2      2095      2080      2199      2210
 -1      3799    3    0    1
 -2      2106      2277      2296      2315
 -1      3800    3    0    1
 -2      1306      1000       679      2213
 -1      3801    3    0    1
 -2      1024       731      2386      2445
 -1      3802    3    0    1
 -2       404      2129      2248      2253
 -1      3803    3    0    1
 -2      1353       302      1354      2431
 -1      3804    3    0    1
 -2       418      2076      2108      2343
 -1      3805    3    0    1
 -2       327      1355       434      2259
 -1      3806    3    0    1
 -2       126       403      2185      2419
 -1      3807    3    0    1
 -2      2202      2067      2238      2244
 -1      3808    3    0    1
 -2       316      1364      2221      2278
 -1      3809    3    0    1
 -2      1556      2960      1807      3892
 -1      3810    3    0    1
 -2      2057       108      2205      2208
 -1      3811    3    0    1
 -2       725       708      1020      2387
 -1      3812    3    0    1
 -2      2062      2125      2236      2394
 -1      3813    3    0    1
 -2       336      1317      2349      2444
 -1      3814    3    0    1
 -2       995      2193      2282      2292
 -1      3815    3    0    1
 -2       581       952      2233      2455
 -1      3816    3    0    1
 -2       153       362      2219      2268
 -1      3817    3    0    1
 -2       847      1361      1080      2162
 -1      3818    3    0    1
 -2      3696      3899      3999      3712
 -1      3819    3    0    1
 -2      2066      2204      2223      2294
 -1      3820    3    0    1
 -2       879       889      2277      2296
 -1      3821    3    0    1
 -2      3073      1785      3240      3861
 -1      3822    3    0    1
 -2      1681      1420      1419      3292
 -1      3823    3    0    1
 -2      1296      2101      2172      2332
 -1      3824    3    0    1
 -2       426      2093      2128      2247
 -1      3825    3    0    1
 -2       726       743      1030      2320
 -1      3826    3    0    1
 -2       607       610      2459      2501
 -1      3827    3    0    1
 -2      2131      2090      2218      2388
 -1      3828    3    0    1
 -2      2162       847      2486      2545
 -1      3829    3    0    1
 -2      2046       167      2249      2298
 -1      3830    3    0    1
 -2      2123      2044      2212      2395
 -1      3831    3    0    1
 -2       954       372      2169      2330
 -1      3832    3    0    1
 -2       190       420      1003      2292
 -1      3833    3    0    1
 -2       388      1055      1063      2155
 -1      3834    3    0    1
 -2       761       762      1038      2514
 -1      3835    3    0    1
 -2      1374       857       858      2146
 -1      3836    3    0    1
 -2       648       979       983      2428
 -1      3837    3    0    1
 -2       207       424      1311      2245
 -1      3838    3    0    1
 -2      1287       586      2364      2530
 -1      3839    3    0    1
 -2       396      2384      2421      2763
 -1      3840    3    0    1
 -2      2325      2187      2453      2473
 -1      3841    3    0    1
 -2       146       971      1299      2477
 -1      3842    3    0    1
 -2      1048       785      2472      2538
 -1      3843    3    0    1
 -2       961       617       968      2248
 -1      3844    3    0    1
 -2       407       116      3781      1736
 -1      3845    3    0    1
 -2       854       853      2408      2409
 -1      3846    3    0    1
 -2       398      2444      2458      2556
 -1      3847    3    0    1
 -2      2074       361      2217      2370
 -1      3848    3    0    1
 -2      2252      1037      2384      2514
 -1      3849    3    0    1
 -2      2207      2056      2255      2273
 -1      3850    3    0    1
 -2       193       184      1004      2166
 -1      3851    3    0    1
 -2      3880      2609      2693      3907
 -1      3852    3    0    1
 -2      2053      2102      2242      2329
 -1      3853    3    0    1
 -2       957      1294      2501      2620
 -1      3854    3    0    1
 -2       945       381      1071      2308
 -1      3855    3    0    1
 -2      1043       251      2151      2338
 -1      3856    3    0    1
 -2      2218      2078      2388      2482
 -1      3857    3    0    1
 -2      2620      2756      3789      3791
 -1      3858    3    0    1
 -2        11       197      1982      3728
 -1      3859    3    0    1
 -2      2073      2124      2287      2385
 -1      3860    3    0    1
 -2       156      2116      2196      2206
 -1      3861    3    0    1
 -2      2133      2054      2231      2251
 -1      3862    3    0    1
 -2      1302       160      2507      2550
 -1      3863    3    0    1
 -2       287       288      1071      2553
 -1      3864    3    0    1
 -2      1384      1100      2119      2470
 -1      3865    3    0    1
 -2       797       798      1054      2496
 -1      3866    3    0    1
 -2       377      1340      2059      2289
 -1      3867    3    0    1
 -2      3834      2822      3953      3990
 -1      3868    3    0    1
 -2      1123       445      1397      2125
 -1      3869    3    0    1
 -2      2099       357      2208      2318
 -1      3870    3    0    1
 -2      1326       256      2195      2234
 -1      3871    3    0    1
 -2      1097      1379      2153      2215
 -1      3872    3    0    1
 -2      1403       436      2065      2450
 -1      3873    3    0    1
 -2      1404      1111      2204      2224
 -1      3874    3    0    1
 -2      2155      1049      2538      2539
 -1      3875    3    0    1
 -2       953      2169      2437      2455
 -1      3876    3    0    1
 -2       612      2171      2250      2253
 -1      3877    3    0    1
 -2       873      1388      1104      2222
 -1      3878    3    0    1
 -2       378       944      2107      2522
 -1      3879    3    0    1
 -2      2329      2052      2357      2409
 -1      3880    3    0    1
 -2       725      1020      1023      2348
 -1      3881    3    0    1
 -2       117      2214      2233      2367
 -1      3882    3    0    1
 -2      2049      2175      2262      2269
 -1      3883    3    0    1
 -2       983      2172      2332      2428
 -1      3884    3    0    1
 -2      2062       380      2106      2315
 -1      3885    3    0    1
 -2      1382       311      1099      2471
 -1      3886    3    0    1
 -2       643       981      1304      2416
 -1      3887    3    0    1
 -2      2791      2961      3801      3956
 -1      3888    3    0    1
 -2      1090       306       309      2273
 -1      3889    3    0    1
 -2      1350      1349      2055      2092
 -1      3890    3    0    1
 -2      1319      2163      2411      2464
 -1      3891    3    0    1
 -2       833      1074      1073      2178
 -1      3892    3    0    1
 -2      1372       856      2094      2140
 -1      3893    3    0    1
 -2       256       394      2195      2234
 -1      3894    3    0    1
 -2       666       992      2276      2368
 -1      3895    3    0    1
 -2      2179      2241      2278      2299
 -1      3896    3    0    1
 -2      2046       368      2117      2246
 -1      3897    3    0    1
 -2      1737      1464      1738      3108
 -1      3898    3    0    1
 -2      1286       948      2398      2422
 -1      3899    3    0    1
 -2      1593      1592      1635      3428
 -1      3900    3    0    1
 -2      1281        96      2491      2559
 -1      3901    3    0    1
 -2       986       343      2446      2563
 -1      3902    3    0    1
 -2      3843      1512      3899      3696
 -1      3903    3    0    1
 -2      2149      2068      2266      2537
 -1      3904    3    0    1
 -2      1698      1665      1699      3325
 -1      3905    3    0    1
 -2      2054      2101      2133      2190
 -1      3906    3    0    1
 -2      2187      2063      2227      2473
 -1      3907    3    0    1
 -2      1051       789      2355      2436
 -1      3908    3    0    1
 -2       653       654      2197      2487
 -1      3909    3    0    1
 -2      2074      2121      2241      2370
 -1      3910    3    0    1
 -2       368      2046      2117      2311
 -1      3911    3    0    1
 -2       176       994       995      2282
 -1      3912    3    0    1
 -2       582       955      1291      2181
 -1      3913    3    0    1
 -2       388       271      1055      2155
 -1      3914    3    0    1
 -2       390       386      2067      2202
 -1      3915    3    0    1
 -2      1278       944       549      2410
 -1      3916    3    0    1
 -2       371       954      2183      2330
 -1      3917    3    0    1
 -2       648       640      2428      2507
 -1      3918    3    0    1
 -2      2125      2062      2296      2315
 -1      3919    3    0    1
 -2      2115      2187      2227      2453
 -1      3920    3    0    1
 -2      2384      1038      2421      2514
 -1      3921    3    0    1
 -2       151       146      1299      2477
 -1      3922    3    0    1
 -2       357       108      2057      2208
 -1      3923    3    0    1
 -2      2063      2109      2187      2227
 -1      3924    3    0    1
 -2      2111      2135      2315      2377
 -1      3925    3    0    1
 -2      1396       879      2277      2316
 -1      3926    3    0    1
 -2      2160      2128      2249      2360
 -1      3927    3    0    1
 -2       767      1040      2047      2520
 -1      3928    3    0    1
 -2      2075      2139      2317      2326
 -1      3929    3    0    1
 -2      2062      2104      2125      2394
 -1      3930    3    0    1
 -2       276       388      2528      2564
 -1      3931    3    0    1
 -2      2191      2100      2250      2364
 -1      3932    3    0    1
 -2      2059      1097      2153      2215
 -1      3933    3    0    1
 -2       387      2087      2098      2341
 -1      3934    3    0    1
 -2      2058      2173      2205      2291
 -1      3935    3    0    1
 -2       879       889      2296      2345
 -1      3936    3    0    1
 -2       961       404      2129      2248
 -1      3937    3    0    1
 -2       278       349      1060      2449
 -1      3938    3    0    1
 -2       592       571      2042      2805
 -1      3939    3    0    1
 -2      2172      2101      2190      2251
 -1      3940    3    0    1
 -2      2130      2217      2219      2336
 -1      3941    3    0    1
 -2      1388       874      2176      2222
 -1      3942    3    0    1
 -2       173       668       660      3463
 -1      3943    3    0    1
 -2      1384       869       870      2119
 -1      3944    3    0    1
 -2      2062      1123      2113      2125
 -1      3945    3    0    1
 -2       351       267      1327      2529
 -1      3946    3    0    1
 -2      2280      2217      2329      2357
 -1      3947    3    0    1
 -2      1370      2094      2140      2383
 -1      3948    3    0    1
 -2      2218      2090      2385      2388
 -1      3949    3    0    1
 -2      1406       887      1120      2259
 -1      3950    3    0    1
 -2       196      1006      2257      2359
 -1      3951    3    0    1
 -2       312      2131      2144      2165
 -1      3952    3    0    1
 -2       357      2057      2099      2208
 -1      3953    3    0    1
 -2      1101       870      2119      2238
 -1      3954    3    0    1
 -2      1379      2153      2215      2290
 -1      3955    3    0    1
 -2       383      2236      2379      2394
 -1      3956    3    0    1
 -2       949      2042      2369      2438
 -1      3957    3    0    1
 -2       438       389      1111      2204
 -1      3958    3    0    1
 -2      1097       377      2059      2153
 -1      3959    3    0    1
 -2       150       366      2053      2102
 -1      3960    3    0    1
 -2      2072      2078      2165      2388
 -1      3961    3    0    1
 -2       890      1402      2113      2309
 -1      3962    3    0    1
 -2       167       368      2046      2246
 -1      3963    3    0    1
 -2      1016       220      2349      2504
 -1      3964    3    0    1
 -2       988      2046      2254      2298
 -1      3965    3    0    1
 -2      3177      1439      3385      3655
 -1      3966    3    0    1
 -2      2093      2128      2211      2249
 -1      3967    3    0    1
 -2      2051      2074      2121      2241
 -1      3968    3    0    1
 -2       424       204      2245      2493
 -1      3969    3    0    1
 -2       870       869      1101      2119
 -1      3970    3    0    1
 -2       985       654       986      2197
 -1      3971    3    0    1
 -2       424       204      1311      2245
 -1      3972    3    0    1
 -2       211      1015      2152      2326
 -1      3973    3    0    1
 -2       269      1055      2155      2496
 -1      3974    3    0    1
 -2      1324      1042       770      2163
 -1      3975    3    0    1
 -2      2146      2168      2246      2279
 -1      3976    3    0    1
 -2      2048      1010      2328      2414
 -1      3977    3    0    1
 -2       880      1123      1397      2113
 -1      3978    3    0    1
 -2       428      2302      2397      2493
 -1      3979    3    0    1
 -2       369       324      2077      2258
 -1      3980    3    0    1
 -2      2102       366      2127      2190
 -1      3981    3    0    1
 -2       251       392      2346      2498
 -1      3982    3    0    1
 -2      2123      2044      2395      2478
 -1      3983    3    0    1
 -2       387      2115      2229      2271
 -1      3984    3    0    1
 -2      2055      1350      2092      2192
 -1      3985    3    0    1
 -2       950       573      1284      2214
 -1      3986    3    0    1
 -2      1289       589       592      2042
 -1      3987    3    0    1
 -2       958       592       589      2042
 -1      3988    3    0    1
 -2       589      1289       957      2042
 -1      3989    3    0    1
 -2      1355       844      2122      2189
 -1      3990    3    0    1
 -2      1777      1571      1778      3197
 -1      3991    3    0    1
 -2      2079      2211      2431      2442
 -1      3992    3    0    1
 -2       703       700      1270      3747
 -1      3993    3    0    1
 -2      1125       892      2224      2307
 -1      3994    3    0    1
 -2      1334      1068      2400      2525
 -1      3995    3    0    1
 -2       857       858      2146      2258
 -1      3996    3    0    1
 -2      2302      1021      2348      2387
 -1      3997    3    0    1
 -2      2113      2125      2309      2394
 -1      3998    3    0    1
 -2       340       241      2384      2513
 -1      3999    3    0    1
 -2      1016       712      1314      2504
 -1      4000    3    0    1
 -2       738      1028      2413      2445
 -1      4001    3    0    1
 -2       114       117       952      2233
 -1      4002    3    0    1
 -2      2162      2061      2318      2420
 -1      4003    3    0    1
 -2       697      1309      2508      2551
 -1      4004    3    0    1
 -2      2050      2179      2191      2281
 -1      4005    3    0    1
 -2      2056      2117      2174      2206
 -1      4006    3    0    1
 -2      1013       725      1021      2387
 -1      4007    3    0    1
 -2      2280      2052      2329      2408
 -1      4008    3    0    1
 -2       856       855      2094      2140
 -1      4009    3    0    1
 -2      2142      2156      2263      2301
 -1      4010    3    0    1
 -2       849      1363      1081      2148
 -1      4011    3    0    1
 -2       654       653       987      2487
 -1      4012    3    0    1
 -2       744       743      2376      2458
 -1      4013    3    0    1
 -2       988       167       992      2046
 -1      4014    3    0    1
 -2      3677      1824      3681      3745
 -1      4015    3    0    1
 -2      2266      2096      2274      2471
 -1      4016    3    0    1
 -2       958       589      1288      2042
 -1      4017    3    0    1
 -2       749       756      1033      2439
 -1      4018    3    0    1
 -2      1300       643      2490      2779
 -1      4019    3    0    1
 -2      1006      2142      2257      2359
 -1      4020    3    0    1
 -2       880       890      2113      2309
 -1      4021    3    0    1
 -2      2075      2139      2326      2327
 -1      4022    3    0    1
 -2       204      1007      2245      2397
 -1      4023    3    0    1
 -2      1074      1073      2178      2262
 -1      4024    3    0    1
 -2      2552       200      3987      3758
 -1      4025    3    0    1
 -2       991       661      1303      2490
 -1      4026    3    0    1
 -2      2295       974      2102      1296
 -1      4027    3    0    1
 -2       974       622      1296      2295
 -1      4028    3    0    1
 -2      2153      2091      2215      2290
 -1      4029    3    0    1
 -2       762      1039      2324      2514
 -1      4030    3    0    1
 -2      2130      2219      2268      2336
 -1      4031    3    0    1
 -2      2314       734      2464      2488
 -1      4032    3    0    1
 -2       120       404       956      2129
 -1      4033    3    0    1
 -2      2183       594      2395      2419
 -1      4034    3    0    1
 -2      1565      1564      2798      3092
 -1      4035    3    0    1
 -2       973       628       625      2523
 -1      4036    3    0    1
 -2      2333      1376      2371      2406
 -1      4037    3    0    1
 -2      1107       879      2296      2345
 -1      4038    3    0    1
 -2      1503      1764      1765      3618
 -1      4039    3    0    1
 -2      2120       883      2121      2132
 -1      4040    3    0    1
 -2      1331       807      2355      2417
 -1      4041    3    0    1
 -2       336       226      1317      2444
 -1      4042    3    0    1
 -2       223      2201      2218      2385
 -1      4043    3    0    1
 -2       771       770      1042      2163
 -1      4044    3    0    1
 -2       979       156      2196      2206
 -1      4045    3    0    1
 -2       875      1390       876      2131
 -1      4046    3    0    1
 -2      1390       876      2131      2165
 -1      4047    3    0    1
 -2      2120      2121      2476      2541
 -1      4048    3    0    1
 -2       368      2077      2117      2246
 -1      4049    3    0    1
 -2       385       387      1061      2271
 -1      4050    3    0    1
 -2       389      1404      2204      2224
 -1      4051    3    0    1
 -2      2067      1383      2119      2244
 -1      4052    3    0    1
 -2      1115      1405      2144      2165
 -1      4053    3    0    1
 -2       875      1391      1106      2090
 -1      4054    3    0    1
 -2      1294       964       610      2459
 -1      4055    3    0    1
 -2      1342      1339      2150      2297
 -1      4056    3    0    1
 -2      2146      2077      2246      2258
 -1      4057    3    0    1
 -2       958       592      2225      2805
 -1      4058    3    0    1
 -2      2103      2082      2199      2383
 -1      4059    3    0    1
 -2      2103      2094      2140      2226
 -1      4060    3    0    1
 -2       324       369      1087      2258
 -1      4061    3    0    1
 -2       717       697      2424      2551
 -1      4062    3    0    1
 -2      2082      2103      2199      2381
 -1      4063    3    0    1
 -2       837      1344       838      2235
 -1      4064    3    0    1
 -2       122       958      1288      2225
 -1      4065    3    0    1
 -2      1116      1128      2124      2287
 -1      4066    3    0    1
 -2      1090      1088      2273      2362
 -1      4067    3    0    1
 -2      2287      2288      2385      2393
 -1      4068    3    0    1
 -2       952       117       955      2233
 -1      4069    3    0    1
 -2       420       422      2193      2198
 -1      4070    3    0    1
 -2      2101      2054      2133      2251
 -1      4071    3    0    1
 -2       372       111       953      2169
 -1      4072    3    0    1
 -2      2226      2083      2322      2425
 -1      4073    3    0    1
 -2      2492       798      2496      2560
 -1      4074    3    0    1
 -2       803       810      1332      2137
 -1      4075    3    0    1
 -2      2206      2177      2276      2368
 -1      4076    3    0    1
 -2      2515      1036      2439       756
 -1      4077    3    0    1
 -2       874       873      1105      2176
 -1      4078    3    0    1
 -2      2245      1311      2261      2328
 -1      4079    3    0    1
 -2      1372       855       856      2140
 -1      4080    3    0    1
 -2      2286      2139      2427      2485
 -1      4081    3    0    1
 -2      2093      2128      2158      2211
 -1      4082    3    0    1
 -2      2220      2386      2401      2482
 -1      4083    3    0    1
 -2       671       672       995      2282
 -1      4084    3    0    1
 -2       167       368       992      2046
 -1      4085    3    0    1
 -2      2145      2058      2354      2503
 -1      4086    3    0    1
 -2       712      1016      2500      2504
 -1      4087    3    0    1
 -2       738      1317      2375      2413
 -1      4088    3    0    1
 -2      2182      2077      2207      2363
 -1      4089    3    0    1
 -2      2082      2094      2103      2275
 -1      4090    3    0    1
 -2      2223      1386      2244      2294
 -1      4091    3    0    1
 -2      1348      2354      2502      2503
 -1      4092    3    0    1
 -2      1488      3042      3240      3861
 -1      4093    3    0    1
 -2       428      1013      1021      2302
 -1      4094    3    0    1
 -2       835      1341       836      2289
 -1      4095    3    0    1
 -2      1125       882       892      2307
 -1      4096    3    0    1
 -2      1289       957      2042      2438
 -1      4097    3    0    1
 -2      2366       985      2550      2533
 -1      4098    3    0    1
 -2       422       420      2193      2292
 -1      4099    3    0    1
 -2      2069      1387      2176      2274
 -1      4100    3    0    1
 -2       217       216      1021      2302
 -1      4101    3    0    1
 -2      2223      2378      2066      2294
 -1      4102    3    0    1
 -2      1015       211      1019      2110
 -1      4103    3    0    1
 -2      2152      2136      2288      2327
 -1      4104    3    0    1
 -2       573       571      2214      2466
 -1      4105    3    0    1
 -2      1025       229      2513      2556
 -1      4106    3    0    1
 -2       646       643      1300      2405
 -1      4107    3    0    1
 -2      2090      2073      2131      2218
 -1      4108    3    0    1
 -2       858      1087      2146      2258
 -1      4109    3    0    1
 -2      1004       193      2166      2261
 -1      4110    3    0    1
 -2      3513      1692      3677      3745
 -1      4111    3    0    1
 -2      1350       842      2092      2216
 -1      4112    3    0    1
 -2       364      2332      2366      2497
 -1      4113    3    0    1
 -2      2180       997      2361      2509
 -1      4114    3    0    1
 -2       892       882      2224      2307
 -1      4115    3    0    1
 -2      2109      2065      2187      2450
 -1      4116    3    0    1
 -2      1292      2088      2250      2365
 -1      4117    3    0    1
 -2       750       745      1698      3630
 -1      4118    3    0    1
 -2       353       290      2334      2525
 -1      4119    3    0    1
 -2      1001       426      2160      2360
 -1      4120    3    0    1
 -2      2177      2196      2206      2323
 -1      4121    3    0    1
 -2      1375       301      1089      2390
 -1      4122    3    0    1
 -2      2068      2119      2238      2342
 -1      4123    3    0    1
 -2       604       612      2171      2250
 -1      4124    3    0    1
 -2       295       377      1097      2153
 -1      4125    3    0    1
 -2      1453      1452      3059      1918
 -1      4126    3    0    1
 -2      1332      1058      2137      2564
 -1      4127    3    0    1
 -2      1456      1457      2978      3279
 -1      4128    3    0    1
 -2       876      2090      2131      2165
 -1      4129    3    0    1
 -2       420       190      1308      2256
 -1      4130    3    0    1
 -2      2229       387      2271      2341
 -1      4131    3    0    1
 -2       150       974      1296      2102
 -1      4132    3    0    1
 -2       429      2275      2414      2527
 -1      4133    3    0    1
 -2      2288      2136      2385      2327
 -1      4134    3    0    1
 -2      2085      2469      2484      2494
 -1      4135    3    0    1
 -2      1400      1112      2120      2132
 -1      4136    3    0    1
 -2       845      1357       846      2427
 -1      4137    3    0    1
 -2       398       226      1031      2458
 -1      4138    3    0    1
 -2      2055      2116      2192      2312
 -1      4139    3    0    1
 -2      1052       390      2335      2337
 -1      4140    3    0    1
 -2       858       857      1087      2258
 -1      4141    3    0    1
 -2      2173      2188      2205      2208
 -1      4142    3    0    1
 -2      1035      1319      2411      2464
 -1      4143    3    0    1
 -2       877      1395      1392      2209
 -1      4144    3    0    1
 -2       844      1354      2122      2189
 -1      4145    3    0    1
 -2       648       983      2332      2428
 -1      4146    3    0    1
 -2       224      1027      1315      2314
 -1      4147    3    0    1
 -2       416       223      2201      2445
 -1      4148    3    0    1
 -2      2053      2280      2329      2408
 -1      4149    3    0    1
 -2      1095      1093      2182      2363
 -1      4150    3    0    1
 -2      2093       426      2128      2160
 -1      4151    3    0    1
 -2       140       963      1295      2171
 -1      4152    3    0    1
 -2       712      1016      2429      2500
 -1      4153    3    0    1
 -2       860       859      2362      2390
 -1      4154    3    0    1
 -2       111       401       953      2169
 -1      4155    3    0    1
 -2      2051      2074      2120      2121
 -1      4156    3    0    1
 -2       868      1381      2266      2283
 -1      4157    3    0    1
 -2       617       600       962      2157
 -1      4158    3    0    1
 -2       840       839      2145      2354
 -1      4159    3    0    1
 -2       372       953       954      2169
 -1      4160    3    0    1
 -2      2109      2187      2227      2450
 -1      4161    3    0    1
 -2      2164      2346      2352      2475
 -1      4162    3    0    1
 -2      2250       612      2253      2264
 -1      4163    3    0    1
 -2      2066      2087      2134      2229
 -1      4164    3    0    1
 -2      1303       661      2399      2490
 -1      4165    3    0    1
 -2       424       207      1012      2303
 -1      4166    3    0    1
 -2      3019      1714      3202      3203
 -1      4167    3    0    1
 -2      2074      2052      2120      2132
 -1      4168    3    0    1
 -2      1400       320      1112      2170
 -1      4169    3    0    1
 -2      2179      2050      2278      2281
 -1      4170    3    0    1
 -2      2080      2095      2199      2247
 -1      4171    3    0    1
 -2       366      1296      2190      2295
 -1      4172    3    0    1
 -2       977       985      2366      2533
 -1      4173    3    0    1
 -2       975       635      3767      4029
 -1      4174    3    0    1
 -2      2052      2329      2408      2409
 -1      4175    3    0    1
 -2       141       404      2248      2253
 -1      4176    3    0    1
 -2      1302       640       648      2507
 -1      4177    3    0    1
 -2       885      1116      2124      2287
 -1      4178    3    0    1
 -2       604       612       963      2171
 -1      4179    3    0    1
 -2      1401       879      1107      2345
 -1      4180    3    0    1
 -2       966       612      2250      2264
 -1      4181    3    0    1
 -2      1037      2252      2384      2513
 -1      4182    3    0    1
 -2      1345      1076      2235      2267
 -1      4183    3    0    1
 -2      2142      1006      2186      2359
 -1      4184    3    0    1
 -2      2151       397      2230      2260
 -1      4185    3    0    1
 -2      2065       385      2115      2331
 -1      4186    3    0    1
 -2       884      1405       893      2144
 -1      4187    3    0    1
 -2      2050       370      2221      2278
 -1      4188    3    0    1
 -2      2060      2106      2111      2135
 -1      4189    3    0    1
 -2      2057      2148      2173      2205
 -1      4190    3    0    1
 -2      1091      2053      2389      2456
 -1      4191    3    0    1
 -2      2135      2060      2150      2402
 -1      4192    3    0    1
 -2      1326       252      2457      2520
 -1      4193    3    0    1
 -2      1400      1112      2132      2170
 -1      4194    3    0    1
 -2      2286      2076      2317      2485
 -1      4195    3    0    1
 -2       951       576      1283      2398
 -1      4196    3    0    1
 -2       865      1379      1097      2215
 -1      4197    3    0    1
 -2      1048      2134      2337      2472
 -1      4198    3    0    1
 -2      2065      2115      2307      2331
 -1      4199    3    0    1
 -2      2115      2065      2307      2450
 -1      4200    3    0    1
 -2      2055      2192      2232      2312
 -1      4201    3    0    1
 -2      2103      2082      2383      2440
 -1      4202    3    0    1
 -2       984       414      2487      2524
 -1      4203    3    0    1
 -2      1308       684      2198      2256
 -1      4204    3    0    1
 -2      2059      1340      2150      2289
 -1      4205    3    0    1
 -2      1387      2069      2176      2222
 -1      4206    3    0    1
 -2       422       989      2193      2198
 -1      4207    3    0    1
 -2       302      1086      1374      2431
 -1      4208    3    0    1
 -2      1016      2349      2429      2500
 -1      4209    3    0    1
 -2      2095      2199      2247      2381
 -1      4210    3    0    1
 -2       841      1078      2092      2216
 -1      4211    3    0    1
 -2      2096      2068      2149      2164
 -1      4212    3    0    1
 -2      2138      2049      2175      2178
 -1      4213    3    0    1
 -2      2214       950      2466      2716
 -1      4214    3    0    1
 -2       397      1318      2151      2230
 -1      4215    3    0    1
 -2       851       852      2278      2299
 -1      4216    3    0    1
 -2       241      1037      2384      2513
 -1      4217    3    0    1
 -2      2236      2113      2309      2394
 -1      4218    3    0    1
 -2      1285      3923      3968      4021
 -1      4219    3    0    1
 -2      1279      2466       573      2716
 -1      4220    3    0    1
 -2      2060      2106      2135      2277
 -1      4221    3    0    1
 -2      2094      2083      2140      2226
 -1      4222    3    0    1
 -2       323      1106      1391      2124
 -1      4223    3    0    1
 -2       378       375      2059      2107
 -1      4224    3    0    1
 -2       400        95      2033      3756
 -1      4225    3    0    1
 -2      2069      1387      2274      2471
 -1      4226    3    0    1
 -2      2087      2066      2134      2378
 -1      4227    3    0    1
 -2      1004       690      1012      2303
 -1      4228    3    0    1
 -2      3779      3799      3822      3925
 -1      4229    3    0    1
 -2       558       549      2410      2479
 -1      4230    3    0    1
 -2      2087       387      2098      2134
 -1      4231    3    0    1
 -2       387      2087      2229      2331
 -1      4232    3    0    1
 -2       361       130      1292      2088
 -1      4233    3    0    1
 -2       815      1062      1065      2415
 -1      4234    3    0    1
 -2       437      1402      2321      2452
 -1      4235    3    0    1
 -2       418      1019      2110      2301
 -1      4236    3    0    1
 -2      1019       720      2110      2358
 -1      4237    3    0    1
 -2       379       103       941      2200
 -1      4238    3    0    1
 -2       635       970       975      2372
 -1      4239    3    0    1
 -2      2277      2135      2296      2315
 -1      4240    3    0    1
 -2       594      2395      2419      2478
 -1      4241    3    0    1
 -2      1049       785      2538      2539
 -1      4242    3    0    1
 -2      2870      2573      3796      3865
 -1      4243    3    0    1
 -2      2188      2057      2205      2208
 -1      4244    3    0    1
 -2       955       582      2233      2330
 -1      4245    3    0    1
 -2       370       316      2221      2278
 -1      4246    3    0    1
 -2      2128      2093      2160      2249
 -1      4247    3    0    1
 -2      3354      2993      3418      3470
 -1      4248    3    0    1
 -2       966       130      2191      2250
 -1      4249    3    0    1
 -2       887       894      2210      2259
 -1      4250    3    0    1
 -2      1375       859       860      2390
 -1      4251    3    0    1
 -2      2100       966      2191      2250
 -1      4252    3    0    1
 -2      3020      2652      3913      3535
 -1      4253    3    0    1
 -2      3779      1441      3799      3925
 -1      4254    3    0    1
 -2      2050      2138      2159      2221
 -1      4255    3    0    1
 -2       347       239      1035      2411
 -1      4256    3    0    1
 -2      2561      2807      2828      2865
 -1      4257    3    0    1
 -2      1290       403      2183      2392
 -1      4258    3    0    1
 -2       344       343      2483      2544
 -1      4259    3    0    1
 -2       415       217      2348      2499
 -1      4260    3    0    1
 -2       708       707      1013      2664
 -1      4261    3    0    1
 -2      1020      2045      2347      2348
 -1      4262    3    0    1
 -2       630       974      2268      2336
 -1      4263    3    0    1
 -2      1362       299      2502      2503
 -1      4264    3    0    1
 -2       415       217      1021      2348
 -1      4265    3    0    1
 -2       190      1003      1004      2166
 -1      4266    3    0    1
 -2      2149      2164      2342      2351
 -1      4267    3    0    1
 -2      2047      2097      2335      2353
 -1      4268    3    0    1
 -2       184       190      1004      2166
 -1      4269    3    0    1
 -2      2176      1388      2222      2243
 -1      4270    3    0    1
 -2       150      2130      2217      2280
 -1      4271    3    0    1
 -2       380      2062      2104      2315
 -1      4272    3    0    1
 -2       360       373      2269      2285
 -1      4273    3    0    1
 -2       373       360      2269      2407
 -1      4274    3    0    1
 -2      2066      2134      2378      2403
 -1      4275    3    0    1
 -2      2223      1386       871      1102
 -1      4276    3    0    1
 -2       310       317      1101      2244
 -1      4277    3    0    1
 -2      2074      2120      2121      2132
 -1      4278    3    0    1
 -2      2096      2266      2274      2475
 -1      4279    3    0    1
 -2      1389      1390      2131      2165
 -1      4280    3    0    1
 -2       438       389      2204      2294
 -1      4281    3    0    1
 -2      2204       389      2223      2294
 -1      4282    3    0    1
 -2       297      1076      1345      2086
 -1      4283    3    0    1
 -2       297       399      1076      2086
 -1      4284    3    0    1
 -2       267       351      2492      2529
 -1      4285    3    0    1
 -2      1386       871       872      2294
 -1      4286    3    0    1
 -2      2181       599      2185      2310
 -1      4287    3    0    1
 -2      1019       418      2142      2301
 -1      4288    3    0    1
 -2       310      1383      2067      2244
 -1      4289    3    0    1
 -2      1392       877      2209      2344
 -1      4290    3    0    1
 -2      1076       399      2071      2086
 -1      4291    3    0    1
 -2      2086       399      1114       297
 -1      4292    3    0    1
 -2       944       378      2111      2522
 -1      4293    3    0    1
 -2      2378       386      2134      2337
 -1      4294    3    0    1
 -2      2052      2074      2130      2217
 -1      4295    3    0    1
 -2      2213       681      2399      2517
 -1      4296    3    0    1
 -2      2064      1057      2161      2518
 -1      4297    3    0    1
 -2       855      1370      2094      2140
 -1      4298    3    0    1
 -2      2111      1333      2143      2489
 -1      4299    3    0    1
 -2       394      1033      2195      2234
 -1      4300    3    0    1
 -2      2462      2085      2469      2534
 -1      4301    3    0    1
 -2      2166       190      2292      2356
 -1      4302    3    0    1
 -2       376      1081      2188      2545
 -1      4303    3    0    1
 -2      2061      2215      2290      2420
 -1      4304    3    0    1
 -2       592       571      1289      2042
 -1      4305    3    0    1
 -2      2058      2173      2396      2502
 -1      4306    3    0    1
 -2      2141      2151      2230      2260
 -1      4307    3    0    1
 -2      1406       327       434      2259
 -1      4308    3    0    1
 -2      2785      2824      2895      3196
 -1      4309    3    0    1
 -2      2124       885      2287      2393
 -1      4310    3    0    1
 -2      2116      2056      2174      2196
 -1      4311    3    0    1
 -2       150      2102      2217      2336
 -1      4312    3    0    1
 -2       825       829      1205      2585
 -1      4313    3    0    1
 -2      2142       196      2257      2263
 -1      4314    3    0    1
 -2      1081      2057      2188      2545
 -1      4315    3    0    1
 -2       345       414      2405      2521
 -1      4316    3    0    1
 -2      2069      2274      2346      2475
 -1      4317    3    0    1
 -2       403      1290      2183      2419
 -1      4318    3    0    1
 -2      2070      2141      2243      2260
 -1      4319    3    0    1
 -2       571       949      1289      2042
 -1      4320    3    0    1
 -2      1098       865      1096      2215
 -1      4321    3    0    1
 -2      2088       130      2191      2281
 -1      4322    3    0    1
 -2       819      2474      2481      2489
 -1      4323    3    0    1
 -2      2272       672      2282      2292
 -1      4324    3    0    1
 -2      1318       749      2230      2439
 -1      4325    3    0    1
 -2       859      1090       860      2362
 -1      4326    3    0    1
 -2      2050      1338      2178      2221
 -1      4327    3    0    1
 -2      1441      3779      1573      3925
 -1      4328    3    0    1
 -2      2168      2079      2249      2279
 -1      4329    3    0    1
 -2      1279       552      2194      2447
 -1      4330    3    0    1
 -2       867      1381       868      2283
 -1      4331    3    0    1
 -2       385      1057      2064      2518
 -1      4332    3    0    1
 -2      1096      1098      2215      2420
 -1      4333    3    0    1
 -2      1299       622       630      2477
 -1      4334    3    0    1
 -2       120       960       961      2185
 -1      4335    3    0    1
 -2       826      1069      2161      2379
 -1      4336    3    0    1
 -2      2112       397      2151      2260
 -1      4337    3    0    1
 -2       979      2177      2206      2323
 -1      4338    3    0    1
 -2      2052      2074      2217      2357
 -1      4339    3    0    1
 -2      2049      1346      2145      2262
 -1      4340    3    0    1
 -2       852      1364      2278      2299
 -1      4341    3    0    1
 -2       735       734      1027      2314
 -1      4342    3    0    1
 -2      1020       213      1023      2348
 -1      4343    3    0    1
 -2      1305       344      2483      2544
 -1      4344    3    0    1
 -2       403       371       954      2183
 -1      4345    3    0    1
 -2      1126      1114      2144      2293
 -1      4346    3    0    1
 -2      2104      2062      2236      2394
 -1      4347    3    0    1
 -2      2117      2174      2206      2311
 -1      4348    3    0    1
 -2      2469      2085      2531      2534
 -1      4349    3    0    1
 -2      2141      2070      2151      2260
 -1      4350    3    0    1
 -2       366      2101      2127      2190
 -1      4351    3    0    1
 -2       369       324      1093      2182
 -1      4352    3    0    1
 -2       416      2136      2201      2385
 -1      4353    3    0    1
 -2       694      1006      2186      2239
 -1      4354    3    0    1
 -2      2053       150      2102      2280
 -1      4355    3    0    1
 -2      2073       223      2218      2385
 -1      4356    3    0    1
 -2       310      1101      1383      2244
 -1      4357    3    0    1
 -2      2243      2070      2260      2267
 -1      4358    3    0    1
 -2      2171       604      2250      2365
 -1      4359    3    0    1
 -2      2184       357      2208      2398
 -1      4360    3    0    1
 -2      2102      2053      2280      2329
 -1      4361    3    0    1
 -2      2167      2089      2380      2511
 -1      4362    3    0    1
 -2      1068      2400      2525      2780
 -1      4363    3    0    1
 -2      2154      2275      2381      2414
 -1      4364    3    0    1
 -2       774       767      2495      2520
 -1      4365    3    0    1
 -2      1312      1018       717      2432
 -1      4366    3    0    1
 -2      1185       587       593      2574
 -1      4367    3    0    1
 -2      2113      2063      2309      2452
 -1      4368    3    0    1
 -2       841      1351      1078      2216
 -1      4369    3    0    1
 -2      2099      2162      2318      2486
 -1      4370    3    0    1
 -2      2093      2080      2122      2158
 -1      4371    3    0    1
 -2      2135      2277      2296      2316
 -1      4372    3    0    1
 -2       549       941      2167      2200
 -1      4373    3    0    1
 -2      2120      1400      2132      2170
 -1      4374    3    0    1
 -2       956       120      2129      2419
 -1      4375    3    0    1
 -2      3155      1816      3464      3568
 -1      4376    3    0    1
 -2       883      2120      2476      2541
 -1      4377    3    0    1
 -2       995       689      1003      2292
 -1      4378    3    0    1
 -2      2470       318      1380      2537
 -1      4379    3    0    1
 -2       366      2053      2102      2127
 -1      4380    3    0    1
 -2       200       198      1011      2512
 -1      4381    3    0    1
 -2      2188      2057      2208      2318
 -1      4382    3    0    1
 -2       725      2045      2348      2387
 -1      4383    3    0    1
 -2      2083       196      2263      2425
 -1      4384    3    0    1
 -2       196      2048      2257      2425
 -1      4385    3    0    1
 -2       434      1355      2080      2259
 -1      4386    3    0    1
 -2      3569      2922      3975      4005
 -1      4387    3    0    1
 -2      2052      2120      2132      2170
 -1      4388    3    0    1
 -2       146       151      2443      2477
 -1      4389    3    0    1
 -2      2126      2055      2232      2312
 -1      4390    3    0    1
 -2      2660      2659      2694      3846
 -1      4391    3    0    1
 -2       259       260      2047      2457
 -1      4392    3    0    1
 -2      1388       873       874      2222
 -1      4393    3    0    1
 -2      2095      2082      2199      2381
 -1      4394    3    0    1
 -2       995       422      2193      2292
 -1      4395    3    0    1
 -2       969       618       976      2105
 -1      4396    3    0    1
 -2       331      1020      2045      2347
 -1      4397    3    0    1
 -2      1364       851       852      2278
 -1      4398    3    0    1
 -2      1111      2204      2224      2307
 -1      4399    3    0    1
 -2       375      2107      2380      2391
 -1      4400    3    0    1
 -2      2052      2217      2280      2357
 -1      4401    3    0    1
 -2      2273      2116      2362      2390
 -1      4402    3    0    1
 -2      1286       576      2240      2398
 -1      4403    3    0    1
 -2       150       974      2102      2336
 -1      4404    3    0    1
 -2      2169       111      2240      2422
 -1      4405    3    0    1
 -2      3886      2956      3447      3591
 -1      4406    3    0    1
 -2      2101      2133      2190      2251
 -1      4407    3    0    1
 -2      1112       320      2132      2170
 -1      4408    3    0    1
 -2      2051       130      2241      2281
 -1      4409    3    0    1
 -2       610       607       965      2501
 -1      4410    3    0    1
 -2       259      1046      2373      2457
 -1      4411    3    0    1
 -2      2386      1024      2445      2482
 -1      4412    3    0    1
 -2      1122      1396      2277      2316
 -1      4413    3    0    1
 -2      2136      2288      2385       416
 -1      4414    3    0    1
 -2       631       627      1243      2571
 -1      4415    3    0    1
 -2       365      1302      2497      2550
 -1      4416    3    0    1
 -2       834      1075      2175      2178
 -1      4417    3    0    1
 -2      2151      2141      2230      2338
 -1      4418    3    0    1
 -2      1408       886      1119      2313
 -1      4419    3    0    1
 -2       881      1124      1398      2109
 -1      4420    3    0    1
 -2      1386      1102      2223      2244
 -1      4421    3    0    1
 -2      1087       857      1373      2258
 -1      4422    3    0    1
 -2       318      1100      1384      2470
 -1      4423    3    0    1
 -2      1294      2459      2501      2620
 -1      4424    3    0    1
 -2      2098      2087      2134      2472
 -1      4425    3    0    1
 -2      1063       388      2155      2528
 -1      4426    3    0    1
 -2       743       744      1031      2458
 -1      4427    3    0    1
 -2       658       988      2254      2298
 -1      4428    3    0    1
 -2      2075      2139      2286      2317
 -1      4429    3    0    1
 -2       612      1295      2253      2264
 -1      4430    3    0    1
 -2      2053      2242      2389      2456
 -1      4431    3    0    1
 -2      2929      3576      3667      4008
 -1      4432    3    0    1
 -2       664       643      1304      2416
 -1      4433    3    0    1
 -2      3973      3743      3975      3971
 -1      4434    3    0    1
 -2       216      2239      2302      2358
 -1      4435    3    0    1
 -2       563       832      1072      2334
 -1      4436    3    0    1
 -2       563      1072      1282      2334
 -1      4437    3    0    1
 -2      1495      1494      3236      1833
 -1      4438    3    0    1
 -2      1070       831      1071      2510
 -1      4439    3    0    1
 -2      3242      2888      3848      1978
 -1      4440    3    0    1
 -2       676      2256      2356      2361
 -1      4441    3    0    1
 -2       997       426      1001      2361
 -1      4442    3    0    1
 -2       360       959      1287      2407
 -1      4443    3    0    1
 -2       308       322      2371      2406
 -1      4444    3    0    1
 -2      2917      3228      3330      3988
 -1      4445    3    0    1
 -2       226       336      1030      2444
 -1      4446    3    0    1
 -2      2349      1317      2413      2444
 -1      4447    3    0    1
 -2      1351      1078      2216      2406
 -1      4448    3    0    1
 -2      2122      2189      2431      2442
 -1      4449    3    0    1
 -2      2168      2079      2431      2442
 -1      4450    3    0    1
 -2       445      1401      1107      2345
 -1      4451    3    0    1
 -2      2125       445      2296      2345
 -1      4452    3    0    1
 -2      2176      2069      2274      2346
 -1      4453    3    0    1
 -2       271      1049      2155      2539
 -1      4454    3    0    1
 -2      2114      2069      2176      2346
 -1      4455    3    0    1
 -2       251       392      2069      2346
 -1      4456    3    0    1
 -2       251      2069      2114      2346
 -1      4457    3    0    1
 -2      2069       392      2096      2346
 -1      4458    3    0    1
 -2      2121      2051      2241      2476
 -1      4459    3    0    1
 -2      2063      2309      2321      2473
 -1      4460    3    0    1
 -2       392      2096      2346      2475
 -1      4461    3    0    1
 -2       549      2167      2380      2511
 -1      4462    3    0    1
 -2       239       347      2374      2411
 -1      4463    3    0    1
 -2      3221      1517      3336      3372
 -1      4464    3    0    1
 -2       845       846      2286      2427
 -1      4465    3    0    1
 -2       196      2083      2226      2425
 -1      4466    3    0    1
 -2      2081      2156      2344      2425
 -1      4467    3    0    1
 -2      1577       412      1634      1771
 -1      4468    3    0    1
 -2      1494      1832      1833      3330
 -1      4469    3    0    1
 -2       493       492      2730      3601
 -1      4470    3    0    1
 -2      1023       213      2347      2348
 -1      4471    3    0    1
 -2       176       419       989      2505
 -1      4472    3    0    1
 -2       415      1021      1022      2348
 -1      4473    3    0    1
 -2      2347      1020       213       331
 -1      4474    3    0    1
 -2      1020      2347       213      2348
 -1      4475    3    0    1
 -2       429      1010      2048      2414
 -1      4476    3    0    1
 -2      1010      1006      2048      2359
 -1      4477    3    0    1
 -2      2142      2186      2257      2359
 -1      4478    3    0    1
 -2      2437      2511      2167      2200
 -1      4479    3    0    1
 -2       694      1006      1010      2359
 -1      4480    3    0    1
 -2       135       968       969      2430
 -1      4481    3    0    1
 -2       135      2171      2248      2430
 -1      4482    3    0    1
 -2      2171       140      2412      2430
 -1      4483    3    0    1
 -2       994       671      2282      2547
 -1      4484    3    0    1
 -2       968       135      2248      2430
 -1      4485    3    0    1
 -2      1253      1747      3129      3383
 -1      4486    3    0    1
 -2       269       391      2155      2353
 -1      4487    3    0    1
 -2       391       269      1049      2353
 -1      4488    3    0    1
 -2      1049       269      2155      2353
 -1      4489    3    0    1
 -2      2268      2219      2365      2412
 -1      4490    3    0    1
 -2      2171       604      2365      2412
 -1      4491    3    0    1
 -2      1329       792      2097      2353
 -1      4492    3    0    1
 -2       272       391      1329      2353
 -1      4493    3    0    1
 -2       272      1329      2097      2353
 -1      4494    3    0    1
 -2      3819      1545      3942      3729
 -1      4495    3    0    1
 -2      1496      1662      3205      3210
 -1      4496    3    0    1
 -2      2148      1362      2502      2503
 -1      4497    3    0    1
 -2       599       960       961      2574
 -1      4498    3    0    1
 -2       891      1403      2109      2450
 -1      4499    3    0    1
 -2      1332      2137      2319      2564
 -1      4500    3    0    1
 -2       962       967      3792      2020
 -1      4501    3    0    1
 -2       594       586       959      2530
 -1      4502    3    0    1
 -2       586      2129      2364      2530
 -1      4503    3    0    1
 -2       341      2043      2118      2401
 -1      4504    3    0    1
 -2      1009      1306      2727      3730
 -1      4505    3    0    1
 -2      2137      2161      2434      2554
 -1      4506    3    0    1
 -2       555       943      1334      2418
 -1      4507    3    0    1
 -2      1753      1752      1944      3596
 -1      4508    3    0    1
 -2       391       269      2155      2496
 -1      4509    3    0    1
 -2      3818      1008      3849      3945
 -1      4510    3    0    1
 -2       666      1305      2483      2544
 -1      4511    3    0    1
 -2       414       982      1300      2405
 -1      4512    3    0    1
 -2      1327      1051       789      2355
 -1      4513    3    0    1
 -2       770       789      2435      2436
 -1      4514    3    0    1
 -2       789      1041      1328      2436
 -1      4515    3    0    1
 -2       806       807      1331      2417
 -1      4516    3    0    1
 -2      1517      3093      1840      3949
 -1      4517    3    0    1
 -2      3420      1853      3492      3673
 -1      4518    3    0    1
 -2      2197       984      2487      2524
 -1      4519    3    0    1
 -2      1071       945      2308      2549
 -1      4520    3    0    1
 -2       807      1060      1327      2355
 -1      4521    3    0    1
 -2       288      2510      2553      2554
 -1      4522    3    0    1
 -2       562       550      1169      2599
 -1      4523    3    0    1
 -2       788       807      1327      2355
 -1      4524    3    0    1
 -2      3478       450      2009      2010
 -1      4525    3    0    1
 -2      2875      1458      2883      3879
 -1      4526    3    0    1
 -2       788      1050      1331      2355
 -1      4527    3    0    1
 -2      2118      2072      2220      2401
 -1      4528    3    0    1
 -2       807       788      1331      2355
 -1      4529    3    0    1
 -2      2245       204      2397      2493
 -1      4530    3    0    1
 -2      1117      1407      2393      2557
 -1      4531    3    0    1
 -2      2119      2068      2238      2470
 -1      4532    3    0    1
 -2       345       414      1300      2405
 -1      4533    3    0    1
 -2       982       646      1300      2405
 -1      4534    3    0    1
 -2       789      1051      2435      2436
 -1      4535    3    0    1
 -2       789       788      2355      2436
 -1      4536    3    0    1
 -2      2847       147      3766      3776
 -1      4537    3    0    1
 -2       586       956      2264      2364
 -1      4538    3    0    1
 -2       360      1287      2100      2364
 -1      4539    3    0    1
 -2      2100      1287      2264      2364
 -1      4540    3    0    1
 -2       607       610       964      2459
 -1      4541    3    0    1
 -2      2172      2295      2332      2366
 -1      4542    3    0    1
 -2      2044      2123      2306      2478
 -1      4543    3    0    1
 -2       971       622      2295      2366
 -1      4544    3    0    1
 -2      2295       622      2332      2366
 -1      4545    3    0    1
 -2      2151      2141      2338      2498
 -1      4546    3    0    1
 -2      1028      2136      2152      2429
 -1      4547    3    0    1
 -2       146       364       971      2366
 -1      4548    3    0    1
 -2       364       977       985      2366
 -1      4549    3    0    1
 -2       365       364       985      2366
 -1      4550    3    0    1
 -2       971       364      2332      2366
 -1      4551    3    0    1
 -2       622       971      2332      2366
 -1      4552    3    0    1
 -2       738      1317      2413      2429
 -1      4553    3    0    1
 -2      1479      1480      2944      3007
 -1      4554    3    0    1
 -2       664       661       991      2490
 -1      4555    3    0    1
 -2      1294       964      2459      2620
 -1      4556    3    0    1
 -2      1285       949       571      2369
 -1      4557    3    0    1
 -2       719       713      1021      2639
 -1      4558    3    0    1
 -2      2195      2230      2234      2439
 -1      4559    3    0    1
 -2       571      2042      2214      2369
 -1      4560    3    0    1
 -2       571       949      2042      2369
 -1      4561    3    0    1
 -2       953       569       954      2596
 -1      4562    3    0    1
 -2      2230       749      2234      2439
 -1      4563    3    0    1
 -2      2319       388      2539      2540
 -1      4564    3    0    1
 -2      2840      1450      1679      3246
 -1      4565    3    0    1
 -2      1049       785      1329      2538
 -1      4566    3    0    1
 -2       756       749      1036      2439
 -1      4567    3    0    1
 -2       797       780      2265      2373
 -1      4568    3    0    1
 -2      2651       996       671       993
 -1      4569    3    0    1
 -2      2047       272       260      2097
 -1      4570    3    0    1
 -2       743      2320      2376      2458
 -1      4571    3    0    1
 -2      1030       226      2444      2458
 -1      4572    3    0    1
 -2      1846       431      3853      3894
 -1      4573    3    0    1
 -2       241       229      1037      2513
 -1      4574    3    0    1
 -2       743      1030      2320      2458
 -1      4575    3    0    1
 -2       226      1030      1031      2458
 -1      4576    3    0    1
 -2       260      1046      1054      2373
 -1      4577    3    0    1
 -2      1046       797      1054      2373
 -1      4578    3    0    1
 -2       272       260      1054      2373
 -1      4579    3    0    1
 -2       780       797      1046      2373
 -1      4580    3    0    1
 -2       272      2047       260      2373
 -1      4581    3    0    1
 -2      1445      1446      2775      3495
 -1      4582    3    0    1
 -2      3114      3453      3970      3979
 -1      4583    3    0    1
 -2      1600      3293      3906      3600
 -1      4584    3    0    1
 -2      1539      1538      3073      3320
 -1      4585    3    0    1
 -2      2169       581      2233      2455
 -1      4586    3    0    1
 -2      2375       738      2413      2445
 -1      4587    3    0    1
 -2       731      1025      2304      2375
 -1      4588    3    0    1
 -2      3823      3529      3594      1987
 -1      4589    3    0    1
 -2      2096      2068      2266      2475
 -1      4590    3    0    1
 -2       346       255      1044      2480
 -1      4591    3    0    1
 -2       944      2111      2143      2377
 -1      4592    3    0    1
 -2       558       944      2143      2522
 -1      4593    3    0    1
 -2      2738      3848      3851      3940
 -1      4594    3    0    1
 -2       380      1333      2111      2377
 -1      4595    3    0    1
 -2       991      1303      2147      2490
 -1      4596    3    0    1
 -2      2323      2177      2507      2544
 -1      4597    3    0    1
 -2      1069       383      2064      2379
 -1      4598    3    0    1
 -2      2064       383      2236      2379
 -1      4599    3    0    1
 -2      2089      2061      2091      2465
 -1      4600    3    0    1
 -2       382       287      1071      2553
 -1      4601    3    0    1
 -2       371       948      2183      2392
 -1      4602    3    0    1
 -2       552      2194      2447      2466
 -1      4603    3    0    1
 -2      2089      1278      2167      2380
 -1      4604    3    0    1
 -2       375      1278      2089      2380
 -1      4605    3    0    1
 -2      1278       549      2167      2380
 -1      4606    3    0    1
 -2       375      2089      2091      2380
 -1      4607    3    0    1
 -2      2167       951      2184      2511
 -1      4608    3    0    1
 -2      2082      2154      2275      2381
 -1      4609    3    0    1
 -2      2082      2095      2154      2381
 -1      4610    3    0    1
 -2      2137       283      2554      2555
 -1      4611    3    0    1
 -2      2716       573      1279       950
 -1      4612    3    0    1
 -2       961      2129       120      2382
 -1      4613    3    0    1
 -2      2081      2209      2344      2441
 -1      4614    3    0    1
 -2      1395      1392      2209      2441
 -1      4615    3    0    1
 -2      1399       304       435      2383
 -1      4616    3    0    1
 -2      1119      1408      2313      2441
 -1      4617    3    0    1
 -2       435       304      1370      2383
 -1      4618    3    0    1
 -2      2209      1392      2344      2441
 -1      4619    3    0    1
 -2       304      1399      1127      2383
 -1      4620    3    0    1
 -2      1370       304      1371      2383
 -1      4621    3    0    1
 -2       396      1033      1321      2384
 -1      4622    3    0    1
 -2      2210      1127      2383      2440
 -1      4623    3    0    1
 -2       340       241      1037      2384
 -1      4624    3    0    1
 -2      1461      1460      1547      3393
 -1      4625    3    0    1
 -2      2048       429      2414      2527
 -1      4626    3    0    1
 -2       816      2510      2555      2558
 -1      4627    3    0    1
 -2       948       371      2183      2422
 -1      4628    3    0    1
 -2       568      2212      2398      2422
 -1      4629    3    0    1
 -2       396       340      1038      2384
 -1      4630    3    0    1
 -2       340      1037      1038      2384
 -1      4631    3    0    1
 -2       372      2169      2330      2422
 -1      4632    3    0    1
 -2      2240      1286      2398      2422
 -1      4633    3    0    1
 -2      1321      2384      2439      2515
 -1      4634    3    0    1
 -2       429      2226      2275      2527
 -1      4635    3    0    1
 -2      1079       845      2286      2516
 -1      4636    3    0    1
 -2       762      2324      2421      2514
 -1      4637    3    0    1
 -2      1037      1031      2252      2513
 -1      4638    3    0    1
 -2       129       134      1661      3416
 -1      4639    3    0    1
 -2       862       861      2333      2389
 -1      4640    3    0    1
 -2       260       259      2373      2457
 -1      4641    3    0    1
 -2      1377       861       862      2389
 -1      4642    3    0    1
 -2       861      1377      1091      2389
 -1      4643    3    0    1
 -2      2234       774      2338      2520
 -1      4644    3    0    1
 -2      1091      2053      2333      2389
 -1      4645    3    0    1
 -2       861      1091      2333      2389
 -1      4646    3    0    1
 -2      1040       767      1326      2520
 -1      4647    3    0    1
 -2       269      1054      1055      2496
 -1      4648    3    0    1
 -2      1375       860      2362      2390
 -1      4649    3    0    1
 -2      2192      1375      2362      2390
 -1      4650    3    0    1
 -2       301      1375       307      2390
 -1      4651    3    0    1
 -2       307      1375      2192      2390
 -1      4652    3    0    1
 -2      2089      2091      2380      2391
 -1      4653    3    0    1
 -2      2214       571      2369      2466
 -1      4654    3    0    1
 -2       594      1290      2183      2392
 -1      4655    3    0    1
 -2      2044      2269      2285      2396
 -1      4656    3    0    1
 -2       568      2123      2212      2392
 -1      4657    3    0    1
 -2      2183       948      2212      2392
 -1      4658    3    0    1
 -2       948       568      2212      2392
 -1      4659    3    0    1
 -2       661      1303      2399      2517
 -1      4660    3    0    1
 -2       681       661      2399      2517
 -1      4661    3    0    1
 -2      1407       885      1117      2393
 -1      4662    3    0    1
 -2      2287      2075      2288      2393
 -1      4663    3    0    1
 -2      1303      2147      2490      2517
 -1      4664    3    0    1
 -2       895      1407      2287      2393
 -1      4665    3    0    1
 -2       885      1407       895      2393
 -1      4666    3    0    1
 -2        95       947      3991      2033
 -1      4667    3    0    1
 -2      3463      2651       996      2586
 -1      4668    3    0    1
 -2      1000       681      2213      2517
 -1      4669    3    0    1
 -2      1588      3109      1823      1822
 -1      4670    3    0    1
 -2       594      2123      2392      2395
 -1      4671    3    0    1
 -2      2044      2285      2306      2396
 -1      4672    3    0    1
 -2      2145      2285      2354      2396
 -1      4673    3    0    1
 -2      2058      2145      2354      2396
 -1      4674    3    0    1
 -2      2285      2058      2306      2396
 -1      4675    3    0    1
 -2      2145      2058      2285      2396
 -1      4676    3    0    1
 -2      1007       694      2245      2397
 -1      4677    3    0    1
 -2      2245       694      2359      2397
 -1      4678    3    0    1
 -2       694      2186      2359      2397
 -1      4679    3    0    1
 -2       216       428      2302      2397
 -1      4680    3    0    1
 -2      2239       216      2302      2397
 -1      4681    3    0    1
 -2      1007       428      2239      2397
 -1      4682    3    0    1
 -2       204       428      1007      2397
 -1      4683    3    0    1
 -2       694      1007      2239      2397
 -1      4684    3    0    1
 -2       428       216      2239      2397
 -1      4685    3    0    1
 -2       357       108      2208      2398
 -1      4686    3    0    1
 -2      2208       108      2212      2398
 -1      4687    3    0    1
 -2       108      1283      2212      2398
 -1      4688    3    0    1
 -2       108       951      1283      2398
 -1      4689    3    0    1
 -2       108       357       951      2398
 -1      4690    3    0    1
 -2      1286       948       568      2398
 -1      4691    3    0    1
 -2      1594       250      3006      3996
 -1      4692    3    0    1
 -2       385      2064      2325      2518
 -1      4693    3    0    1
 -2      1361      1080      2162      2420
 -1      4694    3    0    1
 -2      1351      2216      2371      2406
 -1      4695    3    0    1
 -2       803      1057      2271      2518
 -1      4696    3    0    1
 -2      2101       983      2251      2428
 -1      4697    3    0    1
 -2       326       302      1353      2431
 -1      4698    3    0    1
 -2      2137       803      2271      2518
 -1      4699    3    0    1
 -2      1620      1741      3910      3748
 -1      4700    3    0    1
 -2       826       819      2474      2481
 -1      4701    3    0    1
 -2       846      1357      2286      2427
 -1      4702    3    0    1
 -2       983      2101      2172      2428
 -1      4703    3    0    1
 -2       385      2325      2453      2518
 -1      4704    3    0    1
 -2      2161       803      2434      2518
 -1      4705    3    0    1
 -2      1064      2510      2554      2555
 -1      4706    3    0    1
 -2      2064      2161      2379      2434
 -1      4707    3    0    1
 -2       803      2137      2161      2434
 -1      4708    3    0    1
 -2       826      2161      2339      2434
 -1      4709    3    0    1
 -2       881      1403       891      2450
 -1      4710    3    0    1
 -2       983       979      2126      2428
 -1      4711    3    0    1
 -2       681       661       990      2399
 -1      4712    3    0    1
 -2       146       977      2533      3775
 -1      4713    3    0    1
 -2      2325      2064      2434      2518
 -1      4714    3    0    1
 -2       681       990      1307      2399
 -1      4715    3    0    1
 -2       943      2418      2992      3829
 -1      4716    3    0    1
 -2      1057       385      2271      2518
 -1      4717    3    0    1
 -2       664       643      2416      2490
 -1      4718    3    0    1
 -2       806       807      2417      2449
 -1      4719    3    0    1
 -2       117      2233      2691      3781
 -1      4720    3    0    1
 -2      1858      1542      3889      3731
 -1      4721    3    0    1
 -2      2317       211      2350      2485
 -1      4722    3    0    1
 -2      3073      1538      1785      3861
 -1      4723    3    0    1
 -2       807       806      1060      2449
 -1      4724    3    0    1
 -2      1563      1562      3019      1715
 -1      4725    3    0    1
 -2       798       797      1056      2492
 -1      4726    3    0    1
 -2      2242      2053      2329      2456
 -1      4727    3    0    1
 -2       217      2302      2348      2499
 -1      4728    3    0    1
 -2       690       689      1004      2657
 -1      4729    3    0    1
 -2        96       379       941      2491
 -1      4730    3    0    1
 -2      2111       378      2402      2522
 -1      4731    3    0    1
 -2      2139      2286      2317      2485
 -1      4732    3    0    1
 -2       587      1184      2567      2574
 -1      4733    3    0    1
 -2       414      2405      2521      2524
 -1      4734    3    0    1
 -2      3786      3807      3816      4003
 -1      4735    3    0    1
 -2      2143      2377      2479      2522
 -1      4736    3    0    1
 -2       549       941      2200      2410
 -1      4737    3    0    1
 -2       252       259      1040      2457
 -1      4738    3    0    1
 -2      2170      2052      2408      2409
 -1      4739    3    0    1
 -2      1368       853       854      2409
 -1      4740    3    0    1
 -2      1365      2170      2408      2409
 -1      4741    3    0    1
 -2       853      1365      2408      2409
 -1      4742    3    0    1
 -2       853      1368      1365      2409
 -1      4743    3    0    1
 -2      1278       375      2107      2410
 -1      4744    3    0    1
 -2      2107       375      2380      2410
 -1      4745    3    0    1
 -2       290      2748      3829      1804
 -1      4746    3    0    1
 -2        20      1844      3503      2003
 -1      4747    3    0    1
 -2      2339       826      2474      2481
 -1      4748    3    0    1
 -2      1336      1066       826      2481
 -1      4749    3    0    1
 -2      2143      1066      2308      2481
 -1      4750    3    0    1
 -2      1671      2734      3128      3644
 -1      4751    3    0    1
 -2       943      1334      2418      2762
 -1      4752    3    0    1
 -2       223      1024      2201      2445
 -1      4753    3    0    1
 -2      2815      2848      3924      3954
 -1      4754    3    0    1
 -2       362       969      2105      2430
 -1      4755    3    0    1
 -2       563       832      2334      2549
 -1      4756    3    0    1
 -2      1010      2203      2328      2414
 -1      4757    3    0    1
 -2      2154      2180      2203      2414
 -1      4758    3    0    1
 -2      2203      2180      2328      2414
 -1      4759    3    0    1
 -2      2154       429      2275      2414
 -1      4760    3    0    1
 -2      1010       429      2154      2414
 -1      4761    3    0    1
 -2      1010      2154      2203      2414
 -1      4762    3    0    1
 -2      1062       278      1065      2415
 -1      4763    3    0    1
 -2      1403       881      1109      2450
 -1      4764    3    0    1
 -2       267      1051      1327      2529
 -1      4765    3    0    1
 -2       576       951      2167      2511
 -1      4766    3    0    1
 -2       881       891      2109      2450
 -1      4767    3    0    1
 -2       439       436      1109      2450
 -1      4768    3    0    1
 -2       349       278      1062      2415
 -1      4769    3    0    1
 -2       881      2109      2227      2450
 -1      4770    3    0    1
 -2       343       980      2446      2544
 -1      4771    3    0    1
 -2      3070       406      3828      3990
 -1      4772    3    0    1
 -2      2415       816      2555      2558
 -1      4773    3    0    1
 -2      1012       424      2303      2493
 -1      4774    3    0    1
 -2      3181      3070      3953      3990
 -1      4775    3    0    1
 -2       436       439      2307      2450
 -1      4776    3    0    1
 -2      1013       708      2387      2493
 -1      4777    3    0    1
 -2      2187      2115      2227      2450
 -1      4778    3    0    1
 -2      1036      2515      2439      2526
 -1      4779    3    0    1
 -2      2043      1318      2439      2526
 -1      4780    3    0    1
 -2      1327      1051      2355      2529
 -1      4781    3    0    1
 -2      2355      1051      2436      2529
 -1      4782    3    0    1
 -2       636       978      2340      4029
 -1      4783    3    0    1
 -2      2089      2184      2380      2511
 -1      4784    3    0    1
 -2      2184       576      2398      2511
 -1      4785    3    0    1
 -2      1403      2065      2109      2450
 -1      4786    3    0    1
 -2       749      1033      2195      2763
 -1      4787    3    0    1
 -2       403       126      1290      2419
 -1      4788    3    0    1
 -2       374       303      1096      2420
 -1      4789    3    0    1
 -2       374      1096      2215      2420
 -1      4790    3    0    1
 -2       767      2047      2495      2520
 -1      4791    3    0    1
 -2      1082       850      2148      2502
 -1      4792    3    0    1
 -2       226       398      2444      2458
 -1      4793    3    0    1
 -2       256       394      1038      2421
 -1      4794    3    0    1
 -2      1038       762      1045      2421
 -1      4795    3    0    1
 -2       256      1038      1045      2421
 -1      4796    3    0    1
 -2       762       779      1045      2421
 -1      4797    3    0    1
 -2       568       948      2212      2422
 -1      4798    3    0    1
 -2       111       948      1286      2422
 -1      4799    3    0    1
 -2       111      1286      2240      2422
 -1      4800    3    0    1
 -2       371       372      2330      2422
 -1      4801    3    0    1
 -2      2183       371      2330      2422
 -1      4802    3    0    1
 -2       372       371       948      2422
 -1      4803    3    0    1
 -2      2161       826      2379      2434
 -1      4804    3    0    1
 -2       576      2167      2240      2511
 -1      4805    3    0    1
 -2      1591      1590      2990      3138
 -1      4806    3    0    1
 -2      1045       779      1046      2519
 -1      4807    3    0    1
 -2       381      1281      2479      2559
 -1      4808    3    0    1
 -2       256       252      2457      2519
 -1      4809    3    0    1
 -2       252       256      1045      2519
 -1      4810    3    0    1
 -2       798      1055      2496      2560
 -1      4811    3    0    1
 -2      1333      2111      2377      2489
 -1      4812    3    0    1
 -2      1562      2843      1714      1715
 -1      4813    3    0    1
 -2      1589      1588      1799      3322
 -1      4814    3    0    1
 -2      1036      1318      2043      2526
 -1      4815    3    0    1
 -2      2139      2317      2350      2485
 -1      4816    3    0    1
 -2       697      1310      1008      2424
 -1      4817    3    0    1
 -2      1002       689      2272      2451
 -1      4818    3    0    1
 -2       457      2617      2618      2726
 -1      4819    3    0    1
 -2       690       689      1002      2451
 -1      4820    3    0    1
 -2      2339       288      2553      2554
 -1      4821    3    0    1
 -2       681      1307      2433      2663
 -1      4822    3    0    1
 -2      3786      1497      3795      3816
 -1      4823    3    0    1
 -2       807      2355      2417      2449
 -1      4824    3    0    1
 -2      2510      1064      2554      1070
 -1      4825    3    0    1
 -2      1310       697       699      2424
 -1      4826    3    0    1
 -2      2325      2064      2379      2434
 -1      4827    3    0    1
 -2       288       384      1070      2510
 -1      4828    3    0    1
 -2       717      1008      1313      2424
 -1      4829    3    0    1
 -2       826      2339      2379      2434
 -1      4830    3    0    1
 -2      1011       707      1014      3747
 -1      4831    3    0    1
 -2      2195       256      2457      2519
 -1      4832    3    0    1
 -2       717       697      1008      2424
 -1      4833    3    0    1
 -2       278      1060      1330      2449
 -1      4834    3    0    1
 -2      1489      1488      1584      3311
 -1      4835    3    0    1
 -2       204      1012      1013      2493
 -1      4836    3    0    1
 -2      1330      1060       806      2449
 -1      4837    3    0    1
 -2       563      2334      2426      2549
 -1      4838    3    0    1
 -2      1000      1303      2517      2777
 -1      4839    3    0    1
 -2      1002       187      1005      2451
 -1      4840    3    0    1
 -2       823       806      2400      2449
 -1      4841    3    0    1
 -2       715       735      1312      2432
 -1      4842    3    0    1
 -2      2308      2143      2481      2489
 -1      4843    3    0    1
 -2       735      1027      1312      2432
 -1      4844    3    0    1
 -2      2111      2143      2377      2489
 -1      4845    3    0    1
 -2      1034       234      3782      1922
 -1      4846    3    0    1
 -2      1307       999       681      2433
 -1      4847    3    0    1
 -2       707      1012      1013      2664
 -1      4848    3    0    1
 -2      2593      2918      3912      4010
 -1      4849    3    0    1
 -2       997       425      2361      2509
 -1      4850    3    0    1
 -2       681      2213      2399      2433
 -1      4851    3    0    1
 -2       681       679      2213      2433
 -1      4852    3    0    1
 -2       679       681       999      2433
 -1      4853    3    0    1
 -2      1302       980       640      2507
 -1      4854    3    0    1
 -2       679       999      1310      2433
 -1      4855    3    0    1
 -2       699       679      1310      2433
 -1      4856    3    0    1
 -2       770      1051      1324      2435
 -1      4857    3    0    1
 -2       187      1000      2213      3882
 -1      4858    3    0    1
 -2      2710       173      3835      3882
 -1      4859    3    0    1
 -2       770       789      1051      2435
 -1      4860    3    0    1
 -2       187      3014      3835      3882
 -1      4861    3    0    1
 -2      2167       401      2240      2437
 -1      4862    3    0    1
 -2      2437      2511      2240      2167
 -1      4863    3    0    1
 -2       103       946       953      2437
 -1      4864    3    0    1
 -2       401       103       953      2437
 -1      4865    3    0    1
 -2       103       401      2167      2437
 -1      4866    3    0    1
 -2      2058      2148      2173      2502
 -1      4867    3    0    1
 -2      1439      1655      1656      2967
 -1      4868    3    0    1
 -2      3810      3855      3917      3922
 -1      4869    3    0    1
 -2       762       761      1322      2514
 -1      4870    3    0    1
 -2      2139      2075      2286      2516
 -1      4871    3    0    1
 -2      2286       845      2427      2516
 -1      4872    3    0    1
 -2      1321      1033       756      2439
 -1      4873    3    0    1
 -2      2383      1371      2094      2440
 -1      4874    3    0    1
 -2      1371      2383      2094      1370
 -1      4875    3    0    1
 -2       441      1392      1395      2441
 -1      4876    3    0    1
 -2      1392       442      2344      2441
 -1      4877    3    0    1
 -2       441       442      1392      2441
 -1      4878    3    0    1
 -2      1119       441      1408      2441
 -1      4879    3    0    1
 -2       442      1119      2344      2441
 -1      4880    3    0    1
 -2       442       441      1119      2441
 -1      4881    3    0    1
 -2      1119      2313      2344      2441
 -1      4882    3    0    1
 -2      2431      1086      2146      2442
 -1      4883    3    0    1
 -2      1086      2431      2146      1374
 -1      4884    3    0    1
 -2      2168      2146      2258      2442
 -1      4885    3    0    1
 -2      1086       857      2146      2442
 -1      4886    3    0    1
 -2      2146       857      2258      2442
 -1      4887    3    0    1
 -2       653       636      2197      2533
 -1      4888    3    0    1
 -2      1792      1791      3292      3339
 -1      4889    3    0    1
 -2      2285      2044      2306      2478
 -1      4890    3    0    1
 -2       594       959      2123      2478
 -1      4891    3    0    1
 -2       563      2549      3765      4030
 -1      4892    3    0    1
 -2       373       959      2407      2478
 -1      4893    3    0    1
 -2       373      2269      2285      2478
 -1      4894    3    0    1
 -2       224      1032      2039      3768
 -1      4895    3    0    1
 -2       636      2340      3770      4029
 -1      4896    3    0    1
 -2       738       731      1028      2445
 -1      4897    3    0    1
 -2       251      1043      1323      2495
 -1      4898    3    0    1
 -2       643      2405      2416      2490
 -1      4899    3    0    1
 -2       125       962      2310      2020
 -1      4900    3    0    1
 -2      2346       392      2495      2498
 -1      4901    3    0    1
 -2      1312      1018      2432      2551
 -1      4902    3    0    1
 -2       392       251      2495      2498
 -1      4903    3    0    1
 -2       251      2338      2495      2498
 -1      4904    3    0    1
 -2       382      1071      2308      2553
 -1      4905    3    0    1
 -2      2114       251      2346      2498
 -1      4906    3    0    1
 -2      2141      2114      2176      2498
 -1      4907    3    0    1
 -2      2568      2632      2984      3805
 -1      4908    3    0    1
 -2       388       276      2319      2564
 -1      4909    3    0    1
 -2      2672      3040      3823      3529
 -1      4910    3    0    1
 -2       342       343       980      2446
 -1      4911    3    0    1
 -2       664       991      1300      2490
 -1      4912    3    0    1
 -2      2286      2076      2427      2562
 -1      4913    3    0    1
 -2       160       980      1302      2507
 -1      4914    3    0    1
 -2      1285       942      2369      2466
 -1      4915    3    0    1
 -2      1384      2119      2238      2470
 -1      4916    3    0    1
 -2       211      2343      2350      2485
 -1      4917    3    0    1
 -2      2377      2143      2479      2489
 -1      4918    3    0    1
 -2      2143      2308      2479      2489
 -1      4919    3    0    1
 -2      2143       819      2481      2489
 -1      4920    3    0    1
 -2      1333       819      2143      2489
 -1      4921    3    0    1
 -2      2266      2068      2283      2470
 -1      4922    3    0    1
 -2      1049      1329      2353      2538
 -1      4923    3    0    1
 -2      2184      2089      2380      2465
 -1      4924    3    0    1
 -2      2061      2290      2391      2465
 -1      4925    3    0    1
 -2      1304       661       990      3798
 -1      4926    3    0    1
 -2       144       159      1897      1914
 -1      4927    3    0    1
 -2      2874      3239      3872      3578
 -1      4928    3    0    1
 -2       946       953      2437      2455
 -1      4929    3    0    1
 -2      2237       946      2437      2455
 -1      4930    3    0    1
 -2       564       946      2237      2455
 -1      4931    3    0    1
 -2      1484      1485      2949      3082
 -1      4932    3    0    1
 -2       581       564       952      2455
 -1      4933    3    0    1
 -2       946       581       953      2455
 -1      4934    3    0    1
 -2       564       581       946      2455
 -1      4935    3    0    1
 -2       564       947       952      2455
 -1      4936    3    0    1
 -2      2053       363      2408      2456
 -1      4937    3    0    1
 -2       363       321      1366      2456
 -1      4938    3    0    1
 -2       363      1366      2408      2456
 -1      4939    3    0    1
 -2      1091       363      2053      2456
 -1      4940    3    0    1
 -2       321       363      1091      2456
 -1      4941    3    0    1
 -2       321      1091      1377      2456
 -1      4942    3    0    1
 -2      2338       774      2495      2520
 -1      4943    3    0    1
 -2      1336       826      2339      2481
 -1      4944    3    0    1
 -2      1062      2528      2415       815
 -1      4945    3    0    1
 -2      3796      1620      3836      3908
 -1      4946    3    0    1
 -2      1040      1326      2457      2520
 -1      4947    3    0    1
 -2      2410       558      2479      2522
 -1      4948    3    0    1
 -2      2195      1326      2234      2520
 -1      4949    3    0    1
 -2       278      2415      2449      2780
 -1      4950    3    0    1
 -2      3798      2742      3251      4025
 -1      4951    3    0    1
 -2       256      2195      2457      2520
 -1      4952    3    0    1
 -2      1380      1381      2283      2537
 -1      4953    3    0    1
 -2      1380       318      1381      2537
 -1      4954    3    0    1
 -2      3374      3065      3890      3967
 -1      4955    3    0    1
 -2       343      2446      2483      2544
 -1      4956    3    0    1
 -2      2543       646      2684      3097
 -1      4957    3    0    1
 -2      2405       345      2521      2779
 -1      4958    3    0    1
 -2       607       964      1298      2459
 -1      4959    3    0    1
 -2       533       534       714      2639
 -1      4960    3    0    1
 -2       628       607      1298      2459
 -1      4961    3    0    1
 -2      2893      1577      1771      3894
 -1      4962    3    0    1
 -2       967       136       970      2463
 -1      4963    3    0    1
 -2       617       618       969      2463
 -1      4964    3    0    1
 -2       969      2463      2105      2430
 -1      4965    3    0    1
 -2       617       968      2248      2463
 -1      4966    3    0    1
 -2      2248       968      2430      2463
 -1      4967    3    0    1
 -2       968       969      2430      2463
 -1      4968    3    0    1
 -2       968       617       969      2463
 -1      4969    3    0    1
 -2       595       591      1186      3194
 -1      4970    3    0    1
 -2      2781      3230      3926      3997
 -1      4971    3    0    1
 -2       734       753      1035      2464
 -1      4972    3    0    1
 -2       734      1035      1315      2464
 -1      4973    3    0    1
 -2       573       552       942      2466
 -1      4974    3    0    1
 -2       573       942      1285      2466
 -1      4975    3    0    1
 -2      1983      1982      3720      3726
 -1      4976    3    0    1
 -2      2076       211      2317      2485
 -1      4977    3    0    1
 -2       392       251      1323      2495
 -1      4978    3    0    1
 -2      1620      3910      3993      3748
 -1      4979    3    0    1
 -2      2749      3228      3873      3988
 -1      4980    3    0    1
 -2      3228      3017      3873      3988
 -1      4981    3    0    1
 -2       542       541      2662      2664
 -1      4982    3    0    1
 -2       699      2424      2508      2727
 -1      4983    3    0    1
 -2      3876      3177      3385      3655
 -1      4984    3    0    1
 -2      1538      1539      3073      1786
 -1      4985    3    0    1
 -2      1495      1494      1833      3330
 -1      4986    3    0    1
 -2      1684      1683      3410      3458
 -1      4987    3    0    1
 -2       767      2047      2352      2495
 -1      4988    3    0    1
 -2      1272       695       937      2664
 -1      4989    3    0    1
 -2      2919      3188      3912      3548
 -1      4990    3    0    1
 -2       976      2105      2443      2532
 -1      4991    3    0    1
 -2      1447      1828      3566      3966
 -1      4992    3    0    1
 -2       311      1382       319      2471
 -1      4993    3    0    1
 -2      1382       868      2274      2471
 -1      4994    3    0    1
 -2      1382       867       868      2471
 -1      4995    3    0    1
 -2       868      2266      2274      2471
 -1      4996    3    0    1
 -2      2098      2341      2539      2540
 -1      4997    3    0    1
 -2      1332       388      2319      2540
 -1      4998    3    0    1
 -2       388       271      2539      2540
 -1      4999    3    0    1
 -2      1048       785      2098      2472
 -1      5000    3    0    1
 -2      1048      2098      2134      2472
 -1      5001    3    0    1
 -2       271      1049      2539      2540
 -1      5002    3    0    1
 -2      1333      1069       819      2474
 -1      5003    3    0    1
 -2      1069      2104      2379      2474
 -1      5004    3    0    1
 -2      1069      1333      2104      2474
 -1      5005    3    0    1
 -2      2220      1024      2386      2482
 -1      5006    3    0    1
 -2       826       819      1069      2474
 -1      5007    3    0    1
 -2       826      1069      2379      2474
 -1      5008    3    0    1
 -2      2339       826      2379      2474
 -1      5009    3    0    1
 -2      2164       392      2346      2475
 -1      5010    3    0    1
 -2      2096       392      2164      2475
 -1      5011    3    0    1
 -2      2483       344      2505      2563
 -1      5012    3    0    1
 -2       343       344      2483      2563
 -1      5013    3    0    1
 -2       176      2282      2505      2563
 -1      5014    3    0    1
 -2      2076      2343      2485      2542
 -1      5015    3    0    1
 -2      2084      2313      2343      2542
 -1      5016    3    0    1
 -2       630       622      2295      2477
 -1      5017    3    0    1
 -2      2340       975      2372      4029
 -1      5018    3    0    1
 -2      2123       373      2306      2478
 -1      5019    3    0    1
 -2       373      2285      2306      2478
 -1      5020    3    0    1
 -2       941      2200      2410      2479
 -1      5021    3    0    1
 -2       797      1053      1056      2492
 -1      5022    3    0    1
 -2       549       941      2410      2479
 -1      5023    3    0    1
 -2       941       549      1281      2479
 -1      5024    3    0    1
 -2       381      2143      2308      2479
 -1      5025    3    0    1
 -2      1281       558      2143      2479
 -1      5026    3    0    1
 -2       381      1281      2143      2479
 -1      5027    3    0    1
 -2      2643      3253      3255      3652
 -1      5028    3    0    1
 -2       779      1044      1047      2480
 -1      5029    3    0    1
 -2      1044       255      1047      2480
 -1      5030    3    0    1
 -2      1915      1916      1951      3683
 -1      5031    3    0    1
 -2       780      1047      2265      2480
 -1      5032    3    0    1
 -2       256      1326      2195      2520
 -1      5033    3    0    1
 -2       780       779      1047      2480
 -1      5034    3    0    1
 -2      2200       549      2380      2511
 -1      5035    3    0    1
 -2       819      1066      2143      2481
 -1      5036    3    0    1
 -2       287       382      1066      2481
 -1      5037    3    0    1
 -2      3349      2872      3926      3563
 -1      5038    3    0    1
 -2      1058       275      2137      2564
 -1      5039    3    0    1
 -2       569       580       954      2596
 -1      5040    3    0    1
 -2       129       134      1859      3922
 -1      5041    3    0    1
 -2      2068      2238      2470      2537
 -1      5042    3    0    1
 -2      1360       847      1359      2545
 -1      5043    3    0    1
 -2       314       376      2188      2545
 -1      5044    3    0    1
 -2       847       848      2486      2545
 -1      5045    3    0    1
 -2      2454      1032      2753      4004
 -1      5046    3    0    1
 -2      1333      2377      2474      2489
 -1      5047    3    0    1
 -2       819      1333      2474      2489
 -1      5048    3    0    1
 -2      2219      1299      2477      2532
 -1      5049    3    0    1
 -2       362      2219      2412      2532
 -1      5050    3    0    1
 -2       976       969      2105      2532
 -1      5051    3    0    1
 -2      2462      2085      2536      2546
 -1      5052    3    0    1
 -2      2270      2462      2536      2546
 -1      5053    3    0    1
 -2      1281       941      2479      2559
 -1      5054    3    0    1
 -2       984       345       987      2487
 -1      5055    3    0    1
 -2      2143       944      2377      2522
 -1      5056    3    0    1
 -2       944      2111      2377      2522
 -1      5057    3    0    1
 -2      2377      2111      2402      2522
 -1      5058    3    0    1
 -2       558      2143      2479      2522
 -1      5059    3    0    1
 -2       944       558      2410      2522
 -1      5060    3    0    1
 -2       414       345       984      2487
 -1      5061    3    0    1
 -2      2415       278      2449      2548
 -1      5062    3    0    1
 -2       349       278      2415      2548
 -1      5063    3    0    1
 -2      1960      3597      3609      3997
 -1      5064    3    0    1
 -2      3677      1692      2029      3745
 -1      5065    3    0    1
 -2      1667       134      3815      3260
 -1      5066    3    0    1
 -2        21      1908      1909      1932
 -1      5067    3    0    1
 -2       715      1017      1316      2488
 -1      5068    3    0    1
 -2       735       715      1316      2488
 -1      5069    3    0    1
 -2       643       664      1300      2490
 -1      5070    3    0    1
 -2       946      2237      2437      2491
 -1      5071    3    0    1
 -2       379       103      2200      2491
 -1      5072    3    0    1
 -2      2200       103      2437      2491
 -1      5073    3    0    1
 -2       342      2446      2507      2550
 -1      5074    3    0    1
 -2       342       160       985      2550
 -1      5075    3    0    1
 -2       342       986      2446      2550
 -1      5076    3    0    1
 -2       103       946      2437      2491
 -1      5077    3    0    1
 -2       103       379       946      2491
 -1      5078    3    0    1
 -2      2197       985      2533      2550
 -1      5079    3    0    1
 -2      2725      2270      3975      4011
 -1      5080    3    0    1
 -2       551      3402      2565       556
 -1      5081    3    0    1
 -2      1051      2435      2436      2529
 -1      5082    3    0    1
 -2      1055      2155      2496      2560
 -1      5083    3    0    1
 -2       832       563       945      2549
 -1      5084    3    0    1
 -2      3252      2847      3866      3766
 -1      5085    3    0    1
 -2      2172      2332      2428      2497
 -1      5086    3    0    1
 -2      3333      1810      3436      3906
 -1      5087    3    0    1
 -2      1055      1063      2155      2560
 -1      5088    3    0    1
 -2       269       391      1054      2496
 -1      5089    3    0    1
 -2       272      2353      2373      2496
 -1      5090    3    0    1
 -2       272       391      2353      2496
 -1      5091    3    0    1
 -2       391       272      1054      2496
 -1      5092    3    0    1
 -2      1054       272      2373      2496
 -1      5093    3    0    1
 -2      1018       717      2432      2551
 -1      5094    3    0    1
 -2       365      1302      2332      2497
 -1      5095    3    0    1
 -2      1302       648      2332      2497
 -1      5096    3    0    1
 -2       364       365      2332      2497
 -1      5097    3    0    1
 -2      2338       251      2495      1043
 -1      5098    3    0    1
 -2      3876      3293      3600      3966
 -1      5099    3    0    1
 -2      1022       415      2348      2499
 -1      5100    3    0    1
 -2      2320      1022      2348      2499
 -1      5101    3    0    1
 -2       419       176      2282      2505
 -1      5102    3    0    1
 -2      1305      2254      2483      2505
 -1      5103    3    0    1
 -2      2193       419      2282      2505
 -1      5104    3    0    1
 -2       220       415      1022      2499
 -1      5105    3    0    1
 -2      1030      2320      2444      2499
 -1      5106    3    0    1
 -2      1030      1022      2320      2499
 -1      5107    3    0    1
 -2       336      1030      2444      2499
 -1      5108    3    0    1
 -2       220       336      2349      2499
 -1      5109    3    0    1
 -2      2349       336      2444      2499
 -1      5110    3    0    1
 -2       336      1022      1030      2499
 -1      5111    3    0    1
 -2       336       220      1022      2499
 -1      5112    3    0    1
 -2      1288       965      2228      2501
 -1      5113    3    0    1
 -2       589      1288      2228      2501
 -1      5114    3    0    1
 -2       457       458      2617      2726
 -1      5115    3    0    1
 -2      1293       965       607      2501
 -1      5116    3    0    1
 -2       610       957      1294      2501
 -1      5117    3    0    1
 -2       589       610       965      2501
 -1      5118    3    0    1
 -2       610       589       957      2501
 -1      5119    3    0    1
 -2       589       965      1288      2501
 -1      5120    3    0    1
 -2       299       315      1082      2502
 -1      5121    3    0    1
 -2       217      1314      2358      2504
 -1      5122    3    0    1
 -2      2349       220      2499      2504
 -1      5123    3    0    1
 -2      2358       712      2500      2504
 -1      5124    3    0    1
 -2       299      1082      1362      2502
 -1      5125    3    0    1
 -2      2302       217      2358      2504
 -1      5126    3    0    1
 -2       220       415      2499      2504
 -1      5127    3    0    1
 -2       720       712      2358      2504
 -1      5128    3    0    1
 -2       712       720      1314      2504
 -1      5129    3    0    1
 -2      1314       720      2358      2504
 -1      5130    3    0    1
 -2       415       217      2499      2504
 -1      5131    3    0    1
 -2       217       415      1016      2504
 -1      5132    3    0    1
 -2       415       220      1016      2504
 -1      5133    3    0    1
 -2       278       349      2449      2548
 -1      5134    3    0    1
 -2       989      2193      2254      2505
 -1      5135    3    0    1
 -2      1305       989      2254      2505
 -1      5136    3    0    1
 -2       176       989      1305      2505
 -1      5137    3    0    1
 -2       344      1305      2483      2505
 -1      5138    3    0    1
 -2       344       176      1305      2505
 -1      5139    3    0    1
 -2      2238      1384      2470      2537
 -1      5140    3    0    1
 -2       521       643       646      2616
 -1      5141    3    0    1
 -2      2723      3010      3111      3912
 -1      5142    3    0    1
 -2      1457      1456      3106      1944
 -1      5143    3    0    1
 -2      2283      2266      2470      2537
 -1      5144    3    0    1
 -2       331      1018      1312      2551
 -1      5145    3    0    1
 -2       160       342       980      2507
 -1      5146    3    0    1
 -2       980       342      2446      2507
 -1      5147    3    0    1
 -2      1025      2304      2375      2513
 -1      5148    3    0    1
 -2      1009       699       697      2508
 -1      5149    3    0    1
 -2       697       699      2424      2508
 -1      5150    3    0    1
 -2       198       200      1009      2508
 -1      5151    3    0    1
 -2       907      3057      3876      3623
 -1      5152    3    0    1
 -2      2375      2304      2386      2513
 -1      5153    3    0    1
 -2      2075      2139      2327      2516
 -1      5154    3    0    1
 -2       832      1071      2510      2553
 -1      5155    3    0    1
 -2       287      2308      2481      2553
 -1      5156    3    0    1
 -2       241       340      1321      2513
 -1      5157    3    0    1
 -2       229       241      2304      2513
 -1      5158    3    0    1
 -2      1407      2287      2393      2557
 -1      5159    3    0    1
 -2      2075      2327      2393      2516
 -1      5160    3    0    1
 -2       241      1321      2304      2513
 -1      5161    3    0    1
 -2      2935      2749      3873      3988
 -1      5162    3    0    1
 -2       831       832      1071      2510
 -1      5163    3    0    1
 -2      2161      2339      2434      2554
 -1      5164    3    0    1
 -2       229      1031      2513      2556
 -1      5165    3    0    1
 -2      2137       283      2161      2554
 -1      5166    3    0    1
 -2      1336       288      2339      2554
 -1      5167    3    0    1
 -2      2161      1336      2339      2554
 -1      5168    3    0    1
 -2      1064       831      1070      2510
 -1      5169    3    0    1
 -2      2534      2469      2998      3241
 -1      5170    3    0    1
 -2       816       831      1064      2510
 -1      5171    3    0    1
 -2      1071       832      2334      2553
 -1      5172    3    0    1
 -2       283       275      1064      2555
 -1      5173    3    0    1
 -2      2334       832      2510      2553
 -1      5174    3    0    1
 -2       708      1014      2387      2512
 -1      5175    3    0    1
 -2       708       707      1014      2512
 -1      5176    3    0    1
 -2       708      2387      2493      2512
 -1      5177    3    0    1
 -2       707      1012      2303      2512
 -1      5178    3    0    1
 -2      2303      1012      2493      2512
 -1      5179    3    0    1
 -2       707       708      1013      2512
 -1      5180    3    0    1
 -2      1013       708      2493      2512
 -1      5181    3    0    1
 -2      1012       707      1013      2512
 -1      5182    3    0    1
 -2      1012      1013      2493      2512
 -1      5183    3    0    1
 -2       229      1031      1037      2513
 -1      5184    3    0    1
 -2      1025       229      2304      2513
 -1      5185    3    0    1
 -2      1039       347      2411      2514
 -1      5186    3    0    1
 -2      1037      1038      2384      2514
 -1      5187    3    0    1
 -2      1037       761      1038      2514
 -1      5188    3    0    1
 -2      1039       762      1322      2514
 -1      5189    3    0    1
 -2       347       239      2374      2514
 -1      5190    3    0    1
 -2       239       347      1039      2514
 -1      5191    3    0    1
 -2       239      1322      2374      2514
 -1      5192    3    0    1
 -2       239      1039      1322      2514
 -1      5193    3    0    1
 -2      1307      2433      2663      3821
 -1      5194    3    0    1
 -2      2334       353      2525      2558
 -1      5195    3    0    1
 -2      1307       999      2433      3821
 -1      5196    3    0    1
 -2       831      1337      2334      2558
 -1      5197    3    0    1
 -2      3823      2447      3709       942
 -1      5198    3    0    1
 -2       993      2147      2547      2778
 -1      5199    3    0    1
 -2      3790      3862      3920      3995
 -1      5200    3    0    1
 -2       125      2310      3792      2020
 -1      5201    3    0    1
 -2       661       681      1000      2517
 -1      5202    3    0    1
 -2       661      1000      1303      2517
 -1      5203    3    0    1
 -2       252      1045      1046      2519
 -1      5204    3    0    1
 -2       780       779      2480      2519
 -1      5205    3    0    1
 -2      2265       780      2480      2519
 -1      5206    3    0    1
 -2      1046      2373      2457      2519
 -1      5207    3    0    1
 -2      1046      2265      2373      2519
 -1      5208    3    0    1
 -2      1046       780      2265      2519
 -1      5209    3    0    1
 -2       259      1046      2457      2519
 -1      5210    3    0    1
 -2       252       259      2457      2519
 -1      5211    3    0    1
 -2       259       252      1046      2519
 -1      5212    3    0    1
 -2      1326       774      2234      2520
 -1      5213    3    0    1
 -2       643      2405      2490      2779
 -1      5214    3    0    1
 -2      3156      3460      3950      3964
 -1      5215    3    0    1
 -2       381      2549        96      2559
 -1      5216    3    0    1
 -2      3816      3807      3909      4003
 -1      5217    3    0    1
 -2      3200      3053      3844      3573
 -1      5218    3    0    1
 -2       980       640      2323      2544
 -1      5219    3    0    1
 -2      2177      2446      2507      2544
 -1      5220    3    0    1
 -2      2276       666      2483      2544
 -1      5221    3    0    1
 -2      1564      3081      1773      1774
 -1      5222    3    0    1
 -2      1701      1512      3977      4021
 -1      5223    3    0    1
 -2      2565      1282      3402      4030
 -1      5224    3    0    1
 -2      2446      2177      2483      2544
 -1      5225    3    0    1
 -2      2177       640      2276      2544
 -1      5226    3    0    1
 -2       278      1065      3658      3686
 -1      5227    3    0    1
 -2      3020      1456      3913      1943
 -1      5228    3    0    1
 -2       381      2308      2549      2559
 -1      5229    3    0    1
 -2      3807      1491      3930      3934
 -1      5230    3    0    1
 -2      1711      1512      3828      4021
 -1      5231    3    0    1
 -2       276       388      1063      2528
 -1      5232    3    0    1
 -2       275       276      1063      2528
 -1      5233    3    0    1
 -2      1642      3345      3436      3907
 -1      5234    3    0    1
 -2      2085      2494      2531      2561
 -1      5235    3    0    1
 -2       832      1071      2334      2549
 -1      5236    3    0    1
 -2      2252       398      2458      2556
 -1      5237    3    0    1
 -2       398      2375      2444      2556
 -1      5238    3    0    1
 -2       816       815      2415      2528
 -1      5239    3    0    1
 -2       815       816      1064      2528
 -1      5240    3    0    1
 -2      1031      2252      2513      2556
 -1      5241    3    0    1
 -2       275      1063      1064      2528
 -1      5242    3    0    1
 -2      1777      1470      3423      3591
 -1      5243    3    0    1
 -2      2604      2856      3805      3944
 -1      5244    3    0    1
 -2      1673        47      1716      3483
 -1      5245    3    0    1
 -2       959       586      1287      2530
 -1      5246    3    0    1
 -2       959      2407      2478      2530
 -1      5247    3    0    1
 -2       594       959      2478      2530
 -1      5248    3    0    1
 -2       586      1290       956      2530
 -1      5249    3    0    1
 -2       956      1290      2419      2530
 -1      5250    3    0    1
 -2      1357      2286      2427      2562
 -1      5251    3    0    1
 -2      1129       886       896      2562
 -1      5252    3    0    1
 -2       896       886      2084      2562
 -1      5253    3    0    1
 -2      2427      2076      2542      2562
 -1      5254    3    0    1
 -2      2076      2084      2542      2562
 -1      5255    3    0    1
 -2       362      2412      2430      2532
 -1      5256    3    0    1
 -2      2105       362      2430      2532
 -1      5257    3    0    1
 -2       969       362      2105      2532
 -1      5258    3    0    1
 -2      1299       151      2477      2532
 -1      5259    3    0    1
 -2       153       969       976      2532
 -1      5260    3    0    1
 -2       153       362       969      2532
 -1      5261    3    0    1
 -2       153       151      1299      2532
 -1      5262    3    0    1
 -2       985       653      2197      2533
 -1      5263    3    0    1
 -2       636       653       977      2533
 -1      5264    3    0    1
 -2       977       653       985      2533
 -1      5265    3    0    1
 -2      2757      2925      3842      3893
 -1      5266    3    0    1
 -2      2461      2305      2494      2828
 -1      5267    3    0    1
 -2       980      2323      2507      2544
 -1      5268    3    0    1
 -2      3889      1542      3668      3731
 -1      5269    3    0    1
 -2       734       735      1027      2817
 -1      5270    3    0    1
 -2       625       973      1297      2665
 -1      5271    3    0    1
 -2      1528      2809      3122      3338
 -1      5272    3    0    1
 -2       318      2470      1380       393
 -1      5273    3    0    1
 -2      2337      1048      2472      2538
 -1      5274    3    0    1
 -2       785       792      1329      2538
 -1      5275    3    0    1
 -2      1329       792      2353      2538
 -1      5276    3    0    1
 -2       792       785      1048      2538
 -1      5277    3    0    1
 -2       792      1048      1052      2538
 -1      5278    3    0    1
 -2      1052      1048      2335      2538
 -1      5279    3    0    1
 -2       792      1052      2335      2538
 -1      5280    3    0    1
 -2      2121      2051      2476      2541
 -1      5281    3    0    1
 -2      2120      2051      2121      2541
 -1      5282    3    0    1
 -2      2051      2278      2299      2541
 -1      5283    3    0    1
 -2      2051      2299      2476      2541
 -1      5284    3    0    1
 -2      1083      1085      2299      2541
 -1      5285    3    0    1
 -2       785      2098      2472      2540
 -1      5286    3    0    1
 -2      2472      2098      2539      2540
 -1      5287    3    0    1
 -2       785      2472      2539      2540
 -1      5288    3    0    1
 -2       810      2319      2341      2540
 -1      5289    3    0    1
 -2      2098       810      2341      2540
 -1      5290    3    0    1
 -2      2341      2319      2539      2540
 -1      5291    3    0    1
 -2       359       329      1083      2541
 -1      5292    3    0    1
 -2       329      1121      1113      2541
 -1      5293    3    0    1
 -2       329      1113      2476      2541
 -1      5294    3    0    1
 -2       883      1121       888      2541
 -1      5295    3    0    1
 -2      1083       329      1085      2541
 -1      5296    3    0    1
 -2      1121       883      1113      2541
 -1      5297    3    0    1
 -2      1085       329      2476      2541
 -1      5298    3    0    1
 -2      2299      1085      2476      2541
 -1      5299    3    0    1
 -2      1113       883      2476      2541
 -1      5300    3    0    1
 -2      2282       994      2547      2563
 -1      5301    3    0    1
 -2       176       344       994      2563
 -1      5302    3    0    1
 -2       654      2487      2547      2563
 -1      5303    3    0    1
 -2       344       176      2505      2563
 -1      5304    3    0    1
 -2      1679      1581      3066      3255
 -1      5305    3    0    1
 -2       644      3179      3183      3202
 -1      5306    3    0    1
 -2      1360       314      2486      2545
 -1      5307    3    0    1
 -2      1359       314      1360      2545
 -1      5308    3    0    1
 -2       848      1360      2486      2545
 -1      5309    3    0    1
 -2       847      1360       848      2545
 -1      5310    3    0    1
 -2       314      2188      2486      2545
 -1      5311    3    0    1
 -2      1696      2932      1697      3703
 -1      5312    3    0    1
 -2      3213      2858      3874      3879
 -1      5313    3    0    1
 -2       276       275      1332      2564
 -1      5314    3    0    1
 -2       276      1332      2319      2564
 -1      5315    3    0    1
 -2       275      1058      1332      2564
 -1      5316    3    0    1
 -2       671       654       993      2547
 -1      5317    3    0    1
 -2      2137       275      2555      2564
 -1      5318    3    0    1
 -2       993      2487       654       987
 -1      5319    3    0    1
 -2      2646      1237      2737      3805
 -1      5320    3    0    1
 -2       170       432      3813      1905
 -1      5321    3    0    1
 -2      2739      2825      3871      3630
 -1      5322    3    0    1
 -2       799      3256      1849      1850
 -1      5323    3    0    1
 -2       985      2366      2550       365
 -1      5324    3    0    1
 -2      2366       365      2497      2550
 -1      5325    3    0    1
 -2       986      2197      2487      2550
 -1      5326    3    0    1
 -2      2446       986      2487      2550
 -1      5327    3    0    1
 -2       342       985       986      2550
 -1      5328    3    0    1
 -2       986       985      2197      2550
 -1      5329    3    0    1
 -2       365       160      1302      2550
 -1      5330    3    0    1
 -2       331       213      2347      2551
 -1      5331    3    0    1
 -2       213       331      1312      2551
 -1      5332    3    0    1
 -2      2869      2672      3811      3047
 -1      5333    3    0    1
 -2      2955      1450      1679      1680
 -1      5334    3    0    1
 -2       947      2455      2745      3991
 -1      5335    3    0    1
 -2       697      1018      1309      2551
 -1      5336    3    0    1
 -2       697       717      1018      2551
 -1      5337    3    0    1
 -2      1070       288      2510      2553
 -1      5338    3    0    1
 -2       288      1070      1071      2553
 -1      5339    3    0    1
 -2      1071      1070      2510      2553
 -1      5340    3    0    1
 -2       288       287      1336      2553
 -1      5341    3    0    1
 -2       288      1336      2339      2553
 -1      5342    3    0    1
 -2      2339      1336      2481      2553
 -1      5343    3    0    1
 -2      2481       287      1336      1066
 -1      5344    3    0    1
 -2       287      2481      1336      2553
 -1      5345    3    0    1
 -2      3973      3975      3870      3971
 -1      5346    3    0    1
 -2       384       283      1070      2554
 -1      5347    3    0    1
 -2       283       384      2161      2554
 -1      5348    3    0    1
 -2       384       288      1336      2554
 -1      5349    3    0    1
 -2       283      1064      1070      2554
 -1      5350    3    0    1
 -2       384      1336      2161      2554
 -1      5351    3    0    1
 -2       816      1064      2528      2555
 -1      5352    3    0    1
 -2      2415       816      2528      2555
 -1      5353    3    0    1
 -2      2308       381      2479      2559
 -1      5354    3    0    1
 -2      1064       816      2510      2555
 -1      5355    3    0    1
 -2      3779      2467      3840      3897
 -1      5356    3    0    1
 -2       398       229      1025      2556
 -1      5357    3    0    1
 -2       325      1358       444      2557
 -1      5358    3    0    1
 -2      1358       325      1079      2557
 -1      5359    3    0    1
 -2      1407       325       444      2557
 -1      5360    3    0    1
 -2      1079       325      2516      2557
 -1      5361    3    0    1
 -2       325      1407      1117      2557
 -1      5362    3    0    1
 -2       325      1117      2516      2557
 -1      5363    3    0    1
 -2      1117      2393      2516      2557
 -1      5364    3    0    1
 -2       779      1044      2480      2760
 -1      5365    3    0    1
 -2       831      1065      1337      2558
 -1      5366    3    0    1
 -2       831       816      1065      2558
 -1      5367    3    0    1
 -2       941      2200      2479      2559
 -1      5368    3    0    1
 -2       381        96      1281      2559
 -1      5369    3    0    1
 -2      2155      1063      2528      2560
 -1      5370    3    0    1
 -2      3300      2929      3638      4008
 -1      5371    3    0    1
 -2      2517      2710      3014      3882
 -1      5372    3    0    1
 -2       798       815      1063      2560
 -1      5373    3    0    1
 -2      3964      1473      2009      3700
 -1      5374    3    0    1
 -2      1055       798      1063      2560
 -1      5375    3    0    1
 -2      1920      1921      1956      3625
 -1      5376    3    0    1
 -2       590       583      3075      1801
 -1      5377    3    0    1
 -2      3332      3540      3622      3965
 -1      5378    3    0    1
 -2       328      1129       443      2562
 -1      5379    3    0    1
 -2       886      1118      2542      2562
 -1      5380    3    0    1
 -2       886      1129      1118      2562
 -1      5381    3    0    1
 -2      2313       886      2542      2562
 -1      5382    3    0    1
 -2      1357       328       443      2562
 -1      5383    3    0    1
 -2      1118       328      2542      2562
 -1      5384    3    0    1
 -2      1129       328      1118      2562
 -1      5385    3    0    1
 -2      1356      2427      2542      2562
 -1      5386    3    0    1
 -2       328      1356      2542      2562
 -1      5387    3    0    1
 -2       328      1357      1356      2562
 -1      5388    3    0    1
 -2       986       654       994      2563
 -1      5389    3    0    1
 -2       344       986       994      2563
 -1      5390    3    0    1
 -2       654       671       994      2563
 -1      5391    3    0    1
 -2       344       343       986      2563
 -1      5392    3    0    1
 -2      1679      1581      1680      3066
 -1      5393    3    0    1
 -2      1213       802       809      2633
 -1      5394    3    0    1
 -2      2846      1888      3886      3699
 -1      5395    3    0    1
 -2       333      2314      2751      3793
 -1      5396    3    0    1
 -2       678       690      1005      2657
 -1      5397    3    0    1
 -2      2372      2885      3863      3776
 -1      5398    3    0    1
 -2      3831      3163      3364      3509
 -1      5399    3    0    1
 -2      1528      1529      1653      3007
 -1      5400    3    0    1
 -2       478       477       557      2565
 -1      5401    3    0    1
 -2       559       556      1171      2565
 -1      5402    3    0    1
 -2       924      3037      3954      3733
 -1      5403    3    0    1
 -2       952       581       955      2600
 -1      5404    3    0    1
 -2      1171       551       910      2565
 -1      5405    3    0    1
 -2       953       575      2596      2600
 -1      5406    3    0    1
 -2       581       953      2596      2600
 -1      5407    3    0    1
 -2       570       574       952      2600
 -1      5408    3    0    1
 -2       477       550       557      2565
 -1      5409    3    0    1
 -2       557       561      1170      2565
 -1      5410    3    0    1
 -2       561       557       945      2565
 -1      5411    3    0    1
 -2       574       570      1183      2600
 -1      5412    3    0    1
 -2      1171       477       478      2565
 -1      5413    3    0    1
 -2       477      1171       910      2565
 -1      5414    3    0    1
 -2      3170      3284      3603      3958
 -1      5415    3    0    1
 -2       245      3947      3961      1999
 -1      5416    3    0    1
 -2      1293      2284      2656      3962
 -1      5417    3    0    1
 -2      1897      3138      1898      1914
 -1      5418    3    0    1
 -2       682       451      1131      2581
 -1      5419    3    0    1
 -2      1309      2508      2551      3797
 -1      5420    3    0    1
 -2       597       593       960      2574
 -1      5421    3    0    1
 -2      1008      1310      3801      3818
 -1      5422    3    0    1
 -2      1255       531      2644      3761
 -1      5423    3    0    1
 -2      1008      2424      2629      3783
 -1      5424    3    0    1
 -2      2578      2835      3030      4008
 -1      5425    3    0    1
 -2      3090      1588      3413      3924
 -1      5426    3    0    1
 -2       625       646       982      2684
 -1      5427    3    0    1
 -2      1428      1427      1554      3612
 -1      5428    3    0    1
 -2      1297      2684      2974      3866
 -1      5429    3    0    1
 -2        24        23      1919      1947
 -1      5430    3    0    1
 -2       973      1293      2656      3741
 -1      5431    3    0    1
 -2      3743      3973      3975      3762
 -1      5432    3    0    1
 -2      1583      3823      3157      1856
 -1      5433    3    0    1
 -2      2855      2983      2927      1197
 -1      5434    3    0    1
 -2       623       516      1227      2566
 -1      5435    3    0    1
 -2      3581      3560      3666      3692
 -1      5436    3    0    1
 -2       634       623      1227      2566
 -1      5437    3    0    1
 -2       623       634       977      2566
 -1      5438    3    0    1
 -2      1484      1485      2746      3583
 -1      5439    3    0    1
 -2       125      2310      2572      3792
 -1      5440    3    0    1
 -2       619       626      1722      3541
 -1      5441    3    0    1
 -2      1009       700      2617      2618
 -1      5442    3    0    1
 -2      3795      1067      3225      3978
 -1      5443    3    0    1
 -2       588       596       917      2567
 -1      5444    3    0    1
 -2      2284      2589      2885      3863
 -1      5445    3    0    1
 -2      3929      1865      4023      3750
 -1      5446    3    0    1
 -2      1642      1454      1643      3355
 -1      5447    3    0    1
 -2       455      1137      2586      2651
 -1      5448    3    0    1
 -2      1186       588       917      2567
 -1      5449    3    0    1
 -2       777       773      1045      2689
 -1      5450    3    0    1
 -2      3098       626      3540      3543
 -1      5451    3    0    1
 -2      2300      2668      3788      2828
 -1      5452    3    0    1
 -2       588      3194      1186       591
 -1      5453    3    0    1
 -2       981      1304      2416      3799
 -1      5454    3    0    1
 -2      1539      1538      1625      3110
 -1      5455    3    0    1
 -2       957      3777      3880      3809
 -1      5456    3    0    1
 -2       598       587      1184      2567
 -1      5457    3    0    1
 -2       587       598       961      2567
 -1      5458    3    0    1
 -2       489       488       917      2567
 -1      5459    3    0    1
 -2       917       488      1186      2567
 -1      5460    3    0    1
 -2      1966      3993       433      3985
 -1      5461    3    0    1
 -2      1451      1450      2955      1680
 -1      5462    3    0    1
 -2      1258       713      1259      2627
 -1      5463    3    0    1
 -2      1494      3221      3854      3422
 -1      5464    3    0    1
 -2      1306       679      2591      2592
 -1      5465    3    0    1
 -2       266       264      1651      3837
 -1      5466    3    0    1
 -2      2705      3398      3900      3491
 -1      5467    3    0    1
 -2      3710       700       198      3755
 -1      5468    3    0    1
 -2       678       452       682      2657
 -1      5469    3    0    1
 -2      1004       689      2581      2657
 -1      5470    3    0    1
 -2      3854      2970      3336      3421
 -1      5471    3    0    1
 -2      3870      1608      3751      3762
 -1      5472    3    0    1
 -2      1842      3247      3341      3906
 -1      5473    3    0    1
 -2       477       550      2565      2599
 -1      5474    3    0    1
 -2      1846      2893      3894      3545
 -1      5475    3    0    1
 -2      1480      1479      2944      3414
 -1      5476    3    0    1
 -2      1413      3081      1773      3251
 -1      5477    3    0    1
 -2       723       719      1021      2639
 -1      5478    3    0    1
 -2      2399      2663      3779      3822
 -1      5479    3    0    1
 -2      1021       713      2627      2639
 -1      5480    3    0    1
 -2      1523      1522      1723      3524
 -1      5481    3    0    1
 -2       687       683      1003      2581
 -1      5482    3    0    1
 -2      2964      2655      3890      3956
 -1      5483    3    0    1
 -2       593       597      1185      2574
 -1      5484    3    0    1
 -2      1279       943      2194      3764
 -1      5485    3    0    1
 -2      3437      1721      1913      3918
 -1      5486    3    0    1
 -2       117       116       570      1736
 -1      5487    3    0    1
 -2       593       587       960      2574
 -1      5488    3    0    1
 -2      3812      2785      3895      3956
 -1      5489    3    0    1
 -2      2999       680      1707      3956
 -1      5490    3    0    1
 -2      1012       695      1013      2664
 -1      5491    3    0    1
 -2      2468      2794      3786      3807
 -1      5492    3    0    1
 -2      2648      3867      3379      4010
 -1      5493    3    0    1
 -2      2961      3141      3915      3956
 -1      5494    3    0    1
 -2      3801      3812      3895      3956
 -1      5495    3    0    1
 -2       412      1577      3800      3808
 -1      5496    3    0    1
 -2      2552      2774      2776      3987
 -1      5497    3    0    1
 -2      2877      3132      3370      3888
 -1      5498    3    0    1
 -2       924      2957      3424      3954
 -1      5499    3    0    1
 -2       978       636      2340      2570
 -1      5500    3    0    1
 -2      1762      1763      3216      1961
 -1      5501    3    0    1
 -2       617       609       967      2583
 -1      5502    3    0    1
 -2       636      2197      2533      2570
 -1      5503    3    0    1
 -2      1659      1411      3893      3714
 -1      5504    3    0    1
 -2      3795      3786      3816      4003
 -1      5505    3    0    1
 -2      2724      4003      2468      3709
 -1      5506    3    0    1
 -2      3182      3360      1929      3656
 -1      5507    3    0    1
 -2       636       978       984      2570
 -1      5508    3    0    1
 -2       653       636       984      2570
 -1      5509    3    0    1
 -2       410       148      3962      3741
 -1      5510    3    0    1
 -2      1234       525       629      2571
 -1      5511    3    0    1
 -2       525       516       629      2571
 -1      5512    3    0    1
 -2      1243       624      1226      2571
 -1      5513    3    0    1
 -2      1226       624      2566      2571
 -1      5514    3    0    1
 -2      1282       947      3769        95
 -1      5515    3    0    1
 -2       564       946      2599      4030
 -1      5516    3    0    1
 -2       629       633      1234      2571
 -1      5517    3    0    1
 -2       633       629       976      2571
 -1      5518    3    0    1
 -2       623       516      2566      2571
 -1      5519    3    0    1
 -2       516       623       629      2571
 -1      5520    3    0    1
 -2      1243       516       525      2571
 -1      5521    3    0    1
 -2       516      1243      1226      2571
 -1      5522    3    0    1
 -2       516      1226      2566      2571
 -1      5523    3    0    1
 -2        47      1787      3483      3501
 -1      5524    3    0    1
 -2      3867      2799      3413      3924
 -1      5525    3    0    1
 -2       606       618       970      2630
 -1      5526    3    0    1
 -2       611       605       969      2630
 -1      5527    3    0    1
 -2      1719      1720      3132      3370
 -1      5528    3    0    1
 -2      1586      1587      1855      3365
 -1      5529    3    0    1
 -2       522      2580      2616      2646
 -1      5530    3    0    1
 -2      3081      2802      3251      3534
 -1      5531    3    0    1
 -2       521       522      2616      2646
 -1      5532    3    0    1
 -2      1604      1603      3026      1889
 -1      5533    3    0    1
 -2      1632      3460      3950      3727
 -1      5534    3    0    1
 -2       147      2847      3866      4002
 -1      5535    3    0    1
 -2       402      1619      1856      1891
 -1      5536    3    0    1
 -2      3281      2669      3878      3552
 -1      5537    3    0    1
 -2      1325      3902      3498      3981
 -1      5538    3    0    1
 -2      1518      1517      1841      3336
 -1      5539    3    0    1
 -2       961       587      2567      2574
 -1      5540    3    0    1
 -2      1659      1660      3002      3195
 -1      5541    3    0    1
 -2       488      1184      1185      2574
 -1      5542    3    0    1
 -2       488       489      1184      2574
 -1      5543    3    0    1
 -2      1184       489      2567      2574
 -1      5544    3    0    1
 -2       600       961      2567      2574
 -1      5545    3    0    1
 -2       762      1039      1322      2675
 -1      5546    3    0    1
 -2      1294      2797      3815      3521
 -1      5547    3    0    1
 -2      1436      1598      3069      3285
 -1      5548    3    0    1
 -2      1954      1858      3952      3731
 -1      5549    3    0    1
 -2      2867      1237      2959      1744
 -1      5550    3    0    1
 -2      2523       628      2543      2656
 -1      5551    3    0    1
 -2      2739      3871      3488      3630
 -1      5552    3    0    1
 -2      2459       607      2501      2656
 -1      5553    3    0    1
 -2      1445      2775      3946      4015
 -1      5554    3    0    1
 -2      3831      2576      3235      3364
 -1      5555    3    0    1
 -2       628       607      2459      2656
 -1      5556    3    0    1
 -2      2887      2849       664      2810
 -1      5557    3    0    1
 -2       463      1149      2591      2592
 -1      5558    3    0    1
 -2      2703       449      1624      1625
 -1      5559    3    0    1
 -2       822       823      1068      2606
 -1      5560    3    0    1
 -2      1812      1421      1813      3349
 -1      5561    3    0    1
 -2      3474      1728      3631      3706
 -1      5562    3    0    1
 -2      2436      1050      2720      3833
 -1      5563    3    0    1
 -2      1721      3803      3833      1449
 -1      5564    3    0    1
 -2       335      1966      2017      2018
 -1      5565    3    0    1
 -2       557       945      2565      4030
 -1      5566    3    0    1
 -2       628       973      1293      2656
 -1      5567    3    0    1
 -2       751       754      1039      2675
 -1      5568    3    0    1
 -2        46      1732      3253      3255
 -1      5569    3    0    1
 -2       200      1009      2727      3987
 -1      5570    3    0    1
 -2      2849      3798      3127      3911
 -1      5571    3    0    1
 -2      1761      2968      3212      3619
 -1      5572    3    0    1
 -2       214      1008      3818      3945
 -1      5573    3    0    1
 -2      1466      1467      1537      2821
 -1      5574    3    0    1
 -2      3134       716      3288      3394
 -1      5575    3    0    1
 -2      1464      1465      1852      3491
 -1      5576    3    0    1
 -2       427      3234      3331      3644
 -1      5577    3    0    1
 -2       813       809      1063      2633
 -1      5578    3    0    1
 -2      1665      1666      1699      3325
 -1      5579    3    0    1
 -2      2606      2607      3814      3964
 -1      5580    3    0    1
 -2      1246       766       930      2611
 -1      5581    3    0    1
 -2      1439      1440      1658      3238
 -1      5582    3    0    1
 -2      1799      1798      3278      3322
 -1      5583    3    0    1
 -2       133       606       970      1998
 -1      5584    3    0    1
 -2       682       451      2581      2657
 -1      5585    3    0    1
 -2       831       824      2585      2614
 -1      5586    3    0    1
 -2      2732       770      2733      2941
 -1      5587    3    0    1
 -2      1849      1515      3913      3535
 -1      5588    3    0    1
 -2       683       687      1130      2581
 -1      5589    3    0    1
 -2       689       682      1002      2581
 -1      5590    3    0    1
 -2      3805      2632      3593      3611
 -1      5591    3    0    1
 -2       689      1003      1004      2581
 -1      5592    3    0    1
 -2       931       518      2665      2666
 -1      5593    3    0    1
 -2      3170      1630      1614      3603
 -1      5594    3    0    1
 -2      2980      3161      3857      3875
 -1      5595    3    0    1
 -2      2272       187      3014      3835
 -1      5596    3    0    1
 -2       590       583      3259      3518
 -1      5597    3    0    1
 -2      1488      1583      1584      3311
 -1      5598    3    0    1
 -2       679       699      1306      2727
 -1      5599    3    0    1
 -2       973       627      2665      2666
 -1      5600    3    0    1
 -2       685       682      1131      2581
 -1      5601    3    0    1
 -2       682       685      1002      2581
 -1      5602    3    0    1
 -2      1130       451      1133      2581
 -1      5603    3    0    1
 -2      2901      2784      3812      3890
 -1      5604    3    0    1
 -2      1719      1452      3370      3888
 -1      5605    3    0    1
 -2      1636      1431      1637      3327
 -1      5606    3    0    1
 -2      3785      3787      3800      3931
 -1      5607    3    0    1
 -2      3881       999      3901      3998
 -1      5608    3    0    1
 -2      3018      3836      3348      3558
 -1      5609    3    0    1
 -2       613       609      1160      2583
 -1      5610    3    0    1
 -2       609       613       967      2583
 -1      5611    3    0    1
 -2       905       470      1152      2583
 -1      5612    3    0    1
 -2      1550      1549      1759      3146
 -1      5613    3    0    1
 -2      1521      1651      3837      3845
 -1      5614    3    0    1
 -2      2958      2945      3919      3650
 -1      5615    3    0    1
 -2      3333       572      1811      1810
 -1      5616    3    0    1
 -2      2573      2484      2629      3836
 -1      5617    3    0    1
 -2      3429       236      1926      2000
 -1      5618    3    0    1
 -2      3029      2980      3834      3861
 -1      5619    3    0    1
 -2      1197      2983      2927       495
 -1      5620    3    0    1
 -2       831      1070      1071      2585
 -1      5621    3    0    1
 -2       831       824      1337      2585
 -1      5622    3    0    1
 -2       726      1023      2320      3139
 -1      5623    3    0    1
 -2       824       501      1206      2585
 -1      5624    3    0    1
 -2      2962      1436      3069      3285
 -1      5625    3    0    1
 -2       824       827      1337      2585
 -1      5626    3    0    1
 -2       827       824      1206      2585
 -1      5627    3    0    1
 -2       501      1204      1205      2585
 -1      5628    3    0    1
 -2       433       335      3984      2026
 -1      5629    3    0    1
 -2      2691      2225      2805      3817
 -1      5630    3    0    1
 -2      3777      2595      3899      3999
 -1      5631    3    0    1
 -2      2915      2916      3013      3844
 -1      5632    3    0    1
 -2       672       659       995      2586
 -1      5633    3    0    1
 -2      3460      3814      3950      3964
 -1      5634    3    0    1
 -2      3155      1816      3344      3464
 -1      5635    3    0    1
 -2      3078      3027      3371      3955
 -1      5636    3    0    1
 -2       659       455       456      2586
 -1      5637    3    0    1
 -2       725       718      1020      2639
 -1      5638    3    0    1
 -2       462      1148      2858      3874
 -1      5639    3    0    1
 -2       660       668      1138      2586
 -1      5640    3    0    1
 -2       671       672       996      2586
 -1      5641    3    0    1
 -2      1138      1137       660      2586
 -1      5642    3    0    1
 -2      2806      3297      3876      3385
 -1      5643    3    0    1
 -2      3783      3849      3859      3908
 -1      5644    3    0    1
 -2      3185      3016      3889      3564
 -1      5645    3    0    1
 -2      2233       955      2330      3781
 -1      5646    3    0    1
 -2      1498      3542      3543      1978
 -1      5647    3    0    1
 -2       822       823      2606      2652
 -1      5648    3    0    1
 -2      1139       659       456      2586
 -1      5649    3    0    1
 -2      1764      2926      3127      3214
 -1      5650    3    0    1
 -2      1067      1335       823      2652
 -1      5651    3    0    1
 -2       670       659      1139      2586
 -1      5652    3    0    1
 -2       659       670       995      2586
 -1      5653    3    0    1
 -2       455      1138       456      2586
 -1      5654    3    0    1
 -2      1138       455      1137      2586
 -1      5655    3    0    1
 -2      1204       825      2585      2614
 -1      5656    3    0    1
 -2       575      1182      2596      2600
 -1      5657    3    0    1
 -2      2872      3134      3926      3563
 -1      5658    3    0    1
 -2      1853      1702      3492      3673
 -1      5659    3    0    1
 -2      1051      1324      2435      2766
 -1      5660    3    0    1
 -2       627       931      2665      2666
 -1      5661    3    0    1
 -2      3345      2792      3906      3907
 -1      5662    3    0    1
 -2       970       618      2463      2589
 -1      5663    3    0    1
 -2      1494      1766      3228      3407
 -1      5664    3    0    1
 -2       408       136      3792      3832
 -1      5665    3    0    1
 -2      2595      2438      3777      3899
 -1      5666    3    0    1
 -2       766       778      1046      2611
 -1      5667    3    0    1
 -2      1494      3228      1832      3330
 -1      5668    3    0    1
 -2       778       766      1246      2611
 -1      5669    3    0    1
 -2       449      1624      1625      2876
 -1      5670    3    0    1
 -2       498      1201      2606      2607
 -1      5671    3    0    1
 -2      1824      1883      1884      3574
 -1      5672    3    0    1
 -2      2548       349      3629      3959
 -1      5673    3    0    1
 -2       677       688      1004      2657
 -1      5674    3    0    1
 -2       996      1002      2272      3835
 -1      5675    3    0    1
 -2       412       431      1635      1771
 -1      5676    3    0    1
 -2       650       642       987      2653
 -1      5677    3    0    1
 -2      1784      1783      3289      3415
 -1      5678    3    0    1
 -2       278      1062      1065      3686
 -1      5679    3    0    1
 -2      2990      1725      1726      3055
 -1      5680    3    0    1
 -2       642       654       987      2653
 -1      5681    3    0    1
 -2       677       683      1133      2657
 -1      5682    3    0    1
 -2      2749       752      2722       753
 -1      5683    3    0    1
 -2      1587      1586      2873      3365
 -1      5684    3    0    1
 -2       626       619      3086      3454
 -1      5685    3    0    1
 -2       129       134      1667      3260
 -1      5686    3    0    1
 -2      1867       608      3401      3465
 -1      5687    3    0    1
 -2      1742      2864      3347      3967
 -1      5688    3    0    1
 -2      1790       409      3880      3960
 -1      5689    3    0    1
 -2       752      2749      2722      2935
 -1      5690    3    0    1
 -2      1159       606      2640      2641
 -1      5691    3    0    1
 -2       606      1293      2640      2641
 -1      5692    3    0    1
 -2      1477      1478      1552      3148
 -1      5693    3    0    1
 -2      2749      2721      3025      3318
 -1      5694    3    0    1
 -2       823      1335      2400      3199
 -1      5695    3    0    1
 -2      3795      3786      3847      3870
 -1      5696    3    0    1
 -2      2587      2709      2923      3885
 -1      5697    3    0    1
 -2      1303       173      2517      3882
 -1      5698    3    0    1
 -2      3897      3779      3927      3986
 -1      5699    3    0    1
 -2       737       730      1030      2671
 -1      5700    3    0    1
 -2      1756      1757      3477      1923
 -1      5701    3    0    1
 -2        98        95      2426      3757
 -1      5702    3    0    1
 -2       551       560       910      2599
 -1      5703    3    0    1
 -2       681       679       999      2591
 -1      5704    3    0    1
 -2      2812      3886      3447      3591
 -1      5705    3    0    1
 -2      3845      1567      3281      3878
 -1      5706    3    0    1
 -2       821       824       832      2614
 -1      5707    3    0    1
 -2       771      1325      2853      2941
 -1      5708    3    0    1
 -2      1209       805       925      2649
 -1      5709    3    0    1
 -2      2491      2237      3772      4030
 -1      5710    3    0    1
 -2       414       982      2405      2684
 -1      5711    3    0    1
 -2      1481      1725      3556      3965
 -1      5712    3    0    1
 -2      3085      1795      3469      3523
 -1      5713    3    0    1
 -2       999      1307       681      2591
 -1      5714    3    0    1
 -2       910       477      2565      2599
 -1      5715    3    0    1
 -2      1000      1306       679      2591
 -1      5716    3    0    1
 -2       678       682      1147      2591
 -1      5717    3    0    1
 -2       682       678      1000      2591
 -1      5718    3    0    1
 -2       791       795       929      2678
 -1      5719    3    0    1
 -2       678      1147      1149      2591
 -1      5720    3    0    1
 -2      1000       678      1306      2591
 -1      5721    3    0    1
 -2      1683      1684      1881      3514
 -1      5722    3    0    1
 -2      1559      1560      1862      3467
 -1      5723    3    0    1
 -2      3842      3142      3885      3669
 -1      5724    3    0    1
 -2       452       678      1132      2657
 -1      5725    3    0    1
 -2      2814      3831      3469      3958
 -1      5726    3    0    1
 -2       462       463      1147      2591
 -1      5727    3    0    1
 -2      2794      3786      3807      4011
 -1      5728    3    0    1
 -2      1147       463      1149      2591
 -1      5729    3    0    1
 -2      1060      1330       806      2649
 -1      5730    3    0    1
 -2      1546      1547      1802      3439
 -1      5731    3    0    1
 -2      1671       183      1672      3222
 -1      5732    3    0    1
 -2       672      2272      2710      3835
 -1      5733    3    0    1
 -2      3066      2840      3246      3255
 -1      5734    3    0    1
 -2       689       682      2581      2657
 -1      5735    3    0    1
 -2       578       570       955      2596
 -1      5736    3    0    1
 -2       570       578       916      2596
 -1      5737    3    0    1
 -2      1655      1500      3116      3257
 -1      5738    3    0    1
 -2       487       915      1182      2596
 -1      5739    3    0    1
 -2       486       487      1182      2596
 -1      5740    3    0    1
 -2      1693      3896      4006      4018
 -1      5741    3    0    1
 -2       351       787      1056      1976
 -1      5742    3    0    1
 -2      3310      1689      3867      3517
 -1      5743    3    0    1
 -2      1451      1450      2916      2955
 -1      5744    3    0    1
 -2      3295      3306      3659      3694
 -1      5745    3    0    1
 -2      3977      1701      2011      3696
 -1      5746    3    0    1
 -2      1526      1525      1789      3196
 -1      5747    3    0    1
 -2      1526      1525      2896      1682
 -1      5748    3    0    1
 -2      3855       964      3917      3922
 -1      5749    3    0    1
 -2      2855      2643      3192      3253
 -1      5750    3    0    1
 -2      3025      2749      3873      2935
 -1      5751    3    0    1
 -2      1714       644      3202      3203
 -1      5752    3    0    1
 -2       575       579      1182      2600
 -1      5753    3    0    1
 -2       579       575       953      2600
 -1      5754    3    0    1
 -2       916       570      2596      2600
 -1      5755    3    0    1
 -2       570       955      2596      2600
 -1      5756    3    0    1
 -2       916       486      1183      2600
 -1      5757    3    0    1
 -2       487       486       916      2600
 -1      5758    3    0    1
 -2       487       916      2596      2600
 -1      5759    3    0    1
 -2       955       582      2596      2600
 -1      5760    3    0    1
 -2       119      1899      3938      3960
 -1      5761    3    0    1
 -2      1450      1451      2938      1871
 -1      5762    3    0    1
 -2      2738      3069      3179      3183
 -1      5763    3    0    1
 -2      3434      1894      3486      3550
 -1      5764    3    0    1
 -2      3205      3129      3589      3620
 -1      5765    3    0    1
 -2       906       471      2713      2714
 -1      5766    3    0    1
 -2      2461      2494      2561      2807
 -1      5767    3    0    1
 -2      3786      1497      3816      3547
 -1      5768    3    0    1
 -2      1646      1645      3100      3102
 -1      5769    3    0    1
 -2      2994      3428      3567      3588
 -1      5770    3    0    1
 -2      1481      1482      1831      3342
 -1      5771    3    0    1
 -2      1562      1563      2804      2843
 -1      5772    3    0    1
 -2       409      1882      4006      4018
 -1      5773    3    0    1
 -2       186       180      3927      3957
 -1      5774    3    0    1
 -2       820       830      1071      2614
 -1      5775    3    0    1
 -2      3092      2857      3406      3976
 -1      5776    3    0    1
 -2      3268      1164      3857      3948
 -1      5777    3    0    1
 -2      2655      2785      3812      3956
 -1      5778    3    0    1
 -2       714       725       726      2639
 -1      5779    3    0    1
 -2       977       636      2533      3770
 -1      5780    3    0    1
 -2      2549        96      2559      3765
 -1      5781    3    0    1
 -2      1072      1282      2334      2748
 -1      5782    3    0    1
 -2      2856      2604      2867      3944
 -1      5783    3    0    1
 -2       571      1284      2687      2688
 -1      5784    3    0    1
 -2      3434      3560      3992      4022
 -1      5785    3    0    1
 -2       608      1880      3401      3904
 -1      5786    3    0    1
 -2      2768      1050      2969      3918
 -1      5787    3    0    1
 -2      1498      3542      1978      1979
 -1      5788    3    0    1
 -2      2157       967      2463      3169
 -1      5789    3    0    1
 -2      3371      2637      3528      3955
 -1      5790    3    0    1
 -2      3098       619      1978      1979
 -1      5791    3    0    1
 -2      1312       213      2347      3793
 -1      5792    3    0    1
 -2      1752      3878      3430      1942
 -1      5793    3    0    1
 -2      1583      2906      3811      3296
 -1      5794    3    0    1
 -2      1293       607      2640      2641
 -1      5795    3    0    1
 -2       499       498      2606      3156
 -1      5796    3    0    1
 -2       625      1297      2523      2684
 -1      5797    3    0    1
 -2      1528       763      1529      3338
 -1      5798    3    0    1
 -2      1068      1334       822      2606
 -1      5799    3    0    1
 -2       824       821      1068      2606
 -1      5800    3    0    1
 -2       821       824       921      2606
 -1      5801    3    0    1
 -2      1068       821      1334      2606
 -1      5802    3    0    1
 -2       821       921      1201      2606
 -1      5803    3    0    1
 -2      1824      3307      3508      3574
 -1      5804    3    0    1
 -2      1541      1540      2801      2914
 -1      5805    3    0    1
 -2       278      1065      1877      3658
 -1      5806    3    0    1
 -2       499       498       921      2606
 -1      5807    3    0    1
 -2       250       245      1594      3006
 -1      5808    3    0    1
 -2       921       498      1201      2606
 -1      5809    3    0    1
 -2      2944      2809      3804      3007
 -1      5810    3    0    1
 -2      2840      1679      1680      3066
 -1      5811    3    0    1
 -2      1553      2821      3812      3691
 -1      5812    3    0    1
 -2      1550      1549      2775      3058
 -1      5813    3    0    1
 -2      3391      1685      1430      1686
 -1      5814    3    0    1
 -2      2712      2843      3218      3685
 -1      5815    3    0    1
 -2      1725      3526      3626      3965
 -1      5816    3    0    1
 -2      1158      2976      3126      3371
 -1      5817    3    0    1
 -2      2856      2990      3805      3611
 -1      5818    3    0    1
 -2      1542      1545      3782      3819
 -1      5819    3    0    1
 -2      1869        21      3395      1908
 -1      5820    3    0    1
 -2      1526      1525      1682      3263
 -1      5821    3    0    1
 -2       560        95       400      3756
 -1      5822    3    0    1
 -2      2990      1590      1725      3611
 -1      5823    3    0    1
 -2      1544      1543      2938      1871
 -1      5824    3    0    1
 -2      1246       511       526      2611
 -1      5825    3    0    1
 -2       511      1246       930      2611
 -1      5826    3    0    1
 -2       427       183      4009      2041
 -1      5827    3    0    1
 -2      3777       957      3880      1289
 -1      5828    3    0    1
 -2      3237      2579      3848      3851
 -1      5829    3    0    1
 -2      1021       713      1022      2627
 -1      5830    3    0    1
 -2       553      1624      2876      3875
 -1      5831    3    0    1
 -2      1558      3078      3371      3528
 -1      5832    3    0    1
 -2       500       501       824      2614
 -1      5833    3    0    1
 -2       824       501      2585      2614
 -1      5834    3    0    1
 -2       821       828      1203      2614
 -1      5835    3    0    1
 -2       828       821      1072      2614
 -1      5836    3    0    1
 -2       501       500      1204      2614
 -1      5837    3    0    1
 -2      1752      1753      3430      3596
 -1      5838    3    0    1
 -2      2320      1029      2376      3139
 -1      5839    3    0    1
 -2       955      1291      2181      3781
 -1      5840    3    0    1
 -2      2989      1513      1705      1704
 -1      5841    3    0    1
 -2       643       522      2580      2616
 -1      5842    3    0    1
 -2       981       643      2580      2616
 -1      5843    3    0    1
 -2      1009       696      1309      2617
 -1      5844    3    0    1
 -2       700       696      1009      2617
 -1      5845    3    0    1
 -2       696       700       899      2617
 -1      5846    3    0    1
 -2      2621      2578      3839      3980
 -1      5847    3    0    1
 -2      1517      3854      3336      3421
 -1      5848    3    0    1
 -2      1791      3186      3292      3339
 -1      5849    3    0    1
 -2      3094      3265      3951      3619
 -1      5850    3    0    1
 -2      2424       699      2433      2727
 -1      5851    3    0    1
 -2      1141       457       458      2617
 -1      5852    3    0    1
 -2       332       333      3793      3302
 -1      5853    3    0    1
 -2       457      1141       899      2617
 -1      5854    3    0    1
 -2      2983      2855      2927      3864
 -1      5855    3    0    1
 -2      1795      3085      3299      3523
 -1      5856    3    0    1
 -2      1467      3691      1553      1554
 -1      5857    3    0    1
 -2      3637      3909      3642      3963
 -1      5858    3    0    1
 -2      1816      1498      1817      3344
 -1      5859    3    0    1
 -2       637       644      2843      1714
 -1      5860    3    0    1
 -2      1614      1613      1792      3339
 -1      5861    3    0    1
 -2      2875      1458      1645      1646
 -1      5862    3    0    1
 -2       679      2213      2433      2727
 -1      5863    3    0    1
 -2      2284       133      2589      3863
 -1      5864    3    0    1
 -2       169       991      3702      4024
 -1      5865    3    0    1
 -2      2372       975      3767      4029
 -1      5866    3    0    1
 -2      1279        95      2194      4013
 -1      5867    3    0    1
 -2      1513      1514      1705      3418
 -1      5868    3    0    1
 -2       449       553      2876      3034
 -1      5869    3    0    1
 -2      2580       981      2616      3800
 -1      5870    3    0    1
 -2      3807      2942      3934      4011
 -1      5871    3    0    1
 -2       987       993      3994      2035
 -1      5872    3    0    1
 -2      2889      3276      3891      3979
 -1      5873    3    0    1
 -2      1044      2480      3820      1949
 -1      5874    3    0    1
 -2      1666      1665      3076      1925
 -1      5875    3    0    1
 -2      1419      3186      1791      3895
 -1      5876    3    0    1
 -2      1460      1461      1547      3363
 -1      5877    3    0    1
 -2       727       732      3118      1840
 -1      5878    3    0    1
 -2      2782      2621      3220      3980
 -1      5879    3    0    1
 -2      1742      3117      3213      3433
 -1      5880    3    0    1
 -2      1621      3787      3800      1442
 -1      5881    3    0    1
 -2      1707      1708      3114      3154
 -1      5882    3    0    1
 -2      3834      2743      3312      3861
 -1      5883    3    0    1
 -2       527      1248      2817      2818
 -1      5884    3    0    1
 -2      1585      3788      3432      3545
 -1      5885    3    0    1
 -2      2623      3004      3892      3935
 -1      5886    3    0    1
 -2       733      1248      1250      2818
 -1      5887    3    0    1
 -2       743      1030      1031      2671
 -1      5888    3    0    1
 -2      1030       730      1031      2671
 -1      5889    3    0    1
 -2       742       730      1256      2671
 -1      5890    3    0    1
 -2      3228      3017      3330      3407
 -1      5891    3    0    1
 -2      1416      1415      1638      3382
 -1      5892    3    0    1
 -2       553      2876      3034      3875
 -1      5893    3    0    1
 -2      1067      3814      3225      3978
 -1      5894    3    0    1
 -2      1495      1494      3330      3407
 -1      5895    3    0    1
 -2       714       722      1257      2627
 -1      5896    3    0    1
 -2       722       714      1023      2627
 -1      5897    3    0    1
 -2      2957      2954      3424      3954
 -1      5898    3    0    1
 -2       607       610       965      2640
 -1      5899    3    0    1
 -2       533      1258      1259      2627
 -1      5900    3    0    1
 -2      1458      1459      2875      2883
 -1      5901    3    0    1
 -2       985       641       986      2653
 -1      5902    3    0    1
 -2      1632       799      1633      3316
 -1      5903    3    0    1
 -2       751       758       902      2675
 -1      5904    3    0    1
 -2      3355      1454      1874      3907
 -1      5905    3    0    1
 -2       798       797      1054      2678
 -1      5906    3    0    1
 -2       982       646      2405      2684
 -1      5907    3    0    1
 -2      1648      1456      2978      3913
 -1      5908    3    0    1
 -2      2580      2686      3800      3851
 -1      5909    3    0    1
 -2      1237       522      2646      2737
 -1      5910    3    0    1
 -2       522      2580      2646      2737
 -1      5911    3    0    1
 -2      2783       698      3264      3604
 -1      5912    3    0    1
 -2       147       978      2340      2847
 -1      5913    3    0    1
 -2      3245      1711      3877      3494
 -1      5914    3    0    1
 -2       606       465       609      2630
 -1      5915    3    0    1
 -2       606       609       618      2630
 -1      5916    3    0    1
 -2       617       609      2583      2630
 -1      5917    3    0    1
 -2       609       617       618      2630
 -1      5918    3    0    1
 -2       465       470       609      2630
 -1      5919    3    0    1
 -2       609       470      2583      2630
 -1      5920    3    0    1
 -2       606       614      1151      2630
 -1      5921    3    0    1
 -2       614       606       970      2630
 -1      5922    3    0    1
 -2       470       465      1152      2630
 -1      5923    3    0    1
 -2      1730      3021      3128      3331
 -1      5924    3    0    1
 -2      2882      3201      3842      3367
 -1      5925    3    0    1
 -2      2858      2968      1148      1146
 -1      5926    3    0    1
 -2      1142       459      2813      2929
 -1      5927    3    0    1
 -2      1734      1733      1947      3610
 -1      5928    3    0    1
 -2      2369      2595      3843      3899
 -1      5929    3    0    1
 -2      1626      3145      3602      3711
 -1      5930    3    0    1
 -2       628      2459      2543      2656
 -1      5931    3    0    1
 -2         1       354      1974      1987
 -1      5932    3    0    1
 -2      1550      1549      3058      1759
 -1      5933    3    0    1
 -2      2399       681      2433      2663
 -1      5934    3    0    1
 -2       990      1307      2399      2663
 -1      5935    3    0    1
 -2      1719      3040      1720      3059
 -1      5936    3    0    1
 -2      1307       681      2399      2663
 -1      5937    3    0    1
 -2      1507      1676      1677      3061
 -1      5938    3    0    1
 -2       607      1293      2501      2656
 -1      5939    3    0    1
 -2      1742      2864      1743      3347
 -1      5940    3    0    1
 -2       802      1213      1212      2633
 -1      5941    3    0    1
 -2       802      1212      2569      2633
 -1      5942    3    0    1
 -2       809       802      1063      2633
 -1      5943    3    0    1
 -2       815      1063      1064      2633
 -1      5944    3    0    1
 -2      3812      2696      3693      3707
 -1      5945    3    0    1
 -2      1063       802      1064      2633
 -1      5946    3    0    1
 -2      1064       802      2569      2633
 -1      5947    3    0    1
 -2      1722      1723      3541      3622
 -1      5948    3    0    1
 -2       816       815      1064      2633
 -1      5949    3    0    1
 -2      1671       427      3331      3644
 -1      5950    3    0    1
 -2       352      1567      1942      1994
 -1      5951    3    0    1
 -2      1586      1587      3095      3654
 -1      5952    3    0    1
 -2      1831      1830      3342      3622
 -1      5953    3    0    1
 -2      2897       197      3720      2030
 -1      5954    3    0    1
 -2       284       352      1942      1994
 -1      5955    3    0    1
 -2       506      1213       507      2633
 -1      5956    3    0    1
 -2      1213       506      1212      2633
 -1      5957    3    0    1
 -2      1212       506      2569      2633
 -1      5958    3    0    1
 -2       816      1064      2569      2633
 -1      5959    3    0    1
 -2      1683      1684      2986      1904
 -1      5960    3    0    1
 -2      3080      2781      3926      3617
 -1      5961    3    0    1
 -2      2837      2588      3872      3941
 -1      5962    3    0    1
 -2      1780      3215      3226      1984
 -1      5963    3    0    1
 -2      1304      2399      3799      3822
 -1      5964    3    0    1
 -2      2841      3380      3891      3656
 -1      5965    3    0    1
 -2      1020      2045      2387      3784
 -1      5966    3    0    1
 -2      1505      1506      3021      1730
 -1      5967    3    0    1
 -2      1638      1562      1639      3270
 -1      5968    3    0    1
 -2      1772      3192      3860      1980
 -1      5969    3    0    1
 -2      1294       964      3789      3815
 -1      5970    3    0    1
 -2      2620      2535      2756      3791
 -1      5971    3    0    1
 -2      1315      2314      2464      2769
 -1      5972    3    0    1
 -2      3510      1712      1604      1713
 -1      5973    3    0    1
 -2      2983      3190      3864      4020
 -1      5974    3    0    1
 -2      1464      1852      1853      3491
 -1      5975    3    0    1
 -2      2314      1027      2685      3793
 -1      5976    3    0    1
 -2      1586      3037      3095      3937
 -1      5977    3    0    1
 -2      2417       806      2449      3199
 -1      5978    3    0    1
 -2      1589      1588      1823      3413
 -1      5979    3    0    1
 -2       646       643      2405      3097
 -1      5980    3    0    1
 -2      1904      1903      3458      3495
 -1      5981    3    0    1
 -2      1438      2898      1706      3304
 -1      5982    3    0    1
 -2      2748      2426      2992      3829
 -1      5983    3    0    1
 -2      1601      1600      1829      3313
 -1      5984    3    0    1
 -2      2673       554      3119      3687
 -1      5985    3    0    1
 -2       533       714      2627      2639
 -1      5986    3    0    1
 -2       721       718      1260      2639
 -1      5987    3    0    1
 -2       718       721      1020      2639
 -1      5988    3    0    1
 -2       534       533      1259      2639
 -1      5989    3    0    1
 -2       234      1815      1922      1923
 -1      5990    3    0    1
 -2       606      1157      1159      2640
 -1      5991    3    0    1
 -2       965       606      1293      2640
 -1      5992    3    0    1
 -2       468       469      1157      2640
 -1      5993    3    0    1
 -2      3237      2994      3851      3567
 -1      5994    3    0    1
 -2      1157       469      1159      2640
 -1      5995    3    0    1
 -2       964      2620      3789      3791
 -1      5996    3    0    1
 -2      1481      1482      3055      1831
 -1      5997    3    0    1
 -2      1702      1852      1853      3492
 -1      5998    3    0    1
 -2      1291       122      3781      1735
 -1      5999    3    0    1
 -2       117       570       955      1736
 -1      6000    3    0    1
 -2      1518      1517      3093      1841
 -1      6001    3    0    1
 -2      1050      2355      2436      2720
 -1      6002    3    0    1
 -2      1483      3777      3809      3880
 -1      6003    3    0    1
 -2      1522      1722      1723      3524
 -1      6004    3    0    1
 -2      1533      3040      3529      3594
 -1      6005    3    0    1
 -2       909       476      2659      2660
 -1      6006    3    0    1
 -2       943      1279       552      2659
 -1      6007    3    0    1
 -2      2552      2727      2774      3987
 -1      6008    3    0    1
 -2      1244       733      1255      2644
 -1      6009    3    0    1
 -2      1327       788      2730      2731
 -1      6010    3    0    1
 -2      3376      3212      3512      3951
 -1      6011    3    0    1
 -2       741       737      1030      2644
 -1      6012    3    0    1
 -2       737       741       933      2644
 -1      6013    3    0    1
 -2       186      1697       180      1751
 -1      6014    3    0    1
 -2       531       532      1244      2644
 -1      6015    3    0    1
 -2       531      1244      1255      2644
 -1      6016    3    0    1
 -2      1513      1689      3867      3379
 -1      6017    3    0    1
 -2       290      1334      2762      3829
 -1      6018    3    0    1
 -2      1615      2827      1616      3289
 -1      6019    3    0    1
 -2       430       406      1996      2011
 -1      6020    3    0    1
 -2       522       521      1236      2646
 -1      6021    3    0    1
 -2       522      1236      1237      2646
 -1      6022    3    0    1
 -2      3129      3015      3383      3886
 -1      6023    3    0    1
 -2      3249      3857      3914      3948
 -1      6024    3    0    1
 -2       672       996      2272      3835
 -1      6025    3    0    1
 -2      1546      3941      3521      1460
 -1      6026    3    0    1
 -2      3101      1431      3193      1886
 -1      6027    3    0    1
 -2      1908      1824      3677      3745
 -1      6028    3    0    1
 -2       290      2334      2525      2748
 -1      6029    3    0    1
 -2       655      1863      1864      3380
 -1      6030    3    0    1
 -2      2252       761      2514      2753
 -1      6031    3    0    1
 -2      3034      1507      3875      3499
 -1      6032    3    0    1
 -2       574      1163      1165      2688
 -1      6033    3    0    1
 -2       356       353      3824      3928
 -1      6034    3    0    1
 -2       779       780      1047      3754
 -1      6035    3    0    1
 -2      2147       991      2490      3702
 -1      6036    3    0    1
 -2       574       570      1284      2688
 -1      6037    3    0    1
 -2      1301       643       646      3097
 -1      6038    3    0    1
 -2      1020       331      2045      3784
 -1      6039    3    0    1
 -2      1633      1632      3095      3538
 -1      6040    3    0    1
 -2      3833      1050      3898      3918
 -1      6041    3    0    1
 -2       571       573      1284      2688
 -1      6042    3    0    1
 -2      2989      1704      1705      3044
 -1      6043    3    0    1
 -2      3492      1936      3550      1702
 -1      6044    3    0    1
 -2      3115      3823      3529      3936
 -1      6045    3    0    1
 -2      1790      1847      1899      3525
 -1      6046    3    0    1
 -2      2999      1707      3493      3956
 -1      6047    3    0    1
 -2      2549       945      3765      4030
 -1      6048    3    0    1
 -2       808       805      1060      2649
 -1      6049    3    0    1
 -2       805       808       925      2649
 -1      6050    3    0    1
 -2       504      1210       924      2649
 -1      6051    3    0    1
 -2      1210       504       505      2649
 -1      6052    3    0    1
 -2       455       665       898      2651
 -1      6053    3    0    1
 -2      2651       996      2586       671
 -1      6054    3    0    1
 -2       925       504      1209      2649
 -1      6055    3    0    1
 -2       505       504       925      2649
 -1      6056    3    0    1
 -2      1498      2830      3344      3464
 -1      6057    3    0    1
 -2       665       671       994      2651
 -1      6058    3    0    1
 -2       996       672      2282      2710
 -1      6059    3    0    1
 -2       669       665       994      2651
 -1      6060    3    0    1
 -2       665       669       898      2651
 -1      6061    3    0    1
 -2      3265      1728      3376      1939
 -1      6062    3    0    1
 -2       414      2405      2524      2684
 -1      6063    3    0    1
 -2      3134      3394      3926      3563
 -1      6064    3    0    1
 -2      3021      1505      1730      1731
 -1      6065    3    0    1
 -2      1067       822      2607      2652
 -1      6066    3    0    1
 -2       768       763      3338      3742
 -1      6067    3    0    1
 -2      3040      1533      1719      1720
 -1      6068    3    0    1
 -2       903       454      1136      2653
 -1      6069    3    0    1
 -2      1324      1042      2163      2761
 -1      6070    3    0    1
 -2       649       645      1150      2654
 -1      6071    3    0    1
 -2       645       649       984      2654
 -1      6072    3    0    1
 -2       464       454       903      2654
 -1      6073    3    0    1
 -2       754       902      1134      2675
 -1      6074    3    0    1
 -2      3437      2638      3918      3943
 -1      6075    3    0    1
 -2      1672      1671      1731      3128
 -1      6076    3    0    1
 -2        47       247      1674      1716
 -1      6077    3    0    1
 -2      2826      2623      3004      3892
 -1      6078    3    0    1
 -2      3003      1681      1420      1419
 -1      6079    3    0    1
 -2      1144      2813      3219      3576
 -1      6080    3    0    1
 -2      1536      1466      1537      2821
 -1      6081    3    0    1
 -2      2669      2918      3878      3933
 -1      6082    3    0    1
 -2      2592      2591      2889      3979
 -1      6083    3    0    1
 -2      3460      3814      3913      3950
 -1      6084    3    0    1
 -2      2665      2666      2757      2975
 -1      6085    3    0    1
 -2      3132      1719      3370      3888
 -1      6086    3    0    1
 -2      3145      3576      3602      3711
 -1      6087    3    0    1
 -2      1167       551       909      2659
 -1      6088    3    0    1
 -2       943       551      1279      2659
 -1      6089    3    0    1
 -2       129      1661      3868      3479
 -1      6090    3    0    1
 -2      3197      1777      3512      3951
 -1      6091    3    0    1
 -2      2617      2618      2771      3801
 -1      6092    3    0    1
 -2       556       551       943      2659
 -1      6093    3    0    1
 -2       551       556       909      2659
 -1      6094    3    0    1
 -2      2722      2749      3025      2935
 -1      6095    3    0    1
 -2       706       695      1272      2662
 -1      6096    3    0    1
 -2      3975      3971      3743      3752
 -1      6097    3    0    1
 -2       909       475      1167      2659
 -1      6098    3    0    1
 -2       476       475       909      2659
 -1      6099    3    0    1
 -2      1536       691      1537      2783
 -1      6100    3    0    1
 -2      1271      1270       696      2662
 -1      6101    3    0    1
 -2       758       751      1039      2675
 -1      6102    3    0    1
 -2      1737      1473      1738      3448
 -1      6103    3    0    1
 -2       695      1272      2662      2664
 -1      6104    3    0    1
 -2      3993      1966       433      3748
 -1      6105    3    0    1
 -2      1013       695      2662      2664
 -1      6106    3    0    1
 -2      3595      3993      2026      3748
 -1      6107    3    0    1
 -2       541      1272       937      2664
 -1      6108    3    0    1
 -2      1272       541       542      2664
 -1      6109    3    0    1
 -2      1272       542      2662      2664
 -1      6110    3    0    1
 -2       708      1013      2662      2664
 -1      6111    3    0    1
 -2      2595      3843      3899      3999
 -1      6112    3    0    1
 -2       405       408      3792      3832
 -1      6113    3    0    1
 -2      1463      1462      1677      3532
 -1      6114    3    0    1
 -2      1801      1546      3308      3530
 -1      6115    3    0    1
 -2       624       931      1231      2665
 -1      6116    3    0    1
 -2       973       624      1297      2665
 -1      6117    3    0    1
 -2       627       624       973      2665
 -1      6118    3    0    1
 -2       624       627       931      2665
 -1      6119    3    0    1
 -2       431      3841      1846      3853
 -1      6120    3    0    1
 -2       734      2817      2818      2884
 -1      6121    3    0    1
 -2      1645      2964      3100      3102
 -1      6122    3    0    1
 -2      1231       518       519      2665
 -1      6123    3    0    1
 -2      1557      1556      2960      1808
 -1      6124    3    0    1
 -2       518      1231       931      2665
 -1      6125    3    0    1
 -2      1796      1795      3299      3523
 -1      6126    3    0    1
 -2      1562      3019      3202      3270
 -1      6127    3    0    1
 -2      3113      3884      3465      4012
 -1      6128    3    0    1
 -2      3799      1304      3822      3856
 -1      6129    3    0    1
 -2       942      2369      2447      2724
 -1      6130    3    0    1
 -2      1482      1481      1726      3556
 -1      6131    3    0    1
 -2      1920      3581      3666      3692
 -1      6132    3    0    1
 -2      3807      2724      3923      4003
 -1      6133    3    0    1
 -2      1920      1955      1956      3692
 -1      6134    3    0    1
 -2      1516      1515      1649      2996
 -1      6135    3    0    1
 -2      1044      3718      3754      3763
 -1      6136    3    0    1
 -2       737      1030      2644      2671
 -1      6137    3    0    1
 -2       933       531      1256      2671
 -1      6138    3    0    1
 -2       532       531       933      2671
 -1      6139    3    0    1
 -2       532       933      2644      2671
 -1      6140    3    0    1
 -2      1030       743      2644      2671
 -1      6141    3    0    1
 -2      2944      1479      3007      3122
 -1      6142    3    0    1
 -2       716       709      1748      3134
 -1      6143    3    0    1
 -2       592       958      2713      2714
 -1      6144    3    0    1
 -2      1605      1846      3894      3545
 -1      6145    3    0    1
 -2      1551      3457      3616      1981
 -1      6146    3    0    1
 -2      2042       571      2214      2805
 -1      6147    3    0    1
 -2      2780      1330      3928      3678
 -1      6148    3    0    1
 -2      1908        21      1946      3745
 -1      6149    3    0    1
 -2       122      2225      2310      3781
 -1      6150    3    0    1
 -2      2898      2697      3874      3951
 -1      6151    3    0    1
 -2       943        98      2762      3829
 -1      6152    3    0    1
 -2      2831      2892      3846      3133
 -1      6153    3    0    1
 -2      3239      3872      3439      3941
 -1      6154    3    0    1
 -2      1421      1422      3482      1972
 -1      6155    3    0    1
 -2      1023      1029      2320      3139
 -1      6156    3    0    1
 -2      3133      2658      3846      3883
 -1      6157    3    0    1
 -2      1579      1578      1616      3289
 -1      6158    3    0    1
 -2      2839      2884      3854      3929
 -1      6159    3    0    1
 -2      1473      2772      1737      1738
 -1      6160    3    0    1
 -2      1062       349      1975      3686
 -1      6161    3    0    1
 -2      2898      3094      3951      3619
 -1      6162    3    0    1
 -2      2869      3811      3038      3823
 -1      6163    3    0    1
 -2      1613      1791      1792      3339
 -1      6164    3    0    1
 -2      3434      1631      3550      3560
 -1      6165    3    0    1
 -2      3799      3787      3813      3916
 -1      6166    3    0    1
 -2       278       349      1062      3686
 -1      6167    3    0    1
 -2       186       180      1885      3927
 -1      6168    3    0    1
 -2       760       748      1145      2675
 -1      6169    3    0    1
 -2       748       760      1038      2675
 -1      6170    3    0    1
 -2       902       461      1134      2675
 -1      6171    3    0    1
 -2       461       453      1134      2675
 -1      6172    3    0    1
 -2       757       754      1134      2676
 -1      6173    3    0    1
 -2       897       453      1145      2676
 -1      6174    3    0    1
 -2       453       461      1145      2676
 -1      6175    3    0    1
 -2       762      1038      2675      2676
 -1      6176    3    0    1
 -2      1145       461      2675      2676
 -1      6177    3    0    1
 -2      1054       784      1055      2678
 -1      6178    3    0    1
 -2       798      1054      1055      2678
 -1      6179    3    0    1
 -2      1279      2716      3689      4013
 -1      6180    3    0    1
 -2      1513      2989      3379      4010
 -1      6181    3    0    1
 -2       784       929      1174      2678
 -1      6182    3    0    1
 -2      2995      1777      1778      3423
 -1      6183    3    0    1
 -2       790       793      1053      2678
 -1      6184    3    0    1
 -2       793       790       928      2678
 -1      6185    3    0    1
 -2       510       481       929      2678
 -1      6186    3    0    1
 -2       929       481      1174      2678
 -1      6187    3    0    1
 -2       784       796      1055      2679
 -1      6188    3    0    1
 -2       481       510       913      2679
 -1      6189    3    0    1
 -2       913       510       928      2679
 -1      6190    3    0    1
 -2       797      1053      2678      2679
 -1      6191    3    0    1
 -2       928       510      2678      2679
 -1      6192    3    0    1
 -2       200      2508      2552      2727
 -1      6193    3    0    1
 -2      1578      1579      1616      3357
 -1      6194    3    0    1
 -2      1648      3020      3913      3535
 -1      6195    3    0    1
 -2      1459      1458      2875      1646
 -1      6196    3    0    1
 -2      1324       255      2761      3682
 -1      6197    3    0    1
 -2       230      1926      2000      2001
 -1      6198    3    0    1
 -2       673      2999      1707      1708
 -1      6199    3    0    1
 -2       355       290      3829      1804
 -1      6200    3    0    1
 -2      1556      1557      2960      2982
 -1      6201    3    0    1
 -2      1584      1583      3153      3311
 -1      6202    3    0    1
 -2      1421      1812      1813      3587
 -1      6203    3    0    1
 -2      3788      3802      3894      3545
 -1      6204    3    0    1
 -2      3804      2944      3007      3122
 -1      6205    3    0    1
 -2       471       472      2713      3057
 -1      6206    3    0    1
 -2      2809      3804      3007      3122
 -1      6207    3    0    1
 -2       472       471       907      3057
 -1      6208    3    0    1
 -2      1565      1564      3092      1774
 -1      6209    3    0    1
 -2      3055      2984      1830      1831
 -1      6210    3    0    1
 -2      1464      2972      1737      1738
 -1      6211    3    0    1
 -2       278      2415      3824      1877
 -1      6212    3    0    1
 -2       346      1042      2761      4000
 -1      6213    3    0    1
 -2      2821      1553      1467      3691
 -1      6214    3    0    1
 -2      1441      3799      3822      3856
 -1      6215    3    0    1
 -2       771       770      1325      2941
 -1      6216    3    0    1
 -2      1505      1730      1731      3125
 -1      6217    3    0    1
 -2      1840      3093      1841      3361
 -1      6218    3    0    1
 -2       735      1027      2432      2685
 -1      6219    3    0    1
 -2      1027       735      2314      2685
 -1      6220    3    0    1
 -2      2314       735      2432      2685
 -1      6221    3    0    1
 -2      3565      1468      1955      1956
 -1      6222    3    0    1
 -2      1569      1570      3060      1959
 -1      6223    3    0    1
 -2      3826      3259      3308      3530
 -1      6224    3    0    1
 -2      3837      3827      3898      3705
 -1      6225    3    0    1
 -2      2591       463      2592      2858
 -1      6226    3    0    1
 -2       100      3829      1803      1804
 -1      6227    3    0    1
 -2       159       144      1897      1963
 -1      6228    3    0    1
 -2      1624      1625      2876      3320
 -1      6229    3    0    1
 -2       158       155      1712      1727
 -1      6230    3    0    1
 -2      3359      3836      3932      3945
 -1      6231    3    0    1
 -2      3614       339      1916      1954
 -1      6232    3    0    1
 -2      1018      1312       717      2735
 -1      6233    3    0    1
 -2       717      1312       715      2735
 -1      6234    3    0    1
 -2      3293      2714      3876      3600
 -1      6235    3    0    1
 -2      2411      1035      2464      2769
 -1      6236    3    0    1
 -2      3282      3804      3871      3719
 -1      6237    3    0    1
 -2      3166      1425      1900      3719
 -1      6238    3    0    1
 -2      2367       950      2716      4013
 -1      6239    3    0    1
 -2       773       766      1045      2689
 -1      6240    3    0    1
 -2      3335      3804      3498      3719
 -1      6241    3    0    1
 -2      1428      1427      3417      3721
 -1      6242    3    0    1
 -2       779      1045      2611      2689
 -1      6243    3    0    1
 -2       173       169      2147      2710
 -1      6244    3    0    1
 -2      1045       766      2611      2689
 -1      6245    3    0    1
 -2      3219      3839      2022      3721
 -1      6246    3    0    1
 -2      1427      1428      2023      3721
 -1      6247    3    0    1
 -2      2448      2460      2619      3780
 -1      6248    3    0    1
 -2      2619      2460      2681      3780
 -1      6249    3    0    1
 -2      1569      3152      1958      3941
 -1      6250    3    0    1
 -2      1795      1796      3299      1887
 -1      6251    3    0    1
 -2      1594       245      1595      3006
 -1      6252    3    0    1
 -2      1785      3023      3312      3861
 -1      6253    3    0    1
 -2      2920      2954      2957      3954
 -1      6254    3    0    1
 -2      3290      3801      3915      3956
 -1      6255    3    0    1
 -2      1578      1615      1616      3289
 -1      6256    3    0    1
 -2       170      3800      1818      1905
 -1      6257    3    0    1
 -2      3858      3840      3998      4026
 -1      6258    3    0    1
 -2      3815      1294      3521      3941
 -1      6259    3    0    1
 -2      1642      2936      3907      3717
 -1      6260    3    0    1
 -2       805       278      3658      3686
 -1      6261    3    0    1
 -2      1982      2022      3708      3726
 -1      6262    3    0    1
 -2      1569      1294      3815      3941
 -1      6263    3    0    1
 -2      3454      2823      1978      1979
 -1      6264    3    0    1
 -2      1531      1530      1874      3575
 -1      6265    3    0    1
 -2       148       410      1997      3740
 -1      6266    3    0    1
 -2       552       555      2659      2694
 -1      6267    3    0    1
 -2      2659       555      2660      2694
 -1      6268    3    0    1
 -2       339      1858      1954      3614
 -1      6269    3    0    1
 -2       402      1619      3823      1856
 -1      6270    3    0    1
 -2      1752      3430      3933      3596
 -1      6271    3    0    1
 -2       449       553      2703      1624
 -1      6272    3    0    1
 -2      3000      2851      3814      3913
 -1      6273    3    0    1
 -2      2300      3785      3788      3400
 -1      6274    3    0    1
 -2       601       608      3160      3410
 -1      6275    3    0    1
 -2      3802      3841      3853      3894
 -1      6276    3    0    1
 -2      1538      1624      3110      3133
 -1      6277    3    0    1
 -2      1711      1512      3843      3494
 -1      6278    3    0    1
 -2      1463      1462      3267      1838
 -1      6279    3    0    1
 -2      2460      1325      3189      3902
 -1      6280    3    0    1
 -2       555      1280      2660      2694
 -1      6281    3    0    1
 -2      2225      2181      2310      3781
 -1      6282    3    0    1
 -2       735       734      1316      2884
 -1      6283    3    0    1
 -2      3269      2923      3002      1519
 -1      6284    3    0    1
 -2      3462      2886      3483      3501
 -1      6285    3    0    1
 -2       691      1788      1789      3264
 -1      6286    3    0    1
 -2      1442      3785      3808      3894
 -1      6287    3    0    1
 -2       734      1026      1316      2884
 -1      6288    3    0    1
 -2      3048      2602      3857      3875
 -1      6289    3    0    1
 -2      3082      3064      3878      4010
 -1      6290    3    0    1
 -2      2666      2757      2925      3842
 -1      6291    3    0    1
 -2      2820      3129      3210      3886
 -1      6292    3    0    1
 -2      1540      1739      3232      3324
 -1      6293    3    0    1
 -2      2894      1669      3315      3422
 -1      6294    3    0    1
 -2        95       551       556      3402
 -1      6295    3    0    1
 -2      1583      1488      2906      3296
 -1      6296    3    0    1
 -2      2415      1065      3824      1877
 -1      6297    3    0    1
 -2      3800      3787      3097      3931
 -1      6298    3    0    1
 -2      2694      3811      3049      3846
 -1      6299    3    0    1
 -2      2719      2659      2979      3846
 -1      6300    3    0    1
 -2      1196       769       772      2733
 -1      6301    3    0    1
 -2      1685      1686      3387      3500
 -1      6302    3    0    1
 -2      2853      2733      2941      3804
 -1      6303    3    0    1
 -2       788       789      2730      2969
 -1      6304    3    0    1
 -2       965      2228      2501      3169
 -1      6305    3    0    1
 -2      3024      1510      3520      3936
 -1      6306    3    0    1
 -2       965      1288      2228      2741
 -1      6307    3    0    1
 -2      1781      1443      1782      3431
 -1      6308    3    0    1
 -2      2987      2838      3035      3965
 -1      6309    3    0    1
 -2      3801      2952      3818      3895
 -1      6310    3    0    1
 -2      1470      1471      1778      3423
 -1      6311    3    0    1
 -2       625      1298       628      2975
 -1      6312    3    0    1
 -2      1541      1540      2914      1740
 -1      6313    3    0    1
 -2      2759      2415      3824      3928
 -1      6314    3    0    1
 -2      2682      2718      1895      1896
 -1      6315    3    0    1
 -2      3825      1665      3280      3485
 -1      6316    3    0    1
 -2      3149      3154      3468      3970
 -1      6317    3    0    1
 -2      3015      1253      3129      3383
 -1      6318    3    0    1
 -2       148       410      3863      1997
 -1      6319    3    0    1
 -2      1513      3867      3517      4010
 -1      6320    3    0    1
 -2      3256      1515      1849      1850
 -1      6321    3    0    1
 -2      3180      2690      3879      3970
 -1      6322    3    0    1
 -2      2948      3025      3825      3485
 -1      6323    3    0    1
 -2      2743      1583      3153      3312
 -1      6324    3    0    1
 -2      1475      2856      2867      2909
 -1      6325    3    0    1
 -2      3211      3872      3521      3578
 -1      6326    3    0    1
 -2      1301      2616      3800      3851
 -1      6327    3    0    1
 -2      3101      3412      3929      2017
 -1      6328    3    0    1
 -2      1319       347      2411      4000
 -1      6329    3    0    1
 -2       808       805      3641      3686
 -1      6330    3    0    1
 -2      3811      1583      3823      3157
 -1      6331    3    0    1
 -2      2683      3434      3486      3992
 -1      6332    3    0    1
 -2      1473      3121      3964      2009
 -1      6333    3    0    1
 -2      2892      3811      3846      3936
 -1      6334    3    0    1
 -2      1417      1418      1484      2746
 -1      6335    3    0    1
 -2       732      2903      1861      3949
 -1      6336    3    0    1
 -2      3087      1598      3218      3911
 -1      6337    3    0    1
 -2       459       460      1144      2813
 -1      6338    3    0    1
 -2      1730      3021      1731      3128
 -1      6339    3    0    1
 -2      3778      2448      3016      3889
 -1      6340    3    0    1
 -2      1671      1730      1731      3128
 -1      6341    3    0    1
 -2       755       243      1145       238
 -1      6342    3    0    1
 -2      3101      1795      3412      2017
 -1      6343    3    0    1
 -2      2703      2661      1611      1612
 -1      6344    3    0    1
 -2      1462      1463      1677      3438
 -1      6345    3    0    1
 -2      2890      3800      3063      3851
 -1      6346    3    0    1
 -2       588       906      1162      2713
 -1      6347    3    0    1
 -2       958       588      1288      2713
 -1      6348    3    0    1
 -2      2484      2629      3783      3830
 -1      6349    3    0    1
 -2       591       588       958      2713
 -1      6350    3    0    1
 -2       588       591       906      2713
 -1      6351    3    0    1
 -2      1669      2894      3315      3683
 -1      6352    3    0    1
 -2      2939      1429      1685      3516
 -1      6353    3    0    1
 -2      1162       471       472      2713
 -1      6354    3    0    1
 -2      2459      2535      2620      3791
 -1      6355    3    0    1
 -2       471      1162       906      2713
 -1      6356    3    0    1
 -2      3887      1915      1951      3683
 -1      6357    3    0    1
 -2      1915      3887      3929      3683
 -1      6358    3    0    1
 -2      2873      1586      3950      3727
 -1      6359    3    0    1
 -2      1440      1439      1656      2967
 -1      6360    3    0    1
 -2      3077      1602      3307      3395
 -1      6361    3    0    1
 -2      1645      2875      3149      3879
 -1      6362    3    0    1
 -2      1447      3366      3475      3914
 -1      6363    3    0    1
 -2      3803      1721      3833      3898
 -1      6364    3    0    1
 -2      1525      1526      2782      3263
 -1      6365    3    0    1
 -2      1780        46      3215      1984
 -1      6366    3    0    1
 -2      2976      1156      3027      3371
 -1      6367    3    0    1
 -2      3193      2860      3327      3892
 -1      6368    3    0    1
 -2      3360      3180      3891      3182
 -1      6369    3    0    1
 -2      3199      3795      3847      3972
 -1      6370    3    0    1
 -2      3030      1596      1748      1749
 -1      6371    3    0    1
 -2      2649       807      2650      2723
 -1      6372    3    0    1
 -2      2712      2804      2843      3685
 -1      6373    3    0    1
 -2      3167      2835      3980      4008
 -1      6374    3    0    1
 -2      1450      2900      1870      3651
 -1      6375    3    0    1
 -2      2738      2702      3848      3940
 -1      6376    3    0    1
 -2      2959      2737      3805      3944
 -1      6377    3    0    1
 -2       806      1059      1331      2723
 -1      6378    3    0    1
 -2       281       808       811      3686
 -1      6379    3    0    1
 -2      1533      3594      1987      1988
 -1      6380    3    0    1
 -2      1609      1685      1686      3387
 -1      6381    3    0    1
 -2      3062      1571      3329      1929
 -1      6382    3    0    1
 -2      1627       354      3795      3816
 -1      6383    3    0    1
 -2      1218       754      2721      2722
 -1      6384    3    0    1
 -2      1473      3478      2009      2010
 -1      6385    3    0    1
 -2      1498      1499      2823      3274
 -1      6386    3    0    1
 -2      3582      2998      3961      3974
 -1      6387    3    0    1
 -2      1574      1575      2930      1811
 -1      6388    3    0    1
 -2      3035      1590      3396      1897
 -1      6389    3    0    1
 -2       458       457       900      2726
 -1      6390    3    0    1
 -2      1418      1417      1484      3082
 -1      6391    3    0    1
 -2      2706      3846      3459      3687
 -1      6392    3    0    1
 -2       900       457      1140      2726
 -1      6393    3    0    1
 -2      1772      2855      3190      3192
 -1      6394    3    0    1
 -2      2681      2619      3780      3974
 -1      6395    3    0    1
 -2       990      3821      3822      3925
 -1      6396    3    0    1
 -2      3791      1580      3855      3969
 -1      6397    3    0    1
 -2      2454       224      4004      4014
 -1      6398    3    0    1
 -2      1920      1921      3625      3724
 -1      6399    3    0    1
 -2      2984      3055      1830      3593
 -1      6400    3    0    1
 -2      3854      2623      3892      3935
 -1      6401    3    0    1
 -2       790       918      1192      2730
 -1      6402    3    0    1
 -2      1051       790      1327      2730
 -1      6403    3    0    1
 -2      3865      3796      3910      3993
 -1      6404    3    0    1
 -2      2966      3854      3892      3935
 -1      6405    3    0    1
 -2      2697      3350      3874      3951
 -1      6406    3    0    1
 -2       790       787      1327      2730
 -1      6407    3    0    1
 -2       787       790      1192      2730
 -1      6408    3    0    1
 -2       411       147      4002      2037
 -1      6409    3    0    1
 -2      1911      1946      3745      3753
 -1      6410    3    0    1
 -2       680       673      2999      1707
 -1      6411    3    0    1
 -2      2797      3211      3872      3521
 -1      6412    3    0    1
 -2      3185      3889      3668      3731
 -1      6413    3    0    1
 -2       261       346      3820      4000
 -1      6414    3    0    1
 -2       625       628      2665      2975
 -1      6415    3    0    1
 -2       493       492      1192      2730
 -1      6416    3    0    1
 -2      1042      1324       770      2732
 -1      6417    3    0    1
 -2      2607      1067      2652      3814
 -1      6418    3    0    1
 -2       918       493      1192      2730
 -1      6419    3    0    1
 -2      3177      2806      3876      3385
 -1      6420    3    0    1
 -2      3348      1620      3993      3748
 -1      6421    3    0    1
 -2      2928      1590      1725      1726
 -1      6422    3    0    1
 -2      2734      2692      3976      3979
 -1      6423    3    0    1
 -2      1776      3200      3844      3573
 -1      6424    3    0    1
 -2       412      1577      3808      1771
 -1      6425    3    0    1
 -2      3790      3833      3862      3995
 -1      6426    3    0    1
 -2      2213      1000      2517      3882
 -1      6427    3    0    1
 -2       952       114      2233      3991
 -1      6428    3    0    1
 -2       718       901      1143      2735
 -1      6429    3    0    1
 -2      1018       718      1312      2735
 -1      6430    3    0    1
 -2      1955      3565      1956      3692
 -1      6431    3    0    1
 -2      2228       125      2572      3832
 -1      6432    3    0    1
 -2      1748      3030      1749      3167
 -1      6433    3    0    1
 -2       718       714      1312      2735
 -1      6434    3    0    1
 -2       714       718      1143      2735
 -1      6435    3    0    1
 -2       450       554      2718      1895
 -1      6436    3    0    1
 -2      1488      1489      3042      3311
 -1      6437    3    0    1
 -2      2687       571      2688      3834
 -1      6438    3    0    1
 -2      1880       601      1881      3410
 -1      6439    3    0    1
 -2      1559      2958      3135      1781
 -1      6440    3    0    1
 -2       460       459      1143      2735
 -1      6441    3    0    1
 -2       901       460      1143      2735
 -1      6442    3    0    1
 -2       962      2157      2310      3792
 -1      6443    3    0    1
 -2      1480      1479      1653      3007
 -1      6444    3    0    1
 -2      3829      2748      1803      1804
 -1      6445    3    0    1
 -2      1294       409      4006      4018
 -1      6446    3    0    1
 -2      2923      3269      3002      3893
 -1      6447    3    0    1
 -2      1694      1768      1769      3141
 -1      6448    3    0    1
 -2      3209      2828      3432      3969
 -1      6449    3    0    1
 -2      2999      1707      1708      3493
 -1      6450    3    0    1
 -2      2668      2535      3791      3810
 -1      6451    3    0    1
 -2      1161       471      2714      3057
 -1      6452    3    0    1
 -2        12      1906      1907      2028
 -1      6453    3    0    1
 -2      2720      3803      3806      3827
 -1      6454    3    0    1
 -2      1018      1309      2551      2744
 -1      6455    3    0    1
 -2        51        52      1921      3724
 -1      6456    3    0    1
 -2      2687      2871      3834      3857
 -1      6457    3    0    1
 -2      3326      2983      3864      4020
 -1      6458    3    0    1
 -2      3249      3914      3513      3948
 -1      6459    3    0    1
 -2      1592      1634      1635      3428
 -1      6460    3    0    1
 -2      1456      1457      1649      2978
 -1      6461    3    0    1
 -2      3993       433      2026      3748
 -1      6462    3    0    1
 -2      1798      1477      1799      3278
 -1      6463    3    0    1
 -2       707      1011      2512      3758
 -1      6464    3    0    1
 -2      1553      1467      3165      1466
 -1      6465    3    0    1
 -2       564       947      2455      2745
 -1      6466    3    0    1
 -2       947       564      2237      2745
 -1      6467    3    0    1
 -2      2237       564      2455      2745
 -1      6468    3    0    1
 -2      2599      3402       551      3756
 -1      6469    3    0    1
 -2       169       172      2035      3759
 -1      6470    3    0    1
 -2      1005      1011      3987      2012
 -1      6471    3    0    1
 -2      2987      3035      3261      3965
 -1      6472    3    0    1
 -2      1620      3796      3836      3348
 -1      6473    3    0    1
 -2      1548      3778      3794      3929
 -1      6474    3    0    1
 -2      1443      1444      3306      3694
 -1      6475    3    0    1
 -2      1562      1563      1638      2924
 -1      6476    3    0    1
 -2      2876      1624      3023      3875
 -1      6477    3    0    1
 -2       198      2512      2711      3784
 -1      6478    3    0    1
 -2       198      1014      2512      3784
 -1      6479    3    0    1
 -2      1020      3784      2014      2015
 -1      6480    3    0    1
 -2       331       215      3784      2015
 -1      6481    3    0    1
 -2      2387      2045      2512      3784
 -1      6482    3    0    1
 -2      2512      2045      2711      3784
 -1      6483    3    0    1
 -2       239       337      4004      2040
 -1      6484    3    0    1
 -2      3451      1515      3188      3548
 -1      6485    3    0    1
 -2      3129      1747      3210      3383
 -1      6486    3    0    1
 -2      1634      2868      1635      3343
 -1      6487    3    0    1
 -2      3837      1651      3569      3705
 -1      6488    3    0    1
 -2      1569      3060      1958      1959
 -1      6489    3    0    1
 -2      3796      2870      3865      4023
 -1      6490    3    0    1
 -2      2435       770      2436      3505
 -1      6491    3    0    1
 -2      2646      1236      2867      3233
 -1      6492    3    0    1
 -2       333      1027      2314      3793
 -1      6493    3    0    1
 -2       660      1303      2810      2811
 -1      6494    3    0    1
 -2       592      2042      2225      2805
 -1      6495    3    0    1
 -2       571      1284      2214      2805
 -1      6496    3    0    1
 -2       530      1254      2810      2811
 -1      6497    3    0    1
 -2      1423      1424      1817      3606
 -1      6498    3    0    1
 -2      2214       117      2691      3817
 -1      6499    3    0    1
 -2      2956      3423      3447      3591
 -1      6500    3    0    1
 -2      1470      1728      1729      3474
 -1      6501    3    0    1
 -2      3036      1606      3075      3555
 -1      6502    3    0    1
 -2      1441      3779      3916      4027
 -1      6503    3    0    1
 -2      2888      2646      3805      3207
 -1      6504    3    0    1
 -2      2963      2369      3877      3923
 -1      6505    3    0    1
 -2      2939      1685      1430      3391
 -1      6506    3    0    1
 -2      2535      3788      2828      3969
 -1      6507    3    0    1
 -2      1822      3208      1823      3413
 -1      6508    3    0    1
 -2      3061      2795      3883      3438
 -1      6509    3    0    1
 -2      1766      3017      3228      3407
 -1      6510    3    0    1
 -2      3804      2879      3122      3981
 -1      6511    3    0    1
 -2      1642      1574      3231      3953
 -1      6512    3    0    1
 -2      1197      2855      2983      3190
 -1      6513    3    0    1
 -2       753      2721      2722      2749
 -1      6514    3    0    1
 -2      1453      1452      1720      3059
 -1      6515    3    0    1
 -2      1034      1320       753      2749
 -1      6516    3    0    1
 -2      1689      1513      3867      3517
 -1      6517    3    0    1
 -2      3803      1449      1721      3713
 -1      6518    3    0    1
 -2      3872      2797      3521      3941
 -1      6519    3    0    1
 -2       753       752      1034      2749
 -1      6520    3    0    1
 -2       333      1027      3793      3302
 -1      6521    3    0    1
 -2       610       607       964      3815
 -1      6522    3    0    1
 -2       744      2252      2458      2753
 -1      6523    3    0    1
 -2      2376       744      2458      2753
 -1      6524    3    0    1
 -2       761      1322      2514      2753
 -1      6525    3    0    1
 -2       744       761      2252      2753
 -1      6526    3    0    1
 -2       406       430      3977      2011
 -1      6527    3    0    1
 -2      3796      2573      3836      3993
 -1      6528    3    0    1
 -2       761      1032      1322      2753
 -1      6529    3    0    1
 -2       761       744      1032      2753
 -1      6530    3    0    1
 -2      3910      1966      3985      3993
 -1      6531    3    0    1
 -2      3214      1818      1819      3309
 -1      6532    3    0    1
 -2      1497      1627      3795      3816
 -1      6533    3    0    1
 -2      1824      1825      1884      3681
 -1      6534    3    0    1
 -2      3197      3350      3590      3951
 -1      6535    3    0    1
 -2       828       290       355      1804
 -1      6536    3    0    1
 -2      2817       527      2818      3352
 -1      6537    3    0    1
 -2      1540      2801      2914      3534
 -1      6538    3    0    1
 -2      1059      3845      3878      1942
 -1      6539    3    0    1
 -2      1425      3411      1900      3496
 -1      6540    3    0    1
 -2      3138      1590      1897      1898
 -1      6541    3    0    1
 -2      1694      3105      1768      3453
 -1      6542    3    0    1
 -2      3840      3897      3586      3986
 -1      6543    3    0    1
 -2      1549      1758      3146      3528
 -1      6544    3    0    1
 -2      3852      2816      2908      3893
 -1      6545    3    0    1
 -2      2926      1764      1765      3214
 -1      6546    3    0    1
 -2      1458      1622      1623      2883
 -1      6547    3    0    1
 -2      3955      1657      3662      3672
 -1      6548    3    0    1
 -2      3238      3955      3664      3672
 -1      6549    3    0    1
 -2      2438      1289      3777      3899
 -1      6550    3    0    1
 -2      2825       750      1615      3871
 -1      6551    3    0    1
 -2      3807      1491      3923      3930
 -1      6552    3    0    1
 -2       255       346      1042      2761
 -1      6553    3    0    1
 -2      1513      1689      1690      3519
 -1      6554    3    0    1
 -2       413       411      3866      4002
 -1      6555    3    0    1
 -2      1915      1669      1916      3683
 -1      6556    3    0    1
 -2       255      1042      1324      2761
 -1      6557    3    0    1
 -2      3975      3870      3751      3762
 -1      6558    3    0    1
 -2      1619      1891      3923      3930
 -1      6559    3    0    1
 -2      1491      1619      3923      3930
 -1      6560    3    0    1
 -2      2195       394      2421      2763
 -1      6561    3    0    1
 -2       394       396      2421      2763
 -1      6562    3    0    1
 -2       396       394      1033      2763
 -1      6563    3    0    1
 -2       200      1011      2012      3758
 -1      6564    3    0    1
 -2      2743      2822      3834      3990
 -1      6565    3    0    1
 -2      3828      2743      3834      3990
 -1      6566    3    0    1
 -2      3070      3834      3953      3990
 -1      6567    3    0    1
 -2      3070      3828      3834      3990
 -1      6568    3    0    1
 -2      1683      2986      1903      1904
 -1      6569    3    0    1
 -2      1622      3143      3374      3890
 -1      6570    3    0    1
 -2      3628      3914      3681      3745
 -1      6571    3    0    1
 -2      3523      1795      3958      2017
 -1      6572    3    0    1
 -2       457      1140      2726      2784
 -1      6573    3    0    1
 -2      2618       457      2726      2784
 -1      6574    3    0    1
 -2      2828      2807      3209      3432
 -1      6575    3    0    1
 -2       202       215      3784      3797
 -1      6576    3    0    1
 -2      2528      1062      2548      3144
 -1      6577    3    0    1
 -2      3782       234      3902      3942
 -1      6578    3    0    1
 -2      3093      1517      3228      3455
 -1      6579    3    0    1
 -2      2714      3826      3293      3876
 -1      6580    3    0    1
 -2      1002      3835      1793      1794
 -1      6581    3    0    1
 -2      1777      1470      3512      3951
 -1      6582    3    0    1
 -2       186      3821      3925      3927
 -1      6583    3    0    1
 -2      3804      3326      3864      4028
 -1      6584    3    0    1
 -2      1643      1642      3355      3436
 -1      6585    3    0    1
 -2      1415      3026      1888      1889
 -1      6586    3    0    1
 -2      2972      1464      1737      3675
 -1      6587    3    0    1
 -2      1419      1420      3003      3291
 -1      6588    3    0    1
 -2      1249      3068      3352      3553
 -1      6589    3    0    1
 -2      2400      1335      3795      3199
 -1      6590    3    0    1
 -2      1592      1593      2868      3178
 -1      6591    3    0    1
 -2      1584      1583      3157      1857
 -1      6592    3    0    1
 -2      1640      3304      3433      1906
 -1      6593    3    0    1
 -2      3055      1481      1830      3593
 -1      6594    3    0    1
 -2       786      1822      3869      3461
 -1      6595    3    0    1
 -2      2879      2944      3804      3122
 -1      6596    3    0    1
 -2      1539      1538      3110      3403
 -1      6597    3    0    1
 -2      2855      2983      3190      3864
 -1      6598    3    0    1
 -2      3873      3120      3496      3988
 -1      6599    3    0    1
 -2      2917      3017      3228      3988
 -1      6600    3    0    1
 -2      3782      1542      1858      3988
 -1      6601    3    0    1
 -2      1034      1320      2749      3988
 -1      6602    3    0    1
 -2      2935      3873      3496      3988
 -1      6603    3    0    1
 -2      1618      2862      3818      3321
 -1      6604    3    0    1
 -2      1827      2987      3277      3946
 -1      6605    3    0    1
 -2       159      2909      1897      1914
 -1      6606    3    0    1
 -2      1445      1446      1550      2775
 -1      6607    3    0    1
 -2       964       134      3917      3922
 -1      6608    3    0    1
 -2      3215      3217      3844      3601
 -1      6609    3    0    1
 -2      3570      1530      1995      1996
 -1      6610    3    0    1
 -2      2588      3052      3872      4012
 -1      6611    3    0    1
 -2      3827      3803      3898      4005
 -1      6612    3    0    1
 -2       187       185      2451      2776
 -1      6613    3    0    1
 -2       185       187      2213      2776
 -1      6614    3    0    1
 -2      3782      1034      3496      3988
 -1      6615    3    0    1
 -2      1320      1034      3782      3988
 -1      6616    3    0    1
 -2      2917      3120      3873      3988
 -1      6617    3    0    1
 -2      2310       962      3792      2020
 -1      6618    3    0    1
 -2       405       125      3792      2020
 -1      6619    3    0    1
 -2      3790      2720      3833      3995
 -1      6620    3    0    1
 -2      3412      3929      2017      3750
 -1      6621    3    0    1
 -2      3750       335      2018      2026
 -1      6622    3    0    1
 -2      1696      2932      3703      4025
 -1      6623    3    0    1
 -2       413       414       645      2038
 -1      6624    3    0    1
 -2      2487       993       654      2547
 -1      6625    3    0    1
 -2       345       642       987      2036
 -1      6626    3    0    1
 -2       147      2847      4002      2037
 -1      6627    3    0    1
 -2       993      2147      2778      3994
 -1      6628    3    0    1
 -2      2778       993      2487      2547
 -1      6629    3    0    1
 -2       806      1330      2449      2780
 -1      6630    3    0    1
 -2      1068       823      2400      2780
 -1      6631    3    0    1
 -2      2400       823      2449      2780
 -1      6632    3    0    1
 -2       823       806      2449      2780
 -1      6633    3    0    1
 -2       806      1068      1330      2780
 -1      6634    3    0    1
 -2       806       823      1068      2780
 -1      6635    3    0    1
 -2      3821      3779      3822      3925
 -1      6636    3    0    1
 -2        98       943      2992      3829
 -1      6637    3    0    1
 -2      2710      2272      3014      3835
 -1      6638    3    0    1
 -2      1447      1448      1884      3566
 -1      6639    3    0    1
 -2      2981      1632      3538      3937
 -1      6640    3    0    1
 -2       716      3167      1807      3456
 -1      6641    3    0    1
 -2      1526      1525      2782      1789
 -1      6642    3    0    1
 -2      3941      1546      3578      3439
 -1      6643    3    0    1
 -2      1594      3051      1480      1479
 -1      6644    3    0    1
 -2       698       691      1536      2783
 -1      6645    3    0    1
 -2      1011       200      2012      3755
 -1      6646    3    0    1
 -2      1005      1011      2776      3987
 -1      6647    3    0    1
 -2      1863      3232      3380      3891
 -1      6648    3    0    1
 -2      2726      1140      3967      2784
 -1      6649    3    0    1
 -2      3019      2729      3202      3940
 -1      6650    3    0    1
 -2      1538      1624      1625      3110
 -1      6651    3    0    1
 -2       972      1301      3097      3931
 -1      6652    3    0    1
 -2      1567      3845      3921      3971
 -1      6653    3    0    1
 -2       932      2882      2987      3261
 -1      6654    3    0    1
 -2      1627      3816      3547      3637
 -1      6655    3    0    1
 -2       745       750      2825      3630
 -1      6656    3    0    1
 -2      1614      3603      1630      1629
 -1      6657    3    0    1
 -2      3129      3886      3589      3620
 -1      6658    3    0    1
 -2      3076      1665      1924      1925
 -1      6659    3    0    1
 -2       170       981      3800      3813
 -1      6660    3    0    1
 -2      2324      1044      2760      3820
 -1      6661    3    0    1
 -2      3788      1585      3810      3917
 -1      6662    3    0    1
 -2      1488      2906      3811      3164
 -1      6663    3    0    1
 -2       662       655      2904      3062
 -1      6664    3    0    1
 -2      2514      2374      2753      4004
 -1      6665    3    0    1
 -2      3180      3874      3891      3970
 -1      6666    3    0    1
 -2      2836      3013      3844      3869
 -1      6667    3    0    1
 -2      1294       964      2620      3789
 -1      6668    3    0    1
 -2      1452      1719      1720      3059
 -1      6669    3    0    1
 -2      3786      2725      3847      4011
 -1      6670    3    0    1
 -2      3410       608      3885      3669
 -1      6671    3    0    1
 -2      2914      1540      1739      1740
 -1      6672    3    0    1
 -2      3012      3830      3858      3901
 -1      6673    3    0    1
 -2      4003      2724      2468      3807
 -1      6674    3    0    1
 -2      2531      2469      2534      3016
 -1      6675    3    0    1
 -2       411       147      2974      3866
 -1      6676    3    0    1
 -2       781      1822      1823      3346
 -1      6677    3    0    1
 -2      2780       278      1330      2449
 -1      6678    3    0    1
 -2      1193       493      2836      3601
 -1      6679    3    0    1
 -2      2524      2684      3252      3866
 -1      6680    3    0    1
 -2       290       828       821      1804
 -1      6681    3    0    1
 -2      3030      1596      3584      4008
 -1      6682    3    0    1
 -2       414       413      2974      3866
 -1      6683    3    0    1
 -2      1516      1515      1850      3451
 -1      6684    3    0    1
 -2       907      1161      3395      3623
 -1      6685    3    0    1
 -2      1520      1519      1660      3002
 -1      6686    3    0    1
 -2      1519      1659      1660      3002
 -1      6687    3    0    1
 -2      2580      2616      2646      3805
 -1      6688    3    0    1
 -2      1425      1426      3411      3415
 -1      6689    3    0    1
 -2      2580      2646      2737      3805
 -1      6690    3    0    1
 -2      3638      2929      3667      4008
 -1      6691    3    0    1
 -2      2970      2623      3854      3935
 -1      6692    3    0    1
 -2      1210      2650      2954      3424
 -1      6693    3    0    1
 -2      2667      3098      3540      3543
 -1      6694    3    0    1
 -2       552      2447      3823       942
 -1      6695    3    0    1
 -2      3889      3579      3952      3731
 -1      6696    3    0    1
 -2       264       266      1651      2949
 -1      6697    3    0    1
 -2      1550      1549      3112      3377
 -1      6698    3    0    1
 -2      1456      1457      3279      1944
 -1      6699    3    0    1
 -2      2790      1606      3511      3518
 -1      6700    3    0    1
 -2      1585      3788      3802      3905
 -1      6701    3    0    1
 -2      1751       186      3925      3957
 -1      6702    3    0    1
 -2      3105      3453      3114      3979
 -1      6703    3    0    1
 -2       335      1017      3958      3985
 -1      6704    3    0    1
 -2      3297      1602      3503      3657
 -1      6705    3    0    1
 -2      1777      1571      3197      3512
 -1      6706    3    0    1
 -2      1532      2856      2909      3138
 -1      6707    3    0    1
 -2       607      2640      2641      2797
 -1      6708    3    0    1
 -2       607       610      2640      2797
 -1      6709    3    0    1
 -2      1667      3815      3147      3260
 -1      6710    3    0    1
 -2      1581      2955      3215      3226
 -1      6711    3    0    1
 -2      1417      1418      3022      3082
 -1      6712    3    0    1
 -2      2700      2971      3883      3900
 -1      6713    3    0    1
 -2      1008       214      3859      3945
 -1      6714    3    0    1
 -2      3621      1065      3641      3658
 -1      6715    3    0    1
 -2      2887      3798      2937      3251
 -1      6716    3    0    1
 -2      2830      1498      3344      3542
 -1      6717    3    0    1
 -2       787       794      1056      1976
 -1      6718    3    0    1
 -2      1583      1488      1584      2906
 -1      6719    3    0    1
 -2      1576      1524      3821      3897
 -1      6720    3    0    1
 -2      2594      2677      3950      3964
 -1      6721    3    0    1
 -2       709       716      3167      1807
 -1      6722    3    0    1
 -2      2882      2902      2987      3842
 -1      6723    3    0    1
 -2      1409      1742      1743      3117
 -1      6724    3    0    1
 -2       755       396      1038       748
 -1      6725    3    0    1
 -2      3849      3359      1952      3945
 -1      6726    3    0    1
 -2      1832      3236      1833      3315
 -1      6727    3    0    1
 -2      1667       129      1668      3416
 -1      6728    3    0    1
 -2      1551        56      1552      3151
 -1      6729    3    0    1
 -2       981      2416      3787      3799
 -1      6730    3    0    1
 -2      1649      1648      2978      2996
 -1      6731    3    0    1
 -2      1427      2022      2023      3707
 -1      6732    3    0    1
 -2      1413      3081      3251      3534
 -1      6733    3    0    1
 -2      3925      1573      3957      3986
 -1      6734    3    0    1
 -2      1325      1041      3189      3902
 -1      6735    3    0    1
 -2       709      1748      1749      3167
 -1      6736    3    0    1
 -2      2619      2448      3780      3889
 -1      6737    3    0    1
 -2      3435      1811       572       565
 -1      6738    3    0    1
 -2       571       592      1284      2805
 -1      6739    3    0    1
 -2       592       958      1284      2805
 -1      6740    3    0    1
 -2      2825       750      3871      3488
 -1      6741    3    0    1
 -2      2952      1008      3801      3818
 -1      6742    3    0    1
 -2      2629      1008      3783      3818
 -1      6743    3    0    1
 -2      2871      3083      3953      4017
 -1      6744    3    0    1
 -2      1449      3790      3833      3862
 -1      6745    3    0    1
 -2      1596      1748      1749      3563
 -1      6746    3    0    1
 -2      1749      1748      3134      3563
 -1      6747    3    0    1
 -2      2728      2714      3826      3293
 -1      6748    3    0    1
 -2      1419      3003      3284      3291
 -1      6749    3    0    1
 -2      1683      1880      1881      3410
 -1      6750    3    0    1
 -2       354      1797      1974      1987
 -1      6751    3    0    1
 -2      1520      1519      3002      1868
 -1      6752    3    0    1
 -2       431       412      3841      3853
 -1      6753    3    0    1
 -2      3808       412      1771      3853
 -1      6754    3    0    1
 -2      2605      3884      3904      3955
 -1      6755    3    0    1
 -2       757       754      1322      2040
 -1      6756    3    0    1
 -2      1442      3785      3800      3808
 -1      6757    3    0    1
 -2      3827      1521      3845      3921
 -1      6758    3    0    1
 -2      1525      2782      1788      3441
 -1      6759    3    0    1
 -2      2725      2468      2794      3786
 -1      6760    3    0    1
 -2      1410      1409      2864      1743
 -1      6761    3    0    1
 -2      2912      3082      3878      4010
 -1      6762    3    0    1
 -2      1577      1442      3800      3808
 -1      6763    3    0    1
 -2      3349      1596      1812      3563
 -1      6764    3    0    1
 -2      1501      1500      1656      3262
 -1      6765    3    0    1
 -2      3359       209      1952      3945
 -1      6766    3    0    1
 -2      3370      3174      3888      1917
 -1      6767    3    0    1
 -2      2045      2711      3784      3797
 -1      6768    3    0    1
 -2      1575      1574      1643      3436
 -1      6769    3    0    1
 -2      1909      1908      1946      3753
 -1      6770    3    0    1
 -2      2646      3805      3207      3593
 -1      6771    3    0    1
 -2      1581      1582      2955      1680
 -1      6772    3    0    1
 -2      1458      1645      1646      3102
 -1      6773    3    0    1
 -2      2665      2666      2882      3842
 -1      6774    3    0    1
 -2      1657      1439      1658      3238
 -1      6775    3    0    1
 -2       949      3899      3977      3983
 -1      6776    3    0    1
 -2       528       527      2817      3352
 -1      6777    3    0    1
 -2      2756      3789      3791      3969
 -1      6778    3    0    1
 -2      1590      3035      3396      3626
 -1      6779    3    0    1
 -2      2856      2867      2909      3805
 -1      6780    3    0    1
 -2      3821      1576      3897      3927
 -1      6781    3    0    1
 -2       248      1815      3480      3942
 -1      6782    3    0    1
 -2       716      1748      3167      3456
 -1      6783    3    0    1
 -2      1210      2649      3424       924
 -1      6784    3    0    1
 -2      3307      1824      3395      3665
 -1      6785    3    0    1
 -2      1782      1781      3431      3467
 -1      6786    3    0    1
 -2       661       991      1303      2810
 -1      6787    3    0    1
 -2      2469      2534      3016      3185
 -1      6788    3    0    1
 -2      1507      1508      2661      3061
 -1      6789    3    0    1
 -2      1766      3305      3854      3421
 -1      6790    3    0    1
 -2       133       970      3863      1998
 -1      6791    3    0    1
 -2       133       970      2589      3863
 -1      6792    3    0    1
 -2       117       116      3817      3704
 -1      6793    3    0    1
 -2      1647       159      2909      1897
 -1      6794    3    0    1
 -2      1285       949      3828      3834
 -1      6795    3    0    1
 -2      1455      1454      1643      2905
 -1      6796    3    0    1
 -2      2871      3857      3390      3449
 -1      6797    3    0    1
 -2      1144      1142      2813      3576
 -1      6798    3    0    1
 -2       991       660      1303      2810
 -1      6799    3    0    1
 -2      1254       660      1252      2810
 -1      6800    3    0    1
 -2       660       663      1252      2810
 -1      6801    3    0    1
 -2       663       660       991      2810
 -1      6802    3    0    1
 -2      2795      3883      3580      3982
 -1      6803    3    0    1
 -2      2589      2372      2885      3863
 -1      6804    3    0    1
 -2       282       356      3928      3678
 -1      6805    3    0    1
 -2      2594      3000      3814      3913
 -1      6806    3    0    1
 -2      3848      3237      3567      3606
 -1      6807    3    0    1
 -2      1473      1474      3478      2010
 -1      6808    3    0    1
 -2      1450      1451      2916      2938
 -1      6809    3    0    1
 -2      1515      1648      1649      2996
 -1      6810    3    0    1
 -2      1059       352      3845      1942
 -1      6811    3    0    1
 -2      1254       529       530      2810
 -1      6812    3    0    1
 -2      1039      1044      2324      3820
 -1      6813    3    0    1
 -2       529      1254      1252      2810
 -1      6814    3    0    1
 -2       158      1744      3378      3443
 -1      6815    3    0    1
 -2      1713      1712      3243      1893
 -1      6816    3    0    1
 -2      1598      1599      3028      3084
 -1      6817    3    0    1
 -2       942      2694      3811      3823
 -1      6818    3    0    1
 -2      1605      3841      1846      3905
 -1      6819    3    0    1
 -2      3839      2833      3604      3980
 -1      6820    3    0    1
 -2      2824       698      2895      1788
 -1      6821    3    0    1
 -2      3787      1621      3800      3813
 -1      6822    3    0    1
 -2      3068      2966      3352      3926
 -1      6823    3    0    1
 -2      2314      2685      2751      3793
 -1      6824    3    0    1
 -2       278      2780      1330      3928
 -1      6825    3    0    1
 -2       733       736      1248      2817
 -1      6826    3    0    1
 -2       736       733      1027      2817
 -1      6827    3    0    1
 -2      2756      2620      3789      3809
 -1      6828    3    0    1
 -2      3831      3085      3469      3958
 -1      6829    3    0    1
 -2        21      1908      2029      3745
 -1      6830    3    0    1
 -2       528       527      1248      2817
 -1      6831    3    0    1
 -2       727       732      1840      3361
 -1      6832    3    0    1
 -2      1776      1551      3844      3674
 -1      6833    3    0    1
 -2      2712      3218      3911      4019
 -1      6834    3    0    1
 -2       770       771      2733      2941
 -1      6835    3    0    1
 -2      2608      2404      2720      3790
 -1      6836    3    0    1
 -2      2469      2462      2534      2998
 -1      6837    3    0    1
 -2      3069      2962      3285      3851
 -1      6838    3    0    1
 -2      1655      1656      2967      3116
 -1      6839    3    0    1
 -2      2237      3769      3772      4030
 -1      6840    3    0    1
 -2      1673      1716      3386      3483
 -1      6841    3    0    1
 -2      3778      1548      3794      3564
 -1      6842    3    0    1
 -2      1284       117      2214      3817
 -1      6843    3    0    1
 -2       691       698      2824      1788
 -1      6844    3    0    1
 -2      1624      2703      1625      3110
 -1      6845    3    0    1
 -2      1479      1653      1654      3229
 -1      6846    3    0    1
 -2      1729      1728      3171      3265
 -1      6847    3    0    1
 -2      1536      2622      1537      2824
 -1      6848    3    0    1
 -2       691      1536      1537      2824
 -1      6849    3    0    1
 -2      1531      3452      3570      1995
 -1      6850    3    0    1
 -2      2792      3826      3906      3907
 -1      6851    3    0    1
 -2      1810      3436      3906      3717
 -1      6852    3    0    1
 -2      3103      1519      3546      3725
 -1      6853    3    0    1
 -2      1456      1648      1649      3107
 -1      6854    3    0    1
 -2      1552      1551      3148      3616
 -1      6855    3    0    1
 -2      3049      2979      3846      3687
 -1      6856    3    0    1
 -2      3864      3577      2732      4028
 -1      6857    3    0    1
 -2      1822      3109      1823      3346
 -1      6858    3    0    1
 -2       745      2825      1615      1616
 -1      6859    3    0    1
 -2      2461      2494      2807      2828
 -1      6860    3    0    1
 -2      3785      2300      3788      2828
 -1      6861    3    0    1
 -2      3854      3221      3372      3935
 -1      6862    3    0    1
 -2      2820      3129      3205      3210
 -1      6863    3    0    1
 -2      2494      2561      2807      2828
 -1      6864    3    0    1
 -2       331      1018      2551      3797
 -1      6865    3    0    1
 -2      1586      2873      1632      1633
 -1      6866    3    0    1
 -2      1026      2448      3778      3794
 -1      6867    3    0    1
 -2      3076      2997      3158      4020
 -1      6868    3    0    1
 -2      3216      1960      1968      3602
 -1      6869    3    0    1
 -2      1560      1559      1782      3467
 -1      6870    3    0    1
 -2      3179      2729      3183      3202
 -1      6871    3    0    1
 -2      3317      1493      3504      3967
 -1      6872    3    0    1
 -2       234      1325      3902      3498
 -1      6873    3    0    1
 -2      2606       498      2607      3156
 -1      6874    3    0    1
 -2      1330       278      3928      3678
 -1      6875    3    0    1
 -2      1798      3844      3322      3573
 -1      6876    3    0    1
 -2      2418      2525      2748      3829
 -1      6877    3    0    1
 -2       919      2855      1732      3246
 -1      6878    3    0    1
 -2       449      2703      1611      1612
 -1      6879    3    0    1
 -2        56       273      3151      1957
 -1      6880    3    0    1
 -2      1657      3657      2003      2004
 -1      6881    3    0    1
 -2      2000      1687      2001      3680
 -1      6882    3    0    1
 -2       129      1667      1668      3260
 -1      6883    3    0    1
 -2       349       281      3939      1975
 -1      6884    3    0    1
 -2      1790      2934      3880      3525
 -1      6885    3    0    1
 -2      2836      3200      3844      3601
 -1      6886    3    0    1
 -2      1952      3849      3818      1618
 -1      6887    3    0    1
 -2      2711       198      3784      3797
 -1      6888    3    0    1
 -2      3172      2929      3300      3980
 -1      6889    3    0    1
 -2        47      1673      1839      3639
 -1      6890    3    0    1
 -2      3804      2631      3282      3871
 -1      6891    3    0    1
 -2       423       421      3835      1794
 -1      6892    3    0    1
 -2      3903      1434      3974      3676
 -1      6893    3    0    1
 -2       644       637      2843      3218
 -1      6894    3    0    1
 -2       266      1331      3806      3837
 -1      6895    3    0    1
 -2      2897      3693      3720      3726
 -1      6896    3    0    1
 -2      3306      1444      3659      3694
 -1      6897    3    0    1
 -2       962       122      1291      3533
 -1      6898    3    0    1
 -2      2561      2531      2845      3223
 -1      6899    3    0    1
 -2      2747      3268      3857      3605
 -1      6900    3    0    1
 -2      3877      3472      3930      3968
 -1      6901    3    0    1
 -2      3273      1665      3488      4020
 -1      6902    3    0    1
 -2      3003      3831      3284      3291
 -1      6903    3    0    1
 -2      2860      2829      3854      3892
 -1      6904    3    0    1
 -2      2531      2845      3223      3840
 -1      6905    3    0    1
 -2      2494      2561      3088      3223
 -1      6906    3    0    1
 -2      3779      2467      3223      3840
 -1      6907    3    0    1
 -2      3513      3914      3628      3745
 -1      6908    3    0    1
 -2      2903       727      1861      1862
 -1      6909    3    0    1
 -2       234      1545      1815      3942
 -1      6910    3    0    1
 -2      1594      1480      1595      3414
 -1      6911    3    0    1
 -2      1540      2801      3534      3646
 -1      6912    3    0    1
 -2      1611       553      3034      3875
 -1      6913    3    0    1
 -2      1538      3023      3073      3320
 -1      6914    3    0    1
 -2      3813       432      3916      3670
 -1      6915    3    0    1
 -2      1500      1655      1656      3262
 -1      6916    3    0    1
 -2      3884      3027      3904      3592
 -1      6917    3    0    1
 -2      3275      3352      3926      3997
 -1      6918    3    0    1
 -2      1721      1449      3833      3918
 -1      6919    3    0    1
 -2       212        76      1960      1968
 -1      6920    3    0    1
 -2       572      1811      3356       565
 -1      6921    3    0    1
 -2      1830      1481      1831      3342
 -1      6922    3    0    1
 -2      3235      3254      3456      3980
 -1      6923    3    0    1
 -2      2535      2459      2668      3791
 -1      6924    3    0    1
 -2      2305      2461      3159      3323
 -1      6925    3    0    1
 -2      2459      1298      2543      3917
 -1      6926    3    0    1
 -2      2797      3815      3521      3941
 -1      6927    3    0    1
 -2      3893      3155      3464      3568
 -1      6928    3    0    1
 -2      1419      1791      1792      3291
 -1      6929    3    0    1
 -2      1598       644      3179      3183
 -1      6930    3    0    1
 -2      2987      2882      3842      3965
 -1      6931    3    0    1
 -2      2893      2807      3894      3545
 -1      6932    3    0    1
 -2      1597      1596      3030      1749
 -1      6933    3    0    1
 -2      1065      1337      3824      1877
 -1      6934    3    0    1
 -2       255      1047      3682      3989
 -1      6935    3    0    1
 -2      1928      3954      3679      3733
 -1      6936    3    0    1
 -2      1446      1445      1904      3495
 -1      6937    3    0    1
 -2       144      1897      1898      1914
 -1      6938    3    0    1
 -2      1666      1665      1699      3273
 -1      6939    3    0    1
 -2      3800      1621      3063      1818
 -1      6940    3    0    1
 -2      3782      1320      3889      3527
 -1      6941    3    0    1
 -2      3112      1549      3146      3528
 -1      6942    3    0    1
 -2       414       413      4002      2038
 -1      6943    3    0    1
 -2      2959      2867      1744      3378
 -1      6944    3    0    1
 -2       332       334      3793      3850
 -1      6945    3    0    1
 -2      2904       662      3062      3329
 -1      6946    3    0    1
 -2      3971      1994      3743      3752
 -1      6947    3    0    1
 -2       180      3927      3957      3986
 -1      6948    3    0    1
 -2       970       975      3863      1997
 -1      6949    3    0    1
 -2      1515      3256      1849      3913
 -1      6950    3    0    1
 -2      2617       699      2618      2842
 -1      6951    3    0    1
 -2      3080      1781      3431      3617
 -1      6952    3    0    1
 -2      3432      3788      3894      3545
 -1      6953    3    0    1
 -2      3585      2845      3986      4027
 -1      6954    3    0    1
 -2       697       699      2617      2842
 -1      6955    3    0    1
 -2      1701      3828      3977      2011
 -1      6956    3    0    1
 -2      3170      3831      3284      3958
 -1      6957    3    0    1
 -2      1982      3708      3720      3726
 -1      6958    3    0    1
 -2      1585      3802      3841      3905
 -1      6959    3    0    1
 -2      1572      1571      2995      3062
 -1      6960    3    0    1
 -2       996      1002      3835      1793
 -1      6961    3    0    1
 -2      1491      1619      3930      3934
 -1      6962    3    0    1
 -2      2612      2993      3869      3943
 -1      6963    3    0    1
 -2       799      1632      1633      2981
 -1      6964    3    0    1
 -2      1023      1029      3139      3850
 -1      6965    3    0    1
 -2       715       717      2735      2844
 -1      6966    3    0    1
 -2       717       715      1313      2844
 -1      6967    3    0    1
 -2       943      2418      2447      3764
 -1      6968    3    0    1
 -2      3875      3048      3499      3532
 -1      6969    3    0    1
 -2       715      2735      2736      2844
 -1      6970    3    0    1
 -2       715      1017      1313      2844
 -1      6971    3    0    1
 -2      2818      2966      3068      3173
 -1      6972    3    0    1
 -2      1470      1471      1729      3171
 -1      6973    3    0    1
 -2      1415      1416      1638      3198
 -1      6974    3    0    1
 -2      1688      1687      3009      3351
 -1      6975    3    0    1
 -2      3319      3368      1919      3610
 -1      6976    3    0    1
 -2      3821       186      3881      3927
 -1      6977    3    0    1
 -2       715      2736      2814      2844
 -1      6978    3    0    1
 -2      1017       715      2814      2844
 -1      6979    3    0    1
 -2      3814      2594      3950      3964
 -1      6980    3    0    1
 -2      1450      2840      1679      1680
 -1      6981    3    0    1
 -2      1450      1451      2840      1680
 -1      6982    3    0    1
 -2      1659      1519      1660      3546
 -1      6983    3    0    1
 -2      3707      3693      3708      3726
 -1      6984    3    0    1
 -2      3131      2969      3918      3996
 -1      6985    3    0    1
 -2      2998      2469      3506      3974
 -1      6986    3    0    1
 -2      1605      1585      3841      3905
 -1      6987    3    0    1
 -2       781       786      1689      3328
 -1      6988    3    0    1
 -2      1494      1495      3305      3421
 -1      6989    3    0    1
 -2      1665      1666      3076      3273
 -1      6990    3    0    1
 -2      3839      3145      3417      3721
 -1      6991    3    0    1
 -2      2933      2615      3192      3860
 -1      6992    3    0    1
 -2      2846      1603      1888      3699
 -1      6993    3    0    1
 -2      1307       999      3821      3881
 -1      6994    3    0    1
 -2      1586      1587      1633      3095
 -1      6995    3    0    1
 -2      2719      2979      3227      3846
 -1      6996    3    0    1
 -2      1301      2616      3851      3567
 -1      6997    3    0    1
 -2      1798      3099      3844      3278
 -1      6998    3    0    1
 -2      3472       106      3930      3968
 -1      6999    3    0    1
 -2      1586      1587      2873      1633
 -1      7000    3    0    1
 -2      1432      1431      3193      3327
 -1      7001    3    0    1
 -2      3800      1621      1818      1905
 -1      7002    3    0    1
 -2      1567      1521      3845      3281
 -1      7003    3    0    1
 -2      3210      3129      3383      3886
 -1      7004    3    0    1
 -2      2826      2635      3926      3935
 -1      7005    3    0    1
 -2      3078      2850      3377      3592
 -1      7006    3    0    1
 -2      2816      3852      2908      3905
 -1      7007    3    0    1
 -2      1417      3022      3044      4010
 -1      7008    3    0    1
 -2      2646      2616      2888      3805
 -1      7009    3    0    1
 -2      3814      2628      3225      3358
 -1      7010    3    0    1
 -2      1436      1437      2926      1765
 -1      7011    3    0    1
 -2       590       583      1606      3075
 -1      7012    3    0    1
 -2      1495      1494      1767      3421
 -1      7013    3    0    1
 -2      1431      1432      1637      3327
 -1      7014    3    0    1
 -2      1666      1665      3280      3325
 -1      7015    3    0    1
 -2      1677      1676      3499      3532
 -1      7016    3    0    1
 -2       962       967      2157      3792
 -1      7017    3    0    1
 -2      1449      1652      3918      3996
 -1      7018    3    0    1
 -2      1659      1411      1660      3195
 -1      7019    3    0    1
 -2       129       134      3260      1859
 -1      7020    3    0    1
 -2       815      1062      2528      3144
 -1      7021    3    0    1
 -2      1571      1572      3182      1930
 -1      7022    3    0    1
 -2       815      2528      2560      3144
 -1      7023    3    0    1
 -2       668       173       421      3463
 -1      7024    3    0    1
 -2      3887      3794      3579      3952
 -1      7025    3    0    1
 -2      1431      3101      3193      3327
 -1      7026    3    0    1
 -2       981      3787      3800      3813
 -1      7027    3    0    1
 -2      2685      2347      2751      3793
 -1      7028    3    0    1
 -2      1219      2948      3294      3462
 -1      7029    3    0    1
 -2      1460      1461      2985      3393
 -1      7030    3    0    1
 -2       967      3792      2020      2021
 -1      7031    3    0    1
 -2      2310      2157      2572      3792
 -1      7032    3    0    1
 -2      1758        19      1827      3381
 -1      7033    3    0    1
 -2      2895      3801      3812      3895
 -1      7034    3    0    1
 -2      2862      3298      3339      3895
 -1      7035    3    0    1
 -2      1575      1574      2930      3231
 -1      7036    3    0    1
 -2      2645      2673      3119      3936
 -1      7037    3    0    1
 -2      2813      2735      3220      3980
 -1      7038    3    0    1
 -2      1592      1635      2868      1593
 -1      7039    3    0    1
 -2      1588      1798      1799      3322
 -1      7040    3    0    1
 -2      1798      3099      3278      3322
 -1      7041    3    0    1
 -2      1462      3096      1837      1838
 -1      7042    3    0    1
 -2      3392      2986      3904      3514
 -1      7043    3    0    1
 -2      1414      1413      3081      1774
 -1      7044    3    0    1
 -2       450       554      3478      2009
 -1      7045    3    0    1
 -2        95      1282      3402        98
 -1      7046    3    0    1
 -2      1920      3531      3679      3724
 -1      7047    3    0    1
 -2      1431      1432      3193      1887
 -1      7048    3    0    1
 -2      2625      2712      3911      4019
 -1      7049    3    0    1
 -2      1645      2964      3102      3890
 -1      7050    3    0    1
 -2      3811      2590      3047      3936
 -1      7051    3    0    1
 -2      1781      1559      3287      3467
 -1      7052    3    0    1
 -2      1696      2798      1565      1564
 -1      7053    3    0    1
 -2      1504      1503      3214      1818
 -1      7054    3    0    1
 -2      3457      2848      3616      1981
 -1      7055    3    0    1
 -2      2782      3220      3441      3980
 -1      7056    3    0    1
 -2        52        51      1921      3581
 -1      7057    3    0    1
 -2      3903      3480      1965      3676
 -1      7058    3    0    1
 -2       691       698      1788      3264
 -1      7059    3    0    1
 -2      3803      2720      3806      3833
 -1      7060    3    0    1
 -2      2617       697      2842      3801
 -1      7061    3    0    1
 -2       463       462      1146      2858
 -1      7062    3    0    1
 -2      3118       727      1840      1841
 -1      7063    3    0    1
 -2      2782      3003      3831      3263
 -1      7064    3    0    1
 -2      1146       462      1148      2858
 -1      7065    3    0    1
 -2      3811      1538      1785      3403
 -1      7066    3    0    1
 -2      2906      1488      3811      3296
 -1      7067    3    0    1
 -2      1409      1410      1623      3554
 -1      7068    3    0    1
 -2      2782      1525      3263      3441
 -1      7069    3    0    1
 -2        51        52      1927      3581
 -1      7070    3    0    1
 -2       964      1294       610      3815
 -1      7071    3    0    1
 -2      3373      1873      3434      4022
 -1      7072    3    0    1
 -2      1454      1455      1643      3355
 -1      7073    3    0    1
 -2      2791      3801      3895      3956
 -1      7074    3    0    1
 -2      3810      1585      3868      3917
 -1      7075    3    0    1
 -2      3845      1567      3430      1942
 -1      7076    3    0    1
 -2      1474      1473      2772      3700
 -1      7077    3    0    1
 -2      3802      1605      3894      3545
 -1      7078    3    0    1
 -2       626       619      1722      3086
 -1      7079    3    0    1
 -2      1722       619      1723      3086
 -1      7080    3    0    1
 -2      1847      1790      1899       409
 -1      7081    3    0    1
 -2      1230      2882      2902      2987
 -1      7082    3    0    1
 -2      1193      2836      3217      3601
 -1      7083    3    0    1
 -2      3106      3933      3552      3596
 -1      7084    3    0    1
 -2      1847      1790      3880      3525
 -1      7085    3    0    1
 -2       212        76      1809      3314
 -1      7086    3    0    1
 -2       407      3781      1735      1736
 -1      7087    3    0    1
 -2       955      1291      3781      1735
 -1      7088    3    0    1
 -2      2925      3269      3885      3893
 -1      7089    3    0    1
 -2      2696      2636      3812      3693
 -1      7090    3    0    1
 -2      2551      1018      2744      3797
 -1      7091    3    0    1
 -2      3814      3011      3174      3888
 -1      7092    3    0    1
 -2      2508       198      2711      3797
 -1      7093    3    0    1
 -2      1309       198      2508      3797
 -1      7094    3    0    1
 -2      1693      1580      3074      4006
 -1      7095    3    0    1
 -2      3808      3802      3853      3894
 -1      7096    3    0    1
 -2      1936      1702      1937      3647
 -1      7097    3    0    1
 -2      3288      2826      3394      3892
 -1      7098    3    0    1
 -2      2960      1556      2982      3892
 -1      7099    3    0    1
 -2      1050       266      3806      3898
 -1      7100    3    0    1
 -2      2728      3293      3906      3717
 -1      7101    3    0    1
 -2      3779      3821      3897      3927
 -1      7102    3    0    1
 -2      1758        19      3381      1902
 -1      7103    3    0    1
 -2      2856      1475      2867      3378
 -1      7104    3    0    1
 -2      3099      3206      3844      3278
 -1      7105    3    0    1
 -2      3286      3030      3584      4008
 -1      7106    3    0    1
 -2      1602      1835      3307      3395
 -1      7107    3    0    1
 -2      2887      2810      4019      2849
 -1      7108    3    0    1
 -2      2194      2764      4013      3757
 -1      7109    3    0    1
 -2      2512       198      2711      3758
 -1      7110    3    0    1
 -2      1630      3818      3298      3321
 -1      7111    3    0    1
 -2      3603       214      1629      1805
 -1      7112    3    0    1
 -2      3811      1488      3164      3296
 -1      7113    3    0    1
 -2      2721      2948      3025      3318
 -1      7114    3    0    1
 -2      1417      1704      3404      3470
 -1      7115    3    0    1
 -2       133       136       965      3169
 -1      7116    3    0    1
 -2      1516      1515      3256      1850
 -1      7117    3    0    1
 -2      3318      3825      3873      3949
 -1      7118    3    0    1
 -2       799       804      1632      2981
 -1      7119    3    0    1
 -2      2925      3162      3269      3893
 -1      7120    3    0    1
 -2      3023      2876      2704      3320
 -1      7121    3    0    1
 -2        23      3497      1948      1967
 -1      7122    3    0    1
 -2      1437      1436      2926      3084
 -1      7123    3    0    1
 -2      2855      3190      3860      3864
 -1      7124    3    0    1
 -2      1566      3151      1957      3674
 -1      7125    3    0    1
 -2      3078      2850      3112      3377
 -1      7126    3    0    1
 -2      3827      3845      3837      3806
 -1      7127    3    0    1
 -2      1613      1630      3298      3321
 -1      7128    3    0    1
 -2      1554      1553      3165      3612
 -1      7129    3    0    1
 -2      2730      2731      2969      4007
 -1      7130    3    0    1
 -2      3780      1542      3782      3819
 -1      7131    3    0    1
 -2      1639      1415      3198      3944
 -1      7132    3    0    1
 -2      1655      1500      3184      3262
 -1      7133    3    0    1
 -2      3004      2826      3892      3935
 -1      7134    3    0    1
 -2      2986      1683      3904      3514
 -1      7135    3    0    1
 -2      3831      3003      3284      3441
 -1      7136    3    0    1
 -2      1529      1528      1653      3229
 -1      7137    3    0    1
 -2      2973      3145      3839      3576
 -1      7138    3    0    1
 -2      2984      3805      3207      3524
 -1      7139    3    0    1
 -2      2606      3814      3460      3964
 -1      7140    3    0    1
 -2      2462      2270      2536      2878
 -1      7141    3    0    1
 -2      2416      2773      3787      3799
 -1      7142    3    0    1
 -2      3250      1828      3475      3914
 -1      7143    3    0    1
 -2      2792      3333      3436      3906
 -1      7144    3    0    1
 -2      1534      1533      3040      1720
 -1      7145    3    0    1
 -2      1515      1648      3188      3548
 -1      7146    3    0    1
 -2      3327      3101      1636      1431
 -1      7147    3    0    1
 -2      1551      1776      3844      3573
 -1      7148    3    0    1
 -2      1598      1599      3069      3179
 -1      7149    3    0    1
 -2      2964      1645      3100      3890
 -1      7150    3    0    1
 -2      1467      1466      1537      3165
 -1      7151    3    0    1
 -2      1460      3152      3363      3941
 -1      7152    3    0    1
 -2      1665      1698      3825      3325
 -1      7153    3    0    1
 -2      1721       266      3898      1971
 -1      7154    3    0    1
 -2      1592      3178      1933      1934
 -1      7155    3    0    1
 -2      1519      1659      3103      3546
 -1      7156    3    0    1
 -2      2757       972      3852      3568
 -1      7157    3    0    1
 -2      2629      3783      2854      3836
 -1      7158    3    0    1
 -2      2757      3852      3464      3568
 -1      7159    3    0    1
 -2      1615      1578      3357      3871
 -1      7160    3    0    1
 -2      2438       957      2620      3809
 -1      7161    3    0    1
 -2      1488      3164      1785      1786
 -1      7162    3    0    1
 -2       468       469      2640      2976
 -1      7163    3    0    1
 -2      2936      2728      3907      3717
 -1      7164    3    0    1
 -2      3294      1787      3462      3483
 -1      7165    3    0    1
 -2       148       973      3962      3741
 -1      7166    3    0    1
 -2      3040      3038      3823      3594
 -1      7167    3    0    1
 -2      1457      1456      1649      3107
 -1      7168    3    0    1
 -2       263       255      3989      2031
 -1      7169    3    0    1
 -2      1444      1443      1991      3694
 -1      7170    3    0    1
 -2      1301       412      3800      3808
 -1      7171    3    0    1
 -2      1513      1514      3418      3519
 -1      7172    3    0    1
 -2      1530      1531      3570      1995
 -1      7173    3    0    1
 -2       907       471      1161      3057
 -1      7174    3    0    1
 -2      1525      1681      3263      3441
 -1      7175    3    0    1
 -2       432      3813      1905      3670
 -1      7176    3    0    1
 -2      2720      3827      3921      4005
 -1      7177    3    0    1
 -2      1456      1457      3106      3107
 -1      7178    3    0    1
 -2      1624      2703      3110      3133
 -1      7179    3    0    1
 -2      3857      3390      3449      3914
 -1      7180    3    0    1
 -2       267       793       348      2032
 -1      7181    3    0    1
 -2      3225      1452      3888      1917
 -1      7182    3    0    1
 -2      2950      3378      3443      3510
 -1      7183    3    0    1
 -2      3212      3874      3512      3951
 -1      7184    3    0    1
 -2       187      2213      2776      3014
 -1      7185    3    0    1
 -2      1624      2876      3023      3320
 -1      7186    3    0    1
 -2      1047      1053      3989      2031
 -1      7187    3    0    1
 -2       518      2665      2666      2882
 -1      7188    3    0    1
 -2       775       772      1217      3718
 -1      7189    3    0    1
 -2      1849       799      1850      3451
 -1      7190    3    0    1
 -2      3086      1722      3207      3524
 -1      7191    3    0    1
 -2      1436      2926      1764      1765
 -1      7192    3    0    1
 -2       519       518       932      2882
 -1      7193    3    0    1
 -2       932       518      1230      2882
 -1      7194    3    0    1
 -2      1596      3300      3638      4008
 -1      7195    3    0    1
 -2      3135      2903      1861      1862
 -1      7196    3    0    1
 -2      1452      1719      3059      3529
 -1      7197    3    0    1
 -2       981      1301      2616      3800
 -1      7198    3    0    1
 -2       734      2818      2839      2884
 -1      7199    3    0    1
 -2      1026       734      2839      2884
 -1      7200    3    0    1
 -2      1486      1663      2946      3381
 -1      7201    3    0    1
 -2      3872      3211      3555      3578
 -1      7202    3    0    1
 -2      3547      3975      4011      3751
 -1      7203    3    0    1
 -2       769      1217      3718      3754
 -1      7204    3    0    1
 -2      3075      1801      3239      3578
 -1      7205    3    0    1
 -2      1630      3170      1614      1613
 -1      7206    3    0    1
 -2      2927      2855      3246      3864
 -1      7207    3    0    1
 -2      1853      3398      3491      3675
 -1      7208    3    0    1
 -2      3390      3914      3513      3677
 -1      7209    3    0    1
 -2       673      1645      1646      3154
 -1      7210    3    0    1
 -2      2616      3242      3851      3567
 -1      7211    3    0    1
 -2      2972      1737      3459      3675
 -1      7212    3    0    1
 -2      1601      1600      1843      3341
 -1      7213    3    0    1
 -2      2573      2854      2870      3796
 -1      7214    3    0    1
 -2      2854      2488      2870      3796
 -1      7215    3    0    1
 -2      1828      1600      1829      3341
 -1      7216    3    0    1
 -2       661       664      2810      2887
 -1      7217    3    0    1
 -2      3789      1580      3484      3938
 -1      7218    3    0    1
 -2       513       512      2722      2948
 -1      7219    3    0    1
 -2       473       474      2688      3857
 -1      7220    3    0    1
 -2       494      2732      2733      2927
 -1      7221    3    0    1
 -2       495       494      2733      2927
 -1      7222    3    0    1
 -2      1577      3800      2994      3428
 -1      7223    3    0    1
 -2      1430      1429      2939      3280
 -1      7224    3    0    1
 -2      1044      2480      2760      3820
 -1      7225    3    0    1
 -2      2022      1427      2023      3721
 -1      7226    3    0    1
 -2      2660      2694      3049      3846
 -1      7227    3    0    1
 -2       282       278      1877      3658
 -1      7228    3    0    1
 -2      1491      3807      3823      3909
 -1      7229    3    0    1
 -2      1734      1733      3473      3551
 -1      7230    3    0    1
 -2      3857      3834      3875      4017
 -1      7231    3    0    1
 -2      1477      1478      3148      3375
 -1      7232    3    0    1
 -2      3304      2968      3874      3433
 -1      7233    3    0    1
 -2      3801      2771      3176      3895
 -1      7234    3    0    1
 -2      1689      1513      3354      3519
 -1      7235    3    0    1
 -2      3711       197      2027      3728
 -1      7236    3    0    1
 -2      1525      2895      3196      3895
 -1      7237    3    0    1
 -2       333       332      3850      1989
 -1      7238    3    0    1
 -2      3787       981      3799      3813
 -1      7239    3    0    1
 -2      1420      1419      1792      3291
 -1      7240    3    0    1
 -2      1327      2355      3629      3959
 -1      7241    3    0    1
 -2       982      1297      2684      2974
 -1      7242    3    0    1
 -2      3304      2898      3426      3433
 -1      7243    3    0    1
 -2      2789      3091      3826      3308
 -1      7244    3    0    1
 -2      1027      2685      3793      3302
 -1      7245    3    0    1
 -2      1673        47      1674      1716
 -1      7246    3    0    1
 -2      1723      1722      3086      3524
 -1      7247    3    0    1
 -2      2995      1777      3423      3591
 -1      7248    3    0    1
 -2      2896      3186      3292      3895
 -1      7249    3    0    1
 -2      1542      3120      3988      3716
 -1      7250    3    0    1
 -2      3919      3295      3659      3694
 -1      7251    3    0    1
 -2      1860      3035      1897      3626
 -1      7252    3    0    1
 -2      1500      1606      3184      3262
 -1      7253    3    0    1
 -2      1606      2790      3184      3262
 -1      7254    3    0    1
 -2       335      3750      2018      2017
 -1      7255    3    0    1
 -2      3187      3919      3659      3694
 -1      7256    3    0    1
 -2      1450      2955      1679      3226
 -1      7257    3    0    1
 -2      3263      1420      1681      1682
 -1      7258    3    0    1
 -2       413       411      2974      3866
 -1      7259    3    0    1
 -2      3830      3858      3901      3998
 -1      7260    3    0    1
 -2      2347      1023      2348      3139
 -1      7261    3    0    1
 -2      1543      2900      1870      1871
 -1      7262    3    0    1
 -2      1451      1450      2840      2900
 -1      7263    3    0    1
 -2      1284      2214      2805      3817
 -1      7264    3    0    1
 -2        46      1872      1984      1985
 -1      7265    3    0    1
 -2      3872      3239      3439      3578
 -1      7266    3    0    1
 -2       957      2438      3777      3809
 -1      7267    3    0    1
 -2       353       827       356      1878
 -1      7268    3    0    1
 -2      1856      3157      1857      1891
 -1      7269    3    0    1
 -2       827       353       824      1878
 -1      7270    3    0    1
 -2       106       402      1856      1891
 -1      7271    3    0    1
 -2       518      1230      2882      2902
 -1      7272    3    0    1
 -2      2666       518      2882      2902
 -1      7273    3    0    1
 -2      3367      3261      3526      3965
 -1      7274    3    0    1
 -2      1801       590      3259      3511
 -1      7275    3    0    1
 -2      3043      1533      3132      3888
 -1      7276    3    0    1
 -2      2558      2525      2759      3824
 -1      7277    3    0    1
 -2        95       943      1279      3764
 -1      7278    3    0    1
 -2      2720      2436      3833      3505
 -1      7279    3    0    1
 -2      1445      1903      1904      3495
 -1      7280    3    0    1
 -2      2615      2643      3860      3864
 -1      7281    3    0    1
 -2      3429      1687      3650      2000
 -1      7282    3    0    1
 -2      1494      3228      3330      3407
 -1      7283    3    0    1
 -2      1435      3783      3830      3734
 -1      7284    3    0    1
 -2      2642      2673      3119      3687
 -1      7285    3    0    1
 -2      3326      3871      3488      4020
 -1      7286    3    0    1
 -2      3225      3814      3888      3978
 -1      7287    3    0    1
 -2      1622      2680      3143      3890
 -1      7288    3    0    1
 -2       352       284      1977      3973
 -1      7289    3    0    1
 -2      3076      3158      3599      4020
 -1      7290    3    0    1
 -2      3229      2880      3489      3996
 -1      7291    3    0    1
 -2      1477      1551      1552      3206
 -1      7292    3    0    1
 -2      1559      3135      1861      1862
 -1      7293    3    0    1
 -2      2009      1473      2010      3700
 -1      7294    3    0    1
 -2      1586      1854      1855      3654
 -1      7295    3    0    1
 -2      2968      1148      3212      3874
 -1      7296    3    0    1
 -2       775       772      3718      3722
 -1      7297    3    0    1
 -2      2761      1042      3643      4000
 -1      7298    3    0    1
 -2      1524      3840      3586      3635
 -1      7299    3    0    1
 -2      2796      3232      3324      3891
 -1      7300    3    0    1
 -2      3836      3849      3908      3932
 -1      7301    3    0    1
 -2      1424      1423      1934      3606
 -1      7302    3    0    1
 -2      1562      1638      1639      2924
 -1      7303    3    0    1
 -2      3109      1588      3322      3461
 -1      7304    3    0    1
 -2      1591      1590      3138      1898
 -1      7305    3    0    1
 -2       198       202      3784      3797
 -1      7306    3    0    1
 -2       331      2045      3784      3797
 -1      7307    3    0    1
 -2      2045       331      2551      3797
 -1      7308    3    0    1
 -2       215       202      2744      3797
 -1      7309    3    0    1
 -2       331       215      2744      3797
 -1      7310    3    0    1
 -2      2551      2508      2711      3797
 -1      7311    3    0    1
 -2       198      1309      2744      3797
 -1      7312    3    0    1
 -2       202       198      2744      3797
 -1      7313    3    0    1
 -2      1018       331      2744      3797
 -1      7314    3    0    1
 -2      2045      2551      2711      3797
 -1      7315    3    0    1
 -2       553      2703      1624      3133
 -1      7316    3    0    1
 -2      2157      2572      3792      3169
 -1      7317    3    0    1
 -2      1563      1562      2804      2924
 -1      7318    3    0    1
 -2      1464      1465      1738      3108
 -1      7319    3    0    1
 -2       173       421      3835      3882
 -1      7320    3    0    1
 -2      1594      3006      3445      3996
 -1      7321    3    0    1
 -2      2724       942      3923      3709
 -1      7322    3    0    1
 -2       990      1304      3798      3822
 -1      7323    3    0    1
 -2      1280      2660      2694      3823
 -1      7324    3    0    1
 -2      1913      3437      3583      1971
 -1      7325    3    0    1
 -2      2743      3042      3312      3861
 -1      7326    3    0    1
 -2       964      1667      3815      3466
 -1      7327    3    0    1
 -2      1197       494       495      2927
 -1      7328    3    0    1
 -2      2906      2869      3811      3047
 -1      7329    3    0    1
 -2       494      1197       919      2927
 -1      7330    3    0    1
 -2      1671       427      3222      3915
 -1      7331    3    0    1
 -2      1409      2864      1742      3374
 -1      7332    3    0    1
 -2      1410      1409      1623      3143
 -1      7333    3    0    1
 -2      2731      2730      2836      3869
 -1      7334    3    0    1
 -2      2757      2666      2925      2975
 -1      7335    3    0    1
 -2      2980      3834      3861      3875
 -1      7336    3    0    1
 -2       239      2374      4004      4014
 -1      7337    3    0    1
 -2      2592      2591      2858      3874
 -1      7338    3    0    1
 -2      1458      1645      3102      3890
 -1      7339    3    0    1
 -2      2842      2901      3801      3956
 -1      7340    3    0    1
 -2       427       999      3881      3998
 -1      7341    3    0    1
 -2       202       198      2014      3710
 -1      7342    3    0    1
 -2      3778      2573      2870      3865
 -1      7343    3    0    1
 -2      1665      3825      3280      3325
 -1      7344    3    0    1
 -2      2884      3101      3854      3929
 -1      7345    3    0    1
 -2      2272       187      2451      3014
 -1      7346    3    0    1
 -2      2687      2871      3857      3390
 -1      7347    3    0    1
 -2      2833      1466      3839      3604
 -1      7348    3    0    1
 -2      2650      2649      2723      3912
 -1      7349    3    0    1
 -2      1758      3058      1759      1902
 -1      7350    3    0    1
 -2       781       786      1822      3346
 -1      7351    3    0    1
 -2      1569      3074      3152      3941
 -1      7352    3    0    1
 -2      1672      1671      3222      3444
 -1      7353    3    0    1
 -2      1590      2990      3138      3611
 -1      7354    3    0    1
 -2      2978      1456      3279      3913
 -1      7355    3    0    1
 -2      2801      2904      1863      1864
 -1      7356    3    0    1
 -2      2829      3101      3854      3892
 -1      7357    3    0    1
 -2      2714      1161      3057      3876
 -1      7358    3    0    1
 -2       431      1771      3853      3894
 -1      7359    3    0    1
 -2      2862      1613      3298      3321
 -1      7360    3    0    1
 -2      1439      1440      3385      3515
 -1      7361    3    0    1
 -2       406      1995      1996      2011
 -1      7362    3    0    1
 -2      1615      2827      3289      3873
 -1      7363    3    0    1
 -2      2838      2987      3035      3381
 -1      7364    3    0    1
 -2      2680      1622      3102      3890
 -1      7365    3    0    1
 -2       967      2157      3792      3169
 -1      7366    3    0    1
 -2      2807      2865      2893      3894
 -1      7367    3    0    1
 -2      1506      3130      3331      3979
 -1      7368    3    0    1
 -2      1456      3279      1943      1944
 -1      7369    3    0    1
 -2      1059      2417      3845      3972
 -1      7370    3    0    1
 -2      2770      3108      3420      3673
 -1      7371    3    0    1
 -2      2887       990      3798      3251
 -1      7372    3    0    1
 -2       554      2718      3964      2009
 -1      7373    3    0    1
 -2       281       349       808      3686
 -1      7374    3    0    1
 -2      1753      1752      3430      1941
 -1      7375    3    0    1
 -2      1854      3365      3571      4022
 -1      7376    3    0    1
 -2      1842      1843      3341      3435
 -1      7377    3    0    1
 -2       412       431      1771      3853
 -1      7378    3    0    1
 -2      1636      1556      3364      3509
 -1      7379    3    0    1
 -2       661       664      2887      3798
 -1      7380    3    0    1
 -2       170       432      1819      1876
 -1      7381    3    0    1
 -2      3299      3175      1886      1887
 -1      7382    3    0    1
 -2      1009      2727      3987      3730
 -1      7383    3    0    1
 -2      3307      3508      3574      3966
 -1      7384    3    0    1
 -2      3870      3847      3975      3751
 -1      7385    3    0    1
 -2      2830      2587      3155      3893
 -1      7386    3    0    1
 -2      1531      1874      3907      3575
 -1      7387    3    0    1
 -2      2615      3158      3860      3387
 -1      7388    3    0    1
 -2      3111      2723      3912      3933
 -1      7389    3    0    1
 -2      3011      2594      3814      3964
 -1      7390    3    0    1
 -2      1559      1560      3135      1862
 -1      7391    3    0    1
 -2      1591      1590      2928      1726
 -1      7392    3    0    1
 -2      2971      2706      3883      3900
 -1      7393    3    0    1
 -2      2985      2943      3826      3393
 -1      7394    3    0    1
 -2       608       601      1880      3410
 -1      7395    3    0    1
 -2      2415      2558      2759      3824
 -1      7396    3    0    1
 -2       664      1304      2849      3798
 -1      7397    3    0    1
 -2      3187      1433      3429      3483
 -1      7398    3    0    1
 -2       990       661      2887      3798
 -1      7399    3    0    1
 -2      2849      2887       664      3798
 -1      7400    3    0    1
 -2      1676      1507      1677      3499
 -1      7401    3    0    1
 -2      2303       707      2512      3746
 -1      7402    3    0    1
 -2      1685      2939      1430      1429
 -1      7403    3    0    1
 -2      1490      2643      1561      3253
 -1      7404    3    0    1
 -2       816      1065      2558      3824
 -1      7405    3    0    1
 -2      2807      2828      2865      3894
 -1      7406    3    0    1
 -2      3081      1413      1773      1774
 -1      7407    3    0    1
 -2      2783      1466      1537      1536
 -1      7408    3    0    1
 -2       284       352      1994      3971
 -1      7409    3    0    1
 -2      2726      2618      2784      3812
 -1      7410    3    0    1
 -2      1564      3092      1773      3406
 -1      7411    3    0    1
 -2       125      1288      2741      3832
 -1      7412    3    0    1
 -2      2228      2572      3169      3832
 -1      7413    3    0    1
 -2      3000      3011      3814      3888
 -1      7414    3    0    1
 -2       769       776      3754      3763
 -1      7415    3    0    1
 -2      3192      2933      3860      3639
 -1      7416    3    0    1
 -2      3244      2602      3875      4017
 -1      7417    3    0    1
 -2      1728      1470      1729      3171
 -1      7418    3    0    1
 -2      1221      1219      2948      3294
 -1      7419    3    0    1
 -2      2494      2531      2561      3223
 -1      7420    3    0    1
 -2      2729      3183      3202      3940
 -1      7421    3    0    1
 -2      2720      3803      3827      4005
 -1      7422    3    0    1
 -2      2668      2300      3788      3400
 -1      7423    3    0    1
 -2      1867       601      1868      3401
 -1      7424    3    0    1
 -2      2858      2931      3874      3879
 -1      7425    3    0    1
 -2       290      1072      2334      1804
 -1      7426    3    0    1
 -2       255       346      2761      3682
 -1      7427    3    0    1
 -2      2426        98      3829      1803
 -1      7428    3    0    1
 -2      1500      1606      1607      3036
 -1      7429    3    0    1
 -2      3221      1517      3854      3336
 -1      7430    3    0    1
 -2      2963      2369      3843      3877
 -1      7431    3    0    1
 -2      1685      1609      3190      3860
 -1      7432    3    0    1
 -2      1795      3299      1886      1887
 -1      7433    3    0    1
 -2      2771      2895      3801      3812
 -1      7434    3    0    1
 -2      2857      3092      1773      1774
 -1      7435    3    0    1
 -2        56      1551      1776      3674
 -1      7436    3    0    1
 -2      3078      3371      3528      3955
 -1      7437    3    0    1
 -2      3849      1008      3859      3945
 -1      7438    3    0    1
 -2        46      3253      1935      1984
 -1      7439    3    0    1
 -2       427      1310      3838      3915
 -1      7440    3    0    1
 -2      3811      2672      3823      3936
 -1      7441    3    0    1
 -2      2749      2722      3025      2721
 -1      7442    3    0    1
 -2      2848      1551      3148      3457
 -1      7443    3    0    1
 -2      2462      2608      2922      2998
 -1      7444    3    0    1
 -2      1604      1603      2950      3026
 -1      7445    3    0    1
 -2      2469      2608      2998      3506
 -1      7446    3    0    1
 -2      1611       449      1612      3034
 -1      7447    3    0    1
 -2      1507      1611      1612      3034
 -1      7448    3    0    1
 -2      3823      3709      4003      3923
 -1      7449    3    0    1
 -2      3305      2970      3854      3421
 -1      7450    3    0    1
 -2      2907      1535      3215      3674
 -1      7451    3    0    1
 -2      2615      2997      3864      4020
 -1      7452    3    0    1
 -2      3326      3488      3660      4020
 -1      7453    3    0    1
 -2      3597      3352      3609      3997
 -1      7454    3    0    1
 -2       134       129      1667      3416
 -1      7455    3    0    1
 -2      1697      1885       186       180
 -1      7456    3    0    1
 -2      2578      2767      3839      3417
 -1      7457    3    0    1
 -2      3024      1510      3119      1895
 -1      7458    3    0    1
 -2      3289      1783      3873      3415
 -1      7459    3    0    1
 -2      1307      2940      3234      3881
 -1      7460    3    0    1
 -2      1564      1565      3081      1774
 -1      7461    3    0    1
 -2      1533      1534      3043      3132
 -1      7462    3    0    1
 -2      3140      3289      3873      3415
 -1      7463    3    0    1
 -2      2733       771      2853      2941
 -1      7464    3    0    1
 -2      2399      2467      2773      3799
 -1      7465    3    0    1
 -2       981       170      1304      3799
 -1      7466    3    0    1
 -2      2416      2399      2773      3799
 -1      7467    3    0    1
 -2       990       186      3925      4025
 -1      7468    3    0    1
 -2       266      3064      3878      1913
 -1      7469    3    0    1
 -2       214      1755      3603      3958
 -1      7470    3    0    1
 -2       423       187      3835      3882
 -1      7471    3    0    1
 -2      1514      1513      1705      3379
 -1      7472    3    0    1
 -2      1824      1825      1909      3665
 -1      7473    3    0    1
 -2      3779      2663      3821      3822
 -1      7474    3    0    1
 -2      1601      1600      3313      3607
 -1      7475    3    0    1
 -2      1440      1439      2967      3238
 -1      7476    3    0    1
 -2      2691       117      3781      3817
 -1      7477    3    0    1
 -2      3814      2628      3358      3964
 -1      7478    3    0    1
 -2      3064      2949      3878      1913
 -1      7479    3    0    1
 -2      1475      2604      2950      3378
 -1      7480    3    0    1
 -2      3326      3804      3335      3871
 -1      7481    3    0    1
 -2      3849      3859      3908      3932
 -1      7482    3    0    1
 -2       804      2981      3451      3937
 -1      7483    3    0    1
 -2      2604      2856      2867      3378
 -1      7484    3    0    1
 -2      2836      2731      3200      3601
 -1      7485    3    0    1
 -2      1920      1928      3679      3733
 -1      7486    3    0    1
 -2      3679      1745      2019      3724
 -1      7487    3    0    1
 -2      1834      3227      3334      3900
 -1      7488    3    0    1
 -2      1320      3782      3889      3952
 -1      7489    3    0    1
 -2      1771      3808      3853      3894
 -1      7490    3    0    1
 -2       512       513      1219      2948
 -1      7491    3    0    1
 -2      1517      1518      1767      3421
 -1      7492    3    0    1
 -2      1219       513      1221      2948
 -1      7493    3    0    1
 -2       513      2721      2945      2948
 -1      7494    3    0    1
 -2      1221       513      2945      2948
 -1      7495    3    0    1
 -2      1217       769      1245      3754
 -1      7496    3    0    1
 -2      1459      1458      1646      3102
 -1      7497    3    0    1
 -2      1458      1459      1623      3102
 -1      7498    3    0    1
 -2       400        95      3991      2033
 -1      7499    3    0    1
 -2       354      3795      3225      1987
 -1      7500    3    0    1
 -2      2830      1498      3542      3543
 -1      7501    3    0    1
 -2      3429      3919      3650      3659
 -1      7502    3    0    1
 -2      2416       981      3787      3800
 -1      7503    3    0    1
 -2      2650      2649      2957      3424
 -1      7504    3    0    1
 -2      1528      1653      1654      3007
 -1      7505    3    0    1
 -2       412      1577      1634      3800
 -1      7506    3    0    1
 -2       349      1060      3959      3738
 -1      7507    3    0    1
 -2      1442      1621      2890      3800
 -1      7508    3    0    1
 -2       170       981      2686      3800
 -1      7509    3    0    1
 -2       122       588       591      3533
 -1      7510    3    0    1
 -2       981      2580      2686      3800
 -1      7511    3    0    1
 -2      1604      1712      1603      3243
 -1      7512    3    0    1
 -2      1562      1563      3019      3270
 -1      7513    3    0    1
 -2      1301       412      1634      3800
 -1      7514    3    0    1
 -2       248      3903      3480      1965
 -1      7515    3    0    1
 -2      1464      1465      2972      1738
 -1      7516    3    0    1
 -2       786       781      3208      3328
 -1      7517    3    0    1
 -2       427       183      1671      3222
 -1      7518    3    0    1
 -2      1694      1707      1708      3114
 -1      7519    3    0    1
 -2      1334       290      2418      3829
 -1      7520    3    0    1
 -2      1645      2931      3879      3468
 -1      7521    3    0    1
 -2      1452      3370      1917      1918
 -1      7522    3    0    1
 -2      3715       409      1848      1882
 -1      7523    3    0    1
 -2      1779       234      1922      1965
 -1      7524    3    0    1
 -2      3594      1974      1987      1988
 -1      7525    3    0    1
 -2      2787      2022      3707      3708
 -1      7526    3    0    1
 -2       136       967      3792      3169
 -1      7527    3    0    1
 -2        56      1551      3616      1981
 -1      7528    3    0    1
 -2      2809      3804      3122      4028
 -1      7529    3    0    1
 -2      1702      1703      3492      1937
 -1      7530    3    0    1
 -2      3027      2976      3371      3955
 -1      7531    3    0    1
 -2      2448      3778      3794      3889
 -1      7532    3    0    1
 -2      3210      1662      3243      1893
 -1      7533    3    0    1
 -2      1661      3868      3479      3969
 -1      7534    3    0    1
 -2      1758        19      1759      3146
 -1      7535    3    0    1
 -2       236      1509      3549      3671
 -1      7536    3    0    1
 -2       739       736      2644      3732
 -1      7537    3    0    1
 -2      1557      1556      1637      2982
 -1      7538    3    0    1
 -2      1939      3265      1945      3619
 -1      7539    3    0    1
 -2      2916      2938      3013      3226
 -1      7540    3    0    1
 -2      2650      2920      2954      2957
 -1      7541    3    0    1
 -2      3085      3163      3831      3175
 -1      7542    3    0    1
 -2      1533      1719      3132      3888
 -1      7543    3    0    1
 -2      3814      3174      3358      3888
 -1      7544    3    0    1
 -2      1415      1416      3026      1889
 -1      7545    3    0    1
 -2      3219      3145      3839      3721
 -1      7546    3    0    1
 -2      3333      3247      3435      3906
 -1      7547    3    0    1
 -2      2652      3460      3913      3535
 -1      7548    3    0    1
 -2      3365      1854      3727      4022
 -1      7549    3    0    1
 -2      3384      1917      3529      3936
 -1      7550    3    0    1
 -2      3042      1488      3312      3861
 -1      7551    3    0    1
 -2      1325      2853      2941      3804
 -1      7552    3    0    1
 -2      2720      1050      3806      3833
 -1      7553    3    0    1
 -2      3836      2573      3303      3993
 -1      7554    3    0    1
 -2      2771      2618      2901      3801
 -1      7555    3    0    1
 -2       697      1310       699      3801
 -1      7556    3    0    1
 -2       697       699      2842      3801
 -1      7557    3    0    1
 -2      3790      2720      3803      3833
 -1      7558    3    0    1
 -2      3106      1943      3933      3596
 -1      7559    3    0    1
 -2      1455      1454      3362      1875
 -1      7560    3    0    1
 -2      2692      2796      3324      3979
 -1      7561    3    0    1
 -2      3236      1494      3854      3422
 -1      7562    3    0    1
 -2      1008      2771      2952      3801
 -1      7563    3    0    1
 -2      1008      2617      2771      3801
 -1      7564    3    0    1
 -2      2674      2791      2961      3801
 -1      7565    3    0    1
 -2      1562      2843      3685      1714
 -1      7566    3    0    1
 -2      1008       697      2617      3801
 -1      7567    3    0    1
 -2       572      3333      1811      3435
 -1      7568    3    0    1
 -2      1707       680      3154      3468
 -1      7569    3    0    1
 -2      2618      2842      2901      3801
 -1      7570    3    0    1
 -2       699      1310      2842      3801
 -1      7571    3    0    1
 -2      3105      3130      1768      3979
 -1      7572    3    0    1
 -2      3628      1911      3745      3753
 -1      7573    3    0    1
 -2      1437      1436      1599      3069
 -1      7574    3    0    1
 -2      1611      2661      3133      3883
 -1      7575    3    0    1
 -2      1497      3786      3795      3870
 -1      7576    3    0    1
 -2      3867      3912      3517      4010
 -1      7577    3    0    1
 -2      3228      3017      3455      3949
 -1      7578    3    0    1
 -2      1586      1632      3950      3727
 -1      7579    3    0    1
 -2       214       209      1805      3932
 -1      7580    3    0    1
 -2      2896      1525      3196      3895
 -1      7581    3    0    1
 -2      2674      2791      3801      3895
 -1      7582    3    0    1
 -2      1848      1882       409       119
 -1      7583    3    0    1
 -2      3129      2820      3205      3589
 -1      7584    3    0    1
 -2      1725      2928      3556      3965
 -1      7585    3    0    1
 -2      3115      3049      3823      3936
 -1      7586    3    0    1
 -2      1892      1964      3620      3631
 -1      7587    3    0    1
 -2      1547      1546      3363      3439
 -1      7588    3    0    1
 -2      1463      1462      3096      3438
 -1      7589    3    0    1
 -2      3080      3287      3467      3617
 -1      7590    3    0    1
 -2      2927      2983      2733       495
 -1      7591    3    0    1
 -2      3366      1447      1883      3914
 -1      7592    3    0    1
 -2      3504      1640      1866      1906
 -1      7593    3    0    1
 -2      1753      1752      3279      1944
 -1      7594    3    0    1
 -2      1942      1941      3615      1977
 -1      7595    3    0    1
 -2      3043      1533      1987      1988
 -1      7596    3    0    1
 -2      2374      2769      3690      4014
 -1      7597    3    0    1
 -2       245       250      3041      1962
 -1      7598    3    0    1
 -2      2864      1409      1742      1743
 -1      7599    3    0    1
 -2      3170      2977      3831      3958
 -1      7600    3    0    1
 -2      3027      1156      3078      3371
 -1      7601    3    0    1
 -2      1756      3166      1900      3498
 -1      7602    3    0    1
 -2      1614      1613      3170      3291
 -1      7603    3    0    1
 -2      1613      1614      1792      3291
 -1      7604    3    0    1
 -2      2748      2426      3829      1803
 -1      7605    3    0    1
 -2       788      1050      1328      2969
 -1      7606    3    0    1
 -2      3805      2984      3207      3593
 -1      7607    3    0    1
 -2      3778      3794      3889      3564
 -1      7608    3    0    1
 -2      2451       187      2776      3014
 -1      7609    3    0    1
 -2      1600      1842      3341      3906
 -1      7610    3    0    1
 -2      3051      1594      1480      3445
 -1      7611    3    0    1
 -2      3096      1462      1837      3580
 -1      7612    3    0    1
 -2      1867      3269      3885      3663
 -1      7613    3    0    1
 -2       788      2731      2768      2969
 -1      7614    3    0    1
 -2      1050       788      2768      2969
 -1      7615    3    0    1
 -2       572      1810      3333      3906
 -1      7616    3    0    1
 -2      3341      1600      3906      3600
 -1      7617    3    0    1
 -2      3826      2789      3308      3511
 -1      7618    3    0    1
 -2      3883      1676      3438      3580
 -1      7619    3    0    1
 -2      1470      1471      3171      3590
 -1      7620    3    0    1
 -2      1168      1166      2979      3227
 -1      7621    3    0    1
 -2      1585      1605      3802      3545
 -1      7622    3    0    1
 -2      3135      1559      1861      3450
 -1      7623    3    0    1
 -2      1524      1851      3881      3998
 -1      7624    3    0    1
 -2      2896      2791      3186      3895
 -1      7625    3    0    1
 -2      1642      1643      2905      3231
 -1      7626    3    0    1
 -2      1653      1479      1654      3007
 -1      7627    3    0    1
 -2      1574      1575      1643      3231
 -1      7628    3    0    1
 -2      1422      1421      3482      3587
 -1      7629    3    0    1
 -2      1701      3452      3990      2011
 -1      7630    3    0    1
 -2      1899      1790      3938      3960
 -1      7631    3    0    1
 -2      1307       186      3821      3925
 -1      7632    3    0    1
 -2      1698      1699      3191      3325
 -1      7633    3    0    1
 -2        56       273      1552      3151
 -1      7634    3    0    1
 -2      1913      3437      3918      3583
 -1      7635    3    0    1
 -2      1298       625       972      2975
 -1      7636    3    0    1
 -2      2771      2952      3801      3176
 -1      7637    3    0    1
 -2       625      2665      2757      2975
 -1      7638    3    0    1
 -2       972       625      2757      2975
 -1      7639    3    0    1
 -2      1884      1883      3561      3574
 -1      7640    3    0    1
 -2      2640       469      2641      2976
 -1      7641    3    0    1
 -2      2591      2597      3874      3891
 -1      7642    3    0    1
 -2      1730      1671      1731      3444
 -1      7643    3    0    1
 -2      1559      3301      1862      1861
 -1      7644    3    0    1
 -2      1441      1568      3799      3856
 -1      7645    3    0    1
 -2      2656       973      3337      3771
 -1      7646    3    0    1
 -2      1409      1742      3117      3213
 -1      7647    3    0    1
 -2      1762      3314      1960      3997
 -1      7648    3    0    1
 -2      1156       468      1158      2976
 -1      7649    3    0    1
 -2      1891       402      3923      3930
 -1      7650    3    0    1
 -2       469       468      1156      2976
 -1      7651    3    0    1
 -2        19      1555      3146      3528
 -1      7652    3    0    1
 -2      3908      3836      3932      3598
 -1      7653    3    0    1
 -2      2494      2484      2531      3223
 -1      7654    3    0    1
 -2      2418       943      2762      3829
 -1      7655    3    0    1
 -2       619       626      3098      1978
 -1      7656    3    0    1
 -2      1588      3109      1822      3461
 -1      7657    3    0    1
 -2       476       475      2659      2979
 -1      7658    3    0    1
 -2      3364      3235      3509      3572
 -1      7659    3    0    1
 -2      1652      1449      3833      3862
 -1      7660    3    0    1
 -2      1824      3307      3395      3508
 -1      7661    3    0    1
 -2      1156       469      2976      3027
 -1      7662    3    0    1
 -2       469      2641      2976      3027
 -1      7663    3    0    1
 -2       213       334      3793      3302
 -1      7664    3    0    1
 -2      2399      3779      3799      3822
 -1      7665    3    0    1
 -2      1304       990      2399      3822
 -1      7666    3    0    1
 -2      1168       475       476      2979
 -1      7667    3    0    1
 -2       572      1811      1810      3356
 -1      7668    3    0    1
 -2       475      1168      1166      2979
 -1      7669    3    0    1
 -2      2659      1166      2719      2979
 -1      7670    3    0    1
 -2      2798      2692      2857      3976
 -1      7671    3    0    1
 -2       475      1166      2659      2979
 -1      7672    3    0    1
 -2      1712       158      3210      1893
 -1      7673    3    0    1
 -2      2616      3242      3848      3851
 -1      7674    3    0    1
 -2      1966      3523      2017      2018
 -1      7675    3    0    1
 -2      1721      3437      1913      1971
 -1      7676    3    0    1
 -2      2536      2305      2546      3159
 -1      7677    3    0    1
 -2       680      1645      3149      3468
 -1      7678    3    0    1
 -2      1430      1685      3500      1686
 -1      7679    3    0    1
 -2      2672      2869      3811      3038
 -1      7680    3    0    1
 -2      1606       583      1607      3075
 -1      7681    3    0    1
 -2      2945      3294      3919      3650
 -1      7682    3    0    1
 -2      1282        98      2426      1803
 -1      7683    3    0    1
 -2      1237      2867      2959      3805
 -1      7684    3    0    1
 -2      1707       673      1708      3154
 -1      7685    3    0    1
 -2       655       662      1863      3380
 -1      7686    3    0    1
 -2      3079      2789      3826      3511
 -1      7687    3    0    1
 -2      1574      2930      3231      3953
 -1      7688    3    0    1
 -2      1602      1820      3503      3657
 -1      7689    3    0    1
 -2      1581      1582      1680      3066
 -1      7690    3    0    1
 -2      2618      2617      2771      3812
 -1      7691    3    0    1
 -2      1638      1415      1639      3382
 -1      7692    3    0    1
 -2      1777      1470      1778      3423
 -1      7693    3    0    1
 -2      1508      1507      1612      3034
 -1      7694    3    0    1
 -2      1521      1651      3827      3837
 -1      7695    3    0    1
 -2      1065      1337      2558      3824
 -1      7696    3    0    1
 -2      2591      2889      3276      3891
 -1      7697    3    0    1
 -2      2901      2771      3801      3812
 -1      7698    3    0    1
 -2      1779      1434      3903      3676
 -1      7699    3    0    1
 -2      2897      3967      3693      3708
 -1      7700    3    0    1
 -2      1702      3334      3405      1936
 -1      7701    3    0    1
 -2      1415      2846      1888      3886
 -1      7702    3    0    1
 -2      2814      1017      2844      3831
 -1      7703    3    0    1
 -2      3105      1694      1768      1769
 -1      7704    3    0    1
 -2      3834      2871      3953      4017
 -1      7705    3    0    1
 -2      3019      1562      1714      1715
 -1      7706    3    0    1
 -2       572       565      1842      3435
 -1      7707    3    0    1
 -2      3077      1602      3395      3503
 -1      7708    3    0    1
 -2      2696      2787      3691      3707
 -1      7709    3    0    1
 -2       116       407      3781      3817
 -1      7710    3    0    1
 -2      1011       707      3746      3758
 -1      7711    3    0    1
 -2        96      2491      2559      3765
 -1      7712    3    0    1
 -2       474      2687      2688      3857
 -1      7713    3    0    1
 -2       200       198      2512      3758
 -1      7714    3    0    1
 -2      2661      1507      3061      3883
 -1      7715    3    0    1
 -2      1011       200      2512      3758
 -1      7716    3    0    1
 -2       407       122      3781      3817
 -1      7717    3    0    1
 -2      1293       133      2284      3962
 -1      7718    3    0    1
 -2       122      2225      3781      3817
 -1      7719    3    0    1
 -2      1665      3280      1924      1925
 -1      7720    3    0    1
 -2      3795      3225      3888      3978
 -1      7721    3    0    1
 -2      3013      2915      3844      3869
 -1      7722    3    0    1
 -2      3844      3099      3322      3869
 -1      7723    3    0    1
 -2      1442      1577      3800      2994
 -1      7724    3    0    1
 -2      1832      3236      3315      3422
 -1      7725    3    0    1
 -2      2686       170      3800      1818
 -1      7726    3    0    1
 -2      3257      2976      3884      3955
 -1      7727    3    0    1
 -2      3783      1435      3849      3734
 -1      7728    3    0    1
 -2      3550      3045      1993      3723
 -1      7729    3    0    1
 -2       148      3962      3773      3776
 -1      7730    3    0    1
 -2      1639      3198      3270      3944
 -1      7731    3    0    1
 -2      2829      3101      3193      3412
 -1      7732    3    0    1
 -2      3914      3249      3513      3628
 -1      7733    3    0    1
 -2        25         2      1936      2007
 -1      7734    3    0    1
 -2      1648      1515      1649      3548
 -1      7735    3    0    1
 -2       595       591      3194      3533
 -1      7736    3    0    1
 -2      2925      2757      2975      3893
 -1      7737    3    0    1
 -2      2947      3282      3871      3481
 -1      7738    3    0    1
 -2      1733      1948      3610      3982
 -1      7739    3    0    1
 -2      3803      1050      3806      3898
 -1      7740    3    0    1
 -2      2809      2631      2944      3804
 -1      7741    3    0    1
 -2      3857       908      3390      3513
 -1      7742    3    0    1
 -2      3872      3439      3941      3578
 -1      7743    3    0    1
 -2      1746      3429      1926      3680
 -1      7744    3    0    1
 -2      2829      2860      3193      3892
 -1      7745    3    0    1
 -2      2631      2879      2944      3804
 -1      7746    3    0    1
 -2      2694       942      3811      3296
 -1      7747    3    0    1
 -2       134      1724      3260      1859
 -1      7748    3    0    1
 -2      3830      1806      3818      1435
 -1      7749    3    0    1
 -2      2411      1039      2514      3820
 -1      7750    3    0    1
 -2      3815      2832      3147      4006
 -1      7751    3    0    1
 -2      1609      3190      3860      1980
 -1      7752    3    0    1
 -2      3162      2975      3852      3893
 -1      7753    3    0    1
 -2      2975      2757      3852      3893
 -1      7754    3    0    1
 -2      3293       572      1842      3906
 -1      7755    3    0    1
 -2      2737      1237      2959      3805
 -1      7756    3    0    1
 -2      2632      2856      2990      3805
 -1      7757    3    0    1
 -2      1874      1530      1875      3575
 -1      7758    3    0    1
 -2      1590      2990      1725      1726
 -1      7759    3    0    1
 -2      2693      2609      3345      3907
 -1      7760    3    0    1
 -2      1417      1418      2746      3404
 -1      7761    3    0    1
 -2      3287      1781      3467      3617
 -1      7762    3    0    1
 -2       197        11      2027      3728
 -1      7763    3    0    1
 -2      3014      2710      3835      3882
 -1      7764    3    0    1
 -2      1595      1594      3006      3445
 -1      7765    3    0    1
 -2      3864      2927      3577      3651
 -1      7766    3    0    1
 -2      1156      1558      3078      3371
 -1      7767    3    0    1
 -2      3109      3322      3869      3461
 -1      7768    3    0    1
 -2       134       964      3855      3922
 -1      7769    3    0    1
 -2      1435      1618      3818      3849
 -1      7770    3    0    1
 -2      2355      1331      2417      3806
 -1      7771    3    0    1
 -2      3900      1702      3491      3675
 -1      7772    3    0    1
 -2      2597      3212      3874      3512
 -1      7773    3    0    1
 -2      2842      3801      3290      3956
 -1      7774    3    0    1
 -2      1050      2355      2720      3806
 -1      7775    3    0    1
 -2      3187      1687      3680      3694
 -1      7776    3    0    1
 -2      1050       266      1331      3806
 -1      7777    3    0    1
 -2      2355      2417      2720      3806
 -1      7778    3    0    1
 -2      1436      1598      1599      3069
 -1      7779    3    0    1
 -2      2803      2575      3825      3873
 -1      7780    3    0    1
 -2      1498      3242      3848      1978
 -1      7781    3    0    1
 -2      3028      1598      3084      3911
 -1      7782    3    0    1
 -2       250      3862      3947      1999
 -1      7783    3    0    1
 -2      1664      2886      3386      3483
 -1      7784    3    0    1
 -2      3839      2973      3576      4008
 -1      7785    3    0    1
 -2       198       704       696      3710
 -1      7786    3    0    1
 -2       551       560      2599      3756
 -1      7787    3    0    1
 -2      1712      2950      3443      3510
 -1      7788    3    0    1
 -2       278      1065      2415      1877
 -1      7789    3    0    1
 -2      3141      3290      3915      3956
 -1      7790    3    0    1
 -2      2468      2724      2794      3807
 -1      7791    3    0    1
 -2      3088      2561      4001      4027
 -1      7792    3    0    1
 -2       704       198       202      3710
 -1      7793    3    0    1
 -2      2929      2813      3576      4008
 -1      7794    3    0    1
 -2      3975      3786      4011      3751
 -1      7795    3    0    1
 -2      1845      3794      3887      3929
 -1      7796    3    0    1
 -2      3913      3256      3535      3950
 -1      7797    3    0    1
 -2      2984      1522      1830      1831
 -1      7798    3    0    1
 -2      1742      1640      1743      3426
 -1      7799    3    0    1
 -2      1818      3214      3856      3309
 -1      7800    3    0    1
 -2      2933      2615      3860      3387
 -1      7801    3    0    1
 -2      1631      3434      1927      3560
 -1      7802    3    0    1
 -2      1519      2923      3002      3160
 -1      7803    3    0    1
 -2      2663      2634      3840      3897
 -1      7804    3    0    1
 -2      2438      2620      2756      3809
 -1      7805    3    0    1
 -2      2305      2438      2756      3809
 -1      7806    3    0    1
 -2       644      3087      3218      3685
 -1      7807    3    0    1
 -2       972      1298      2975      3852
 -1      7808    3    0    1
 -2      3879      1645      3468      3970
 -1      7809    3    0    1
 -2      1622      1623      2883      3554
 -1      7810    3    0    1
 -2      2757       972      2975      3852
 -1      7811    3    0    1
 -2       106      1856      1857      1891
 -1      7812    3    0    1
 -2         2        25      1936      1970
 -1      7813    3    0    1
 -2      1712       158      1727      3378
 -1      7814    3    0    1
 -2      3108      1464      3420      3673
 -1      7815    3    0    1
 -2       136       965      3169      3832
 -1      7816    3    0    1
 -2       136       408      2741      3832
 -1      7817    3    0    1
 -2      3788      1585      3802      3545
 -1      7818    3    0    1
 -2      2957      3010      3912      3937
 -1      7819    3    0    1
 -2      3135      1559      1781      1782
 -1      7820    3    0    1
 -2      1622      1458      1623      3102
 -1      7821    3    0    1
 -2      2608      2404      3790      3506
 -1      7822    3    0    1
 -2      1536       698      2783      3604
 -1      7823    3    0    1
 -2      3786      3547      4011      3751
 -1      7824    3    0    1
 -2      2938      1543      1870      1871
 -1      7825    3    0    1
 -2      2915      2916      2938      3013
 -1      7826    3    0    1
 -2       763       768      1528      3487
 -1      7827    3    0    1
 -2      3984      3865      3985      3993
 -1      7828    3    0    1
 -2      1629      1805       214       209
 -1      7829    3    0    1
 -2      3466      3147      3471      3476
 -1      7830    3    0    1
 -2      2843       637      1714      1715
 -1      7831    3    0    1
 -2      1562      1563      2843      1715
 -1      7832    3    0    1
 -2      3823      3807      3923      4003
 -1      7833    3    0    1
 -2      2810       530      2811      3015
 -1      7834    3    0    1
 -2      1815      1922      1923      3716
 -1      7835    3    0    1
 -2      2730      3353      3869      4007
 -1      7836    3    0    1
 -2      1247       529      1253      3015
 -1      7837    3    0    1
 -2       530       529      1247      3015
 -1      7838    3    0    1
 -2      1502      2848      3424      1938
 -1      7839    3    0    1
 -2      1473      1474      1738      3448
 -1      7840    3    0    1
 -2      3314      1762      1960      1961
 -1      7841    3    0    1
 -2       530      1247      2811      3015
 -1      7842    3    0    1
 -2      1943      1752      3933      3596
 -1      7843    3    0    1
 -2      3167       709      1807      1808
 -1      7844    3    0    1
 -2      1744      2959      3378      3443
 -1      7845    3    0    1
 -2      2573      2854      3796      3836
 -1      7846    3    0    1
 -2      3811      3164      1785      3296
 -1      7847    3    0    1
 -2      2832      3815      3147      3941
 -1      7848    3    0    1
 -2      2846      1415      3382      3886
 -1      7849    3    0    1
 -2      3878      3845      3430      1942
 -1      7850    3    0    1
 -2      2984      1522      3207      1830
 -1      7851    3    0    1
 -2      3048      3249      3857      3914
 -1      7852    3    0    1
 -2       214      1755      3859      3908
 -1      7853    3    0    1
 -2      1549      1758      1759      3146
 -1      7854    3    0    1
 -2      1546      1460      1547      3363
 -1      7855    3    0    1
 -2      3785      3788      3400      3931
 -1      7856    3    0    1
 -2      1521      3845      3281      3878
 -1      7857    3    0    1
 -2      2461      2305      3209      3323
 -1      7858    3    0    1
 -2      3823      3038      1797      3594
 -1      7859    3    0    1
 -2      1856      3968       106      1711
 -1      7860    3    0    1
 -2      3453      3105      3114      1694
 -1      7861    3    0    1
 -2       224      1315      3695      4014
 -1      7862    3    0    1
 -2      3480      3241      3974      3668
 -1      7863    3    0    1
 -2      2590      2892      3811      3047
 -1      7864    3    0    1
 -2       337       239      4004      4014
 -1      7865    3    0    1
 -2      2902      1230      2987      3277
 -1      7866    3    0    1
 -2       799       804      2981      3451
 -1      7867    3    0    1
 -2      1546      1547      3393      3530
 -1      7868    3    0    1
 -2      3896      1294      4006      4018
 -1      7869    3    0    1
 -2      1047      1053      2265      3989
 -1      7870    3    0    1
 -2       158      1712      3210      3699
 -1      7871    3    0    1
 -2       637      1714      1715      3203
 -1      7872    3    0    1
 -2      2462      2270      2878      3507
 -1      7873    3    0    1
 -2      2909      2856      2990      3138
 -1      7874    3    0    1
 -2      2842      3801      3204      3290
 -1      7875    3    0    1
 -2       942      3823      3296      1856
 -1      7876    3    0    1
 -2      1872      3215      1984      3640
 -1      7877    3    0    1
 -2      1702      1703      1852      3492
 -1      7878    3    0    1
 -2      1413      1414      1740      3137
 -1      7879    3    0    1
 -2      2867      2909      3805      3233
 -1      7880    3    0    1
 -2      2646      2867      3805      3233
 -1      7881    3    0    1
 -2      1634       412      1635      1771
 -1      7882    3    0    1
 -2       726      2320      2348      3139
 -1      7883    3    0    1
 -2      1791      1613      1792      3291
 -1      7884    3    0    1
 -2      2573      3778      3016      3993
 -1      7885    3    0    1
 -2      3018      2484      3836      3734
 -1      7886    3    0    1
 -2      3117      1742      3426      3433
 -1      7887    3    0    1
 -2      1742      1640      3426      3433
 -1      7888    3    0    1
 -2      2735      2844      3220      3980
 -1      7889    3    0    1
 -2      3174      1510      1917      1918
 -1      7890    3    0    1
 -2      3143      2864      3374      3967
 -1      7891    3    0    1
 -2       964      3815      3113      3466
 -1      7892    3    0    1
 -2      1331      1059      3845      3878
 -1      7893    3    0    1
 -2      2649      2650      2957      3912
 -1      7894    3    0    1
 -2      1694      1695      3105      3114
 -1      7895    3    0    1
 -2      1568      1441      3799      3916
 -1      7896    3    0    1
 -2      3083      3356      3953      4017
 -1      7897    3    0    1
 -2       105        21      1909      1932
 -1      7898    3    0    1
 -2      1695      1694      1708      3114
 -1      7899    3    0    1
 -2       395       261      3820      4000
 -1      7900    3    0    1
 -2      1540      2801      1863      1864
 -1      7901    3    0    1
 -2       183      1671      1672      3644
 -1      7902    3    0    1
 -2       168      1939      1940      1945
 -1      7903    3    0    1
 -2      2939      2886      3919      3516
 -1      7904    3    0    1
 -2      2897      1982      3708      3720
 -1      7905    3    0    1
 -2      1722       626      3086      3207
 -1      7906    3    0    1
 -2      1763      1762      3314      1961
 -1      7907    3    0    1
 -2      1429      1430      3500      3599
 -1      7908    3    0    1
 -2      2986      3072      1903      1904
 -1      7909    3    0    1
 -2       197      1628      2897      3708
 -1      7910    3    0    1
 -2      1538      3073      1785      1786
 -1      7911    3    0    1
 -2      1880      1683      1881      3514
 -1      7912    3    0    1
 -2      3200      3844      3601      3674
 -1      7913    3    0    1
 -2      2948      2945      3294      3919
 -1      7914    3    0    1
 -2      3507      3975      3743      3752
 -1      7915    3    0    1
 -2      3881      3406      3979      3976
 -1      7916    3    0    1
 -2       100       355      2762      3829
 -1      7917    3    0    1
 -2      2525       290      2748      3829
 -1      7918    3    0    1
 -2      1604      1603      2846      3243
 -1      7919    3    0    1
 -2       355       290      2762      3829
 -1      7920    3    0    1
 -2       635       976      2105      3767
 -1      7921    3    0    1
 -2        51      1920      3679      3724
 -1      7922    3    0    1
 -2      3396      3035      1897      1963
 -1      7923    3    0    1
 -2      1754      3497      3551      3948
 -1      7924    3    0    1
 -2      3049      3811      3823      3936
 -1      7925    3    0    1
 -2      2843      1562      3685      2804
 -1      7926    3    0    1
 -2      1931      3503      3657      2003
 -1      7927    3    0    1
 -2      3179      2729      3202      3203
 -1      7928    3    0    1
 -2       354      1627      1987      2008
 -1      7929    3    0    1
 -2      1517      3093      1766      1767
 -1      7930    3    0    1
 -2      2716      2194      2764      4013
 -1      7931    3    0    1
 -2      3053      2836      3844      3869
 -1      7932    3    0    1
 -2      1430      1685      1429      3500
 -1      7933    3    0    1
 -2      2718      2624      3964      3700
 -1      7934    3    0    1
 -2      2024      1667      2025      3701
 -1      7935    3    0    1
 -2      1533      1719      1720      3132
 -1      7936    3    0    1
 -2      1517      1518      3093      1767
 -1      7937    3    0    1
 -2      2955      2907      3215      3226
 -1      7938    3    0    1
 -2      1528      1654      3229      3489
 -1      7939    3    0    1
 -2      1858       339      1954      3952
 -1      7940    3    0    1
 -2       763      1528      1529      3487
 -1      7941    3    0    1
 -2      2367      2716      2764      4013
 -1      7942    3    0    1
 -2      3019      2568      3940      3944
 -1      7943    3    0    1
 -2      3488      1665      3660      4020
 -1      7944    3    0    1
 -2      1762      3216      1960      1961
 -1      7945    3    0    1
 -2      3017      2917      3228      3330
 -1      7946    3    0    1
 -2      3573      3206      3278      3844
 -1      7947    3    0    1
 -2      3190      2983      3660      4020
 -1      7948    3    0    1
 -2      2666      2665      2757      3842
 -1      7949    3    0    1
 -2      2772      1737      3108      3502
 -1      7950    3    0    1
 -2      1439      1657      3515      3655
 -1      7951    3    0    1
 -2      1620      3796      3348      3993
 -1      7952    3    0    1
 -2       949      1289      2438      3899
 -1      7953    3    0    1
 -2      1920      1921      3581      3692
 -1      7954    3    0    1
 -2      1536      1466      2821      3812
 -1      7955    3    0    1
 -2      1466      1553      2821      3812
 -1      7956    3    0    1
 -2      2824      2785      2895      3812
 -1      7957    3    0    1
 -2      1536      2622      2824      3812
 -1      7958    3    0    1
 -2       698      1536      2824      3812
 -1      7959    3    0    1
 -2       698      2824      2895      3812
 -1      7960    3    0    1
 -2      2726      2787      2861      3812
 -1      7961    3    0    1
 -2      2771      2726      2861      3812
 -1      7962    3    0    1
 -2      2784      2618      2901      3812
 -1      7963    3    0    1
 -2      3018      3836      3303      3348
 -1      7964    3    0    1
 -2      2622      2584      2655      3812
 -1      7965    3    0    1
 -2      2584      2622      2696      3812
 -1      7966    3    0    1
 -2      2787      1466      2861      3812
 -1      7967    3    0    1
 -2      2636      2584      2696      3812
 -1      7968    3    0    1
 -2      2771      2861      2895      3812
 -1      7969    3    0    1
 -2      2617      2726      2771      3812
 -1      7970    3    0    1
 -2      2597      3360      3874      3891
 -1      7971    3    0    1
 -2      2621      2576      2835      3980
 -1      7972    3    0    1
 -2      2622      2655      2785      3812
 -1      7973    3    0    1
 -2      2696      2622      2821      3812
 -1      7974    3    0    1
 -2      1466      1536      2861      3812
 -1      7975    3    0    1
 -2      1553      1466      2787      3812
 -1      7976    3    0    1
 -2      2861      1536      2895      3812
 -1      7977    3    0    1
 -2      3515      3297      3655      3657
 -1      7978    3    0    1
 -2      1536       698      2895      3812
 -1      7979    3    0    1
 -2      2622      2785      2824      3812
 -1      7980    3    0    1
 -2      1505      3130      1768      1769
 -1      7981    3    0    1
 -2      1737      1473      3448      3459
 -1      7982    3    0    1
 -2      1568      3856      1876      3916
 -1      7983    3    0    1
 -2      1861      3301      1862      3399
 -1      7984    3    0    1
 -2      1695      1694      3105      1769
 -1      7985    3    0    1
 -2      2890      1442      3800      3851
 -1      7986    3    0    1
 -2      3265      3376      3951      3619
 -1      7987    3    0    1
 -2      2579      2738      3848      3851
 -1      7988    3    0    1
 -2      2738      3069      3183      3851
 -1      7989    3    0    1
 -2      3183      3069      3285      3851
 -1      7990    3    0    1
 -2      1424      1423      3178      1934
 -1      7991    3    0    1
 -2      2916      2907      2955      3226
 -1      7992    3    0    1
 -2       471      2713      2714      3057
 -1      7993    3    0    1
 -2      1953      3711      2027      3728
 -1      7994    3    0    1
 -2      1655      1500      1656      3116
 -1      7995    3    0    1
 -2       655       662      2904      1863
 -1      7996    3    0    1
 -2      1583      2743      3311      3312
 -1      7997    3    0    1
 -2      1411      1412      3089      2025
 -1      7998    3    0    1
 -2       644      3179      3202      3203
 -1      7999    3    0    1
 -2      1488      1583      3311      3312
 -1      8000    3    0    1
 -2      1572      1571      3062      1930
 -1      8001    3    0    1
 -2      1510      1511      3024      3520
 -1      8002    3    0    1
 -2      2831      1538      3110      3133
 -1      8003    3    0    1
 -2      2661      2703      1611      3133
 -1      8004    3    0    1
 -2      1068      2780      3928      3678
 -1      8005    3    0    1
 -2      1615      3335      3871      3488
 -1      8006    3    0    1
 -2      2850      3072      3377      3592
 -1      8007    3    0    1
 -2      3261      3035      3626      3965
 -1      8008    3    0    1
 -2      2950      1603      1712      3443
 -1      8009    3    0    1
 -2      1050      3803      3833      3898
 -1      8010    3    0    1
 -2      3801      2674      3895      3915
 -1      8011    3    0    1
 -2       421       173      3835      1793
 -1      8012    3    0    1
 -2      3844      3053      3461      3573
 -1      8013    3    0    1
 -2      3840      3779      3897      3986
 -1      8014    3    0    1
 -2      3201      2757      3893      3464
 -1      8015    3    0    1
 -2      1491      2869      3823      3157
 -1      8016    3    0    1
 -2      1310      2842      3801      3915
 -1      8017    3    0    1
 -2      1671      3222      3444      3915
 -1      8018    3    0    1
 -2      1645      3008      3100      3890
 -1      8019    3    0    1
 -2      2584      2655      3812      3890
 -1      8020    3    0    1
 -2      3064      2793      3878      4010
 -1      8021    3    0    1
 -2      2823      1498      1978      1979
 -1      8022    3    0    1
 -2      1667      3147      3466      3476
 -1      8023    3    0    1
 -2      1434      3902      3903      3920
 -1      8024    3    0    1
 -2       346      2480      2761      3682
 -1      8025    3    0    1
 -2      1987      3043      1988      2008
 -1      8026    3    0    1
 -2      1639      1562      2991      3270
 -1      8027    3    0    1
 -2      1412      1411      3476      2025
 -1      8028    3    0    1
 -2      2847      2524      3252      4002
 -1      8029    3    0    1
 -2      1873      3434      3560      3581
 -1      8030    3    0    1
 -2      1676      1677      3061      3438
 -1      8031    3    0    1
 -2      3892      2826      3926      3935
 -1      8032    3    0    1
 -2       282       356      3824      3928
 -1      8033    3    0    1
 -2      1500      1501      1656      3116
 -1      8034    3    0    1
 -2      1747      3210      3383      3699
 -1      8035    3    0    1
 -2      2977      3170      3831      3291
 -1      8036    3    0    1
 -2      1460      3060      3633      2985
 -1      8037    3    0    1
 -2      1294      1569      3815      4006
 -1      8038    3    0    1
 -2      2987      1230      1827      3277
 -1      8039    3    0    1
 -2      1501      1500      3036      3116
 -1      8040    3    0    1
 -2      2692      1524      2734      3976
 -1      8041    3    0    1
 -2      2920      2957      3912      3937
 -1      8042    3    0    1
 -2      3280      3485      1924      3516
 -1      8043    3    0    1
 -2      1304      2849      3798      3127
 -1      8044    3    0    1
 -2      3180      3360      3874      3512
 -1      8045    3    0    1
 -2      2163      2761      3643      4000
 -1      8046    3    0    1
 -2      1659      1519      3103      3471
 -1      8047    3    0    1
 -2      2701      1449      3918      3996
 -1      8048    3    0    1
 -2       583       590      1606      3518
 -1      8049    3    0    1
 -2      2684       982      2974      3866
 -1      8050    3    0    1
 -2      2745      2367      2764      4013
 -1      8051    3    0    1
 -2      3227      1168      3334      3900
 -1      8052    3    0    1
 -2      1837      3267      1838      3473
 -1      8053    3    0    1
 -2      3040      3823      3529      3594
 -1      8054    3    0    1
 -2      3828       406      3977      2011
 -1      8055    3    0    1
 -2      3831      2814      3469      3509
 -1      8056    3    0    1
 -2      1828      3248      3566      3966
 -1      8057    3    0    1
 -2      1585      1661      3810      3868
 -1      8058    3    0    1
 -2       134       129      1661      3868
 -1      8059    3    0    1
 -2      3366      1447      1884      1883
 -1      8060    3    0    1
 -2      2163      1319      2411      4000
 -1      8061    3    0    1
 -2      2708      3099      3844      3869
 -1      8062    3    0    1
 -2      1640      3304      3426      3433
 -1      8063    3    0    1
 -2      3173      3221      3854      3935
 -1      8064    3    0    1
 -2      1606      1500      1607      3262
 -1      8065    3    0    1
 -2       799       804      3256      3316
 -1      8066    3    0    1
 -2      1481      1482      1726      3055
 -1      8067    3    0    1
 -2      3876      3297      3503      3655
 -1      8068    3    0    1
 -2      1828      1600      3341      3966
 -1      8069    3    0    1
 -2      3304      1836      3433      1906
 -1      8070    3    0    1
 -2      2893       431      1846      3894
 -1      8071    3    0    1
 -2      3889      1320      2448      3527
 -1      8072    3    0    1
 -2        19        69      1759      3146
 -1      8073    3    0    1
 -2      1253      1247      3015      3129
 -1      8074    3    0    1
 -2      3160      1519      1868      3002
 -1      8075    3    0    1
 -2      1062       815      1065      3641
 -1      8076    3    0    1
 -2      2606      2607      2652      3814
 -1      8077    3    0    1
 -2      1654      1528      3007      3122
 -1      8078    3    0    1
 -2      1584      1583      2906      3157
 -1      8079    3    0    1
 -2      1619      1491      3823      3157
 -1      8080    3    0    1
 -2      2869      3811      3823      3157
 -1      8081    3    0    1
 -2      2594      3000      3011      3814
 -1      8082    3    0    1
 -2      1828      1447      3475      3914
 -1      8083    3    0    1
 -2      3319      1919      1948      3610
 -1      8084    3    0    1
 -2      3789      1580      1693      4006
 -1      8085    3    0    1
 -2      2602      3048      3857      3914
 -1      8086    3    0    1
 -2      3105      1768      3453      3979
 -1      8087    3    0    1
 -2      3205      1496      3210      3620
 -1      8088    3    0    1
 -2       273        56      1552      3616
 -1      8089    3    0    1
 -2      2897       900      3967      3708
 -1      8090    3    0    1
 -2      2938      1450      3013      3226
 -1      8091    3    0    1
 -2      1067      2607      2628      3814
 -1      8092    3    0    1
 -2      3350      3171      3590      3951
 -1      8093    3    0    1
 -2      2916      1450      2938      3226
 -1      8094    3    0    1
 -2      1470      1728      3376      3951
 -1      8095    3    0    1
 -2      2869      2906      3811      3157
 -1      8096    3    0    1
 -2      1982      1983      2023      3726
 -1      8097    3    0    1
 -2      3153       106      1856      1857
 -1      8098    3    0    1
 -2      1059      1331      2723      3878
 -1      8099    3    0    1
 -2      3096      1837      1838      3610
 -1      8100    3    0    1
 -2      1607      1606      3262      3518
 -1      8101    3    0    1
 -2      1606      2790      3262      3518
 -1      8102    3    0    1
 -2       908      2687      3857      3390
 -1      8103    3    0    1
 -2      1610      1609      3386      3391
 -1      8104    3    0    1
 -2       590       583      1801      3259
 -1      8105    3    0    1
 -2      1469      1468      3565      1956
 -1      8106    3    0    1
 -2      2928      1590      3396      3626
 -1      8107    3    0    1
 -2      1452      3059      1917      3529
 -1      8108    3    0    1
 -2      1600      1842      1843      3341
 -1      8109    3    0    1
 -2      3885       608      3663      3669
 -1      8110    3    0    1
 -2      3143      3374      3890      3967
 -1      8111    3    0    1
 -2      2845      3840      3586      3986
 -1      8112    3    0    1
 -2      2723      2957      3010      3912
 -1      8113    3    0    1
 -2       155      1712      1713      1893
 -1      8114    3    0    1
 -2      3016      3778      3889      3564
 -1      8115    3    0    1
 -2      3823      1619      3157      1856
 -1      8116    3    0    1
 -2      2418      2748      2992      3829
 -1      8117    3    0    1
 -2      3025      1698      3825      3485
 -1      8118    3    0    1
 -2      1552      1551      3151      3206
 -1      8119    3    0    1
 -2      1545      1542      3988      3716
 -1      8120    3    0    1
 -2      3814      2652      3460      3913
 -1      8121    3    0    1
 -2      1865      3595      3993      2026
 -1      8122    3    0    1
 -2       950      1279      2716      3689
 -1      8123    3    0    1
 -2      3020      2652      3814      3913
 -1      8124    3    0    1
 -2       571       573      2688      3834
 -1      8125    3    0    1
 -2      1817      1423      3155      1424
 -1      8126    3    0    1
 -2      3801      2901      3812      3956
 -1      8127    3    0    1
 -2      1657      3515      3655      3657
 -1      8128    3    0    1
 -2       583      3075      1801      1802
 -1      8129    3    0    1
 -2      1320      1026      2448      3527
 -1      8130    3    0    1
 -2       245       250      3947      1999
 -1      8131    3    0    1
 -2       339      3887      1915      1951
 -1      8132    3    0    1
 -2       347      1039      2411      3820
 -1      8133    3    0    1
 -2      1506      1505      3021      3130
 -1      8134    3    0    1
 -2      2973      3286      3482      4008
 -1      8135    3    0    1
 -2      1724       134      3855      1859
 -1      8136    3    0    1
 -2      2882      3261      3367      3965
 -1      8137    3    0    1
 -2       430      2002      3983      3712
 -1      8138    3    0    1
 -2      2936      1531      3880      1995
 -1      8139    3    0    1
 -2       990      1307      3821      3925
 -1      8140    3    0    1
 -2      3358      3225      3888      1917
 -1      8141    3    0    1
 -2      3098      2667      3540      3541
 -1      8142    3    0    1
 -2      2347      2751      3793      3850
 -1      8143    3    0    1
 -2      2641      3113      3872      3884
 -1      8144    3    0    1
 -2      3052      2874      3872      3884
 -1      8145    3    0    1
 -2      3211      2640      3872      3884
 -1      8146    3    0    1
 -2      2641      2640      2976      3884
 -1      8147    3    0    1
 -2      1425      3166      1900      1901
 -1      8148    3    0    1
 -2       601      3160      1867      1868
 -1      8149    3    0    1
 -2      2688      2687      3834      3857
 -1      8150    3    0    1
 -2       990      2663      3822      3821
 -1      8151    3    0    1
 -2      1758        19      3146      3528
 -1      8152    3    0    1
 -2      1642      3345      3355      3436
 -1      8153    3    0    1
 -2      2641      2976      3027      3884
 -1      8154    3    0    1
 -2       412       431      3841      1846
 -1      8155    3    0    1
 -2       431       412      1635      1846
 -1      8156    3    0    1
 -2      3017      3093      1766      3228
 -1      8157    3    0    1
 -2      3852       972      3905      3568
 -1      8158    3    0    1
 -2      3902       234      3903      3942
 -1      8159    3    0    1
 -2      1549      1550      3112      3146
 -1      8160    3    0    1
 -2      1014      1020      3784      2014
 -1      8161    3    0    1
 -2      1414      1413      2914      3081
 -1      8162    3    0    1
 -2      1413      2857      1773      1774
 -1      8163    3    0    1
 -2      3436      1642      3907      3717
 -1      8164    3    0    1
 -2      3789       964      3791      3815
 -1      8165    3    0    1
 -2      2909      1532      3138      1914
 -1      8166    3    0    1
 -2      2376       333      3850      1989
 -1      8167    3    0    1
 -2      2641       607      2797      3815
 -1      8168    3    0    1
 -2      3780      3974      3668      3729
 -1      8169    3    0    1
 -2       431      2893      1771      3894
 -1      8170    3    0    1
 -2      1719      3040      3059      3529
 -1      8171    3    0    1
 -2      2369       949      2438      3899
 -1      8172    3    0    1
 -2       610      1294      2797      3815
 -1      8173    3    0    1
 -2      2813      2929      3980      4008
 -1      8174    3    0    1
 -2      2851      3000      3814      3978
 -1      8175    3    0    1
 -2      2989      1704      3044      4010
 -1      8176    3    0    1
 -2      1551      1477      1552      3148
 -1      8177    3    0    1
 -2      3814      3020      3913      3978
 -1      8178    3    0    1
 -2      2578      3839      3980      4008
 -1      8179    3    0    1
 -2      2958      1559      3135      3450
 -1      8180    3    0    1
 -2      3152      1460      1958      3941
 -1      8181    3    0    1
 -2      3062      2995      3329      3591
 -1      8182    3    0    1
 -2       964       607      2641      3815
 -1      8183    3    0    1
 -2       134       964      1667      3815
 -1      8184    3    0    1
 -2      3259      1801      3308      3530
 -1      8185    3    0    1
 -2      3216      1960      1961      1968
 -1      8186    3    0    1
 -2      1592      1593      3178      1934
 -1      8187    3    0    1
 -2       122       958      2225      3817
 -1      8188    3    0    1
 -2      1837      1733      1838      3610
 -1      8189    3    0    1
 -2      3386      1673      3483      3501
 -1      8190    3    0    1
 -2      1946      1908      3745      3753
 -1      8191    3    0    1
 -2      3901      3838      3998      4009
 -1      8192    3    0    1
 -2      3843      3899      3494      3696
 -1      8193    3    0    1
 -2       353       356      3824      1878
 -1      8194    3    0    1
 -2      1337       353      2558      3824
 -1      8195    3    0    1
 -2       827       824      1337      1878
 -1      8196    3    0    1
 -2      1602      3077      3297      3503
 -1      8197    3    0    1
 -2       900      2726      3967      3708
 -1      8198    3    0    1
 -2       170      1304      3799      3856
 -1      8199    3    0    1
 -2      2773      2300      3787      3088
 -1      8200    3    0    1
 -2      1462      1463      3267      3532
 -1      8201    3    0    1
 -2      2829      2894      3854      3929
 -1      8202    3    0    1
 -2      2734      3331      3881      3644
 -1      8203    3    0    1
 -2      3785      3788      3802      3894
 -1      8204    3    0    1
 -2      2839      3854      3422      3929
 -1      8205    3    0    1
 -2      3778      1026      3794      3929
 -1      8206    3    0    1
 -2      2838      2928      3396      3626
 -1      8207    3    0    1
 -2       990      3798      3251      4025
 -1      8208    3    0    1
 -2      1667      1668      3476      2025
 -1      8209    3    0    1
 -2      2855      1732      3246      3255
 -1      8210    3    0    1
 -2      1553      1467      1554      3165
 -1      8211    3    0    1
 -2      2915      3013      3409      3645
 -1      8212    3    0    1
 -2      2956      2820      3886      3589
 -1      8213    3    0    1
 -2       116       407      3817      3704
 -1      8214    3    0    1
 -2      1903      1683      1904      3458
 -1      8215    3    0    1
 -2      3521      3872      3941      3578
 -1      8216    3    0    1
 -2      2874      3872      3555      3578
 -1      8217    3    0    1
 -2       972      1634      3905      3568
 -1      8218    3    0    1
 -2      3060      1460      1958      1959
 -1      8219    3    0    1
 -2      3352      3549      3553      3997
 -1      8220    3    0    1
 -2       335      1865      2026      3750
 -1      8221    3    0    1
 -2      1413      1414      2857      1774
 -1      8222    3    0    1
 -2      1719      1452      1720      3370
 -1      8223    3    0    1
 -2      1797      3823      3594      1987
 -1      8224    3    0    1
 -2      2637      3112      3528      3955
 -1      8225    3    0    1
 -2      2706      1473      3478      3687
 -1      8226    3    0    1
 -2      1008      3783      3818      3849
 -1      8227    3    0    1
 -2      1425      1426      3166      1901
 -1      8228    3    0    1
 -2      1570      1569      3152      1959
 -1      8229    3    0    1
 -2      2845      2561      3223      4027
 -1      8230    3    0    1
 -2      1032      1322      2753      4004
 -1      8231    3    0    1
 -2        69        19      1555      3146
 -1      8232    3    0    1
 -2      1460      1546      1547      3393
 -1      8233    3    0    1
 -2      1282      2426      2748      1803
 -1      8234    3    0    1
 -2      1027      1312      2685      3302
 -1      8235    3    0    1
 -2      2334      1072      2748      1804
 -1      8236    3    0    1
 -2      2976      3027      3884      3955
 -1      8237    3    0    1
 -2      2955      1581      1679      3226
 -1      8238    3    0    1
 -2      3790      1449      3833      3803
 -1      8239    3    0    1
 -2      1653      1528      1654      3229
 -1      8240    3    0    1
 -2      3093      1517      1840      1841
 -1      8241    3    0    1
 -2      2650      2723      2793      3912
 -1      8242    3    0    1
 -2       430       406      3977      3983
 -1      8243    3    0    1
 -2      2640      2641      2797      3872
 -1      8244    3    0    1
 -2      2797      2641      3815      3872
 -1      8245    3    0    1
 -2      1689      1690      3328      3379
 -1      8246    3    0    1
 -2      1513      1514      1690      3379
 -1      8247    3    0    1
 -2      2856      2909      2990      3611
 -1      8248    3    0    1
 -2      1547      1546      1802      3530
 -1      8249    3    0    1
 -2      1671      1672      1731      3444
 -1      8250    3    0    1
 -2      3225      3814      3358      3888
 -1      8251    3    0    1
 -2       339       231      3887      1951
 -1      8252    3    0    1
 -2      1702      3486      3492      3673
 -1      8253    3    0    1
 -2      1732      2855      3253      3255
 -1      8254    3    0    1
 -2      3129      3205      3210      3620
 -1      8255    3    0    1
 -2      1733      1837      1838      3473
 -1      8256    3    0    1
 -2      3872      3113      3466      4012
 -1      8257    3    0    1
 -2      1632      1586      1633      3095
 -1      8258    3    0    1
 -2      3508      1883      3574      3966
 -1      8259    3    0    1
 -2      3281      3878      3430      3552
 -1      8260    3    0    1
 -2      3236      1494      1832      1833
 -1      8261    3    0    1
 -2        51      1920      1921      3581
 -1      8262    3    0    1
 -2      1301       981       643      3097
 -1      8263    3    0    1
 -2       643       981      2416      3097
 -1      8264    3    0    1
 -2      2543       646       972       625
 -1      8265    3    0    1
 -2      3841      3802      3853      3931
 -1      8266    3    0    1
 -2      2773      2416      3787      3097
 -1      8267    3    0    1
 -2      3785      2300      3787      3097
 -1      8268    3    0    1
 -2      2300      2773      3787      3097
 -1      8269    3    0    1
 -2      2416       981      3800      3097
 -1      8270    3    0    1
 -2       981      1301      3800      3097
 -1      8271    3    0    1
 -2      3800      1301      3808      3931
 -1      8272    3    0    1
 -2      1301       412      3808      3931
 -1      8273    3    0    1
 -2      3787      2416      3800      3097
 -1      8274    3    0    1
 -2       214      1629       209      1952
 -1      8275    3    0    1
 -2       646       972      1301      3097
 -1      8276    3    0    1
 -2       646      2543       972      3097
 -1      8277    3    0    1
 -2      1748      1596      3394      3563
 -1      8278    3    0    1
 -2      1810      1811      3333      3436
 -1      8279    3    0    1
 -2      3180      3360      3891      3874
 -1      8280    3    0    1
 -2       673       680      2999      3100
 -1      8281    3    0    1
 -2      1497      1627      3816      3547
 -1      8282    3    0    1
 -2      1645       673      1646      3100
 -1      8283    3    0    1
 -2       680      1645      3008      3100
 -1      8284    3    0    1
 -2       186      3661      1697      1696
 -1      8285    3    0    1
 -2      1600      1601      1843      3607
 -1      8286    3    0    1
 -2       754       239      1322      2040
 -1      8287    3    0    1
 -2      2163       770      2435      3505
 -1      8288    3    0    1
 -2      1294      3896      3960      4018
 -1      8289    3    0    1
 -2      2714      1161      3876      3600
 -1      8290    3    0    1
 -2      2742      3798      3856      4025
 -1      8291    3    0    1
 -2      1659      1411      3195      3893
 -1      8292    3    0    1
 -2      1781      1444      3431      3617
 -1      8293    3    0    1
 -2      3353      2836      3869      4007
 -1      8294    3    0    1
 -2      1517      1840      1841      3336
 -1      8295    3    0    1
 -2      4004       338      2039      2040
 -1      8296    3    0    1
 -2       117       116      3781      3817
 -1      8297    3    0    1
 -2      2834      1476      3597      3997
 -1      8298    3    0    1
 -2      1546      1801      1802      3530
 -1      8299    3    0    1
 -2      3802      3785      3808      3931
 -1      8300    3    0    1
 -2      3219      3145      1982      3711
 -1      8301    3    0    1
 -2      3031      3924      3937      3954
 -1      8302    3    0    1
 -2      3785      3400      3097      3931
 -1      8303    3    0    1
 -2       133       143      3863      3962
 -1      8304    3    0    1
 -2      3074      1847      1570      3715
 -1      8305    3    0    1
 -2      3072      1445      3377      3592
 -1      8306    3    0    1
 -2      1515      3451      3188      1849
 -1      8307    3    0    1
 -2      3117      1409      3213      3554
 -1      8308    3    0    1
 -2      2772      1737      1738      3108
 -1      8309    3    0    1
 -2      3271      2921      3883      3580
 -1      8310    3    0    1
 -2      3314      1762      3613      3997
 -1      8311    3    0    1
 -2      3926      3352      3553      3997
 -1      8312    3    0    1
 -2      1973      1421      3632      3997
 -1      8313    3    0    1
 -2      1421      3275      3926      3997
 -1      8314    3    0    1
 -2      1297      2523      2684      3866
 -1      8315    3    0    1
 -2      2615      2643      3192      3860
 -1      8316    3    0    1
 -2       414       982      2684      3866
 -1      8317    3    0    1
 -2      1710      3035      1860      3626
 -1      8318    3    0    1
 -2       113       400      3689      4013
 -1      8319    3    0    1
 -2      2831      1538      3811      3110
 -1      8320    3    0    1
 -2      2892      2831      3811      3110
 -1      8321    3    0    1
 -2      1748       709      1749      3134
 -1      8322    3    0    1
 -2      3486      1702      3492      3550
 -1      8323    3    0    1
 -2      3043      1533      3888      1987
 -1      8324    3    0    1
 -2      2608      2998      3506      3961
 -1      8325    3    0    1
 -2      3279      1752      1943      1944
 -1      8326    3    0    1
 -2       660      3759      2651       663
 -1      8327    3    0    1
 -2      1289      2936      3880      1995
 -1      8328    3    0    1
 -2      1733      3551      1947      1948
 -1      8329    3    0    1
 -2       173       996      1793      3463
 -1      8330    3    0    1
 -2      3245      2536      3934      4011
 -1      8331    3    0    1
 -2      2163       752      2460      3527
 -1      8332    3    0    1
 -2      3389      2915      3409      3645
 -1      8333    3    0    1
 -2      3840      3442      3635      4026
 -1      8334    3    0    1
 -2      1781      3080      3431      3467
 -1      8335    3    0    1
 -2      1549      1445      3078      3377
 -1      8336    3    0    1
 -2      1431      1432      3175      3364
 -1      8337    3    0    1
 -2       134      1724      3815      3260
 -1      8338    3    0    1
 -2      1840      3093      3361      3949
 -1      8339    3    0    1
 -2      3831      2844      3220      3441
 -1      8340    3    0    1
 -2      1837      3267      3473      3948
 -1      8341    3    0    1
 -2      1764      1503      1765      3214
 -1      8342    3    0    1
 -2      3551      3497      1948      3948
 -1      8343    3    0    1
 -2      1050       266      3898      3918
 -1      8344    3    0    1
 -2      3188      1849      3451      3937
 -1      8345    3    0    1
 -2       805       812      3621      3658
 -1      8346    3    0    1
 -2      2468      2725      3199      3847
 -1      8347    3    0    1
 -2      1460      1461      3152      1959
 -1      8348    3    0    1
 -2      3147      1724      3260      4006
 -1      8349    3    0    1
 -2      3833       250      3862      3947
 -1      8350    3    0    1
 -2      3471      1667      3476      2024
 -1      8351    3    0    1
 -2      2645      2673      3024      3119
 -1      8352    3    0    1
 -2      2214      2691      2805      3817
 -1      8353    3    0    1
 -2      2181      2225      2691      3817
 -1      8354    3    0    1
 -2       264      1651      3837      3705
 -1      8355    3    0    1
 -2      3827      3837      3569      3705
 -1      8356    3    0    1
 -2      1580      2832      3074      4006
 -1      8357    3    0    1
 -2      1791      1419      3284      3291
 -1      8358    3    0    1
 -2      3003      2977      3831      3291
 -1      8359    3    0    1
 -2      1415      1638      1639      3198
 -1      8360    3    0    1
 -2      1426      1425      3411      1901
 -1      8361    3    0    1
 -2      3175      1431      1886      1887
 -1      8362    3    0    1
 -2      1431      3193      1886      1887
 -1      8363    3    0    1
 -2       214      1008      2952      3818
 -1      8364    3    0    1
 -2      1435      1618      2862      3818
 -1      8365    3    0    1
 -2      3174      1510      3358      1917
 -1      8366    3    0    1
 -2      3099      1798      3844      3322
 -1      8367    3    0    1
 -2      1017      1313      2844      3831
 -1      8368    3    0    1
 -2      1783      2947      3871      3481
 -1      8369    3    0    1
 -2      2629      2484      3783      3836
 -1      8370    3    0    1
 -2      1646      1645      3149      3154
 -1      8371    3    0    1
 -2      3193      3101      1886      3557
 -1      8372    3    0    1
 -2      2594      2953      3913      3950
 -1      8373    3    0    1
 -2      1478      1477      3206      3278
 -1      8374    3    0    1
 -2      3293      3876      3906      3966
 -1      8375    3    0    1
 -2      3101      3193      3412      3557
 -1      8376    3    0    1
 -2      3807      3823      3909      4003
 -1      8377    3    0    1
 -2      3898      3803      3713      4005
 -1      8378    3    0    1
 -2      3182      2841      3891      3656
 -1      8379    3    0    1
 -2      3947      3862      3961      1999
 -1      8380    3    0    1
 -2      3540      1522      3622      3965
 -1      8381    3    0    1
 -2      3245      3877      3472      3934
 -1      8382    3    0    1
 -2      1810      3083      3356      3953
 -1      8383    3    0    1
 -2      3620      3447      1527      3129
 -1      8384    3    0    1
 -2      2906      1583      3811      3157
 -1      8385    3    0    1
 -2      1496      3205      3589      3620
 -1      8386    3    0    1
 -2      2784      3812      3890      3967
 -1      8387    3    0    1
 -2      1435      1618      3849      3359
 -1      8388    3    0    1
 -2      2506      2963      3843      3934
 -1      8389    3    0    1
 -2      3503      1844      3623      3655
 -1      8390    3    0    1
 -2      3158      3500      3599      4020
 -1      8391    3    0    1
 -2       180       186      1751      3957
 -1      8392    3    0    1
 -2      1448      1447      1829      3566
 -1      8393    3    0    1
 -2      3779      3925      3927      3957
 -1      8394    3    0    1
 -2      1039      2324      2514      3820
 -1      8395    3    0    1
 -2       261      3820      1949      1950
 -1      8396    3    0    1
 -2      2411      2324      2760      3820
 -1      8397    3    0    1
 -2      2480       346      3820      1949
 -1      8398    3    0    1
 -2      2324      2411      2514      3820
 -1      8399    3    0    1
 -2       999      1307      3234      3881
 -1      8400    3    0    1
 -2       990      1307      2663      3821
 -1      8401    3    0    1
 -2      1632      1633      2981      3538
 -1      8402    3    0    1
 -2      2663       990      3822      2399
 -1      8403    3    0    1
 -2      2705      1472      1775      3405
 -1      8404    3    0    1
 -2      1590      2909      1897      3611
 -1      8405    3    0    1
 -2      1679      3066      3246      3255
 -1      8406    3    0    1
 -2      3489      2969      3996      4007
 -1      8407    3    0    1
 -2      1444      1443      3351      1991
 -1      8408    3    0    1
 -2       406      1289      3880      1995
 -1      8409    3    0    1
 -2      1890       236      3429      2000
 -1      8410    3    0    1
 -2      3811      3049      3846      3936
 -1      8411    3    0    1
 -2       678       686      1005      2013
 -1      8412    3    0    1
 -2      1502      3424      3954      3679
 -1      8413    3    0    1
 -2      3531      1502      3954      3679
 -1      8414    3    0    1
 -2      1576      3897      3927      3586
 -1      8415    3    0    1
 -2       673       680      1645      3154
 -1      8416    3    0    1
 -2      1505      1506      1730      3125
 -1      8417    3    0    1
 -2      2972      1737      1738      3448
 -1      8418    3    0    1
 -2      3001      3826      3876      3906
 -1      8419    3    0    1
 -2       781       786      3208      1822
 -1      8420    3    0    1
 -2      3307      3395      3508      3966
 -1      8421    3    0    1
 -2      1940      1939      1964      3631
 -1      8422    3    0    1
 -2      1548      3794      1845      3929
 -1      8423    3    0    1
 -2      2404      2681      3902      3920
 -1      8424    3    0    1
 -2      3902      2681      3903      3920
 -1      8425    3    0    1
 -2      3075      1801      1802      3239
 -1      8426    3    0    1
 -2      3023      2980      3861      3875
 -1      8427    3    0    1
 -2      2468      3786      3795      4003
 -1      8428    3    0    1
 -2      1517      1766      3221      3421
 -1      8429    3    0    1
 -2      2980      2688      3834      3857
 -1      8430    3    0    1
 -2       147       978      2037      3760
 -1      8431    3    0    1
 -2      1445      3078      3377      3592
 -1      8432    3    0    1
 -2      1440      1439      1658      3515
 -1      8433    3    0    1
 -2       106       402      3930      3968
 -1      8434    3    0    1
 -2      1494      1766      1767      3421
 -1      8435    3    0    1
 -2      1439      1657      1658      3515
 -1      8436    3    0    1
 -2       745       750      1698      3191
 -1      8437    3    0    1
 -2      3217      2836      3844      3601
 -1      8438    3    0    1
 -2       555      1280      2694      3823
 -1      8439    3    0    1
 -2       552       555      2694      3823
 -1      8440    3    0    1
 -2       555      3823      2447      1280
 -1      8441    3    0    1
 -2      3811      2694      3049      3823
 -1      8442    3    0    1
 -2      2694      2660      3049      3823
 -1      8443    3    0    1
 -2      3811      2672      3038      3823
 -1      8444    3    0    1
 -2      3308      1546      3393      3530
 -1      8445    3    0    1
 -2      2943      3826      3308      3530
 -1      8446    3    0    1
 -2      1491      2869      3038      3823
 -1      8447    3    0    1
 -2       942       552      2694      3823
 -1      8448    3    0    1
 -2      2954      2650      2957      3424
 -1      8449    3    0    1
 -2      3826      3001      3259      3530
 -1      8450    3    0    1
 -2      3049      1280      3115      3823
 -1      8451    3    0    1
 -2      1802      1801      3259      3530
 -1      8452    3    0    1
 -2      2660      1280      3049      3823
 -1      8453    3    0    1
 -2      3038      2672      3040      3823
 -1      8454    3    0    1
 -2      2943      3001      3826      3530
 -1      8455    3    0    1
 -2      3457      2954      3924      3954
 -1      8456    3    0    1
 -2       354      3823      1797      1987
 -1      8457    3    0    1
 -2      3165      1553      3839      3612
 -1      8458    3    0    1
 -2      2799      3031      3924      3937
 -1      8459    3    0    1
 -2      2448      3778      2870      4023
 -1      8460    3    0    1
 -2      3865      3778      3984      4023
 -1      8461    3    0    1
 -2       572       565      3356      3607
 -1      8462    3    0    1
 -2      1473      1474      2010      3700
 -1      8463    3    0    1
 -2      1533      1534      3594      1988
 -1      8464    3    0    1
 -2      3269      2923      3885      3893
 -1      8465    3    0    1
 -2      2920      2793      3867      3912
 -1      8466    3    0    1
 -2      2650      2920      2957      3912
 -1      8467    3    0    1
 -2       114       113      3689      4013
 -1      8468    3    0    1
 -2      2643      2840      3066      3255
 -1      8469    3    0    1
 -2      1787      3462      3483      3501
 -1      8470    3    0    1
 -2      2820      3129      3886      3589
 -1      8471    3    0    1
 -2      2721      2948      3318      3919
 -1      8472    3    0    1
 -2      1447      3366      1884      3475
 -1      8473    3    0    1
 -2      2892      2831      3110      3133
 -1      8474    3    0    1
 -2      2892      2831      3846      3811
 -1      8475    3    0    1
 -2      2703      2658      2892      3133
 -1      8476    3    0    1
 -2      2703      2892      3110      3133
 -1      8477    3    0    1
 -2      2910      2587      2923      3893
 -1      8478    3    0    1
 -2      1506      3021      1730      3331
 -1      8479    3    0    1
 -2      3536      3820      2480      4000
 -1      8480    3    0    1
 -2      1506      1505      3130      1768
 -1      8481    3    0    1
 -2      1615      3136      3825      3873
 -1      8482    3    0    1
 -2      1858      3889      3952      3731
 -1      8483    3    0    1
 -2      1413      2914      3081      3534
 -1      8484    3    0    1
 -2      1414      1413      2857      3137
 -1      8485    3    0    1
 -2       682       187      1002      1794
 -1      8486    3    0    1
 -2       583      1606      1607      3518
 -1      8487    3    0    1
 -2      2868      1592      3178      3905
 -1      8488    3    0    1
 -2      2827      2859      3825      3191
 -1      8489    3    0    1
 -2       409      1848       119      1899
 -1      8490    3    0    1
 -2      1538      1624      3023      3320
 -1      8491    3    0    1
 -2      2340      2570      2847      4002
 -1      8492    3    0    1
 -2      1707      1694      1708      3493
 -1      8493    3    0    1
 -2      3815      1667      3147      3466
 -1      8494    3    0    1
 -2      3101      1795      1886      3557
 -1      8495    3    0    1
 -2      2803      2827      2859      3825
 -1      8496    3    0    1
 -2      2803      2575      2827      3825
 -1      8497    3    0    1
 -2       750      1615      3025      3825
 -1      8498    3    0    1
 -2      1698       750      3025      3825
 -1      8499    3    0    1
 -2      2647      3034      3875      3499
 -1      8500    3    0    1
 -2      3818      3801      3895      3915
 -1      8501    3    0    1
 -2      2756      2305      3809      3938
 -1      8502    3    0    1
 -2      3025      1615      3136      3825
 -1      8503    3    0    1
 -2      3801      2842      3204      3915
 -1      8504    3    0    1
 -2      3124      1756      3166      3477
 -1      8505    3    0    1
 -2      2857      1413      1773      3406
 -1      8506    3    0    1
 -2      1538      1539      1625      3320
 -1      8507    3    0    1
 -2      1508      1507      3034      3499
 -1      8508    3    0    1
 -2      1433      1746      3187      3429
 -1      8509    3    0    1
 -2      1681      1420      3292      1682
 -1      8510    3    0    1
 -2       962      1291      3194      3533
 -1      8511    3    0    1
 -2      1676      1462      3438      3580
 -1      8512    3    0    1
 -2      2908      2816      2910      3893
 -1      8513    3    0    1
 -2      2910      2816      3155      3893
 -1      8514    3    0    1
 -2       492      1191      3200      3601
 -1      8515    3    0    1
 -2      3024      1510      1895      1896
 -1      8516    3    0    1
 -2       811       808      3641      3686
 -1      8517    3    0    1
 -2      2710       996      3835      1793
 -1      8518    3    0    1
 -2      2786      2492      3144      3939
 -1      8519    3    0    1
 -2       173      2710      3835      1793
 -1      8520    3    0    1
 -2      2954      3424      3457      1981
 -1      8521    3    0    1
 -2      1505      1506      3125      3141
 -1      8522    3    0    1
 -2      1622      2680      3102      3143
 -1      8523    3    0    1
 -2      1623      1622      3102      3143
 -1      8524    3    0    1
 -2      1478      1477      3090      3375
 -1      8525    3    0    1
 -2      1056       798      2492      3144
 -1      8526    3    0    1
 -2      2492       798      2560      3144
 -1      8527    3    0    1
 -2       798       815      2560      3144
 -1      8528    3    0    1
 -2      1933      1592      1934      3588
 -1      8529    3    0    1
 -2      1593      1592      3428      3588
 -1      8530    3    0    1
 -2      1618      3849      3359      1952
 -1      8531    3    0    1
 -2       798      1056      1062      3144
 -1      8532    3    0    1
 -2       815       798      1062      3144
 -1      8533    3    0    1
 -2      3161      2747      3857      3605
 -1      8534    3    0    1
 -2      3093      1766      1767      3407
 -1      8535    3    0    1
 -2      1756      1757      3166      3477
 -1      8536    3    0    1
 -2      2859      3825      3280      3919
 -1      8537    3    0    1
 -2      1427      3839      3417      3721
 -1      8538    3    0    1
 -2      1494      1766      3305      3854
 -1      8539    3    0    1
 -2      2792      2943      3001      3826
 -1      8540    3    0    1
 -2      2864      1742      3374      3967
 -1      8541    3    0    1
 -2      2713      2789      3091      3826
 -1      8542    3    0    1
 -2      1574      2930      1810      1811
 -1      8543    3    0    1
 -2      3800      1301      3851      3567
 -1      8544    3    0    1
 -2      2943      2609      2985      3826
 -1      8545    3    0    1
 -2      3839      3219      3576      3711
 -1      8546    3    0    1
 -2      1473      3448      3459      3687
 -1      8547    3    0    1
 -2      2812      3015      3886      4019
 -1      8548    3    0    1
 -2      2655      3812      3890      3956
 -1      8549    3    0    1
 -2      1538      1539      1786      3403
 -1      8550    3    0    1
 -2       143       410      3863      3962
 -1      8551    3    0    1
 -2       282       278      3824      1877
 -1      8552    3    0    1
 -2      1805      1755      3932      3598
 -1      8553    3    0    1
 -2       637       644      1598      3218
 -1      8554    3    0    1
 -2      3035       159      1860      1897
 -1      8555    3    0    1
 -2      1439      3177      3385      3559
 -1      8556    3    0    1
 -2      1991      1443      1992      3694
 -1      8557    3    0    1
 -2      1571      1572      2995      1778
 -1      8558    3    0    1
 -2       122       595       407      3533
 -1      8559    3    0    1
 -2      1681      3003      3263      3441
 -1      8560    3    0    1
 -2       181       168      1940      1945
 -1      8561    3    0    1
 -2      3831      2782      3263      3441
 -1      8562    3    0    1
 -2      3806      2720      3827      3921
 -1      8563    3    0    1
 -2      1294       409      1847      4006
 -1      8564    3    0    1
 -2      1756      3477      3498      1922
 -1      8565    3    0    1
 -2      1521      3827      3845      3837
 -1      8566    3    0    1
 -2      1824      3395      1908      3508
 -1      8567    3    0    1
 -2      2730      2731      2836      3601
 -1      8568    3    0    1
 -2       354      1627      3795      1987
 -1      8569    3    0    1
 -2      3459      3334      3900      3675
 -1      8570    3    0    1
 -2      1570      1569      3074      3152
 -1      8571    3    0    1
 -2      3157      1583      1856      1857
 -1      8572    3    0    1
 -2      1785      1488      3240      3861
 -1      8573    3    0    1
 -2      2840      1679      3066      3246
 -1      8574    3    0    1
 -2      1469      1468      1855      3571
 -1      8575    3    0    1
 -2      1435      3830      1806      3737
 -1      8576    3    0    1
 -2       804       799      3256      1849
 -1      8577    3    0    1
 -2      3023      1538      3073      3861
 -1      8578    3    0    1
 -2      1450      2938      1870      1871
 -1      8579    3    0    1
 -2      2576      3831      3235      3980
 -1      8580    3    0    1
 -2      3924      2957      3937      3954
 -1      8581    3    0    1
 -2      2609      2985      3826      3907
 -1      8582    3    0    1
 -2       949      2808      3070      3828
 -1      8583    3    0    1
 -2      1512      2743      1711      3828
 -1      8584    3    0    1
 -2      3179      2738      3183      3940
 -1      8585    3    0    1
 -2      1995       406      3990      2011
 -1      8586    3    0    1
 -2       406       949      3070      3828
 -1      8587    3    0    1
 -2      1711      2743      3153      3828
 -1      8588    3    0    1
 -2      3158      3860      3500      4020
 -1      8589    3    0    1
 -2      3216      1762      1960      3667
 -1      8590    3    0    1
 -2      1994       284      3971      3743
 -1      8591    3    0    1
 -2      1729      1728      1940      3631
 -1      8592    3    0    1
 -2      2620      3789      3809      3896
 -1      8593    3    0    1
 -2      2905      1642      3231      3953
 -1      8594    3    0    1
 -2      1712       158      3378      3443
 -1      8595    3    0    1
 -2      1693      1882      3938      4018
 -1      8596    3    0    1
 -2      2925      2975      3162      3893
 -1      8597    3    0    1
 -2       170      1818      1819      1905
 -1      8598    3    0    1
 -2      3844      3053      3869      3461
 -1      8599    3    0    1
 -2      3354       786      3869      3461
 -1      8600    3    0    1
 -2      1470      1777      3590      3951
 -1      8601    3    0    1
 -2      1724       134      3815      3855
 -1      8602    3    0    1
 -2      3053      3354      3869      3461
 -1      8603    3    0    1
 -2      2968      2898      3874      3951
 -1      8604    3    0    1
 -2      3322      3844      3869      3461
 -1      8605    3    0    1
 -2      1818      3063      1819      1905
 -1      8606    3    0    1
 -2       964      3791      3815      3855
 -1      8607    3    0    1
 -2      1200       499      1202      3156
 -1      8608    3    0    1
 -2      3163      2576      3831      3364
 -1      8609    3    0    1
 -2       498       499      1200      3156
 -1      8610    3    0    1
 -2       498      1200      2683      3156
 -1      8611    3    0    1
 -2      2607       498      2683      3156
 -1      8612    3    0    1
 -2      1576      1524      3897      3586
 -1      8613    3    0    1
 -2       346      2480      3820      4000
 -1      8614    3    0    1
 -2      1517      1840      3336      3372
 -1      8615    3    0    1
 -2      1510      1917      3520      3936
 -1      8616    3    0    1
 -2      1795      1796      1887      3557
 -1      8617    3    0    1
 -2      3114      3453      3468      3970
 -1      8618    3    0    1
 -2      3777      3899      3983      3999
 -1      8619    3    0    1
 -2      1583      2743      3153      3311
 -1      8620    3    0    1
 -2      2857      2796      3137      3324
 -1      8621    3    0    1
 -2      2692      2796      2857      3324
 -1      8622    3    0    1
 -2      3627       245      3961      1999
 -1      8623    3    0    1
 -2      1955      1920      1956      3625
 -1      8624    3    0    1
 -2      1583      3153      1856      1857
 -1      8625    3    0    1
 -2      2991      1562      3202      3270
 -1      8626    3    0    1
 -2      3476      1411      2024      2025
 -1      8627    3    0    1
 -2      2743      3153      3828      3312
 -1      8628    3    0    1
 -2      1285      3029      3828      3312
 -1      8629    3    0    1
 -2      2726      2787      3812      3708
 -1      8630    3    0    1
 -2      2889      2592      3874      3970
 -1      8631    3    0    1
 -2      2881      2965      3869      4007
 -1      8632    3    0    1
 -2      3318      3450      3919      3949
 -1      8633    3    0    1
 -2      3241      3480      3974      3676
 -1      8634    3    0    1
 -2      2629      2634      3012      3830
 -1      8635    3    0    1
 -2      2629      2484      2634      3830
 -1      8636    3    0    1
 -2       421       423      3835      3882
 -1      8637    3    0    1
 -2      2369      2438      2595      3899
 -1      8638    3    0    1
 -2      1810      1574      3436      3717
 -1      8639    3    0    1
 -2      1460      3152      1958      1959
 -1      8640    3    0    1
 -2      3682      3989      3697      4016
 -1      8641    3    0    1
 -2      1477      3090      1798      1799
 -1      8642    3    0    1
 -2      3346      1689      3869      3519
 -1      8643    3    0    1
 -2      3095      3037      3537      3937
 -1      8644    3    0    1
 -2      2813      1142      2929      3576
 -1      8645    3    0    1
 -2      1293       965      2501      3169
 -1      8646    3    0    1
 -2      2284      1293      2501      3169
 -1      8647    3    0    1
 -2       133       965      1293      3169
 -1      8648    3    0    1
 -2       133      1293      2284      3169
 -1      8649    3    0    1
 -2       133      2284      2589      3169
 -1      8650    3    0    1
 -2      2958      3071      3135      1781
 -1      8651    3    0    1
 -2       136       133      2463      3169
 -1      8652    3    0    1
 -2      2463       133      2589      3169
 -1      8653    3    0    1
 -2       214      1755      3908      3932
 -1      8654    3    0    1
 -2      3804      2631      3124      3282
 -1      8655    3    0    1
 -2       619      1722      1723      3541
 -1      8656    3    0    1
 -2      1454      1642      2905      3181
 -1      8657    3    0    1
 -2      3186      1419      1791      3292
 -1      8658    3    0    1
 -2      2572       125      3792      3832
 -1      8659    3    0    1
 -2       965       136      2741      3832
 -1      8660    3    0    1
 -2      2736      2814      2844      3831
 -1      8661    3    0    1
 -2      2620      1294      3789      3896
 -1      8662    3    0    1
 -2      1450      2938      3013      1870
 -1      8663    3    0    1
 -2      1288      2228      2741      3832
 -1      8664    3    0    1
 -2       405       125      2741      3832
 -1      8665    3    0    1
 -2      1806      3830      3818      3838
 -1      8666    3    0    1
 -2      2782      1525      1788      1789
 -1      8667    3    0    1
 -2       965      2228      3169      3832
 -1      8668    3    0    1
 -2      2228       965      2741      3832
 -1      8669    3    0    1
 -2      3792       136      3169      3832
 -1      8670    3    0    1
 -2      2844      2736      3980      2735
 -1      8671    3    0    1
 -2      1288       125      2228      3832
 -1      8672    3    0    1
 -2      2977      3085      3163      3831
 -1      8673    3    0    1
 -2      3003      2977      3163      3831
 -1      8674    3    0    1
 -2      2576      3003      3163      3831
 -1      8675    3    0    1
 -2      2731      2730      3869      4007
 -1      8676    3    0    1
 -2      3287      3926      3553      3617
 -1      8677    3    0    1
 -2      1681      2896      1682      3292
 -1      8678    3    0    1
 -2      2576      2782      3003      3831
 -1      8679    3    0    1
 -2      2840      2643      3246      3255
 -1      8680    3    0    1
 -2      3236      1494      3305      3854
 -1      8681    3    0    1
 -2      3150      2907      3844      3674
 -1      8682    3    0    1
 -2      2147       169      3702      4024
 -1      8683    3    0    1
 -2      3248      3077      3561      3966
 -1      8684    3    0    1
 -2      1658      1657      3238      3672
 -1      8685    3    0    1
 -2      3120      3140      3873      3411
 -1      8686    3    0    1
 -2      3127      1504      3214      3856
 -1      8687    3    0    1
 -2      2824       691      1788      1789
 -1      8688    3    0    1
 -2      3017      3093      3455      3949
 -1      8689    3    0    1
 -2      2718      2009      2010      3700
 -1      8690    3    0    1
 -2      2923      1519      3269      3885
 -1      8691    3    0    1
 -2      2616      2580      3848      3940
 -1      8692    3    0    1
 -2      2756      3209      3484      3969
 -1      8693    3    0    1
 -2      3794      1845      3887      3579
 -1      8694    3    0    1
 -2      1822      3109      3869      3461
 -1      8695    3    0    1
 -2      1700      1158      3126      3371
 -1      8696    3    0    1
 -2      3370      3174      1917      1918
 -1      8697    3    0    1
 -2      1450      2916      2955      3226
 -1      8698    3    0    1
 -2      3136      3025      3825      3873
 -1      8699    3    0    1
 -2      2673      2642      3478      3687
 -1      8700    3    0    1
 -2      2737      2991      3202      3944
 -1      8701    3    0    1
 -2       768       763      3427      3487
 -1      8702    3    0    1
 -2       348       263      2766      4016
 -1      8703    3    0    1
 -2        20      3503      1931      2003
 -1      8704    3    0    1
 -2       148       973      3337      3962
 -1      8705    3    0    1
 -2      3164      1488      1785      3296
 -1      8706    3    0    1
 -2      3899      3843      3494      3999
 -1      8707    3    0    1
 -2      1485      1484      1913      3583
 -1      8708    3    0    1
 -2      2673      2642      3119      3936
 -1      8709    3    0    1
 -2       789       788      2436      3833
 -1      8710    3    0    1
 -2       788       789      1328      3833
 -1      8711    3    0    1
 -2      1328       789      2436      3833
 -1      8712    3    0    1
 -2       209      3932      3945      3598
 -1      8713    3    0    1
 -2      1676      1462      1677      3438
 -1      8714    3    0    1
 -2      3705      3898      3713      4005
 -1      8715    3    0    1
 -2      2953      3256      3913      3950
 -1      8716    3    0    1
 -2       991      2490      3702      4024
 -1      8717    3    0    1
 -2      3280      3825      3485      3919
 -1      8718    3    0    1
 -2      1986       406      1995      2002
 -1      8719    3    0    1
 -2      3602      2973      3667      4008
 -1      8720    3    0    1
 -2      1328       250      3131      3833
 -1      8721    3    0    1
 -2       946      2237      2491      4030
 -1      8722    3    0    1
 -2      1676      3875      3499      3532
 -1      8723    3    0    1
 -2      3932      3359      3945      3598
 -1      8724    3    0    1
 -2      2948      3025      3318      3919
 -1      8725    3    0    1
 -2      3121       554      3964      2009
 -1      8726    3    0    1
 -2       806      2400      2449      3199
 -1      8727    3    0    1
 -2      1960      1969      3602      3667
 -1      8728    3    0    1
 -2      3175      3163      3469      3509
 -1      8729    3    0    1
 -2      3235      3831      3364      3509
 -1      8730    3    0    1
 -2      1072      1282      2748      1803
 -1      8731    3    0    1
 -2      1524      3840      3897      3586
 -1      8732    3    0    1
 -2      1711      3843      3877      3494
 -1      8733    3    0    1
 -2      1635      1634      1771      3428
 -1      8734    3    0    1
 -2      3029      1285      3828      3834
 -1      8735    3    0    1
 -2      1418      1417      1705      3404
 -1      8736    3    0    1
 -2       949      2808      3828      3834
 -1      8737    3    0    1
 -2      1926      2000      2001      3680
 -1      8738    3    0    1
 -2      1515      2953      3256      3913
 -1      8739    3    0    1
 -2      2993      3354      3869      3943
 -1      8740    3    0    1
 -2      2959      3378      3443      3944
 -1      8741    3    0    1
 -2       234       248      1815      1923
 -1      8742    3    0    1
 -2      2808      3070      3828      3834
 -1      8743    3    0    1
 -2      2787      1553      3812      3691
 -1      8744    3    0    1
 -2      1742      1743      3117      3426
 -1      8745    3    0    1
 -2       147       978      2847      2037
 -1      8746    3    0    1
 -2       949      1285       571      3834
 -1      8747    3    0    1
 -2       266       264      3837      3898
 -1      8748    3    0    1
 -2      2793      2920      3867      3517
 -1      8749    3    0    1
 -2      2696      2787      3812      3691
 -1      8750    3    0    1
 -2      2980      2688      3029      3834
 -1      8751    3    0    1
 -2      3208      1822      3867      3413
 -1      8752    3    0    1
 -2      2688      1285      3029      3834
 -1      8753    3    0    1
 -2      2808      2871      3083      3834
 -1      8754    3    0    1
 -2      1502      2848      3531      3954
 -1      8755    3    0    1
 -2       573      1285      2688      3834
 -1      8756    3    0    1
 -2       571      2687      2808      3834
 -1      8757    3    0    1
 -2      2808      2687      2871      3834
 -1      8758    3    0    1
 -2      1667      3476      2024      2025
 -1      8759    3    0    1
 -2      3031      2815      3924      3954
 -1      8760    3    0    1
 -2      2855       919      2927      3246
 -1      8761    3    0    1
 -2      2815      3031      3537      3954
 -1      8762    3    0    1
 -2      2957      3037      3937      3954
 -1      8763    3    0    1
 -2      3159      2305      3323      3999
 -1      8764    3    0    1
 -2      3452      1995      3990      2011
 -1      8765    3    0    1
 -2       949       571      2808      3834
 -1      8766    3    0    1
 -2      3340      2988      3742      4028
 -1      8767    3    0    1
 -2      3131      1328      3833      3918
 -1      8768    3    0    1
 -2      3788      3802      3917      3931
 -1      8769    3    0    1
 -2      1657      3503      3655      2003
 -1      8770    3    0    1
 -2      3395      3503      3623      3966
 -1      8771    3    0    1
 -2      1437      1436      2962      3618
 -1      8772    3    0    1
 -2      1571      3182      3360      1929
 -1      8773    3    0    1
 -2      2831      2694      3811      3296
 -1      8774    3    0    1
 -2      2823      3848      3454      1978
 -1      8775    3    0    1
 -2      2860      2960      2982      3892
 -1      8776    3    0    1
 -2      1447      1883      3508      3966
 -1      8777    3    0    1
 -2      1739      2796      3232      3324
 -1      8778    3    0    1
 -2      1908      1909      3681      3753
 -1      8779    3    0    1
 -2      1322      2374      2514      4004
 -1      8780    3    0    1
 -2      3297      3077      3876      3966
 -1      8781    3    0    1
 -2      1766      1494      1767      3407
 -1      8782    3    0    1
 -2      3192      2933      3639      3735
 -1      8783    3    0    1
 -2      3805      2737      3202      3944
 -1      8784    3    0    1
 -2      1510      1917      1918      3520
 -1      8785    3    0    1
 -2      1041       770      1325      3189
 -1      8786    3    0    1
 -2      1325      2163      2460      3189
 -1      8787    3    0    1
 -2      1791      1419      1792      3292
 -1      8788    3    0    1
 -2      3072      2986      1903      3904
 -1      8789    3    0    1
 -2       608      3401      3465      3904
 -1      8790    3    0    1
 -2       248       234      3903      1965
 -1      8791    3    0    1
 -2       771       770      2163      3189
 -1      8792    3    0    1
 -2       770       771      1325      3189
 -1      8793    3    0    1
 -2      1325       771      2163      3189
 -1      8794    3    0    1
 -2      1328      1050      3833      3918
 -1      8795    3    0    1
 -2      2986      1683      1903      3904
 -1      8796    3    0    1
 -2       234      1779      3903      1965
 -1      8797    3    0    1
 -2      2986      2605      3392      3904
 -1      8798    3    0    1
 -2      3392      3052      3401      3904
 -1      8799    3    0    1
 -2      3681      3628      3745      3753
 -1      8800    3    0    1
 -2      2704      3023      3320      3861
 -1      8801    3    0    1
 -2      2822      2743      3834      3861
 -1      8802    3    0    1
 -2      1615      2827      3825      3191
 -1      8803    3    0    1
 -2       750      1615      3825      3191
 -1      8804    3    0    1
 -2       745      1698      1699      3191
 -1      8805    3    0    1
 -2      1615       745      1616      3191
 -1      8806    3    0    1
 -2      2827      1615      1616      3191
 -1      8807    3    0    1
 -2      1490      1617      2933      3192
 -1      8808    3    0    1
 -2      1938        56      3616      1981
 -1      8809    3    0    1
 -2      2615      1490      2933      3192
 -1      8810    3    0    1
 -2      3023      3073      3320      3861
 -1      8811    3    0    1
 -2      1490      2615      2643      3192
 -1      8812    3    0    1
 -2      3862      1652      3961      1999
 -1      8813    3    0    1
 -2       588      3533      3194       591
 -1      8814    3    0    1
 -2      3823      3709      3923       942
 -1      8815    3    0    1
 -2       599       962      1291      3194
 -1      8816    3    0    1
 -2       600       599      2574      3194
 -1      8817    3    0    1
 -2      2567       600      2574      3194
 -1      8818    3    0    1
 -2       488      1186      2567      3194
 -1      8819    3    0    1
 -2       488      2567      2574      3194
 -1      8820    3    0    1
 -2      2802      3798      3251      3534
 -1      8821    3    0    1
 -2       599       600       962      3194
 -1      8822    3    0    1
 -2      2914      1413      1739      3534
 -1      8823    3    0    1
 -2      1540      2914      1739      3534
 -1      8824    3    0    1
 -2       962       600      2567      3194
 -1      8825    3    0    1
 -2        12      1836      3304      1906
 -1      8826    3    0    1
 -2      2632      2604      3805      3944
 -1      8827    3    0    1
 -2      1525      2895      1788      3196
 -1      8828    3    0    1
 -2      1525      1526      2896      3196
 -1      8829    3    0    1
 -2      1788      2824      1789      3196
 -1      8830    3    0    1
 -2      1572      1571      3182      3197
 -1      8831    3    0    1
 -2      1571      1572      1778      3197
 -1      8832    3    0    1
 -2       209      1805      3932      3598
 -1      8833    3    0    1
 -2       727      1840      1841      3361
 -1      8834    3    0    1
 -2      1534      1533      3043      1988
 -1      8835    3    0    1
 -2       806       823      2400      3199
 -1      8836    3    0    1
 -2      3239      2837      3872      3941
 -1      8837    3    0    1
 -2      3831      3170      3284      3291
 -1      8838    3    0    1
 -2      1801       583      1802      3259
 -1      8839    3    0    1
 -2      3334      1834      3405      1936
 -1      8840    3    0    1
 -2      2848      1551      3457      3616
 -1      8841    3    0    1
 -2       823      1059      1335      3199
 -1      8842    3    0    1
 -2       823       806      1059      3199
 -1      8843    3    0    1
 -2      3809      3896      3938      3960
 -1      8844    3    0    1
 -2      3802      1605      3841      3894
 -1      8845    3    0    1
 -2      2854      3796      3836      3908
 -1      8846    3    0    1
 -2      3228      2749      3873      3949
 -1      8847    3    0    1
 -2       957      1294      2620      3896
 -1      8848    3    0    1
 -2       999      1310      2433      3901
 -1      8849    3    0    1
 -2      1469      1468      1956      3608
 -1      8850    3    0    1
 -2      3875      3834      3953      4017
 -1      8851    3    0    1
 -2      3783      3836      3849      3908
 -1      8852    3    0    1
 -2      3796      2854      3859      3908
 -1      8853    3    0    1
 -2      2848      2815      3531      3954
 -1      8854    3    0    1
 -2      2433      2663      3821      3858
 -1      8855    3    0    1
 -2      1900      3411      3490      3496
 -1      8856    3    0    1
 -2       224       338      4004      4014
 -1      8857    3    0    1
 -2      3800      1442      2994      3851
 -1      8858    3    0    1
 -2      3035       159      1897      1963
 -1      8859    3    0    1
 -2      3063      1504      3283      3851
 -1      8860    3    0    1
 -2      2580      2616      3848      3851
 -1      8861    3    0    1
 -2      3355      2693      1874      3575
 -1      8862    3    0    1
 -2      1415      3026      3198      3944
 -1      8863    3    0    1
 -2      3376      3212      3951      3619
 -1      8864    3    0    1
 -2      3800      2686      1818      3851
 -1      8865    3    0    1
 -2      3212      2968      3951      3619
 -1      8866    3    0    1
 -2      1628       900      2897      3708
 -1      8867    3    0    1
 -2      1462      1463      3096      1838
 -1      8868    3    0    1
 -2      1757      1756      3490      1923
 -1      8869    3    0    1
 -2      1948      3319      3610      3982
 -1      8870    3    0    1
 -2      3788      3785      2828      3894
 -1      8871    3    0    1
 -2      1562      2804      2924      3886
 -1      8872    3    0    1
 -2      1886      1795      1887      3557
 -1      8873    3    0    1
 -2      1847      1848      1899      3525
 -1      8874    3    0    1
 -2      2853      2733      3804      3326
 -1      8875    3    0    1
 -2      1481      3055      1830      1831
 -1      8876    3    0    1
 -2       200       199      2012      3755
 -1      8877    3    0    1
 -2      3208       781      1822      1823
 -1      8878    3    0    1
 -2      1146      2858      2968      3433
 -1      8879    3    0    1
 -2      2889      2931      3468      3970
 -1      8880    3    0    1
 -2      2690      3104      3149      3970
 -1      8881    3    0    1
 -2      2966      2884      3054      3892
 -1      8882    3    0    1
 -2      1698      1665      3825      3485
 -1      8883    3    0    1
 -2      2714      2728      3826      3880
 -1      8884    3    0    1
 -2      2898      3304      3874      3433
 -1      8885    3    0    1
 -2      3117      2898      3874      3433
 -1      8886    3    0    1
 -2      2461      2305      2828      3209
 -1      8887    3    0    1
 -2      2796      1739      3137      3324
 -1      8888    3    0    1
 -2      3874      3213      3879      3433
 -1      8889    3    0    1
 -2      2858      3213      3874      3433
 -1      8890    3    0    1
 -2      1636      1556      3054      3892
 -1      8891    3    0    1
 -2      2884      2966      3854      3892
 -1      8892    3    0    1
 -2      1739      1413      3137      3324
 -1      8893    3    0    1
 -2      2860      2623      2960      3892
 -1      8894    3    0    1
 -2      2577      2841      3891      3970
 -1      8895    3    0    1
 -2      2305      2756      2828      3209
 -1      8896    3    0    1
 -2      3831      3254      3509      3980
 -1      8897    3    0    1
 -2      2979      3227      3846      3900
 -1      8898    3    0    1
 -2      1795      3101      3412      3557
 -1      8899    3    0    1
 -2       346       261      3820      1949
 -1      8900    3    0    1
 -2      2916      2907      3226      3844
 -1      8901    3    0    1
 -2      3073      1785      1786      3240
 -1      8902    3    0    1
 -2      2524       414      2684      3866
 -1      8903    3    0    1
 -2      1432      1431      1637      3364
 -1      8904    3    0    1
 -2      2846      1415      1889      3382
 -1      8905    3    0    1
 -2      3094      3171      3350      3951
 -1      8906    3    0    1
 -2      3053      2836      3200      3844
 -1      8907    3    0    1
 -2      2814      3172      3254      3980
 -1      8908    3    0    1
 -2      2918      3878      3933      4010
 -1      8909    3    0    1
 -2      2968      1148      1761      3212
 -1      8910    3    0    1
 -2      3317      1640      3347      3967
 -1      8911    3    0    1
 -2      3047      3811      3164      3403
 -1      8912    3    0    1
 -2      3811      2892      3110      3403
 -1      8913    3    0    1
 -2      3164      3811      1785      3403
 -1      8914    3    0    1
 -2      2892      3811      3047      3403
 -1      8915    3    0    1
 -2       349       281      1975      3686
 -1      8916    3    0    1
 -2      3307      3077      3395      3966
 -1      8917    3    0    1
 -2      3977      3899      3696      3712
 -1      8918    3    0    1
 -2      3801      2961      3915      3956
 -1      8919    3    0    1
 -2      3063      1503      1818      1819
 -1      8920    3    0    1
 -2      1503      3214      1818      1819
 -1      8921    3    0    1
 -2      1504      1764      3127      3214
 -1      8922    3    0    1
 -2      1578      2947      3357      3871
 -1      8923    3    0    1
 -2       214      3603      1629      1630
 -1      8924    3    0    1
 -2      2907      1535      1675      3215
 -1      8925    3    0    1
 -2      2972      3459      3900      3675
 -1      8926    3    0    1
 -2      2607      2628      3814      3964
 -1      8927    3    0    1
 -2      3069      1598      3183      3285
 -1      8928    3    0    1
 -2      2828      2807      3432      3894
 -1      8929    3    0    1
 -2      3785      3802      3808      3894
 -1      8930    3    0    1
 -2      3662      2003      2005      3672
 -1      8931    3    0    1
 -2       637      1598      1599      3218
 -1      8932    3    0    1
 -2      1788      3220      3264      3604
 -1      8933    3    0    1
 -2      3562      3531      3954      3625
 -1      8934    3    0    1
 -2       278       282      3928      3678
 -1      8935    3    0    1
 -2      1166      2719      2979      3227
 -1      8936    3    0    1
 -2       716       709      3134      3288
 -1      8937    3    0    1
 -2      1599      1598      3028      3218
 -1      8938    3    0    1
 -2      1306       185      2213      3987
 -1      8939    3    0    1
 -2      2886      1433      3187      3483
 -1      8940    3    0    1
 -2      1598       644      3087      3218
 -1      8941    3    0    1
 -2      3449      3857      3914      4017
 -1      8942    3    0    1
 -2       278       282      3824      3928
 -1      8943    3    0    1
 -2       155       158      1712      1893
 -1      8944    3    0    1
 -2      3825      2948      3485      3919
 -1      8945    3    0    1
 -2      2930      1810      3356      3953
 -1      8946    3    0    1
 -2      2857      2692      3324      3406
 -1      8947    3    0    1
 -2      3024      2645      3119      3936
 -1      8948    3    0    1
 -2      2864      1409      3143      3374
 -1      8949    3    0    1
 -2      3113      3872      3884      4012
 -1      8950    3    0    1
 -2      1687      1991      1992      3694
 -1      8951    3    0    1
 -2      1727      1712      3378      3510
 -1      8952    3    0    1
 -2       255       769      3722      3763
 -1      8953    3    0    1
 -2      2631      3804      3124      3981
 -1      8954    3    0    1
 -2      1650      1475      2950      3378
 -1      8955    3    0    1
 -2      3961      3582      3974      3676
 -1      8956    3    0    1
 -2      2907      3215      3844      3674
 -1      8957    3    0    1
 -2      1676      3875      3532      3605
 -1      8958    3    0    1
 -2       644      2843      1714      3685
 -1      8959    3    0    1
 -2      3577      3864      2732      2927
 -1      8960    3    0    1
 -2      1304      3798      3822      3856
 -1      8961    3    0    1
 -2      2685      1312      3793      3302
 -1      8962    3    0    1
 -2      1960      3314      3597      3997
 -1      8963    3    0    1
 -2      3794      2448      3889      3952
 -1      8964    3    0    1
 -2      1519      2923      3160      3885
 -1      8965    3    0    1
 -2      2588      3872      3941      4012
 -1      8966    3    0    1
 -2      3798      1304      3127      3856
 -1      8967    3    0    1
 -2      1596      3349      1812      1813
 -1      8968    3    0    1
 -2       608      3160      3410      3885
 -1      8969    3    0    1
 -2      1721       266      1913      3918
 -1      8970    3    0    1
 -2       947        95      3757      3769
 -1      8971    3    0    1
 -2      2628      1067      3814      3225
 -1      8972    3    0    1
 -2       450       554      2673      3478
 -1      8973    3    0    1
 -2       264       266      1913      1971
 -1      8974    3    0    1
 -2      3823       354      1797      3909
 -1      8975    3    0    1
 -2      1553      1466      3165      3839
 -1      8976    3    0    1
 -2      1551        56      3151      3674
 -1      8977    3    0    1
 -2      3864      3326      4020      4028
 -1      8978    3    0    1
 -2      3161      3857      3875      3605
 -1      8979    3    0    1
 -2      2517      1000      2777      3882
 -1      8980    3    0    1
 -2      2833      1427      3219      3839
 -1      8981    3    0    1
 -2      2517       173      2710      3882
 -1      8982    3    0    1
 -2      2813      2833      3219      3839
 -1      8983    3    0    1
 -2      1553      1427      2833      3839
 -1      8984    3    0    1
 -2      2621      2578      2767      3839
 -1      8985    3    0    1
 -2       423       421      2777      3882
 -1      8986    3    0    1
 -2      2621      2767      2783      3839
 -1      8987    3    0    1
 -2      3304      1879      1906      3649
 -1      8988    3    0    1
 -2      1466      1553      2833      3839
 -1      8989    3    0    1
 -2      2783      2767      3165      3839
 -1      8990    3    0    1
 -2      3955      3662      3664      3672
 -1      8991    3    0    1
 -2      1431      1636      1637      3364
 -1      8992    3    0    1
 -2      2928      1725      3626      3965
 -1      8993    3    0    1
 -2      3567      3237      3588      3606
 -1      8994    3    0    1
 -2       248       234      1815      3942
 -1      8995    3    0    1
 -2      2634      2484      3223      3840
 -1      8996    3    0    1
 -2      2923      2587      3885      3893
 -1      8997    3    0    1
 -2      2467      2634      3223      3840
 -1      8998    3    0    1
 -2      1788      2782      1789      3264
 -1      8999    3    0    1
 -2      2634      2467      2663      3840
 -1      9000    3    0    1
 -2      2621      2782      3220      3264
 -1      9001    3    0    1
 -2      1926      3429      2000      3680
 -1      9002    3    0    1
 -2      3854      3221      3336      3372
 -1      9003    3    0    1
 -2      3092      2857      1773      3406
 -1      9004    3    0    1
 -2      1707      3114      3453      3468
 -1      9005    3    0    1
 -2      1766      1494      3305      3421
 -1      9006    3    0    1
 -2      2855      3190      3192      3860
 -1      9007    3    0    1
 -2       709       716      1807      3288
 -1      9008    3    0    1
 -2      1807      2960      1808      3288
 -1      9009    3    0    1
 -2       565       572      1842      3607
 -1      9010    3    0    1
 -2      1636      3054      3101      3892
 -1      9011    3    0    1
 -2      3021      1506      3130      3331
 -1      9012    3    0    1
 -2      3212      2968      3874      3951
 -1      9013    3    0    1
 -2      1556      3364      3509      3572
 -1      9014    3    0    1
 -2      2845      3840      3986      4027
 -1      9015    3    0    1
 -2      3482      1421      1972      1973
 -1      9016    3    0    1
 -2      2930      1574      1810      3953
 -1      9017    3    0    1
 -2      3162      3269      3893      3714
 -1      9018    3    0    1
 -2      3249      3048      3857      3948
 -1      9019    3    0    1
 -2      2873      3365      3727      4022
 -1      9020    3    0    1
 -2        47      1673      1674      1839
 -1      9021    3    0    1
 -2       409       119      1882      4018
 -1      9022    3    0    1
 -2      1762      3482      1972      1973
 -1      9023    3    0    1
 -2      2808      3070      3834      3953
 -1      9024    3    0    1
 -2      1540      1541      2801      1864
 -1      9025    3    0    1
 -2      2920      3867      3924      3937
 -1      9026    3    0    1
 -2      2736      2844      3980      3831
 -1      9027    3    0    1
 -2       349       278       808      3686
 -1      9028    3    0    1
 -2      1982       197      3711      3728
 -1      9029    3    0    1
 -2      1642      1574      1643      3231
 -1      9030    3    0    1
 -2      3836      3849      3359      3734
 -1      9031    3    0    1
 -2       924      3424      1928      3954
 -1      9032    3    0    1
 -2      3531      2815      3562      3954
 -1      9033    3    0    1
 -2      3562      3537      3608      3954
 -1      9034    3    0    1
 -2      2954      2920      3924      3954
 -1      9035    3    0    1
 -2      2815      3537      3562      3954
 -1      9036    3    0    1
 -2      3424      2954      3457      3954
 -1      9037    3    0    1
 -2       134      3868      3917      3922
 -1      9038    3    0    1
 -2      1541      1540      3232      1864
 -1      9039    3    0    1
 -2       134       129      3868      3922
 -1      9040    3    0    1
 -2      2714      2713      3826      3876
 -1      9041    3    0    1
 -2      1739      2796      3137      3232
 -1      9042    3    0    1
 -2      1541      1540      1740      3232
 -1      9043    3    0    1
 -2      1540      1739      1740      3232
 -1      9044    3    0    1
 -2      1740      1739      3137      3232
 -1      9045    3    0    1
 -2       958      1284      2805      3704
 -1      9046    3    0    1
 -2      2767      3839      3417      3612
 -1      9047    3    0    1
 -2      2909      2856      3805      3233
 -1      9048    3    0    1
 -2      1427      1553      1554      3612
 -1      9049    3    0    1
 -2      1533      1534      3040      3594
 -1      9050    3    0    1
 -2      1763      1762      1972      3613
 -1      9051    3    0    1
 -2      2867      1236      1647      3233
 -1      9052    3    0    1
 -2      2867      1647      2909      3233
 -1      9053    3    0    1
 -2       999      2591      3234      1307
 -1      9054    3    0    1
 -2      1583      3153      3312      1856
 -1      9055    3    0    1
 -2      1499      1498      2823      1979
 -1      9056    3    0    1
 -2      2719      3227      3271      3846
 -1      9057    3    0    1
 -2      2873      1632      1633      3316
 -1      9058    3    0    1
 -2      1056      1062      3939      1975
 -1      9059    3    0    1
 -2      1479      1594      3122      3414
 -1      9060    3    0    1
 -2       649       645       984      2038
 -1      9061    3    0    1
 -2      2591      1307      2940      3234
 -1      9062    3    0    1
 -2      1922       234      1923      1965
 -1      9063    3    0    1
 -2      2305      2756      3209      3484
 -1      9064    3    0    1
 -2      3115      1510      3119      3936
 -1      9065    3    0    1
 -2      2903       732      3361      3949
 -1      9066    3    0    1
 -2      3283      2962      3851      3618
 -1      9067    3    0    1
 -2      2781      3351      3553      3617
 -1      9068    3    0    1
 -2      2706      1473      3448      3478
 -1      9069    3    0    1
 -2      3537      3031      3937      3954
 -1      9070    3    0    1
 -2      1986      3777      3983      3688
 -1      9071    3    0    1
 -2         1      1987      1988      2008
 -1      9072    3    0    1
 -2      3820       347      1950      4000
 -1      9073    3    0    1
 -2      1724      1580      3855      4006
 -1      9074    3    0    1
 -2      1488      1489      1786      3240
 -1      9075    3    0    1
 -2      1489      1488      3042      3240
 -1      9076    3    0    1
 -2      2580      3183      3851      3940
 -1      9077    3    0    1
 -2      3183      2738      3851      3940
 -1      9078    3    0    1
 -2      1873      1202      3373      3434
 -1      9079    3    0    1
 -2      2756      3789      3484      3938
 -1      9080    3    0    1
 -2      3870      3971      3972      3973
 -1      9081    3    0    1
 -2      3052      3392      3884      3904
 -1      9082    3    0    1
 -2      1425      1426      1784      3481
 -1      9083    3    0    1
 -2      3503      1657      3657      2003
 -1      9084    3    0    1
 -2      1764      1436      1765      3618
 -1      9085    3    0    1
 -2      1657      3126      3662      2003
 -1      9086    3    0    1
 -2      1783      1425      1784      3481
 -1      9087    3    0    1
 -2      2568      3805      3940      3944
 -1      9088    3    0    1
 -2      2947      1783      1784      3481
 -1      9089    3    0    1
 -2      2921      1676      3883      3580
 -1      9090    3    0    1
 -2      1050      1328      2969      3918
 -1      9091    3    0    1
 -2      3884      3419      3465      3904
 -1      9092    3    0    1
 -2      1779      3903      1965      3676
 -1      9093    3    0    1
 -2      2798      1696      3661      3976
 -1      9094    3    0    1
 -2      3802      3808      3853      3931
 -1      9095    3    0    1
 -2        18      2003      2004      2005
 -1      9096    3    0    1
 -2      3280      1429      1924      1925
 -1      9097    3    0    1
 -2      3201      2757      3842      3893
 -1      9098    3    0    1
 -2      1313      2844      3831      3284
 -1      9099    3    0    1
 -2       168      1939      1945      3619
 -1      9100    3    0    1
 -2      3826      2943      3308      3393
 -1      9101    3    0    1
 -2      2914      2802      3081      3534
 -1      9102    3    0    1
 -2      1588      1798      3322      3461
 -1      9103    3    0    1
 -2      2968      2898      3951      3619
 -1      9104    3    0    1
 -2      1477      1478      1799      3278
 -1      9105    3    0    1
 -2      2902      2666      2925      3842
 -1      9106    3    0    1
 -2      1766      1517      1767      3421
 -1      9107    3    0    1
 -2      1282        98      1803      3402
 -1      9108    3    0    1
 -2       348       267      3989      4016
 -1      9109    3    0    1
 -2      2665      2882      3201      3842
 -1      9110    3    0    1
 -2      1586      2873      3365      3727
 -1      9111    3    0    1
 -2      1512      3843      3899      4021
 -1      9112    3    0    1
 -2      1060      3629      3959      3738
 -1      9113    3    0    1
 -2      2990      2632      3805      3611
 -1      9114    3    0    1
 -2      2757      2665      3201      3842
 -1      9115    3    0    1
 -2      1518      1517      3336      3421
 -1      9116    3    0    1
 -2      3206      3573      3278      1477
 -1      9117    3    0    1
 -2      3824       282      1877      1878
 -1      9118    3    0    1
 -2      1444      2958      3306      3659
 -1      9119    3    0    1
 -2      2369      2595      2963      3843
 -1      9120    3    0    1
 -2      2595      2506      2963      3843
 -1      9121    3    0    1
 -2      3873      3120      3411      3496
 -1      9122    3    0    1
 -2      3136      2935      3873      3496
 -1      9123    3    0    1
 -2       805       812      1211      3621
 -1      9124    3    0    1
 -2      1674      1673      1716      3386
 -1      9125    3    0    1
 -2      1443      1444      1781      3306
 -1      9126    3    0    1
 -2      3259      2790      3511      3518
 -1      9127    3    0    1
 -2      2901      3008      3890      3956
 -1      9128    3    0    1
 -2      1827      1758      3381      3946
 -1      9129    3    0    1
 -2      2945      1221      2948      3294
 -1      9130    3    0    1
 -2       421       173      1793      3463
 -1      9131    3    0    1
 -2       660       668      2586      3463
 -1      9132    3    0    1
 -2      1634      1301      3800      3567
 -1      9133    3    0    1
 -2      3242      3848      3851      3567
 -1      9134    3    0    1
 -2      3035      2838      3396      3626
 -1      9135    3    0    1
 -2      1543       763      1544      3389
 -1      9136    3    0    1
 -2      1331      2417      3806      3845
 -1      9137    3    0    1
 -2       626      3098      3540      3541
 -1      9138    3    0    1
 -2      3039      1694      3141      3956
 -1      9139    3    0    1
 -2       333       332      3793      3850
 -1      9140    3    0    1
 -2      1331      1059      2417      3845
 -1      9141    3    0    1
 -2      1665      1924      3660      4020
 -1      9142    3    0    1
 -2      2941      3804      3122      3981
 -1      9143    3    0    1
 -2      2730       492      2731      3601
 -1      9144    3    0    1
 -2      1331      3806      3837      3845
 -1      9145    3    0    1
 -2      2847       978      4002      2037
 -1      9146    3    0    1
 -2      4002       411      2037      2038
 -1      9147    3    0    1
 -2      2742      2802      3798      3251
 -1      9148    3    0    1
 -2      3256      1849      3913      3535
 -1      9149    3    0    1
 -2      1568      3916      3736      4027
 -1      9150    3    0    1
 -2      2802      2742      3081      3251
 -1      9151    3    0    1
 -2      1464      1465      3108      3420
 -1      9152    3    0    1
 -2      1041       770      3189      3505
 -1      9153    3    0    1
 -2      2732      2941      3804      4028
 -1      9154    3    0    1
 -2      2575      2827      3825      3873
 -1      9155    3    0    1
 -2      3798      2887      2937      4019
 -1      9156    3    0    1
 -2      1515      1849      1850      3451
 -1      9157    3    0    1
 -2      3448      2706      3459      3687
 -1      9158    3    0    1
 -2       119       409      1899      3960
 -1      9159    3    0    1
 -2      1515      2953      2996      3256
 -1      9160    3    0    1
 -2      1516      1515      2996      3256
 -1      9161    3    0    1
 -2       409      1848      1899      1847
 -1      9162    3    0    1
 -2      1928       924      3954      3733
 -1      9163    3    0    1
 -2      1455      1454      2905      3362
 -1      9164    3    0    1
 -2      1335      2652      3814      3978
 -1      9165    3    0    1
 -2      1753      1752      1941      3615
 -1      9166    3    0    1
 -2       432      1876      3916      3670
 -1      9167    3    0    1
 -2      3160       608      1867      3885
 -1      9168    3    0    1
 -2      2843       644      3218      3685
 -1      9169    3    0    1
 -2      3026      1603      1888      1889
 -1      9170    3    0    1
 -2      1941      1752      1942      3615
 -1      9171    3    0    1
 -2      1852      1464      1853      3420
 -1      9172    3    0    1
 -2      1752      1753      3279      3615
 -1      9173    3    0    1
 -2      1529      1528      3229      3487
 -1      9174    3    0    1
 -2      3801      3204      3290      3915
 -1      9175    3    0    1
 -2      3215      3217      3226      3844
 -1      9176    3    0    1
 -2      2907      3215      3226      3844
 -1      9177    3    0    1
 -2      1935        46      1984      1985
 -1      9178    3    0    1
 -2      1517      3221      3854      3421
 -1      9179    3    0    1
 -2       261       395      3643      4000
 -1      9180    3    0    1
 -2      3786      2468      3795      3847
 -1      9181    3    0    1
 -2      1609      2933      1673      3860
 -1      9182    3    0    1
 -2      1551      3151      3206      3844
 -1      9183    3    0    1
 -2      2717      2708      3099      3844
 -1      9184    3    0    1
 -2      2708      2717      2916      3844
 -1      9185    3    0    1
 -2      2836      3013      3217      3844
 -1      9186    3    0    1
 -2      3217      3013      3226      3844
 -1      9187    3    0    1
 -2      2717      3099      3206      3844
 -1      9188    3    0    1
 -2      2915      2708      2916      3844
 -1      9189    3    0    1
 -2      1519      3160      1868      1867
 -1      9190    3    0    1
 -2      1621      3063      1818      1905
 -1      9191    3    0    1
 -2      3151      2717      3206      3844
 -1      9192    3    0    1
 -2      2717      2907      2916      3844
 -1      9193    3    0    1
 -2      2907      2717      3150      3844
 -1      9194    3    0    1
 -2      1630      3170      3284      3603
 -1      9195    3    0    1
 -2      1770      3216      1968      3602
 -1      9196    3    0    1
 -2      2900      1450      1870      1871
 -1      9197    3    0    1
 -2       214      1313      3859      3958
 -1      9198    3    0    1
 -2       432       170      1819      1905
 -1      9199    3    0    1
 -2      2729      3179      3183      3940
 -1      9200    3    0    1
 -2      3150      2717      3151      3844
 -1      9201    3    0    1
 -2      2737      3805      3202      3940
 -1      9202    3    0    1
 -2      1710      2987      3035      3261
 -1      9203    3    0    1
 -2       932      2987      1710      3261
 -1      9204    3    0    1
 -2      1681      3003      1420      3263
 -1      9205    3    0    1
 -2      2751       333      3793      3850
 -1      9206    3    0    1
 -2      3898       264      3705      3713
 -1      9207    3    0    1
 -2       427      1806      3838      1826
 -1      9208    3    0    1
 -2      1670      1669      1833      3315
 -1      9209    3    0    1
 -2       427       183      3222      1826
 -1      9210    3    0    1
 -2      1669      1832      1833      3315
 -1      9211    3    0    1
 -2      2284       133      3863      3962
 -1      9212    3    0    1
 -2      1029      2376      3139      3850
 -1      9213    3    0    1
 -2      1669      1832      3315      3422
 -1      9214    3    0    1
 -2      2605      2899      3884      3955
 -1      9215    3    0    1
 -2      1507      3161      3875      3605
 -1      9216    3    0    1
 -2       698       691      2783      3264
 -1      9217    3    0    1
 -2      1676      1507      3875      3605
 -1      9218    3    0    1
 -2      1549      3078      3112      3377
 -1      9219    3    0    1
 -2      1545       234      3782      3942
 -1      9220    3    0    1
 -2       964      2459      3791      3917
 -1      9221    3    0    1
 -2      1620      1755      3908      3958
 -1      9222    3    0    1
 -2      2977      3085      3831      3958
 -1      9223    3    0    1
 -2      1551      3151      3844      3674
 -1      9224    3    0    1
 -2      2305      3209      3323      3484
 -1      9225    3    0    1
 -2      3819      3782      3902      3942
 -1      9226    3    0    1
 -2       234       248      3903      3942
 -1      9227    3    0    1
 -2      2668      3788      3810      3917
 -1      9228    3    0    1
 -2      3791      2668      3810      3917
 -1      9229    3    0    1
 -2      3804      2941      3122      4028
 -1      9230    3    0    1
 -2      3123      2804      3886      3685
 -1      9231    3    0    1
 -2      1282        95      3769        98
 -1      9232    3    0    1
 -2       189       199      3987      3730
 -1      9233    3    0    1
 -2      1008      1313      2424      3859
 -1      9234    3    0    1
 -2      1008      2424      3783      3859
 -1      9235    3    0    1
 -2       231       339      3887      3952
 -1      9236    3    0    1
 -2      1026      1320      2448      3952
 -1      9237    3    0    1
 -2      2634      2663      3012      3858
 -1      9238    3    0    1
 -2      2672      3059      3529      3936
 -1      9239    3    0    1
 -2       732      3118      1840      3372
 -1      9240    3    0    1
 -2      1630       214      3818      3321
 -1      9241    3    0    1
 -2       999      2433      3821      3901
 -1      9242    3    0    1
 -2      3818      2862      3298      3321
 -1      9243    3    0    1
 -2      2587      2910      3155      3893
 -1      9244    3    0    1
 -2      2804      1562      3123      3886
 -1      9245    3    0    1
 -2       414       413      3866      4002
 -1      9246    3    0    1
 -2      3149      1645      3879      3970
 -1      9247    3    0    1
 -2      1728      1470      3171      3951
 -1      9248    3    0    1
 -2      1521      1567      3845      3921
 -1      9249    3    0    1
 -2      1166      3227      1814      3271
 -1      9250    3    0    1
 -2      1763      1762      3216      3482
 -1      9251    3    0    1
 -2       662       655      1929      3656
 -1      9252    3    0    1
 -2      3360      3182      3891      3656
 -1      9253    3    0    1
 -2      1596      1597      1812      3563
 -1      9254    3    0    1
 -2      3182      1929      1930      3656
 -1      9255    3    0    1
 -2      1665      1698      1699      3273
 -1      9256    3    0    1
 -2      2469      2998      3241      3974
 -1      9257    3    0    1
 -2      2598      2873      3950      4022
 -1      9258    3    0    1
 -2      3914      3677      3681      3745
 -1      9259    3    0    1
 -2      1200      2683      3434      3486
 -1      9260    3    0    1
 -2      1423      1816      3848      3606
 -1      9261    3    0    1
 -2      1571      2995      3062      3591
 -1      9262    3    0    1
 -2       214      3818      1952      3945
 -1      9263    3    0    1
 -2      3147      3369      3941      4012
 -1      9264    3    0    1
 -2      1648      2978      2996      3913
 -1      9265    3    0    1
 -2      1847      3074      1570      1569
 -1      9266    3    0    1
 -2      1573      1751      3925      3957
 -1      9267    3    0    1
 -2      3867      2920      3912      3937
 -1      9268    3    0    1
 -2      3059      3384      1917      3529
 -1      9269    3    0    1
 -2      1421      1422      1972      3632
 -1      9270    3    0    1
 -2      1559      1781      1782      3467
 -1      9271    3    0    1
 -2       732       727      2903      3361
 -1      9272    3    0    1
 -2      3823      1583      3296      1856
 -1      9273    3    0    1
 -2      2908      2910      3089      3893
 -1      9274    3    0    1
 -2      2624      2772      3964      3700
 -1      9275    3    0    1
 -2      3497      1754      3551      1967
 -1      9276    3    0    1
 -2      1632      3095      3538      3937
 -1      9277    3    0    1
 -2      1632      1586      3095      3937
 -1      9278    3    0    1
 -2      3884      3052      3904      4012
 -1      9279    3    0    1
 -2      2658      2892      3133      3846
 -1      9280    3    0    1
 -2      3010      3188      3912      3937
 -1      9281    3    0    1
 -2      3188      2919      3912      3937
 -1      9282    3    0    1
 -2      2919      3188      3451      3937
 -1      9283    3    0    1
 -2      2979      2660      3049      3846
 -1      9284    3    0    1
 -2      3815      3147      3260      4006
 -1      9285    3    0    1
 -2      2642      2603      2706      3846
 -1      9286    3    0    1
 -2      2856      2867      3805      3944
 -1      9287    3    0    1
 -2      2603      2642      2658      3846
 -1      9288    3    0    1
 -2      2694      2659      2719      3846
 -1      9289    3    0    1
 -2      1851      2734      3881      3644
 -1      9290    3    0    1
 -2      2831      2719      2921      3846
 -1      9291    3    0    1
 -2      1603      3026      1888      3944
 -1      9292    3    0    1
 -2      1513      3354      3418      3470
 -1      9293    3    0    1
 -2       804      1632      2981      3937
 -1      9294    3    0    1
 -2      2760      2411      3820      3536
 -1      9295    3    0    1
 -2      2694      2719      2831      3846
 -1      9296    3    0    1
 -2      1711      3245      3877      3472
 -1      9297    3    0    1
 -2      3848      3237      3851      3567
 -1      9298    3    0    1
 -2      1657      1658      3657      2004
 -1      9299    3    0    1
 -2      1883      1824      3508      3574
 -1      9300    3    0    1
 -2      3355      1874      1875      3575
 -1      9301    3    0    1
 -2      1825      1824      1884      3574
 -1      9302    3    0    1
 -2      2823      1498      3274      3848
 -1      9303    3    0    1
 -2      2803      2575      3873      3949
 -1      9304    3    0    1
 -2      1202      1200      3156      3434
 -1      9305    3    0    1
 -2       772       769      1217      3718
 -1      9306    3    0    1
 -2      3815      1724      3855      4006
 -1      9307    3    0    1
 -2      1498      1816      3274      3848
 -1      9308    3    0    1
 -2      2894      3236      3854      3422
 -1      9309    3    0    1
 -2      2738      2702      2750      3848
 -1      9310    3    0    1
 -2      1851       427      3881      3998
 -1      9311    3    0    1
 -2      2579      2738      2750      3848
 -1      9312    3    0    1
 -2      2888      2616      3242      3848
 -1      9313    3    0    1
 -2      2750      2702      2823      3848
 -1      9314    3    0    1
 -2      2579      2750      3237      3848
 -1      9315    3    0    1
 -2      1613      1791      3284      3291
 -1      9316    3    0    1
 -2      2750      2823      3274      3848
 -1      9317    3    0    1
 -2      1498      1499      3542      1979
 -1      9318    3    0    1
 -2      1315      2769      3695      4014
 -1      9319    3    0    1
 -2      3178      1423      1933      1934
 -1      9320    3    0    1
 -2      3177      3876      3623      3655
 -1      9321    3    0    1
 -2      1816      1498      3242      3848
 -1      9322    3    0    1
 -2      3662      1657      2003      3672
 -1      9323    3    0    1
 -2      1419      1420      1792      3292
 -1      9324    3    0    1
 -2      1687      3009      3351      3671
 -1      9325    3    0    1
 -2      2531      2845      3840      3442
 -1      9326    3    0    1
 -2      3553      3009      3549      3671
 -1      9327    3    0    1
 -2      1839      1617      3639      3735
 -1      9328    3    0    1
 -2      1603      1604      2846      1889
 -1      9329    3    0    1
 -2      1581      1582      3066      3652
 -1      9330    3    0    1
 -2       247        47      1674      1839
 -1      9331    3    0    1
 -2      1622      1409      1623      3554
 -1      9332    3    0    1
 -2      1409      1622      3879      3554
 -1      9333    3    0    1
 -2      1581      1582      1985      3640
 -1      9334    3    0    1
 -2      3040      2672      3059      3529
 -1      9335    3    0    1
 -2      1023      1029      3850      1989
 -1      9336    3    0    1
 -2       353      2525      3824      3928
 -1      9337    3    0    1
 -2      2966      2817      3068      3352
 -1      9338    3    0    1
 -2       554       450      2718      2009
 -1      9339    3    0    1
 -2      2376       333      2751      3850
 -1      9340    3    0    1
 -2       213      2347      3793      3850
 -1      9341    3    0    1
 -2       334       213      3793      3850
 -1      9342    3    0    1
 -2       213      1023      2347      3850
 -1      9343    3    0    1
 -2       351       350      3939      3959
 -1      9344    3    0    1
 -2       332      3850      1989      1990
 -1      9345    3    0    1
 -2      2751      2347      3139      3850
 -1      9346    3    0    1
 -2      2376      2751      3139      3850
 -1      9347    3    0    1
 -2      1854      1586      1855      3365
 -1      9348    3    0    1
 -2      1556      1557      1637      3572
 -1      9349    3    0    1
 -2      1741      1620      3910      3958
 -1      9350    3    0    1
 -2      2848      3424      1938      1981
 -1      9351    3    0    1
 -2      2848      3457      3954      1981
 -1      9352    3    0    1
 -2      3457      3424      3954      1981
 -1      9353    3    0    1
 -2      1768      1506      3141      3290
 -1      9354    3    0    1
 -2      3177      2806      3385      3559
 -1      9355    3    0    1
 -2      1568      3799      3856      3916
 -1      9356    3    0    1
 -2      1161       907      3876      3623
 -1      9357    3    0    1
 -2       907      3395      3503      3623
 -1      9358    3    0    1
 -2      1673      1609      3860      1980
 -1      9359    3    0    1
 -2      3063      3800      1818      3851
 -1      9360    3    0    1
 -2      1504      3063      1818      3851
 -1      9361    3    0    1
 -2      3155      1423      1816      3568
 -1      9362    3    0    1
 -2      2738      2579      2962      3851
 -1      9363    3    0    1
 -2      2686      3183      3285      3851
 -1      9364    3    0    1
 -2      2579      2890      2962      3851
 -1      9365    3    0    1
 -2      2994      2579      3237      3851
 -1      9366    3    0    1
 -2      2738      2962      3069      3851
 -1      9367    3    0    1
 -2      2686      2580      3183      3851
 -1      9368    3    0    1
 -2      1504      2686      3285      3851
 -1      9369    3    0    1
 -2      2962      2890      3283      3851
 -1      9370    3    0    1
 -2      2890      2579      2994      3851
 -1      9371    3    0    1
 -2      2890      3063      3283      3851
 -1      9372    3    0    1
 -2      1764      1504      3285      3851
 -1      9373    3    0    1
 -2      1423      3155      3178      3568
 -1      9374    3    0    1
 -2      1442      2890      2994      3851
 -1      9375    3    0    1
 -2      2686      1504      1818      3851
 -1      9376    3    0    1
 -2      3178      2816      3905      3568
 -1      9377    3    0    1
 -2      3497      1800      1948      3948
 -1      9378    3    0    1
 -2      2655      2791      3895      3956
 -1      9379    3    0    1
 -2      2213      3987      2776      2774
 -1      9380    3    0    1
 -2      3419      1683      3904      3592
 -1      9381    3    0    1
 -2      3818      1310      3838      3901
 -1      9382    3    0    1
 -2      3012      2629      3830      3901
 -1      9383    3    0    1
 -2      1538      3811      1785      3296
 -1      9384    3    0    1
 -2      1538      2831      3811      3296
 -1      9385    3    0    1
 -2      1583      1584      3153      1857
 -1      9386    3    0    1
 -2      3811       942      3823      3296
 -1      9387    3    0    1
 -2      1583      3811      3823      3296
 -1      9388    3    0    1
 -2      3789      1693      3896      4006
 -1      9389    3    0    1
 -2      2938      1543      3013      1870
 -1      9390    3    0    1
 -2        21       105      1909      1946
 -1      9391    3    0    1
 -2      1521      1567      3921      3752
 -1      9392    3    0    1
 -2      3858      3881      3901      3998
 -1      9393    3    0    1
 -2      1500      1606      3036      3555
 -1      9394    3    0    1
 -2      2952       214      3818      3298
 -1      9395    3    0    1
 -2       214      1630      3818      3298
 -1      9396    3    0    1
 -2      1842       565      1843      3435
 -1      9397    3    0    1
 -2      1790      3809      3938      3960
 -1      9398    3    0    1
 -2       957       409      1294      3960
 -1      9399    3    0    1
 -2      3891      2577      3970      3979
 -1      9400    3    0    1
 -2       957      3809      3880      3960
 -1      9401    3    0    1
 -2      2631      2879      3804      3981
 -1      9402    3    0    1
 -2      3148      1477      3375      3457
 -1      9403    3    0    1
 -2      3351      3553      3617      1991
 -1      9404    3    0    1
 -2      3809      1790      3880      3960
 -1      9405    3    0    1
 -2      1434      3582      3961      3676
 -1      9406    3    0    1
 -2      3477      3124      3498      3981
 -1      9407    3    0    1
 -2       234      1779      3498      3981
 -1      9408    3    0    1
 -2      1779      3477      3498      3981
 -1      9409    3    0    1
 -2      1910      3662      2005      3672
 -1      9410    3    0    1
 -2      2786       351      3939      3959
 -1      9411    3    0    1
 -2      2305      2756      3323      3938
 -1      9412    3    0    1
 -2      1580      3789      1693      3938
 -1      9413    3    0    1
 -2      2484      2531      3018      3303
 -1      9414    3    0    1
 -2      2531      2484      3016      3303
 -1      9415    3    0    1
 -2       770      1041      2436      3505
 -1      9416    3    0    1
 -2      1920      3531      3954      3679
 -1      9417    3    0    1
 -2      1600      1601      1829      3341
 -1      9418    3    0    1
 -2      2484      3018      3836      3303
 -1      9419    3    0    1
 -2      2573      2484      3836      3303
 -1      9420    3    0    1
 -2      2484      2573      3016      3303
 -1      9421    3    0    1
 -2      1494      1495      3236      3305
 -1      9422    3    0    1
 -2      2801      2802      2914      3534
 -1      9423    3    0    1
 -2      3816       354      3963      2008
 -1      9424    3    0    1
 -2      1507      1508      1677      3499
 -1      9425    3    0    1
 -2      1507      1676      3875      3499
 -1      9426    3    0    1
 -2      3045      1631      3550      1993
 -1      9427    3    0    1
 -2      1443      1781      1782      3306
 -1      9428    3    0    1
 -2      2958      3071      1781      3306
 -1      9429    3    0    1
 -2      3145      3839      3576      3711
 -1      9430    3    0    1
 -2      1688      1687      3351      1992
 -1      9431    3    0    1
 -2      3071      3135      1781      3306
 -1      9432    3    0    1
 -2      1781      3135      1782      3306
 -1      9433    3    0    1
 -2      1444      2958      1781      3306
 -1      9434    3    0    1
 -2      1581      1984      1985      3652
 -1      9435    3    0    1
 -2       662      3360      3891      3656
 -1      9436    3    0    1
 -2      1471      1470      1729      3474
 -1      9437    3    0    1
 -2       246        46      1935      1985
 -1      9438    3    0    1
 -2       816       815      2633      3641
 -1      9439    3    0    1
 -2      3423      1470      3447      3591
 -1      9440    3    0    1
 -2      3225      3795      3888      1987
 -1      9441    3    0    1
 -2       354      1280      3823      1987
 -1      9442    3    0    1
 -2      2825      1615      3357      3871
 -1      9443    3    0    1
 -2      3579      1954      3952      3731
 -1      9444    3    0    1
 -2      3049      3119      3846      3936
 -1      9445    3    0    1
 -2        46       246      1872      1985
 -1      9446    3    0    1
 -2      1872      1984      1985      3640
 -1      9447    3    0    1
 -2       264      3898      1971      3713
 -1      9448    3    0    1
 -2       734      2464      2488      3527
 -1      9449    3    0    1
 -2      1422      1421      1812      3349
 -1      9450    3    0    1
 -2      3846      2979      3459      3687
 -1      9451    3    0    1
 -2      3001      2792      3826      3906
 -1      9452    3    0    1
 -2      2601      3001      3876      3906
 -1      9453    3    0    1
 -2      1461      1460      3060      1959
 -1      9454    3    0    1
 -2      3236      2894      3315      3422
 -1      9455    3    0    1
 -2      1842       572      3435      3906
 -1      9456    3    0    1
 -2      3419      3113      3884      3465
 -1      9457    3    0    1
 -2      1494      3236      1832      3422
 -1      9458    3    0    1
 -2      1639      2924      3382      3886
 -1      9459    3    0    1
 -2       572      3333      3435      3906
 -1      9460    3    0    1
 -2      2792      3247      3333      3906
 -1      9461    3    0    1
 -2       511      2611      2689      3718
 -1      9462    3    0    1
 -2      1577      1442      3808      3894
 -1      9463    3    0    1
 -2      2975      1298      3162      3852
 -1      9464    3    0    1
 -2      3345      2792      3436      3906
 -1      9465    3    0    1
 -2      1842      1600      1843      3607
 -1      9466    3    0    1
 -2      2813      3839      3576      4008
 -1      9467    3    0    1
 -2      3715      1847      1570      1848
 -1      9468    3    0    1
 -2      3841      1846      3853      3894
 -1      9469    3    0    1
 -2      2734      1671      3331      3644
 -1      9470    3    0    1
 -2       339      3614      1916      1915
 -1      9471    3    0    1
 -2      3215      1780      3217      3601
 -1      9472    3    0    1
 -2      3841      1605      1846      3894
 -1      9473    3    0    1
 -2      3247      1842      3435      3906
 -1      9474    3    0    1
 -2      3828      3029      3834      3312
 -1      9475    3    0    1
 -2      2743      3828      3834      3312
 -1      9476    3    0    1
 -2      2909      3138      1897      1914
 -1      9477    3    0    1
 -2      1465      1464      3398      3491
 -1      9478    3    0    1
 -2      2743      3042      3311      3312
 -1      9479    3    0    1
 -2      3849      1435      3359      3734
 -1      9480    3    0    1
 -2      1600      1828      1829      3313
 -1      9481    3    0    1
 -2      3898      1721      1971      3713
 -1      9482    3    0    1
 -2      3508      3876      3600      3966
 -1      9483    3    0    1
 -2      2895      2771      3801      3895
 -1      9484    3    0    1
 -2      2785      2895      3812      3895
 -1      9485    3    0    1
 -2      3812      2901      3890      3956
 -1      9486    3    0    1
 -2      1419      1681      3292      3895
 -1      9487    3    0    1
 -2      3186      1419      3292      3895
 -1      9488    3    0    1
 -2      1587      1586      1855      3654
 -1      9489    3    0    1
 -2      3880      1531      3907      3744
 -1      9490    3    0    1
 -2      3845      3921      3971      3972
 -1      9491    3    0    1
 -2      3847      3870      3971      3972
 -1      9492    3    0    1
 -2      2417      3806      3845      3972
 -1      9493    3    0    1
 -2       554       450      2673      1895
 -1      9494    3    0    1
 -2       554      2673      3119      1895
 -1      9495    3    0    1
 -2      1480      3445      1594      1595
 -1      9496    3    0    1
 -2      3174      2682      3358      1895
 -1      9497    3    0    1
 -2      3140      3873      3411      3415
 -1      9498    3    0    1
 -2       984       414      4002      2038
 -1      9499    3    0    1
 -2      1567      3430      1942      1994
 -1      9500    3    0    1
 -2      1530      1531      1995      3744
 -1      9501    3    0    1
 -2      2667      2613      3842      3332
 -1      9502    3    0    1
 -2      1822      1588      3310      3413
 -1      9503    3    0    1
 -2      1545      3782      3819      3942
 -1      9504    3    0    1
 -2      3860      1429      3500      4020
 -1      9505    3    0    1
 -2      1752      3430      1941      1942
 -1      9506    3    0    1
 -2      1897       144      1898      1963
 -1      9507    3    0    1
 -2      3243      2846      3886      3699
 -1      9508    3    0    1
 -2      3503      1657      3655      3657
 -1      9509    3    0    1
 -2      2818      2839      2884      3854
 -1      9510    3    0    1
 -2      2818      2966      3173      3854
 -1      9511    3    0    1
 -2      2818      2817      2966      3854
 -1      9512    3    0    1
 -2      2817      2818      2884      3854
 -1      9513    3    0    1
 -2      3351      3009      3553      3671
 -1      9514    3    0    1
 -2      1567      3281      3878      3430
 -1      9515    3    0    1
 -2      2623      2951      2970      3854
 -1      9516    3    0    1
 -2      2623      2860      2951      3854
 -1      9517    3    0    1
 -2      3787      3785      3097      3931
 -1      9518    3    0    1
 -2      2970      2951      3305      3854
 -1      9519    3    0    1
 -2      1434      1779      3902      3981
 -1      9520    3    0    1
 -2      2860      2829      2951      3854
 -1      9521    3    0    1
 -2      2951      3236      3305      3854
 -1      9522    3    0    1
 -2      1415      1639      3382      3886
 -1      9523    3    0    1
 -2      2951      2894      3236      3854
 -1      9524    3    0    1
 -2      2829      2894      2951      3854
 -1      9525    3    0    1
 -2      3789      2756      3809      3938
 -1      9526    3    0    1
 -2      3002      1659      3195      3893
 -1      9527    3    0    1
 -2      2839      3173      3221      3854
 -1      9528    3    0    1
 -2       122       125       588      3533
 -1      9529    3    0    1
 -2      3826      3906      3907      3717
 -1      9530    3    0    1
 -2      1301      3800      3097      3931
 -1      9531    3    0    1
 -2      1766      1494      3221      3854
 -1      9532    3    0    1
 -2      2817      2884      2966      3854
 -1      9533    3    0    1
 -2      2997      2615      3158      4020
 -1      9534    3    0    1
 -2      2404      2681      3920      3961
 -1      9535    3    0    1
 -2      3860      2615      3864      4020
 -1      9536    3    0    1
 -2      3412      1865      3929      3750
 -1      9537    3    0    1
 -2       250      1652      3833      3862
 -1      9538    3    0    1
 -2      2839      2818      3173      3854
 -1      9539    3    0    1
 -2      3214      1818      3856      1504
 -1      9540    3    0    1
 -2      1516      1515      3451      3548
 -1      9541    3    0    1
 -2      1568      1441      3309      3856
 -1      9542    3    0    1
 -2      1304       170      1818      3856
 -1      9543    3    0    1
 -2      1441      2911      3309      3856
 -1      9544    3    0    1
 -2       413       411      4002      2038
 -1      9545    3    0    1
 -2      3127      1304      1818      3856
 -1      9546    3    0    1
 -2      2911      3214      3309      3856
 -1      9547    3    0    1
 -2       338       224      4004      2039
 -1      9548    3    0    1
 -2      1504      3127      1818      3856
 -1      9549    3    0    1
 -2      2848      1502      3424      3954
 -1      9550    3    0    1
 -2      2957       924      3037      3954
 -1      9551    3    0    1
 -2      3885      3201      3893      3464
 -1      9552    3    0    1
 -2      1609      1610      1686      3391
 -1      9553    3    0    1
 -2       624       632      2566      3760
 -1      9554    3    0    1
 -2      1675      2907      3215      3640
 -1      9555    3    0    1
 -2      1756      3124      3166      3498
 -1      9556    3    0    1
 -2      1852      1702      1853      3491
 -1      9557    3    0    1
 -2      1164      2747      3268      3857
 -1      9558    3    0    1
 -2      3402       947      3756      4030
 -1      9559    3    0    1
 -2      2000       230      2001      2006
 -1      9560    3    0    1
 -2       474       908      2687      3857
 -1      9561    3    0    1
 -2      1421      1972      1973      3632
 -1      9562    3    0    1
 -2       410       148      3863      3962
 -1      9563    3    0    1
 -2      1429      3280      1924      3516
 -1      9564    3    0    1
 -2      1325      2853      3804      3498
 -1      9565    3    0    1
 -2       908       474      1164      3857
 -1      9566    3    0    1
 -2      2747      2980      3161      3857
 -1      9567    3    0    1
 -2      2747      2688      2980      3857
 -1      9568    3    0    1
 -2      1571      3062      3329      3591
 -1      9569    3    0    1
 -2      1939       168      1940      1964
 -1      9570    3    0    1
 -2      1164       473      2747      3857
 -1      9571    3    0    1
 -2       474       473      1164      3857
 -1      9572    3    0    1
 -2       473      2688      2747      3857
 -1      9573    3    0    1
 -2      3035      1710      3261      3626
 -1      9574    3    0    1
 -2      1466      1536      2783      3604
 -1      9575    3    0    1
 -2      2424      2629      3783      3859
 -1      9576    3    0    1
 -2      3783      2629      2854      3859
 -1      9577    3    0    1
 -2      1017       715      1313      3859
 -1      9578    3    0    1
 -2       715      1017      2488      3859
 -1      9579    3    0    1
 -2      2424       715      2488      3859
 -1      9580    3    0    1
 -2       717       715      2424      3859
 -1      9581    3    0    1
 -2       715       717      1313      3859
 -1      9582    3    0    1
 -2      1313       717      2424      3859
 -1      9583    3    0    1
 -2      1008       214      1313      3859
 -1      9584    3    0    1
 -2      3684      3696      3999      3712
 -1      9585    3    0    1
 -2      2424      2488      2854      3859
 -1      9586    3    0    1
 -2       350       281      3959      3738
 -1      9587    3    0    1
 -2      2629      2424      2854      3859
 -1      9588    3    0    1
 -2      3828      1285      3312      4021
 -1      9589    3    0    1
 -2      2954      1210      3424      1981
 -1      9590    3    0    1
 -2       735       734      2488      4023
 -1      9591    3    0    1
 -2      2868      1634      1635      1592
 -1      9592    3    0    1
 -2      1429      1685      3190      3860
 -1      9593    3    0    1
 -2      3480      3903      3974      3676
 -1      9594    3    0    1
 -2      1665      1666      3280      1925
 -1      9595    3    0    1
 -2      1488      1785      3312      3861
 -1      9596    3    0    1
 -2      3042      2822      3240      3861
 -1      9597    3    0    1
 -2      3023      2980      3029      3861
 -1      9598    3    0    1
 -2      2891      3073      3240      3861
 -1      9599    3    0    1
 -2      2822      2891      3240      3861
 -1      9600    3    0    1
 -2      1538      3023      1785      3861
 -1      9601    3    0    1
 -2      2743      2822      3042      3861
 -1      9602    3    0    1
 -2      3925       186      3927      3957
 -1      9603    3    0    1
 -2      2891      2704      3073      3861
 -1      9604    3    0    1
 -2      2699      2704      2891      3861
 -1      9605    3    0    1
 -2      2822      2699      2891      3861
 -1      9606    3    0    1
 -2      3073      2704      3320      3861
 -1      9607    3    0    1
 -2       409      3715      1848      1847
 -1      9608    3    0    1
 -2      1693      3789      3896      3938
 -1      9609    3    0    1
 -2      2636      2584      3812      3890
 -1      9610    3    0    1
 -2      1880       608      3410      3669
 -1      9611    3    0    1
 -2      1609      1673      3386      3501
 -1      9612    3    0    1
 -2      3103      3471      3369      3546
 -1      9613    3    0    1
 -2       750      1615      3871      3488
 -1      9614    3    0    1
 -2      3083      2808      3834      3953
 -1      9615    3    0    1
 -2      1712      3210      3243      1893
 -1      9616    3    0    1
 -2      1543      2938      3013      3409
 -1      9617    3    0    1
 -2      1544      1543      3389      3409
 -1      9618    3    0    1
 -2      2949      1484      1912      1913
 -1      9619    3    0    1
 -2      1470      1728      3474      3706
 -1      9620    3    0    1
 -2      2949       266      3878      1913
 -1      9621    3    0    1
 -2      3155      1816      1817      3344
 -1      9622    3    0    1
 -2       264      2949      1912      1913
 -1      9623    3    0    1
 -2       266      2949      3878      1651
 -1      9624    3    0    1
 -2      1694      3039      3493      3956
 -1      9625    3    0    1
 -2      1530      1995      1996      3744
 -1      9626    3    0    1
 -2       781      1689      1690      3328
 -1      9627    3    0    1
 -2      3987      2213      2776       185
 -1      9628    3    0    1
 -2       993       169      2147      2035
 -1      9629    3    0    1
 -2      1590      2909      3138      1897
 -1      9630    3    0    1
 -2      3294      3187      3429      3483
 -1      9631    3    0    1
 -2      1468      1854      3571      4022
 -1      9632    3    0    1
 -2      1775      2705      3405      3647
 -1      9633    3    0    1
 -2      2904       655      1863      1864
 -1      9634    3    0    1
 -2      1445      3072      1903      3592
 -1      9635    3    0    1
 -2      1924      1429      3660      4020
 -1      9636    3    0    1
 -2      1936      1937      1970      3647
 -1      9637    3    0    1
 -2       631       148       627      3740
 -1      9638    3    0    1
 -2      3500      1429      3599      4020
 -1      9639    3    0    1
 -2      1543      1544      2938      3409
 -1      9640    3    0    1
 -2      3199      1059      2417       806
 -1      9641    3    0    1
 -2      2734      1671      3128      3331
 -1      9642    3    0    1
 -2      3589      1892      3620      3631
 -1      9643    3    0    1
 -2      1689       781      1690      3519
 -1      9644    3    0    1
 -2      3054      1807      3394      3892
 -1      9645    3    0    1
 -2      2960      2826      3288      3892
 -1      9646    3    0    1
 -2      2623      2826      2960      3892
 -1      9647    3    0    1
 -2      2736      2813      2929      3980
 -1      9648    3    0    1
 -2      3021      2734      3128      3331
 -1      9649    3    0    1
 -2      3216      1960      3602      3667
 -1      9650    3    0    1
 -2      2736      2735      2813      3980
 -1      9651    3    0    1
 -2      2799      3208      3867      3413
 -1      9652    3    0    1
 -2      3101      3193      3327      3892
 -1      9653    3    0    1
 -2      2915      2708      3844      3869
 -1      9654    3    0    1
 -2      2693      3355      1874      3907
 -1      9655    3    0    1
 -2      1642      1454      3355      3907
 -1      9656    3    0    1
 -2      3405      1702      1936      3647
 -1      9657    3    0    1
 -2      2623      2860      3854      3892
 -1      9658    3    0    1
 -2      1807      2960      3288      3892
 -1      9659    3    0    1
 -2      2798      1696      1565      3661
 -1      9660    3    0    1
 -2      2705      1702      3405      3647
 -1      9661    3    0    1
 -2      3345      1642      3355      3907
 -1      9662    3    0    1
 -2      1470      3376      3512      3951
 -1      9663    3    0    1
 -2       169      2147      3994      4024
 -1      9664    3    0    1
 -2      1764      1504      3851      3618
 -1      9665    3    0    1
 -2       949      1289      3899      3983
 -1      9666    3    0    1
 -2      3227      1168      1834      3334
 -1      9667    3    0    1
 -2       236       230      2000      2006
 -1      9668    3    0    1
 -2      3009      2000      2001      2006
 -1      9669    3    0    1
 -2      3411      1425      1900      1901
 -1      9670    3    0    1
 -2      3842      2882      3367      3965
 -1      9671    3    0    1
 -2      1608       352      1977      3973
 -1      9672    3    0    1
 -2      1630      1614      3321      1613
 -1      9673    3    0    1
 -2      3827      3806      3837      3898
 -1      9674    3    0    1
 -2      3971       352      3972      3973
 -1      9675    3    0    1
 -2      2956      3886      3447      3620
 -1      9676    3    0    1
 -2      3190      1772      3860      1980
 -1      9677    3    0    1
 -2      1622      1458      3102      3890
 -1      9678    3    0    1
 -2      3158      3860      3387      3500
 -1      9679    3    0    1
 -2      3130      3021      3331      3979
 -1      9680    3    0    1
 -2      2928      2695      3556      3965
 -1      9681    3    0    1
 -2      1986       406      2002      3983
 -1      9682    3    0    1
 -2      1427      3219      3839      2022
 -1      9683    3    0    1
 -2      2681      3780      3902      3903
 -1      9684    3    0    1
 -2      3780      3819      3902      3903
 -1      9685    3    0    1
 -2       234      1779      3902      3903
 -1      9686    3    0    1
 -2      1779      1434      3902      3903
 -1      9687    3    0    1
 -2      2656      1293      3962      3741
 -1      9688    3    0    1
 -2       143       410      3962      3741
 -1      9689    3    0    1
 -2      2809      1528      3007      3338
 -1      9690    3    0    1
 -2      1528      1529      3007      3338
 -1      9691    3    0    1
 -2      1546      3941      3578      3521
 -1      9692    3    0    1
 -2      2862      1613      3321      3339
 -1      9693    3    0    1
 -2      1613      1614      3321      3339
 -1      9694    3    0    1
 -2      1791      1613      3298      3339
 -1      9695    3    0    1
 -2      1906      1879      1907      3649
 -1      9696    3    0    1
 -2       946       550      2599      4030
 -1      9697    3    0    1
 -2      3304      1640      3426      3649
 -1      9698    3    0    1
 -2      1640      3304      1906      3649
 -1      9699    3    0    1
 -2      1640      1906      1907      3649
 -1      9700    3    0    1
 -2      2898      3304      3426      3649
 -1      9701    3    0    1
 -2      2927      2983      3864      2733
 -1      9702    3    0    1
 -2      3075       590      1801      3578
 -1      9703    3    0    1
 -2      2733      3804      3326      3864
 -1      9704    3    0    1
 -2      2643      2855      3192      3864
 -1      9705    3    0    1
 -2      3192      2855      3860      3864
 -1      9706    3    0    1
 -2      2643      3192      3860      3864
 -1      9707    3    0    1
 -2      2643      2840      3246      3864
 -1      9708    3    0    1
 -2      2855      2643      3253      3864
 -1      9709    3    0    1
 -2      3480      3819      3942      3729
 -1      9710    3    0    1
 -2      1485      1484      2949      1913
 -1      9711    3    0    1
 -2      2732      2733      2927      3864
 -1      9712    3    0    1
 -2      2733      2732      3804      3864
 -1      9713    3    0    1
 -2       655      3062      1929      1930
 -1      9714    3    0    1
 -2       590      3075      3555      3578
 -1      9715    3    0    1
 -2      2855      3253      3255      3864
 -1      9716    3    0    1
 -2      3246      2855      3255      3864
 -1      9717    3    0    1
 -2      3253      2643      3255      3864
 -1      9718    3    0    1
 -2      2643      3246      3255      3864
 -1      9719    3    0    1
 -2       949      3828      3899      4021
 -1      9720    3    0    1
 -2      3153      1711      3828      4021
 -1      9721    3    0    1
 -2      2582      2819      2997      3864
 -1      9722    3    0    1
 -2      2819      2615      2997      3864
 -1      9723    3    0    1
 -2      1197      2927      2855       919
 -1      9724    3    0    1
 -2      3786      3847      3870      3751
 -1      9725    3    0    1
 -2      1801      1546      3239      3578
 -1      9726    3    0    1
 -2      2643      2615      2819      3864
 -1      9727    3    0    1
 -2      1711      1856      3968      4021
 -1      9728    3    0    1
 -2      1673        47      1980      3639
 -1      9729    3    0    1
 -2      2983      2733      3326      3864
 -1      9730    3    0    1
 -2      1044       255      3722      3763
 -1      9731    3    0    1
 -2      3239      1546      3439      3578
 -1      9732    3    0    1
 -2      2611       779      3718      3754
 -1      9733    3    0    1
 -2      2643      2819      2840      3864
 -1      9734    3    0    1
 -2      1812      1596      1813      3584
 -1      9735    3    0    1
 -2      1984      1935      1985      3652
 -1      9736    3    0    1
 -2      1565      1696      2932      1697
 -1      9737    3    0    1
 -2      3293       572      3906      3717
 -1      9738    3    0    1
 -2       354         1      1974      3963
 -1      9739    3    0    1
 -2       572      1810      3906      3717
 -1      9740    3    0    1
 -2       982       414      2974      3866
 -1      9741    3    0    1
 -2      3786      2468      3807      4003
 -1      9742    3    0    1
 -2      1067      2400      3795      4003
 -1      9743    3    0    1
 -2       147      1297      2974      3866
 -1      9744    3    0    1
 -2      2684      2523      3252      3866
 -1      9745    3    0    1
 -2      3923      2724      3709      4003
 -1      9746    3    0    1
 -2      1619      3157      1856      1891
 -1      9747    3    0    1
 -2      1849       804      3451      3937
 -1      9748    3    0    1
 -2      2944      1479      3122      3414
 -1      9749    3    0    1
 -2      3208       786      3328      3867
 -1      9750    3    0    1
 -2       406      3880      1986      1995
 -1      9751    3    0    1
 -2      3310      3867      3413      3924
 -1      9752    3    0    1
 -2      3867      2799      3924      3937
 -1      9753    3    0    1
 -2      1760      1144      3219      3576
 -1      9754    3    0    1
 -2      2879      1594      3041      3414
 -1      9755    3    0    1
 -2      1594      1595      3041      3414
 -1      9756    3    0    1
 -2       786      1689      3328      3867
 -1      9757    3    0    1
 -2       786      3208      1822      3867
 -1      9758    3    0    1
 -2      3310      2920      3867      3924
 -1      9759    3    0    1
 -2      2648      2593      2852      3867
 -1      9760    3    0    1
 -2      3025      3825      3318      3919
 -1      9761    3    0    1
 -2      1606       590      3511      3518
 -1      9762    3    0    1
 -2      2648      2852      3208      3867
 -1      9763    3    0    1
 -2      3531      1745      3679      3724
 -1      9764    3    0    1
 -2      3375      3148      3457      3924
 -1      9765    3    0    1
 -2      3134      1748      3394      3563
 -1      9766    3    0    1
 -2      2594      2953      2978      3913
 -1      9767    3    0    1
 -2      2852      2799      3208      3867
 -1      9768    3    0    1
 -2      2648      3208      3328      3867
 -1      9769    3    0    1
 -2      2856      3805      3233      3611
 -1      9770    3    0    1
 -2      2993      3354      3418      3519
 -1      9771    3    0    1
 -2      1477      3090      3375      3924
 -1      9772    3    0    1
 -2      2879      2944      3122      3414
 -1      9773    3    0    1
 -2      1689       786      3310      3867
 -1      9774    3    0    1
 -2       786      1822      3310      3867
 -1      9775    3    0    1
 -2      1477      3375      3457      3924
 -1      9776    3    0    1
 -2      3213      1409      3879      3554
 -1      9777    3    0    1
 -2       527      1249      3068      3352
 -1      9778    3    0    1
 -2      1251      2966      3275      3352
 -1      9779    3    0    1
 -2      1251      2817      2966      3352
 -1      9780    3    0    1
 -2      2818       527      3068      3352
 -1      9781    3    0    1
 -2      1251       528      2817      3352
 -1      9782    3    0    1
 -2      1702      3486      1936      3550
 -1      9783    3    0    1
 -2      3486      1894      1936      3550
 -1      9784    3    0    1
 -2      3195      3089      3893      3714
 -1      9785    3    0    1
 -2      3878      2793      3912      4010
 -1      9786    3    0    1
 -2      1984      1581      1985      3640
 -1      9787    3    0    1
 -2       349      1060      2449      3629
 -1      9788    3    0    1
 -2      1486      2838      3035      3381
 -1      9789    3    0    1
 -2      2840      3246      3864      3651
 -1      9790    3    0    1
 -2      3919      2958      3650      3659
 -1      9791    3    0    1
 -2      1590      1591      3396      1898
 -1      9792    3    0    1
 -2       608       601      3160      1867
 -1      9793    3    0    1
 -2      2697      3117      3874      3879
 -1      9794    3    0    1
 -2      1282        95      3402       947
 -1      9795    3    0    1
 -2      1667      1668      3260      3476
 -1      9796    3    0    1
 -2      3629      1327      3959      3738
 -1      9797    3    0    1
 -2      3221      1766      3854      3421
 -1      9798    3    0    1
 -2      3147      3369      3466      3471
 -1      9799    3    0    1
 -2      3384      3059      1917      3520
 -1      9800    3    0    1
 -2      1917      3059      1918      3520
 -1      9801    3    0    1
 -2      1822      3109      3346      3869
 -1      9802    3    0    1
 -2      1689       786      3346      3869
 -1      9803    3    0    1
 -2       786      1822      3346      3869
 -1      9804    3    0    1
 -2      2836      2730      3353      3869
 -1      9805    3    0    1
 -2       261       772       775      3722
 -1      9806    3    0    1
 -2      2708      2881      2965      3869
 -1      9807    3    0    1
 -2      2708      2965      3109      3869
 -1      9808    3    0    1
 -2      2768      3053      3354      3869
 -1      9809    3    0    1
 -2      3109      2965      3346      3869
 -1      9810    3    0    1
 -2       772       769      3718      3722
 -1      9811    3    0    1
 -2      3587      1813      3638      4008
 -1      9812    3    0    1
 -2      3099      2708      3109      3869
 -1      9813    3    0    1
 -2      2965      2612      2993      3869
 -1      9814    3    0    1
 -2      2965      2993      3346      3869
 -1      9815    3    0    1
 -2      3284      1630      3603      3958
 -1      9816    3    0    1
 -2      3576      3602      3667      4008
 -1      9817    3    0    1
 -2      2973      2578      3286      4008
 -1      9818    3    0    1
 -2      3099      3109      3322      3869
 -1      9819    3    0    1
 -2      2768      2731      3053      3869
 -1      9820    3    0    1
 -2      2950      1603      3443      3944
 -1      9821    3    0    1
 -2       786      1689      3354      3869
 -1      9822    3    0    1
 -2      3790      2404      3920      3961
 -1      9823    3    0    1
 -2      2725      3847      3921      3972
 -1      9824    3    0    1
 -2      1835      3307      3395      3665
 -1      9825    3    0    1
 -2      1464      2972      3398      3675
 -1      9826    3    0    1
 -2      3385      1439      3515      3655
 -1      9827    3    0    1
 -2      2417      2720      3806      3921
 -1      9828    3    0    1
 -2      2734      1524      1851      3976
 -1      9829    3    0    1
 -2      2734      1851      3881      3976
 -1      9830    3    0    1
 -2      1059      1335      3199      3972
 -1      9831    3    0    1
 -2      3821      1576      3927      3976
 -1      9832    3    0    1
 -2      2930      1810      1811      3356
 -1      9833    3    0    1
 -2      3779      3799      3916      4027
 -1      9834    3    0    1
 -2      1853      1852      3420      3492
 -1      9835    3    0    1
 -2      1164       908      3857      3513
 -1      9836    3    0    1
 -2      3876      3508      3623      3966
 -1      9837    3    0    1
 -2      1578      2947      1783      3357
 -1      9838    3    0    1
 -2      1783      2947      1784      3357
 -1      9839    3    0    1
 -2      1578      1783      1784      3357
 -1      9840    3    0    1
 -2      1615      1578      1616      3357
 -1      9841    3    0    1
 -2      2825      1615      1616      3357
 -1      9842    3    0    1
 -2      1685      1609      1686      3391
 -1      9843    3    0    1
 -2       450      2673      1895      1896
 -1      9844    3    0    1
 -2      4006      3791      3855      3815
 -1      9845    3    0    1
 -2      1473      1474      3448      3478
 -1      9846    3    0    1
 -2      1652      1449      3961      3653
 -1      9847    3    0    1
 -2      3842      2667      3332      3965
 -1      9848    3    0    1
 -2      3089      1411      2024      3714
 -1      9849    3    0    1
 -2      2024      1667      3701      3714
 -1      9850    3    0    1
 -2      1279      2194      2716      4013
 -1      9851    3    0    1
 -2      3843      2963      3877      3934
 -1      9852    3    0    1
 -2      1619      3472      3930      3934
 -1      9853    3    0    1
 -2      1916      1954       339       231
 -1      9854    3    0    1
 -2      2947      1578      1783      3871
 -1      9855    3    0    1
 -2      3921      3971      3975      3752
 -1      9856    3    0    1
 -2      2809      2631      3804      3871
 -1      9857    3    0    1
 -2      1592      2868      1634      3905
 -1      9858    3    0    1
 -2      3921      1567      3971      3752
 -1      9859    3    0    1
 -2      3899      3828      3977      4021
 -1      9860    3    0    1
 -2      1597      1596      1812      3584
 -1      9861    3    0    1
 -2      2698      2825      3357      3871
 -1      9862    3    0    1
 -2      2698      2739      2825      3871
 -1      9863    3    0    1
 -2      1578      1615      3335      3871
 -1      9864    3    0    1
 -2      2947      2698      3357      3871
 -1      9865    3    0    1
 -2      1783      1578      3335      3871
 -1      9866    3    0    1
 -2      2631      2698      2947      3871
 -1      9867    3    0    1
 -2      2631      2947      3282      3871
 -1      9868    3    0    1
 -2      1634      2868      3343      3905
 -1      9869    3    0    1
 -2      2698      2631      2809      3871
 -1      9870    3    0    1
 -2      3786      1497      3547      3751
 -1      9871    3    0    1
 -2      2652      3020      3814      3978
 -1      9872    3    0    1
 -2      1409      1622      3143      3374
 -1      9873    3    0    1
 -2      1688      1687      1992      3694
 -1      9874    3    0    1
 -2      3035      2838      3626      3965
 -1      9875    3    0    1
 -2      1919      1947      1948      3610
 -1      9876    3    0    1
 -2      1471      1470      1778      3590
 -1      9877    3    0    1
 -2      3227      3271      3846      3900
 -1      9878    3    0    1
 -2      2640      2641      3872      3884
 -1      9879    3    0    1
 -2      1586      3037      1854      3654
 -1      9880    3    0    1
 -2      3248      1828      3341      3966
 -1      9881    3    0    1
 -2      2640      2797      3211      3872
 -1      9882    3    0    1
 -2      2874      2588      3052      3872
 -1      9883    3    0    1
 -2       250      3131      3833      3996
 -1      9884    3    0    1
 -2      2837      2588      3239      3872
 -1      9885    3    0    1
 -2      3142      2613      3842      3885
 -1      9886    3    0    1
 -2      2588      2874      3239      3872
 -1      9887    3    0    1
 -2      2973      3145      3576      3602
 -1      9888    3    0    1
 -2      2992        98      3757      3764
 -1      9889    3    0    1
 -2      2925      2902      3842      3522
 -1      9890    3    0    1
 -2      1452      1453      1720      3370
 -1      9891    3    0    1
 -2      3301      1559      1862      3467
 -1      9892    3    0    1
 -2      1578      1615      3289      3873
 -1      9893    3    0    1
 -2      2935      3025      3136      3873
 -1      9894    3    0    1
 -2      2827      2575      3140      3873
 -1      9895    3    0    1
 -2      2575      2917      3140      3873
 -1      9896    3    0    1
 -2      1721      3833      3898      3918
 -1      9897    3    0    1
 -2      2827      3140      3289      3873
 -1      9898    3    0    1
 -2      2917      3120      3140      3873
 -1      9899    3    0    1
 -2      2917      2575      3017      3873
 -1      9900    3    0    1
 -2      2697      2898      3094      3951
 -1      9901    3    0    1
 -2      3497      3551      1948      1967
 -1      9902    3    0    1
 -2      3836      3908      3558      3598
 -1      9903    3    0    1
 -2      3077      2601      3876      3966
 -1      9904    3    0    1
 -2      3136      1578      1783      3873
 -1      9905    3    0    1
 -2      1615      1578      3136      3873
 -1      9906    3    0    1
 -2      3164      1785      1786      3403
 -1      9907    3    0    1
 -2      2591      2597      3212      3874
 -1      9908    3    0    1
 -2      3180      2697      3350      3874
 -1      9909    3    0    1
 -2      1785      1538      1786      3403
 -1      9910    3    0    1
 -2      2680      3143      3890      3967
 -1      9911    3    0    1
 -2      2898      2697      3117      3874
 -1      9912    3    0    1
 -2      2889      2858      2931      3874
 -1      9913    3    0    1
 -2       462      2591      3212      3874
 -1      9914    3    0    1
 -2      1538      3811      3110      3403
 -1      9915    3    0    1
 -2      1445      1446      3072      3377
 -1      9916    3    0    1
 -2      1446      1445      1550      3377
 -1      9917    3    0    1
 -2      1148       462      3212      3874
 -1      9918    3    0    1
 -2      4006      3791      3815      3789
 -1      9919    3    0    1
 -2      2592      2858      2889      3874
 -1      9920    3    0    1
 -2      3101      3327      1636      3892
 -1      9921    3    0    1
 -2      2966      3054      3394      3892
 -1      9922    3    0    1
 -2      3805      2646      3233      3593
 -1      9923    3    0    1
 -2      3921      3847      3971      3972
 -1      9924    3    0    1
 -2      3178      1592      1933      3568
 -1      9925    3    0    1
 -2      1026      1316      2884      3929
 -1      9926    3    0    1
 -2      2602      2647      2704      3875
 -1      9927    3    0    1
 -2      2647      2602      3048      3875
 -1      9928    3    0    1
 -2      2980      3023      3161      3875
 -1      9929    3    0    1
 -2      2704      2647      2876      3875
 -1      9930    3    0    1
 -2      2602      2704      3244      3875
 -1      9931    3    0    1
 -2      2876      2647      3034      3875
 -1      9932    3    0    1
 -2      3023       553      3161      3875
 -1      9933    3    0    1
 -2      1611      1507      3161      3875
 -1      9934    3    0    1
 -2      1026      2448      3794      3952
 -1      9935    3    0    1
 -2      2876      3023      2704      3875
 -1      9936    3    0    1
 -2      1624       553      3023      3875
 -1      9937    3    0    1
 -2       553      1611      3161      3875
 -1      9938    3    0    1
 -2      3503      1820      1931      3657
 -1      9939    3    0    1
 -2       186      3881      3927      3976
 -1      9940    3    0    1
 -2      1973      1972      3613      3632
 -1      9941    3    0    1
 -2      2956      2995      3423      3591
 -1      9942    3    0    1
 -2      3886      2956      3589      3620
 -1      9943    3    0    1
 -2      1454      3355      1874      1875
 -1      9944    3    0    1
 -2      1454      1455      3355      1875
 -1      9945    3    0    1
 -2      3876      1161      3508      3600
 -1      9946    3    0    1
 -2      2956      2670      2995      3591
 -1      9947    3    0    1
 -2       349      2449      2548      3629
 -1      9948    3    0    1
 -2      2670      2956      3886      3591
 -1      9949    3    0    1
 -2      1729      1728      3265      1940
 -1      9950    3    0    1
 -2      3211      3257      3884      3555
 -1      9951    3    0    1
 -2      3265      1728      1939      1940
 -1      9952    3    0    1
 -2      3876      3503      3623      3655
 -1      9953    3    0    1
 -2      3297      3876      3385      3655
 -1      9954    3    0    1
 -2      1780      1193      3217      3601
 -1      9955    3    0    1
 -2      2604      1475      2856      3378
 -1      9956    3    0    1
 -2      3328      2648      3867      3379
 -1      9957    3    0    1
 -2      1689      3328      3867      3379
 -1      9958    3    0    1
 -2        20      3662      2003      2005
 -1      9959    3    0    1
 -2      3059      3384      3529      3936
 -1      9960    3    0    1
 -2      3657      1931      2003      2004
 -1      9961    3    0    1
 -2      3101      2884      3854      3892
 -1      9962    3    0    1
 -2      1556      1636      2982      3892
 -1      9963    3    0    1
 -2      2713      2714      3057      3876
 -1      9964    3    0    1
 -2      1590      1591      2928      3396
 -1      9965    3    0    1
 -2      1161       907      3057      3876
 -1      9966    3    0    1
 -2      2790      3001      3826      3876
 -1      9967    3    0    1
 -2      3360      2597      3874      3512
 -1      9968    3    0    1
 -2      2713      2789      3826      3876
 -1      9969    3    0    1
 -2      3177      2806      3184      3876
 -1      9970    3    0    1
 -2      2772      1473      1737      3502
 -1      9971    3    0    1
 -2       662      3062      3329      1929
 -1      9972    3    0    1
 -2      3184      2806      3262      3876
 -1      9973    3    0    1
 -2      2790      3184      3262      3876
 -1      9974    3    0    1
 -2      2936      2728      3880      3907
 -1      9975    3    0    1
 -2      3401      3465      3904      4012
 -1      9976    3    0    1
 -2      2929      3300      3980      4008
 -1      9977    3    0    1
 -2      2957      2920      3924      3937
 -1      9978    3    0    1
 -2      1431      3175      3469      3509
 -1      9979    3    0    1
 -2      2931      3874      3879      3970
 -1      9980    3    0    1
 -2      3079      3057      3177      3876
 -1      9981    3    0    1
 -2      2789      3057      3079      3876
 -1      9982    3    0    1
 -2      3826      2609      2792      2943
 -1      9983    3    0    1
 -2      2814      3831      3254      3509
 -1      9984    3    0    1
 -2      2601      2806      3077      3876
 -1      9985    3    0    1
 -2       662       655      3062      1929
 -1      9986    3    0    1
 -2      3079      3177      3184      3876
 -1      9987    3    0    1
 -2      2790      2601      3001      3876
 -1      9988    3    0    1
 -2      2789      2713      3057      3876
 -1      9989    3    0    1
 -2      3077      2806      3297      3876
 -1      9990    3    0    1
 -2      1657      1658      3515      3657
 -1      9991    3    0    1
 -2      2601      2790      2806      3876
 -1      9992    3    0    1
 -2      2838      1678      3035      3396
 -1      9993    3    0    1
 -2      2806      2790      3262      3876
 -1      9994    3    0    1
 -2      3184      1655      3262      3559
 -1      9995    3    0    1
 -2      1429      2939      3280      3516
 -1      9996    3    0    1
 -2      1818       170      1819      1876
 -1      9997    3    0    1
 -2      1818      1819      3309      1876
 -1      9998    3    0    1
 -2      1546      3308      3393      3633
 -1      9999    3    0    1
 -2       170      1818      3856      1876
 -1     10000    3    0    1
 -2      3309      1568      3856      1876
 -1     10001    3    0    1
 -2      1818      3309      3856      1876
 -1     10002    3    0    1
 -2       769      3718      3722      3763
 -1     10003    3    0    1
 -2      1652      3627      3961      1999
 -1     10004    3    0    1
 -2      3843      1711      4021      1512
 -1     10005    3    0    1
 -2       250      1652      3862      1999
 -1     10006    3    0    1
 -2      3971       284      3973      3743
 -1     10007    3    0    1
 -2      3968      1856       106       402
 -1     10008    3    0    1
 -2      3923      3877      3930      3968
 -1     10009    3    0    1
 -2      1562      2804      3123      3685
 -1     10010    3    0    1
 -2      1044       346      2480      1949
 -1     10011    3    0    1
 -2      3878      2669      3933      3552
 -1     10012    3    0    1
 -2      3804      2853      3335      3498
 -1     10013    3    0    1
 -2       805      3621      3641      3658
 -1     10014    3    0    1
 -2      3877      1711      3472      3968
 -1     10015    3    0    1
 -2      3984       433      3993      3985
 -1     10016    3    0    1
 -2      1285       402      3312      4021
 -1     10017    3    0    1
 -2      2690      3149      3879      3970
 -1     10018    3    0    1
 -2      3874      3180      3879      3970
 -1     10019    3    0    1
 -2      1645      3149      3468      3970
 -1     10020    3    0    1
 -2      1610      1609      1686      3387
 -1     10021    3    0    1
 -2      1609      1610      2933      3387
 -1     10022    3    0    1
 -2      1687      1688      3009      2001
 -1     10023    3    0    1
 -2      1665      3280      3485      1924
 -1     10024    3    0    1
 -2      1609      2933      3860      3387
 -1     10025    3    0    1
 -2      1685      1609      3860      3387
 -1     10026    3    0    1
 -2      2723      1331      2793      3878
 -1     10027    3    0    1
 -2      2978      2851      3000      3913
 -1     10028    3    0    1
 -2      3064      2949      3082      3878
 -1     10029    3    0    1
 -2        51      3679      2019      3724
 -1     10030    3    0    1
 -2      1756      1900      1901      3490
 -1     10031    3    0    1
 -2      1515      1648      2996      3913
 -1     10032    3    0    1
 -2       999       427      3901      3998
 -1     10033    3    0    1
 -2      1410      1409      3117      3554
 -1     10034    3    0    1
 -2      1521      1651      3845      3878
 -1     10035    3    0    1
 -2      3837      1331      3845      3878
 -1     10036    3    0    1
 -2      2851      2978      3279      3913
 -1     10037    3    0    1
 -2      1672      1671      3128      3644
 -1     10038    3    0    1
 -2      1651      3837      3845      3878
 -1     10039    3    0    1
 -2      3350      3180      3874      3951
 -1     10040    3    0    1
 -2      3130      1506      1768      3979
 -1     10041    3    0    1
 -2      3790      2608      3961      4005
 -1     10042    3    0    1
 -2      2940      3324      3891      3979
 -1     10043    3    0    1
 -2       266      1331      3837      3878
 -1     10044    3    0    1
 -2      1651       266      3837      3878
 -1     10045    3    0    1
 -2      2669      2912      3281      3878
 -1     10046    3    0    1
 -2      1059      2723      3111      3878
 -1     10047    3    0    1
 -2      2912      2669      2918      3878
 -1     10048    3    0    1
 -2      1757      1756      1901      3490
 -1     10049    3    0    1
 -2      2912      1521      3281      3878
 -1     10050    3    0    1
 -2      1443      1444      3351      3431
 -1     10051    3    0    1
 -2      2793      1331      3064      3878
 -1     10052    3    0    1
 -2      1651      2912      2949      3878
 -1     10053    3    0    1
 -2      2949      2912      3082      3878
 -1     10054    3    0    1
 -2      3816      3547      3637      4011
 -1     10055    3    0    1
 -2      1491      1619      3823      3923
 -1     10056    3    0    1
 -2      2725      2720      3921      4005
 -1     10057    3    0    1
 -2      1651      1521      2912      3878
 -1     10058    3    0    1
 -2      2978      2953      2996      3913
 -1     10059    3    0    1
 -2      1331       266      3064      3878
 -1     10060    3    0    1
 -2      1032      1322      4004      2039
 -1     10061    3    0    1
 -2      2587      2830      3885      3893
 -1     10062    3    0    1
 -2       716      1807      3288      3394
 -1     10063    3    0    1
 -2      3366      1883      1884      3681
 -1     10064    3    0    1
 -2      3201      3842      3885      3893
 -1     10065    3    0    1
 -2       978       984      2570      4002
 -1     10066    3    0    1
 -2      2826      3134      3288      3394
 -1     10067    3    0    1
 -2      1512      3843      3494      3696
 -1     10068    3    0    1
 -2      3842      2925      3885      3893
 -1     10069    3    0    1
 -2      2919      2593      3912      3937
 -1     10070    3    0    1
 -2      1465      1464      2972      3398
 -1     10071    3    0    1
 -2      2706      3846      3883      3900
 -1     10072    3    0    1
 -2      3287      3080      3926      3617
 -1     10073    3    0    1
 -2       348       263      3989      2032
 -1     10074    3    0    1
 -2      2506      2794      3934      4011
 -1     10075    3    0    1
 -2      2561      2865      3088      4001
 -1     10076    3    0    1
 -2      3297      3385      3515      3655
 -1     10077    3    0    1
 -2      1825      1824      1909      3681
 -1     10078    3    0    1
 -2      2908      1661      3852      3416
 -1     10079    3    0    1
 -2      2480       346      2761      3536
 -1     10080    3    0    1
 -2       732       727      3118      3399
 -1     10081    3    0    1
 -2      1481      1725      1726      3556
 -1     10082    3    0    1
 -2       727      1861      1862      3399
 -1     10083    3    0    1
 -2      3348      3303      3595      3993
 -1     10084    3    0    1
 -2      1982      3145      3721      3728
 -1     10085    3    0    1
 -2      3916      4001      3736      4027
 -1     10086    3    0    1
 -2      1908      1909      1932      3665
 -1     10087    3    0    1
 -2      2663      2467      3779      3897
 -1     10088    3    0    1
 -2      2467      2663      3840      3897
 -1     10089    3    0    1
 -2      1322      2514      2753      4004
 -1     10090    3    0    1
 -2      1322       239      2374      4004
 -1     10091    3    0    1
 -2       626       619      3098      3541
 -1     10092    3    0    1
 -2      1498      1499      3344      3542
 -1     10093    3    0    1
 -2      1722       626      3540      3541
 -1     10094    3    0    1
 -2      3818      1618      3321      1952
 -1     10095    3    0    1
 -2      3885      3201      3464      3543
 -1     10096    3    0    1
 -2      1498      2830      3464      3543
 -1     10097    3    0    1
 -2      1481      1482      3342      3556
 -1     10098    3    0    1
 -2       601       608      1880      3401
 -1     10099    3    0    1
 -2      3275      1251      3352      3609
 -1     10100    3    0    1
 -2       601      1880      1881      3401
 -1     10101    3    0    1
 -2      1465      1464      1852      3420
 -1     10102    3    0    1
 -2      1702      2705      3405      3900
 -1     10103    3    0    1
 -2      1503      1504      1764      3618
 -1     10104    3    0    1
 -2      3846      2706      3459      3900
 -1     10105    3    0    1
 -2        98        95       556      3402
 -1     10106    3    0    1
 -2        98       100      1803      3402
 -1     10107    3    0    1
 -2       559        98       556      3402
 -1     10108    3    0    1
 -2        98       559       100      3402
 -1     10109    3    0    1
 -2      3175      1431      3364      3509
 -1     10110    3    0    1
 -2      3163      3831      3469      3509
 -1     10111    3    0    1
 -2      2931      2889      3874      3970
 -1     10112    3    0    1
 -2      2783      2621      3839      3980
 -1     10113    3    0    1
 -2       134      3855      1859      3922
 -1     10114    3    0    1
 -2      3661       186      1697      1885
 -1     10115    3    0    1
 -2      3779      1441      3986      4027
 -1     10116    3    0    1
 -2      3299      1795      1886      3469
 -1     10117    3    0    1
 -2      2852      2799      3867      3937
 -1     10118    3    0    1
 -2        98        95      3757      3764
 -1     10119    3    0    1
 -2      3180      2697      3874      3879
 -1     10120    3    0    1
 -2      1458      2875      1645      3879
 -1     10121    3    0    1
 -2      3831      3085      3175      3469
 -1     10122    3    0    1
 -2      3175      3299      1886      3469
 -1     10123    3    0    1
 -2      2910      2923      3195      3893
 -1     10124    3    0    1
 -2       807      2355      2449      3629
 -1     10125    3    0    1
 -2      1458      1622      2883      3879
 -1     10126    3    0    1
 -2      3054      1556      1807      3892
 -1     10127    3    0    1
 -2      3089      2910      3195      3893
 -1     10128    3    0    1
 -2      2800      2690      2875      3879
 -1     10129    3    0    1
 -2      2800      2875      2883      3879
 -1     10130    3    0    1
 -2      2875      2690      3149      3879
 -1     10131    3    0    1
 -2      2931      2858      3213      3879
 -1     10132    3    0    1
 -2      2690      2800      3180      3879
 -1     10133    3    0    1
 -2      3661      1696      1565      1697
 -1     10134    3    0    1
 -2      1458      2931      3213      3879
 -1     10135    3    0    1
 -2      2697      2800      3117      3879
 -1     10136    3    0    1
 -2      2800      2697      3180      3879
 -1     10137    3    0    1
 -2      1458      1645      2931      3879
 -1     10138    3    0    1
 -2      1431      3175      1886      3469
 -1     10139    3    0    1
 -2      3054      2884      3101      3892
 -1     10140    3    0    1
 -2      1622      1458      3213      3879
 -1     10141    3    0    1
 -2      1409      1622      3213      3879
 -1     10142    3    0    1
 -2      2860      2982      3327      3892
 -1     10143    3    0    1
 -2      1822      3310      3867      3413
 -1     10144    3    0    1
 -2      1588      1589      3090      3413
 -1     10145    3    0    1
 -2      1588      1822      1823      3413
 -1     10146    3    0    1
 -2      1689      3346       781      3519
 -1     10147    3    0    1
 -2      1413      2857      3137      3406
 -1     10148    3    0    1
 -2      3137      2857      3324      3406
 -1     10149    3    0    1
 -2      1413      3137      3324      3406
 -1     10150    3    0    1
 -2      2973      3216      3602      3667
 -1     10151    3    0    1
 -2      1483      3809      1790      3880
 -1     10152    3    0    1
 -2      3828      1701      3977      4021
 -1     10153    3    0    1
 -2      1790       409      1847      3880
 -1     10154    3    0    1
 -2      3077      3307      3561      3966
 -1     10155    3    0    1
 -2      3815      2797      3872      3941
 -1     10156    3    0    1
 -2       212        76      3314      1960
 -1     10157    3    0    1
 -2      1289       589       957      3880
 -1     10158    3    0    1
 -2      2713       592      2714      3880
 -1     10159    3    0    1
 -2      1964      1939      3620      3631
 -1     10160    3    0    1
 -2       589      1289       592      3880
 -1     10161    3    0    1
 -2       589       592      2713      3880
 -1     10162    3    0    1
 -2      2609      2934      2985      3880
 -1     10163    3    0    1
 -2      2728      1289      2936      3880
 -1     10164    3    0    1
 -2      2934      1483      1790      3880
 -1     10165    3    0    1
 -2       409       957      3880      3960
 -1     10166    3    0    1
 -2      3472      3877      3930      3934
 -1     10167    3    0    1
 -2       957      2713      3091      3880
 -1     10168    3    0    1
 -2      2714      1289      2728      3880
 -1     10169    3    0    1
 -2      3992      3950      3727      4022
 -1     10170    3    0    1
 -2       409       957      3091      3880
 -1     10171    3    0    1
 -2       409      3091      1847      3880
 -1     10172    3    0    1
 -2      3248      3561      3566      3966
 -1     10173    3    0    1
 -2       957       589      2713      3880
 -1     10174    3    0    1
 -2       592      1289      2714      3880
 -1     10175    3    0    1
 -2      1322       239      4004      2040
 -1     10176    3    0    1
 -2       345       162      3994      4024
 -1     10177    3    0    1
 -2      1515      1648      3913      3535
 -1     10178    3    0    1
 -2      1291       122      1735      3533
 -1     10179    3    0    1
 -2       122       407      1735      3533
 -1     10180    3    0    1
 -2      3806       266      3837      3898
 -1     10181    3    0    1
 -2      1657      3126      3955      3662
 -1     10182    3    0    1
 -2      3126      1700      3371      3662
 -1     10183    3    0    1
 -2       406       949      3828      3977
 -1     10184    3    0    1
 -2      2982      1636      3327      3892
 -1     10185    3    0    1
 -2      1807      3288      3394      3892
 -1     10186    3    0    1
 -2      3907      1531      3575      3744
 -1     10187    3    0    1
 -2      1470      1471      3423      3474
 -1     10188    3    0    1
 -2      3868      3810      3917      3922
 -1     10189    3    0    1
 -2       255      1047      2031      3763
 -1     10190    3    0    1
 -2      1567       352      3971      1994
 -1     10191    3    0    1
 -2      1883      3366      3914      3681
 -1     10192    3    0    1
 -2      3778      2573      3865      3993
 -1     10193    3    0    1
 -2      1142      3576      1969      3667
 -1     10194    3    0    1
 -2      1307       186      2940      3881
 -1     10195    3    0    1
 -2      1969      3576      3602      3667
 -1     10196    3    0    1
 -2      3216      2973      3482      3667
 -1     10197    3    0    1
 -2      1973      3482      3638      3667
 -1     10198    3    0    1
 -2       427       999      3234      3881
 -1     10199    3    0    1
 -2      2940       186      3406      3881
 -1     10200    3    0    1
 -2      1553      1427      1554      3691
 -1     10201    3    0    1
 -2      1762      3482      1973      3667
 -1     10202    3    0    1
 -2      2973      2578      3839      3417
 -1     10203    3    0    1
 -2      3234       427      3881      3644
 -1     10204    3    0    1
 -2      2213      2517      3014      3882
 -1     10205    3    0    1
 -2       187       423      2777      3882
 -1     10206    3    0    1
 -2       421       173      2777      3882
 -1     10207    3    0    1
 -2      1000       187      2777      3882
 -1     10208    3    0    1
 -2       173      1303      2777      3882
 -1     10209    3    0    1
 -2      2831      3133      3846      3883
 -1     10210    3    0    1
 -2      2921      2831      3846      3883
 -1     10211    3    0    1
 -2      1507      1676      3061      3883
 -1     10212    3    0    1
 -2      2652      2606      3814      3460
 -1     10213    3    0    1
 -2      3163      3831      3175      3469
 -1     10214    3    0    1
 -2      2603      2706      3846      3883
 -1     10215    3    0    1
 -2      1507      2661      1611      3883
 -1     10216    3    0    1
 -2      2703      2658      3133      3883
 -1     10217    3    0    1
 -2      2661      2703      3133      3883
 -1     10218    3    0    1
 -2      2921      2719      3271      3883
 -1     10219    3    0    1
 -2      3434      1927      3560      3581
 -1     10220    3    0    1
 -2      2795      2700      2971      3883
 -1     10221    3    0    1
 -2       991      2779      1300      2490
 -1     10222    3    0    1
 -2      2603      2661      2795      3883
 -1     10223    3    0    1
 -2      2795      2661      3061      3883
 -1     10224    3    0    1
 -2      1873        51      1927      3581
 -1     10225    3    0    1
 -2      2603      2795      2971      3883
 -1     10226    3    0    1
 -2      2603      2658      2661      3883
 -1     10227    3    0    1
 -2      2921      1611      3133      3883
 -1     10228    3    0    1
 -2      2831      2921      3133      3883
 -1     10229    3    0    1
 -2      1507      2921      1676      3883
 -1     10230    3    0    1
 -2      2706      2603      2971      3883
 -1     10231    3    0    1
 -2      1507      1611      2921      3883
 -1     10232    3    0    1
 -2      2661      2658      2703      3883
 -1     10233    3    0    1
 -2      1704      1705      3404      3418
 -1     10234    3    0    1
 -2      1519      3103      3471      4012
 -1     10235    3    0    1
 -2        95      1279      3689      4013
 -1     10236    3    0    1
 -2      1446      1445      3072      1904
 -1     10237    3    0    1
 -2      3859       214      3908      3932
 -1     10238    3    0    1
 -2      2587      2667      2709      3885
 -1     10239    3    0    1
 -2      1065      3641      3658      3686
 -1     10240    3    0    1
 -2      1781      3080      3467      3617
 -1     10241    3    0    1
 -2      3072      1445      1903      1904
 -1     10242    3    0    1
 -2      1519      3160      1867      3885
 -1     10243    3    0    1
 -2      1416      1415      3382      1889
 -1     10244    3    0    1
 -2      3849      3836      3359      3945
 -1     10245    3    0    1
 -2      3125      1730      3444      3915
 -1     10246    3    0    1
 -2      2979      1168      3227      3900
 -1     10247    3    0    1
 -2      2613      2667      3842      3885
 -1     10248    3    0    1
 -2      1415      2846      1889      1888
 -1     10249    3    0    1
 -2      3788      3785      3802      3931
 -1     10250    3    0    1
 -2      3279      2851      3913      3978
 -1     10251    3    0    1
 -2      1737      1464      3108      3673
 -1     10252    3    0    1
 -2      3926      2781      3553      3617
 -1     10253    3    0    1
 -2      1504      3283      3851      3618
 -1     10254    3    0    1
 -2      2976      3211      3257      3884
 -1     10255    3    0    1
 -2      3113      3027      3419      3884
 -1     10256    3    0    1
 -2      3080      3287      3926      3935
 -1     10257    3    0    1
 -2      2976      2640      3211      3884
 -1     10258    3    0    1
 -2      2641      3027      3113      3884
 -1     10259    3    0    1
 -2      2605      3052      3392      3884
 -1     10260    3    0    1
 -2      2605      2874      3052      3884
 -1     10261    3    0    1
 -2      2874      2605      3036      3884
 -1     10262    3    0    1
 -2      1834      3334      3405      3900
 -1     10263    3    0    1
 -2      2925      3842      3885      3663
 -1     10264    3    0    1
 -2      3351      3080      3431      3617
 -1     10265    3    0    1
 -2      2605      2899      3036      3884
 -1     10266    3    0    1
 -2      3334      1702      3405      3900
 -1     10267    3    0    1
 -2      3846      3271      3883      3900
 -1     10268    3    0    1
 -2      1029       333      2376      1989
 -1     10269    3    0    1
 -2      3400      3785      3097      2300
 -1     10270    3    0    1
 -2      3269      1519      1867      3885
 -1     10271    3    0    1
 -2      3160      2709      3388      3885
 -1     10272    3    0    1
 -2      2667      2587      2830      3885
 -1     10273    3    0    1
 -2      2667      2613      2709      3885
 -1     10274    3    0    1
 -2      3160      3388      3410      3885
 -1     10275    3    0    1
 -2      2709      3142      3388      3885
 -1     10276    3    0    1
 -2      2709      2613      3142      3885
 -1     10277    3    0    1
 -2      3388      3142      3410      3885
 -1     10278    3    0    1
 -2      1639      1562      2924      3886
 -1     10279    3    0    1
 -2      2880      1479      3051      3996
 -1     10280    3    0    1
 -2      1479      1594      3051      3996
 -1     10281    3    0    1
 -2      2638      2701      3918      3996
 -1     10282    3    0    1
 -2      3210      2820      3243      3205
 -1     10283    3    0    1
 -2      3015      3123      3383      3886
 -1     10284    3    0    1
 -2      2913      2670      2956      3886
 -1     10285    3    0    1
 -2      3123      1415      3383      3886
 -1     10286    3    0    1
 -2       947       564      2599      4030
 -1     10287    3    0    1
 -2      2820      2913      2956      3886
 -1     10288    3    0    1
 -2      2804      2670      2913      3886
 -1     10289    3    0    1
 -2      3383      1415      1888      3886
 -1     10290    3    0    1
 -2      1639      1415      3123      3886
 -1     10291    3    0    1
 -2      1683      1903      3904      3592
 -1     10292    3    0    1
 -2      2820      2846      2913      3886
 -1     10293    3    0    1
 -2      2804      2913      2924      3886
 -1     10294    3    0    1
 -2       947      2599      3756      4030
 -1     10295    3    0    1
 -2      2924      2913      3382      3886
 -1     10296    3    0    1
 -2      2913      2846      3382      3886
 -1     10297    3    0    1
 -2      3051      1594      3445      3996
 -1     10298    3    0    1
 -2      1562      1639      3123      3886
 -1     10299    3    0    1
 -2      2846      2820      3243      3886
 -1     10300    3    0    1
 -2      2820      3210      3243      3886
 -1     10301    3    0    1
 -2      2649       924      2957      3424
 -1     10302    3    0    1
 -2      1462      1676      1677      3532
 -1     10303    3    0    1
 -2      1609      3386      3391      3501
 -1     10304    3    0    1
 -2      3848       626      3454      1978
 -1     10305    3    0    1
 -2      3000      2877      3370      3888
 -1     10306    3    0    1
 -2      2877      3043      3132      3888
 -1     10307    3    0    1
 -2      3356      2930      3953      4017
 -1     10308    3    0    1
 -2      3011      3000      3370      3888
 -1     10309    3    0    1
 -2      3174      3011      3370      3888
 -1     10310    3    0    1
 -2      1452      1453      3370      1918
 -1     10311    3    0    1
 -2      1452      1719      3225      3888
 -1     10312    3    0    1
 -2      1719      1533      3225      3888
 -1     10313    3    0    1
 -2      3813      1621      1905      3670
 -1     10314    3    0    1
 -2      3083      1810      3356      3634
 -1     10315    3    0    1
 -2      2945      1221      3294      3650
 -1     10316    3    0    1
 -2      3119      2642      3846      3936
 -1     10317    3    0    1
 -2      3294      3429      3919      3650
 -1     10318    3    0    1
 -2      1711      3843      4021      3877
 -1     10319    3    0    1
 -2      1200      2683      3156      3434
 -1     10320    3    0    1
 -2      2805      1284      3817      3704
 -1     10321    3    0    1
 -2      3847      2725      3921      3975
 -1     10322    3    0    1
 -2      2838      2928      3626      3965
 -1     10323    3    0    1
 -2      1542      3780      3782      3889
 -1     10324    3    0    1
 -2       266      1721      1913      1971
 -1     10325    3    0    1
 -2       768      3648      3742      4028
 -1     10326    3    0    1
 -2      3827      1521      3921      3569
 -1     10327    3    0    1
 -2      2448      2619      3016      3889
 -1     10328    3    0    1
 -2      3842      3885      3663      3669
 -1     10329    3    0    1
 -2      1426      1425      3166      3481
 -1     10330    3    0    1
 -2      1592      3178      3905      3568
 -1     10331    3    0    1
 -2      1661      1585      3810      3969
 -1     10332    3    0    1
 -2      1507      3034      3875      1611
 -1     10333    3    0    1
 -2      1939      3265      1940      1945
 -1     10334    3    0    1
 -2       264      3837      3898      3705
 -1     10335    3    0    1
 -2      1140      2726      3967       900
 -1     10336    3    0    1
 -2      1931        18      2003      2004
 -1     10337    3    0    1
 -2      3845      1567      3878      3430
 -1     10338    3    0    1
 -2      3111      1752      3878      3933
 -1     10339    3    0    1
 -2      3279      3020      3913      1943
 -1     10340    3    0    1
 -2      1755       214      1805      3932
 -1     10341    3    0    1
 -2      3154      3114      3468      3970
 -1     10342    3    0    1
 -2      2592      2591      3874      3970
 -1     10343    3    0    1
 -2      2591      2889      3970      2592
 -1     10344    3    0    1
 -2      3453      2889      3468      3970
 -1     10345    3    0    1
 -2       263       348      3989      4016
 -1     10346    3    0    1
 -2        18        20      1931      2003
 -1     10347    3    0    1
 -2      1655      1439      1656      3559
 -1     10348    3    0    1
 -2      3057      3177      3876      3623
 -1     10349    3    0    1
 -2      3174      3358      3888      1917
 -1     10350    3    0    1
 -2       335      1865      3984      2026
 -1     10351    3    0    1
 -2      2895      2785      3196      3895
 -1     10352    3    0    1
 -2      2952      3801      3176      3895
 -1     10353    3    0    1
 -2      2768      3032      3918      3943
 -1     10354    3    0    1
 -2      3354      2768      3869      3943
 -1     10355    3    0    1
 -2      1596      3030      1748      4008
 -1     10356    3    0    1
 -2      3117      3874      3879      3433
 -1     10357    3    0    1
 -2      3213      3117      3879      3433
 -1     10358    3    0    1
 -2      1836      2968      3304      3433
 -1     10359    3    0    1
 -2      1879        12      1906      1907
 -1     10360    3    0    1
 -2      1146      2968      1836      3433
 -1     10361    3    0    1
 -2      2898      3117      3426      3433
 -1     10362    3    0    1
 -2      2985      2609      3880      3907
 -1     10363    3    0    1
 -2      1202      3156      3373      3434
 -1     10364    3    0    1
 -2      1574      1575      1811      3436
 -1     10365    3    0    1
 -2      3778      3865      3984      3993
 -1     10366    3    0    1
 -2      1528      3050      3229      3487
 -1     10367    3    0    1
 -2      3478      1473      2009      3687
 -1     10368    3    0    1
 -2      3119      3049      3846      3687
 -1     10369    3    0    1
 -2      2901      3008      3065      3890
 -1     10370    3    0    1
 -2      2784      2901      3065      3890
 -1     10371    3    0    1
 -2      2964      2680      3102      3890
 -1     10372    3    0    1
 -2      2584      2680      2964      3890
 -1     10373    3    0    1
 -2      3008      1458      3065      3890
 -1     10374    3    0    1
 -2      2636      2680      3890      3967
 -1     10375    3    0    1
 -2      3870      3847      3971      3975
 -1     10376    3    0    1
 -2      1711       106      3472      3968
 -1     10377    3    0    1
 -2      2655      2584      2964      3890
 -1     10378    3    0    1
 -2      2584      2636      2680      3890
 -1     10379    3    0    1
 -2      1645      1458      3008      3890
 -1     10380    3    0    1
 -2      1458      1622      3065      3890
 -1     10381    3    0    1
 -2      3065      1622      3374      3890
 -1     10382    3    0    1
 -2      2577      2841      3067      3891
 -1     10383    3    0    1
 -2      2597      2591      3276      3891
 -1     10384    3    0    1
 -2       793       267       790      2032
 -1     10385    3    0    1
 -2      1762      3216      3482      3667
 -1     10386    3    0    1
 -2      2597      3276      3360      3891
 -1     10387    3    0    1
 -2      1521      3921      3569      3752
 -1     10388    3    0    1
 -2      3276      2940      3324      3891
 -1     10389    3    0    1
 -2      2796      2577      3067      3891
 -1     10390    3    0    1
 -2      3067      2841      3380      3891
 -1     10391    3    0    1
 -2      2841      3180      3182      3891
 -1     10392    3    0    1
 -2      3235      3831      3509      3980
 -1     10393    3    0    1
 -2      2796      3067      3232      3891
 -1     10394    3    0    1
 -2      3232      3067      3380      3891
 -1     10395    3    0    1
 -2      3276      1863      3360      3891
 -1     10396    3    0    1
 -2      1540      3276      3324      3891
 -1     10397    3    0    1
 -2      3220      2621      3604      3980
 -1     10398    3    0    1
 -2      1863       662      3360      3891
 -1     10399    3    0    1
 -2      3276      1540      1863      3891
 -1     10400    3    0    1
 -2      2923      3002      3195      3893
 -1     10401    3    0    1
 -2       984       414      2524      4002
 -1     10402    3    0    1
 -2      3785      3800      3808      3931
 -1     10403    3    0    1
 -2      2952      3176      3298      3895
 -1     10404    3    0    1
 -2      2791      2674      3186      3895
 -1     10405    3    0    1
 -2      2785      2791      2896      3895
 -1     10406    3    0    1
 -2      3176      1419      3298      3895
 -1     10407    3    0    1
 -2      1525      1681      3176      3895
 -1     10408    3    0    1
 -2      1681      1419      3176      3895
 -1     10409    3    0    1
 -2      2674      2862      3186      3895
 -1     10410    3    0    1
 -2      2785      2655      2791      3895
 -1     10411    3    0    1
 -2      2895      1525      3176      3895
 -1     10412    3    0    1
 -2      2785      2896      3196      3895
 -1     10413    3    0    1
 -2      2771      2895      3176      3895
 -1     10414    3    0    1
 -2      1419      1791      3298      3895
 -1     10415    3    0    1
 -2      3186      2862      3339      3895
 -1     10416    3    0    1
 -2      2728      3826      3880      3907
 -1     10417    3    0    1
 -2      1444      3351      3617      1991
 -1     10418    3    0    1
 -2      3840      2634      3858      3897
 -1     10419    3    0    1
 -2      2634      3821      3858      3897
 -1     10420    3    0    1
 -2      2993      3418      3470      3943
 -1     10421    3    0    1
 -2      3819      3902      3903      3942
 -1     10422    3    0    1
 -2      1640      1907      3317      1641
 -1     10423    3    0    1
 -2      3404      3470      3418      3943
 -1     10424    3    0    1
 -2       611       140       969       605
 -1     10425    3    0    1
 -2      1485      2949      3064      1913
 -1     10426    3    0    1
 -2      3836      3783      3849      3734
 -1     10427    3    0    1
 -2      1676      3061      3883      3438
 -1     10428    3    0    1
 -2      3239      1546      1802      3439
 -1     10429    3    0    1
 -2      1546      3239      1802      1801
 -1     10430    3    0    1
 -2       267       348      2766      4016
 -1     10431    3    0    1
 -2      1067      1335      3814      3978
 -1     10432    3    0    1
 -2      3363      1546      3941      3439
 -1     10433    3    0    1
 -2      3020      3279      3913      3978
 -1     10434    3    0    1
 -2      3331      2734      3881      3979
 -1     10435    3    0    1
 -2      1551      2848      3148      3616
 -1     10436    3    0    1
 -2      2723      3111      3878      3933
 -1     10437    3    0    1
 -2      3324      2796      3891      3979
 -1     10438    3    0    1
 -2      3916      3787      4001      4027
 -1     10439    3    0    1
 -2      2889      2591      3276      3979
 -1     10440    3    0    1
 -2      3881      2734      3976      3979
 -1     10441    3    0    1
 -2      2591      2592      3234      3979
 -1     10442    3    0    1
 -2      3106      1456      1943      1944
 -1     10443    3    0    1
 -2      2723      3878      3912      3933
 -1     10444    3    0    1
 -2      1681      1419      3003      3441
 -1     10445    3    0    1
 -2      3003      1419      3284      3441
 -1     10446    3    0    1
 -2      3220      1788      3264      3441
 -1     10447    3    0    1
 -2      2782      3220      3264      3441
 -1     10448    3    0    1
 -2      1788      2782      3264      3441
 -1     10449    3    0    1
 -2      1609      1674      2933      1610
 -1     10450    3    0    1
 -2      1617      2933      3192      3735
 -1     10451    3    0    1
 -2       197      2897      1982      3708
 -1     10452    3    0    1
 -2      2531      3840      2484      3442
 -1     10453    3    0    1
 -2      3840      2531      2484      3223
 -1     10454    3    0    1
 -2      2561      3088      3223      4027
 -1     10455    3    0    1
 -2      1673      2933      1674      3735
 -1     10456    3    0    1
 -2      2933      1673      3860      3735
 -1     10457    3    0    1
 -2      3860      1673      3639      3735
 -1     10458    3    0    1
 -2      1510      3174      3358      1895
 -1     10459    3    0    1
 -2      2976      3126      3371      3955
 -1     10460    3    0    1
 -2      1832      1833      3330      3446
 -1     10461    3    0    1
 -2      1832      1669      1833      3446
 -1     10462    3    0    1
 -2      1510      3174      1895      1896
 -1     10463    3    0    1
 -2      2823      1498      3848      1978
 -1     10464    3    0    1
 -2      1247      3015      3129      3447
 -1     10465    3    0    1
 -2      1448      1447      1884      3475
 -1     10466    3    0    1
 -2      2811      2812      3015      3447
 -1     10467    3    0    1
 -2      1247      2811      3015      3447
 -1     10468    3    0    1
 -2      1903      3072      3904      3592
 -1     10469    3    0    1
 -2      3072      2850      3904      3592
 -1     10470    3    0    1
 -2      3015      2812      3886      3447
 -1     10471    3    0    1
 -2      3129      3015      3886      3447
 -1     10472    3    0    1
 -2      3027      3419      3904      3592
 -1     10473    3    0    1
 -2      1527      1247      3129      3447
 -1     10474    3    0    1
 -2      1806      3830      3838      3737
 -1     10475    3    0    1
 -2      1806      3838      1826      3737
 -1     10476    3    0    1
 -2      3899      3494      3696      3999
 -1     10477    3    0    1
 -2      3446      1915      1916      3614
 -1     10478    3    0    1
 -2      1464      1853      3398      3491
 -1     10479    3    0    1
 -2      1703      1702      1852      3491
 -1     10480    3    0    1
 -2      3147      3369      3471      3476
 -1     10481    3    0    1
 -2      2933      1673      1674      1609
 -1     10482    3    0    1
 -2      2933      3860      3639      3735
 -1     10483    3    0    1
 -2      1412      1411      3369      3476
 -1     10484    3    0    1
 -2      3840      3442      3586      3635
 -1     10485    3    0    1
 -2      3854      2894      3422      3929
 -1     10486    3    0    1
 -2        69        19      1759      1902
 -1     10487    3    0    1
 -2      3526      3261      3626      3965
 -1     10488    3    0    1
 -2      1890      3429      3650      2000
 -1     10489    3    0    1
 -2      3019      3202      3270      3944
 -1     10490    3    0    1
 -2      3807      1491      3823      3923
 -1     10491    3    0    1
 -2      2796      2577      3891      3979
 -1     10492    3    0    1
 -2      2832      1580      3147      4006
 -1     10493    3    0    1
 -2       662      2904      1863      3646
 -1     10494    3    0    1
 -2      2801      1540      1863      3646
 -1     10495    3    0    1
 -2      2998      3506      3961      3974
 -1     10496    3    0    1
 -2      3156      3373      3992      4022
 -1     10497    3    0    1
 -2       119       409      3960      4018
 -1     10498    3    0    1
 -2      2833      2813      3220      3980
 -1     10499    3    0    1
 -2      1955      1956      3608      3625
 -1     10500    3    0    1
 -2      2836      3013      3869      4007
 -1     10501    3    0    1
 -2      1142      2929      3576      3667
 -1     10502    3    0    1
 -2      3254      3172      3300      3980
 -1     10503    3    0    1
 -2      1564      2798      3092      3976
 -1     10504    3    0    1
 -2      2950      1712      1604      3510
 -1     10505    3    0    1
 -2      2950      1650      3378      3510
 -1     10506    3    0    1
 -2      3378      1712      3443      3510
 -1     10507    3    0    1
 -2      3085      1795      3299      3469
 -1     10508    3    0    1
 -2      2783      3839      3604      3980
 -1     10509    3    0    1
 -2      3016      3778      3564      3993
 -1     10510    3    0    1
 -2      3908      1755      3558      3598
 -1     10511    3    0    1
 -2      3017      3093      3228      3455
 -1     10512    3    0    1
 -2      2873      1632      3316      3950
 -1     10513    3    0    1
 -2      1755      3908      3932      3598
 -1     10514    3    0    1
 -2      3202      3019      3940      3944
 -1     10515    3    0    1
 -2      3401      3392      3904      3514
 -1     10516    3    0    1
 -2      2953      1515      2996      3913
 -1     10517    3    0    1
 -2      1683      1880      3904      3514
 -1     10518    3    0    1
 -2      1809       212      3314      3597
 -1     10519    3    0    1
 -2        19      1758      1759      1902
 -1     10520    3    0    1
 -2      2946      3058      1758      1902
 -1     10521    3    0    1
 -2      1566      1535      3150      3674
 -1     10522    3    0    1
 -2      3238      1657      3955      3672
 -1     10523    3    0    1
 -2      1434      3961      3974      3676
 -1     10524    3    0    1
 -2      1566      3150      3151      3674
 -1     10525    3    0    1
 -2      1535      2907      3150      3674
 -1     10526    3    0    1
 -2      3354      2993      3869      3519
 -1     10527    3    0    1
 -2      3219      2813      3839      3576
 -1     10528    3    0    1
 -2      2993      3346      3869      3519
 -1     10529    3    0    1
 -2      3346      1689       781       786
 -1     10530    3    0    1
 -2      1514      1513      1690      3519
 -1     10531    3    0    1
 -2      1689      3354      3869      3519
 -1     10532    3    0    1
 -2      1522      2984      3207      3524
 -1     10533    3    0    1
 -2      1683      1684      1904      3458
 -1     10534    3    0    1
 -2      3682       255      3989      4016
 -1     10535    3    0    1
 -2      1756      1900      3490      3496
 -1     10536    3    0    1
 -2      3142      1683      3410      1880
 -1     10537    3    0    1
 -2      1604      1712      3243      1713
 -1     10538    3    0    1
 -2      1683      3142      3410      3458
 -1     10539    3    0    1
 -2      1483      3777      1986      3688
 -1     10540    3    0    1
 -2      2972      1737      3448      3459
 -1     10541    3    0    1
 -2      3929      1316      2017      4023
 -1     10542    3    0    1
 -2      3113      3815      3872      3466
 -1     10543    3    0    1
 -2      1522      1523      2984      3524
 -1     10544    3    0    1
 -2      2857      2692      3406      3976
 -1     10545    3    0    1
 -2      1576      1524      2798      3976
 -1     10546    3    0    1
 -2      3114      1707      3154      3468
 -1     10547    3    0    1
 -2      3009      1644      3549      2006
 -1     10548    3    0    1
 -2      2706      2972      3448      3459
 -1     10549    3    0    1
 -2      1596      3349      3926      3563
 -1     10550    3    0    1
 -2      3171      1470      3590      3951
 -1     10551    3    0    1
 -2      3874      3180      3512      3951
 -1     10552    3    0    1
 -2      3249      3250      3366      3914
 -1     10553    3    0    1
 -2      3124      1756      3477      3498
 -1     10554    3    0    1
 -2      3366      3250      3475      3914
 -1     10555    3    0    1
 -2      1892      1496      3589      3620
 -1     10556    3    0    1
 -2      1777      3197      3590      3951
 -1     10557    3    0    1
 -2      3197      3180      3350      3951
 -1     10558    3    0    1
 -2      3171      3094      3265      3951
 -1     10559    3    0    1
 -2      2886      3462      3919      3516
 -1     10560    3    0    1
 -2      3151      3150      3844      3674
 -1     10561    3    0    1
 -2       339      1026      3887      3952
 -1     10562    3    0    1
 -2      3814      2594      3913      3950
 -1     10563    3    0    1
 -2      1661      3810      3868      3969
 -1     10564    3    0    1
 -2      3276      2940      3891      3979
 -1     10565    3    0    1
 -2      1787      1219      3294      3462
 -1     10566    3    0    1
 -2      2756      2305      3323      3484
 -1     10567    3    0    1
 -2      1853      1464      3398      3675
 -1     10568    3    0    1
 -2      2757      3852      3893      3464
 -1     10569    3    0    1
 -2      3826      3293      3876      3906
 -1     10570    3    0    1
 -2      1678      3035      3396      1963
 -1     10571    3    0    1
 -2      2850      2605      3904      3955
 -1     10572    3    0    1
 -2      3826      2728      3293      3906
 -1     10573    3    0    1
 -2      1062      2548      3144      3939
 -1     10574    3    0    1
 -2      2830      3155      3344      3464
 -1     10575    3    0    1
 -2      2705      1472      3405      3900
 -1     10576    3    0    1
 -2      2706      2972      3459      3900
 -1     10577    3    0    1
 -2      2000      3009      3671      2006
 -1     10578    3    0    1
 -2      1854      1586      3365      3727
 -1     10579    3    0    1
 -2      1289       406      3880      3983
 -1     10580    3    0    1
 -2      2700      2705      2971      3900
 -1     10581    3    0    1
 -2      2971      2705      3398      3900
 -1     10582    3    0    1
 -2      3334      2979      3459      3900
 -1     10583    3    0    1
 -2      1168      2979      3334      3900
 -1     10584    3    0    1
 -2      3009      3549      3671      2006
 -1     10585    3    0    1
 -2      2972      2971      3398      3900
 -1     10586    3    0    1
 -2      2700      1472      2705      3900
 -1     10587    3    0    1
 -2      3227      1834      3405      3900
 -1     10588    3    0    1
 -2      1472      3227      3405      3900
 -1     10589    3    0    1
 -2      2706      2971      2972      3900
 -1     10590    3    0    1
 -2      3549       236      3671      2006
 -1     10591    3    0    1
 -2      3187      1687      3429      3680
 -1     10592    3    0    1
 -2       952      2233      2455      3991
 -1     10593    3    0    1
 -2      1712      2950      1604      1603
 -1     10594    3    0    1
 -2      1713      1712      1727      3510
 -1     10595    3    0    1
 -2      3175      3085      3299      3469
 -1     10596    3    0    1
 -2      1704      1513      3418      3470
 -1     10597    3    0    1
 -2       351       350      3959      3738
 -1     10598    3    0    1
 -2      2568      2632      3805      3944
 -1     10599    3    0    1
 -2      2604      2568      2788      3944
 -1     10600    3    0    1
 -2      1545       234      1815      1922
 -1     10601    3    0    1
 -2      3921      3569      3975      4005
 -1     10602    3    0    1
 -2      1034      3782      3496      1922
 -1     10603    3    0    1
 -2       234      1545      3782      1922
 -1     10604    3    0    1
 -2       352       284      1942      1977
 -1     10605    3    0    1
 -2      2793      2723      3878      3912
 -1     10606    3    0    1
 -2      3026      1415      1888      3944
 -1     10607    3    0    1
 -2      2604      2950      3378      3944
 -1     10608    3    0    1
 -2      2737      2959      2991      3944
 -1     10609    3    0    1
 -2      2721      2945      2948      3919
 -1     10610    3    0    1
 -2      1673        47      3483      3501
 -1     10611    3    0    1
 -2      1310       427      3838      3901
 -1     10612    3    0    1
 -2      2305      3809      3938      3999
 -1     10613    3    0    1
 -2      3821      3858      3881      3901
 -1     10614    3    0    1
 -2       999      3821      3881      3901
 -1     10615    3    0    1
 -2      3783      3818      3830      3901
 -1     10616    3    0    1
 -2      2629      3783      3830      3901
 -1     10617    3    0    1
 -2      3783      2629      3818      3901
 -1     10618    3    0    1
 -2      1008      1310      3818      3901
 -1     10619    3    0    1
 -2      2629      1008      3818      3901
 -1     10620    3    0    1
 -2      2305      3777      3809      3999
 -1     10621    3    0    1
 -2      1310      1008      2424      3901
 -1     10622    3    0    1
 -2      2424      1008      2629      3901
 -1     10623    3    0    1
 -2      2433      1310      2424      3901
 -1     10624    3    0    1
 -2      1310      2433      2424       699
 -1     10625    3    0    1
 -2      3777      3983      3688      3999
 -1     10626    3    0    1
 -2      2536      2305      3159      3999
 -1     10627    3    0    1
 -2      3397      3809      3688      3999
 -1     10628    3    0    1
 -2      2433      2629      3012      3901
 -1     10629    3    0    1
 -2       999       427      1310      3901
 -1     10630    3    0    1
 -2      2433      2424      2629      3901
 -1     10631    3    0    1
 -2      3839      2813      3980      4008
 -1     10632    3    0    1
 -2        25      3405      1936      1970
 -1     10633    3    0    1
 -2      1462      3267      1837      3948
 -1     10634    3    0    1
 -2      1733      1837      3473      3948
 -1     10635    3    0    1
 -2      1733      3473      3551      3948
 -1     10636    3    0    1
 -2      1733      3551      1948      3948
 -1     10637    3    0    1
 -2      3857      1164      3513      3948
 -1     10638    3    0    1
 -2      3838      3830      3901      3998
 -1     10639    3    0    1
 -2      3914      3857      3513      3948
 -1     10640    3    0    1
 -2      3188      3111      3912      3933
 -1     10641    3    0    1
 -2      1828      1829      3313      3475
 -1     10642    3    0    1
 -2      3250      1828      3313      3475
 -1     10643    3    0    1
 -2      3844      3215      3601      3674
 -1     10644    3    0    1
 -2      1667      3466      3471      3476
 -1     10645    3    0    1
 -2      2991      1639      3270      3944
 -1     10646    3    0    1
 -2      2720      3790      3803      4005
 -1     10647    3    0    1
 -2      1449      1652      3833      3918
 -1     10648    3    0    1
 -2      2460      2681      3780      3902
 -1     10649    3    0    1
 -2      3027      3419      3884      3904
 -1     10650    3    0    1
 -2      1814      3319      1948      3982
 -1     10651    3    0    1
 -2      1837      1733      3610      3982
 -1     10652    3    0    1
 -2      2795      2700      3883      3982
 -1     10653    3    0    1
 -2      1411      3476      3471      3369
 -1     10654    3    0    1
 -2      1034      2460      3782      3902
 -1     10655    3    0    1
 -2      1034      1325      2460      3902
 -1     10656    3    0    1
 -2      2460      3780      3782      3902
 -1     10657    3    0    1
 -2      3782      3780      3819      3902
 -1     10658    3    0    1
 -2       234      1034      3782      3902
 -1     10659    3    0    1
 -2      3456      3167      3980      4008
 -1     10660    3    0    1
 -2      3104      3114      3970      3979
 -1     10661    3    0    1
 -2       236       230      1926      2000
 -1     10662    3    0    1
 -2      3460      3913      3535      3950
 -1     10663    3    0    1
 -2      3860      1685      3387      3500
 -1     10664    3    0    1
 -2      1429      1685      3860      3500
 -1     10665    3    0    1
 -2      3332      2667      3540      3965
 -1     10666    3    0    1
 -2      2681      2460      3189      3902
 -1     10667    3    0    1
 -2         1       354      1987      2008
 -1     10668    3    0    1
 -2      1034       234      1325      3902
 -1     10669    3    0    1
 -2      2404      2681      3189      3902
 -1     10670    3    0    1
 -2      2850      2605      2986      3904
 -1     10671    3    0    1
 -2      1683      1880      3419      3904
 -1     10672    3    0    1
 -2      3419      1880      3465      3904
 -1     10673    3    0    1
 -2      2850      2986      3072      3904
 -1     10674    3    0    1
 -2      3477      1779      1922      1965
 -1     10675    3    0    1
 -2      3903       248      3480      3942
 -1     10676    3    0    1
 -2      1880       608      3465      3904
 -1     10677    3    0    1
 -2       234       248      1923      1965
 -1     10678    3    0    1
 -2      3874      2591      3891      3970
 -1     10679    3    0    1
 -2      3149      3104      3154      3970
 -1     10680    3    0    1
 -2      3522      3842      3663      3669
 -1     10681    3    0    1
 -2      3108      2770      3502      3673
 -1     10682    3    0    1
 -2      3074      2832      3941      4006
 -1     10683    3    0    1
 -2      3126      1700      3662      2003
 -1     10684    3    0    1
 -2      2897       197      1982      3720
 -1     10685    3    0    1
 -2       412      1634      3343      3905
 -1     10686    3    0    1
 -2      3841       412      1846      3905
 -1     10687    3    0    1
 -2      1846       412      3343      3905
 -1     10688    3    0    1
 -2      3394      2966      3892      3926
 -1     10689    3    0    1
 -2      3300      3456      3980      4008
 -1     10690    3    0    1
 -2      2573      3796      3865      3993
 -1     10691    3    0    1
 -2      3927      3779      3957      3986
 -1     10692    3    0    1
 -2      2900      3648      3651      4028
 -1     10693    3    0    1
 -2       347       395      1950      4000
 -1     10694    3    0    1
 -2      3490      1756      1922      1923
 -1     10695    3    0    1
 -2      1728      1939      1940      3631
 -1     10696    3    0    1
 -2      3201      3842      3367      3540
 -1     10697    3    0    1
 -2       972       412      3841      3905
 -1     10698    3    0    1
 -2      1486      2838      3381      3946
 -1     10699    3    0    1
 -2      3396      1897      1898      1963
 -1     10700    3    0    1
 -2      1585      1605      2868      3905
 -1     10701    3    0    1
 -2      2868      1605      3343      3905
 -1     10702    3    0    1
 -2      2816      1585      2868      3905
 -1     10703    3    0    1
 -2      2816      2868      3178      3905
 -1     10704    3    0    1
 -2      1585      2816      2908      3905
 -1     10705    3    0    1
 -2      1605      1846      3343      3905
 -1     10706    3    0    1
 -2      1585      2908      1661      3905
 -1     10707    3    0    1
 -2       412       972      1634      3905
 -1     10708    3    0    1
 -2      2642      2658      3846      3936
 -1     10709    3    0    1
 -2      3247      2601      3341      3906
 -1     10710    3    0    1
 -2      3001      2601      3247      3906
 -1     10711    3    0    1
 -2      1600      3293      1842      3906
 -1     10712    3    0    1
 -2      2611       779      2689      3718
 -1     10713    3    0    1
 -2      3907      2792      2609      3345
 -1     10714    3    0    1
 -2      2936      1531      1874      3907
 -1     10715    3    0    1
 -2      2609      3880      2693      2934
 -1     10716    3    0    1
 -2      2609      3826      2792      3907
 -1     10717    3    0    1
 -2      1454      2936      1874      3907
 -1     10718    3    0    1
 -2      1454      1642      2936      3907
 -1     10719    3    0    1
 -2      2934      3880      2693      1483
 -1     10720    3    0    1
 -2      3482      3587      3638      4008
 -1     10721    3    0    1
 -2      3462      3485      3919      3516
 -1     10722    3    0    1
 -2      2915      3013      3645      4007
 -1     10723    3    0    1
 -2      3018      3836      3359      3734
 -1     10724    3    0    1
 -2      2582      2819      3864      4028
 -1     10725    3    0    1
 -2      2802      2742      3798      3911
 -1     10726    3    0    1
 -2      1436      2926      3084      3911
 -1     10727    3    0    1
 -2      1598      1436      3084      3911
 -1     10728    3    0    1
 -2      3127      3798      3856      3911
 -1     10729    3    0    1
 -2       975       148      1997      3740
 -1     10730    3    0    1
 -2      3158      2615      3860      4020
 -1     10731    3    0    1
 -2      3434      1873      3560      4022
 -1     10732    3    0    1
 -2      2983      3326      3660      4020
 -1     10733    3    0    1
 -2      2742      2911      3798      3911
 -1     10734    3    0    1
 -2      2926      3127      1436      1764
 -1     10735    3    0    1
 -2      3127      2926      1436      3911
 -1     10736    3    0    1
 -2      3798      2911      3856      3911
 -1     10737    3    0    1
 -2      2926      3127      3214      3911
 -1     10738    3    0    1
 -2      3214      3127      3856      3911
 -1     10739    3    0    1
 -2      1468      3565      1955      4022
 -1     10740    3    0    1
 -2      3666      3565      3692      4022
 -1     10741    3    0    1
 -2      2911      3214      3856      3911
 -1     10742    3    0    1
 -2      2625      2712      3028      3911
 -1     10743    3    0    1
 -2      2863      2625      3028      3911
 -1     10744    3    0    1
 -2      3028      2712      3218      3911
 -1     10745    3    0    1
 -2      3087      2849      3127      3911
 -1     10746    3    0    1
 -2       148       631       410      3740
 -1     10747    3    0    1
 -2      2802      2625      2863      3911
 -1     10748    3    0    1
 -2      1429      3190      3660      4020
 -1     10749    3    0    1
 -2      1436      3087      3127      3911
 -1     10750    3    0    1
 -2      2926      3028      3084      3911
 -1     10751    3    0    1
 -2      2926      2863      3028      3911
 -1     10752    3    0    1
 -2      2742      2802      2863      3911
 -1     10753    3    0    1
 -2      1436      1598      3087      3911
 -1     10754    3    0    1
 -2      2911      2863      2926      3911
 -1     10755    3    0    1
 -2      2742      2863      2911      3911
 -1     10756    3    0    1
 -2      3560      3666      3692      4022
 -1     10757    3    0    1
 -2      2911      2926      3214      3911
 -1     10758    3    0    1
 -2       402      1285      3923      3968
 -1     10759    3    0    1
 -2      1880      1881      3401      3514
 -1     10760    3    0    1
 -2      3485      2939      3919      3516
 -1     10761    3    0    1
 -2      1200      3434      1894      3486
 -1     10762    3    0    1
 -2      1776      3200      3601      3674
 -1     10763    3    0    1
 -2      2838      2695      2928      3965
 -1     10764    3    0    1
 -2       214       209      3932      3945
 -1     10765    3    0    1
 -2      1423      3848      3567      3606
 -1     10766    3    0    1
 -2       255       769       772      3722
 -1     10767    3    0    1
 -2      3819      3480      3974      3729
 -1     10768    3    0    1
 -2      3869      2612      3943      4007
 -1     10769    3    0    1
 -2      2828      2865      3894      4001
 -1     10770    3    0    1
 -2      2948      3294      3462      3919
 -1     10771    3    0    1
 -2      3423      2956      3447      3706
 -1     10772    3    0    1
 -2      3477      1779      3498      1922
 -1     10773    3    0    1
 -2      1596      1813      3584      4008
 -1     10774    3    0    1
 -2      3584      1813      3587      4008
 -1     10775    3    0    1
 -2       943        98      2992      3764
 -1     10776    3    0    1
 -2      2578      3030      3286      4008
 -1     10777    3    0    1
 -2      2650      2793      2920      3912
 -1     10778    3    0    1
 -2      3111      3010      3188      3912
 -1     10779    3    0    1
 -2      2723      2649      2957      3912
 -1     10780    3    0    1
 -2      3816      3786      3547      4011
 -1     10781    3    0    1
 -2        23      1919      1947      1948
 -1     10782    3    0    1
 -2      2593      2755      2919      3912
 -1     10783    3    0    1
 -2      3314       212      1960      3597
 -1     10784    3    0    1
 -2      2594      2978      3000      3913
 -1     10785    3    0    1
 -2      2577      3104      3970      3979
 -1     10786    3    0    1
 -2      1456      1648      3020      3913
 -1     10787    3    0    1
 -2      3878      3912      3933      4010
 -1     10788    3    0    1
 -2      1447      1828      3449      3914
 -1     10789    3    0    1
 -2      3249      2602      3250      3914
 -1     10790    3    0    1
 -2      1627      3043      1987      2008
 -1     10791    3    0    1
 -2      3507      3569      3975      3752
 -1     10792    3    0    1
 -2      3048      2602      3249      3914
 -1     10793    3    0    1
 -2      3280      2939      3485      3516
 -1     10794    3    0    1
 -2      1880      3401      3904      3514
 -1     10795    3    0    1
 -2      3787      3088      4027      2773
 -1     10796    3    0    1
 -2      1582      1581      2955      3640
 -1     10797    3    0    1
 -2       278      2415      2780      3928
 -1     10798    3    0    1
 -2      2862      1435      3818      3915
 -1     10799    3    0    1
 -2      2862      3818      3895      3915
 -1     10800    3    0    1
 -2      2674      2862      3895      3915
 -1     10801    3    0    1
 -2      1806       427      3838      3915
 -1     10802    3    0    1
 -2      3818      1806      3838      3915
 -1     10803    3    0    1
 -2      3222       427      1826      3915
 -1     10804    3    0    1
 -2       427      1806      1826      3915
 -1     10805    3    0    1
 -2      1730      1671      3444      3915
 -1     10806    3    0    1
 -2       335       433      2018      2026
 -1     10807    3    0    1
 -2      1506      3125      3141      3915
 -1     10808    3    0    1
 -2      1506      1730      3125      3915
 -1     10809    3    0    1
 -2      1506      3141      3290      3915
 -1     10810    3    0    1
 -2      3222      3056      3444      3915
 -1     10811    3    0    1
 -2      1806      3056      3222      3915
 -1     10812    3    0    1
 -2      1310       427      3204      3915
 -1     10813    3    0    1
 -2      2842      1310      3204      3915
 -1     10814    3    0    1
 -2      3056      2674      3125      3915
 -1     10815    3    0    1
 -2      3056      3125      3444      3915
 -1     10816    3    0    1
 -2      2862      2674      3056      3915
 -1     10817    3    0    1
 -2       427      1671      3204      3915
 -1     10818    3    0    1
 -2      1435      3056      1806      3915
 -1     10819    3    0    1
 -2      2674      2961      3125      3915
 -1     10820    3    0    1
 -2      1435      2862      3056      3915
 -1     10821    3    0    1
 -2      1806      3222      1826      3915
 -1     10822    3    0    1
 -2      1671      1730      3204      3915
 -1     10823    3    0    1
 -2      3125      2961      3141      3915
 -1     10824    3    0    1
 -2      1730      1506      3204      3915
 -1     10825    3    0    1
 -2      3204      1506      3290      3915
 -1     10826    3    0    1
 -2      1750      3319      3368      1919
 -1     10827    3    0    1
 -2      3059      1452      1917      1918
 -1     10828    3    0    1
 -2      1694      3039      3141      3493
 -1     10829    3    0    1
 -2      1695      1694      3141      3493
 -1     10830    3    0    1
 -2      1313      1017      3859      3958
 -1     10831    3    0    1
 -2      3967      3812      3693      3708
 -1     10832    3    0    1
 -2      2814      1017      3831      3958
 -1     10833    3    0    1
 -2       170       432      1876      3916
 -1     10834    3    0    1
 -2       432       170      3813      3916
 -1     10835    3    0    1
 -2      3799       170      3856      3916
 -1     10836    3    0    1
 -2      3856       170      1876      3916
 -1     10837    3    0    1
 -2       981      3799      3813      3916
 -1     10838    3    0    1
 -2       170       981      3813      3916
 -1     10839    3    0    1
 -2       981       170      3799      3916
 -1     10840    3    0    1
 -2      3009      1687      2000      3671
 -1     10841    3    0    1
 -2      1017      1313      3831      3958
 -1     10842    3    0    1
 -2      2602      3857      3875      4017
 -1     10843    3    0    1
 -2      3831      1313      3284      3958
 -1     10844    3    0    1
 -2      1585      3788      3905      3917
 -1     10845    3    0    1
 -2      3852      1661      3905      3917
 -1     10846    3    0    1
 -2      1431      1636      3364      3509
 -1     10847    3    0    1
 -2      2847      3252      3866      4002
 -1     10848    3    0    1
 -2      1298      3162      3852      3917
 -1     10849    3    0    1
 -2      1661       134      3868      3917
 -1     10850    3    0    1
 -2      3791      3810      3855      3917
 -1     10851    3    0    1
 -2       964      3791      3855      3917
 -1     10852    3    0    1
 -2      1661      1585      3905      3917
 -1     10853    3    0    1
 -2      1585      1661      3868      3917
 -1     10854    3    0    1
 -2      3252      2524      3866      4002
 -1     10855    3    0    1
 -2      1661      3852      3416      3917
 -1     10856    3    0    1
 -2       134      1661      3416      3917
 -1     10857    3    0    1
 -2      2459      2543      2668      3917
 -1     10858    3    0    1
 -2      1298       134      3162      3917
 -1     10859    3    0    1
 -2       964       134      1298      3917
 -1     10860    3    0    1
 -2      3411      1425      3415      3496
 -1     10861    3    0    1
 -2      3873      3411      3415      3496
 -1     10862    3    0    1
 -2      1783      3136      3873      3496
 -1     10863    3    0    1
 -2      1783      3873      3415      3496
 -1     10864    3    0    1
 -2      1425      1783      3415      3496
 -1     10865    3    0    1
 -2      3411      3120      3490      3496
 -1     10866    3    0    1
 -2      3836      1620      3348      3558
 -1     10867    3    0    1
 -2       197        11      1982      3720
 -1     10868    3    0    1
 -2      1447      1883      3914      3677
 -1     10869    3    0    1
 -2      3207      2984      1830      3593
 -1     10870    3    0    1
 -2      2016      2897      3720      2030
 -1     10871    3    0    1
 -2      2897      3693      2016      3720
 -1     10872    3    0    1
 -2      2367      2745      3991      4013
 -1     10873    3    0    1
 -2      1982        11      1983      3720
 -1     10874    3    0    1
 -2      3390      1447      3914      3677
 -1     10875    3    0    1
 -2      3166      3124      3282      3498
 -1     10876    3    0    1
 -2       114       950      2367      4013
 -1     10877    3    0    1
 -2      1936      3492      3550      3723
 -1     10878    3    0    1
 -2      2991      2959      1888      3944
 -1     10879    3    0    1
 -2      2568      2604      2632      3944
 -1     10880    3    0    1
 -2      1050      2768      3032      3918
 -1     10881    3    0    1
 -2      3202      2991      3270      3944
 -1     10882    3    0    1
 -2      2490       991      2779      4024
 -1     10883    3    0    1
 -2      2969      1328      3131      3918
 -1     10884    3    0    1
 -2       266      1050      3032      3918
 -1     10885    3    0    1
 -2      1449      2638      2701      3918
 -1     10886    3    0    1
 -2      2772      1473      3964      3700
 -1     10887    3    0    1
 -2      2638      1449      3437      3918
 -1     10888    3    0    1
 -2      2867      2604      3378      3944
 -1     10889    3    0    1
 -2      3805      3202      3940      3944
 -1     10890    3    0    1
 -2      2965      2612      3869      4007
 -1     10891    3    0    1
 -2      1449      1721      3437      3918
 -1     10892    3    0    1
 -2      1603      2950      3026      3944
 -1     10893    3    0    1
 -2       266      3032      1913      3918
 -1     10894    3    0    1
 -2      1596      1597      3030      3584
 -1     10895    3    0    1
 -2      2604      2788      3026      3944
 -1     10896    3    0    1
 -2       354      3795      3816      3963
 -1     10897    3    0    1
 -2      3187      3294      3429      3919
 -1     10898    3    0    1
 -2      2958      3071      3306      3919
 -1     10899    3    0    1
 -2      2859      2803      3825      3919
 -1     10900    3    0    1
 -2      2886      3462      3483      3919
 -1     10901    3    0    1
 -2      3294      3187      3483      3919
 -1     10902    3    0    1
 -2      3784       202      2014      2015
 -1     10903    3    0    1
 -2      3219      1760      3576      3711
 -1     10904    3    0    1
 -2      3877      1711      3968      4021
 -1     10905    3    0    1
 -2      3351      1687      1991      1992
 -1     10906    3    0    1
 -2      3071      2958      3135      3919
 -1     10907    3    0    1
 -2      3135      2958      3450      3919
 -1     10908    3    0    1
 -2      3187      2886      3483      3919
 -1     10909    3    0    1
 -2      1627       354      3816      2008
 -1     10910    3    0    1
 -2      2948      3462      3485      3919
 -1     10911    3    0    1
 -2      2958      2945      3318      3919
 -1     10912    3    0    1
 -2      2945      2721      3318      3919
 -1     10913    3    0    1
 -2      2939      2610      3280      3919
 -1     10914    3    0    1
 -2      2958      3318      3450      3919
 -1     10915    3    0    1
 -2      3071      2610      3295      3919
 -1     10916    3    0    1
 -2      2803      2610      3071      3919
 -1     10917    3    0    1
 -2      2886      2610      2939      3919
 -1     10918    3    0    1
 -2      2610      2859      3280      3919
 -1     10919    3    0    1
 -2      3909      1974      3642      3963
 -1     10920    3    0    1
 -2      2610      3187      3295      3919
 -1     10921    3    0    1
 -2       353      1068      3928      3678
 -1     10922    3    0    1
 -2      3071      3295      3306      3919
 -1     10923    3    0    1
 -2      2610      2803      2859      3919
 -1     10924    3    0    1
 -2      3359      3836      3558      3598
 -1     10925    3    0    1
 -2      2610      2886      3187      3919
 -1     10926    3    0    1
 -2       354         1      3963      2008
 -1     10927    3    0    1
 -2      3836      3359      3932      3598
 -1     10928    3    0    1
 -2      1510      3024      3119      3936
 -1     10929    3    0    1
 -2      2793      3867      3912      3517
 -1     10930    3    0    1
 -2      3386      2886      3391      3501
 -1     10931    3    0    1
 -2      3151        56      1957      3674
 -1     10932    3    0    1
 -2      3342      1481      3556      3965
 -1     10933    3    0    1
 -2      3564      1548      3595      3993
 -1     10934    3    0    1
 -2      1865      1548      3984      3993
 -1     10935    3    0    1
 -2      2898      2968      3874      3304
 -1     10936    3    0    1
 -2      1728      3171      3265      3951
 -1     10937    3    0    1
 -2      3447      3620      1527      3706
 -1     10938    3    0    1
 -2      1728      3265      3376      3951
 -1     10939    3    0    1
 -2      3778      1548      3564      3993
 -1     10940    3    0    1
 -2      3303      3564      3595      3993
 -1     10941    3    0    1
 -2       224      1032      2454      4004
 -1     10942    3    0    1
 -2       993      2147      3994      2035
 -1     10943    3    0    1
 -2      2770      2772      3108      3502
 -1     10944    3    0    1
 -2      3200      1776      3844      3674
 -1     10945    3    0    1
 -2      2998      3627      3961      3653
 -1     10946    3    0    1
 -2      3423      1470      3474      3706
 -1     10947    3    0    1
 -2      1548      3778      3984      3993
 -1     10948    3    0    1
 -2      1640      3317      1906      3504
 -1     10949    3    0    1
 -2      2561      2865      4001      4027
 -1     10950    3    0    1
 -2      3734      3830      3737      4026
 -1     10951    3    0    1
 -2       427      3838      3901      4009
 -1     10952    3    0    1
 -2      1929       655      1930      3656
 -1     10953    3    0    1
 -2      1493      1709      3317      3504
 -1     10954    3    0    1
 -2      3360       662      1929      3656
 -1     10955    3    0    1
 -2        12      1866      1906      3504
 -1     10956    3    0    1
 -2      3380       662      3891      3656
 -1     10957    3    0    1
 -2       427      3901      3998      4009
 -1     10958    3    0    1
 -2       427       183      1826      4009
 -1     10959    3    0    1
 -2      3838       427      1826      4009
 -1     10960    3    0    1
 -2       655       662      3380      3656
 -1     10961    3    0    1
 -2      1747       158      3210      3699
 -1     10962    3    0    1
 -2      1603      2846      3243      3699
 -1     10963    3    0    1
 -2       346       255       772      3722
 -1     10964    3    0    1
 -2       346       261      1949      3722
 -1     10965    3    0    1
 -2      3030      3167      3456      4008
 -1     10966    3    0    1
 -2      1737      3108      3502      3673
 -1     10967    3    0    1
 -2      2959      2867      3378      3944
 -1     10968    3    0    1
 -2      1484      1912      1913      3583
 -1     10969    3    0    1
 -2      1847       409      3715      4006
 -1     10970    3    0    1
 -2      2867      2959      3805      3944
 -1     10971    3    0    1
 -2      2750      3237      3848      3606
 -1     10972    3    0    1
 -2      1191      1776      3200      3601
 -1     10973    3    0    1
 -2      2593      2852      3867      3937
 -1     10974    3    0    1
 -2      2593      3867      3912      3937
 -1     10975    3    0    1
 -2      1161      1869      3395      3508
 -1     10976    3    0    1
 -2      3395      1869      1908      3508
 -1     10977    3    0    1
 -2      3188      2919      3451      3548
 -1     10978    3    0    1
 -2      2725      3199      3847      3972
 -1     10979    3    0    1
 -2      3503      1844      3655      2003
 -1     10980    3    0    1
 -2      3790      2608      3506      3961
 -1     10981    3    0    1
 -2      1059      3199      2417      3972
 -1     10982    3    0    1
 -2      1564      3092      3406      3976
 -1     10983    3    0    1
 -2      2720      2417      2725      3921
 -1     10984    3    0    1
 -2      1294      3789      3896      4006
 -1     10985    3    0    1
 -2      3899      3983      3999      3712
 -1     10986    3    0    1
 -2      3780      2619      3889      3974
 -1     10987    3    0    1
 -2      3074      1847      3715      4006
 -1     10988    3    0    1
 -2      3163      3175      3364      3509
 -1     10989    3    0    1
 -2      1650      1727      3378      3510
 -1     10990    3    0    1
 -2      2790      1606      3184      3511
 -1     10991    3    0    1
 -2      3826      2790      3876      3511
 -1     10992    3    0    1
 -2      3079      3826      3876      3511
 -1     10993    3    0    1
 -2      3001      3826      3259      3511
 -1     10994    3    0    1
 -2      3001      2790      3826      3511
 -1     10995    3    0    1
 -2      3184      3079      3876      3511
 -1     10996    3    0    1
 -2      2790      3184      3876      3511
 -1     10997    3    0    1
 -2      2790      3001      3259      3511
 -1     10998    3    0    1
 -2      2995      1571      1777      3591
 -1     10999    3    0    1
 -2      1640      3317      3504      3967
 -1     11000    3    0    1
 -2      3180      3182      3360      3512
 -1     11001    3    0    1
 -2      3182      1571      3360      3512
 -1     11002    3    0    1
 -2      1571      3182      3197      3512
 -1     11003    3    0    1
 -2      3182      3180      3197      3512
 -1     11004    3    0    1
 -2      3215      1581      3226      1984
 -1     11005    3    0    1
 -2       908      1692      3390      3513
 -1     11006    3    0    1
 -2      1594      1480      3414      1479
 -1     11007    3    0    1
 -2      1470      1777      1778      3590
 -1     11008    3    0    1
 -2      2022      1982      2023      3726
 -1     11009    3    0    1
 -2      2022      2023      3707      3726
 -1     11010    3    0    1
 -2      2683      2607      3156      3964
 -1     11011    3    0    1
 -2      3912      2793      3517      4010
 -1     11012    3    0    1
 -2      3394      1596      3926      3563
 -1     11013    3    0    1
 -2       402      1619      1891      3923
 -1     11014    3    0    1
 -2       402      3823       942      1856
 -1     11015    3    0    1
 -2      3823       402       942      3923
 -1     11016    3    0    1
 -2      2724      2369      2963      3923
 -1     11017    3    0    1
 -2       942       402      1285      3923
 -1     11018    3    0    1
 -2      1685      1609      3391      3516
 -1     11019    3    0    1
 -2      3391      1609      3501      3516
 -1     11020    3    0    1
 -2      2886      3391      3501      3516
 -1     11021    3    0    1
 -2      3462      2886      3501      3516
 -1     11022    3    0    1
 -2      2886      2939      3391      3516
 -1     11023    3    0    1
 -2      2536      2270      2546      4011
 -1     11024    3    0    1
 -2      2506      2536      2546      4011
 -1     11025    3    0    1
 -2      2942      3807      3642      4011
 -1     11026    3    0    1
 -2      1920        51      1921      3724
 -1     11027    3    0    1
 -2      3807      3786      3816      4011
 -1     11028    3    0    1
 -2      3807      3816      3909      4011
 -1     11029    3    0    1
 -2      2794      3807      3934      4011
 -1     11030    3    0    1
 -2      2942      3245      3934      4011
 -1     11031    3    0    1
 -2        52        51      2019      3724
 -1     11032    3    0    1
 -2      2536      2506      3934      4011
 -1     11033    3    0    1
 -2      1588      3310      3413      3924
 -1     11034    3    0    1
 -2      3090      1477      1798      3924
 -1     11035    3    0    1
 -2      1588      3090      1798      3924
 -1     11036    3    0    1
 -2      3031      2815      3046      3924
 -1     11037    3    0    1
 -2      2954      2920      3168      3924
 -1     11038    3    0    1
 -2      2954      3168      3457      3924
 -1     11039    3    0    1
 -2      2799      3031      3046      3924
 -1     11040    3    0    1
 -2      2815      2848      3046      3924
 -1     11041    3    0    1
 -2      2799      3046      3090      3924
 -1     11042    3    0    1
 -2      3168      2920      3310      3924
 -1     11043    3    0    1
 -2      2233       114      2367      3991
 -1     11044    3    0    1
 -2      3046      2848      3148      3924
 -1     11045    3    0    1
 -2      3090      3046      3375      3924
 -1     11046    3    0    1
 -2      3046      3148      3375      3924
 -1     11047    3    0    1
 -2      3168      1477      3457      3924
 -1     11048    3    0    1
 -2      2799      3090      3413      3924
 -1     11049    3    0    1
 -2      1588      3168      3310      3924
 -1     11050    3    0    1
 -2      1477      3168      1798      3924
 -1     11051    3    0    1
 -2      3168      1588      1798      3924
 -1     11052    3    0    1
 -2      1464      1853      3420      3673
 -1     11053    3    0    1
 -2      3989      2715      3697      4016
 -1     11054    3    0    1
 -2       250      3920      1962      3947
 -1     11055    3    0    1
 -2      1335      1067      3795      3978
 -1     11056    3    0    1
 -2      2715      2529      3697      4016
 -1     11057    3    0    1
 -2      1722      1522      3207      3524
 -1     11058    3    0    1
 -2      1570      1847      1569      3525
 -1     11059    3    0    1
 -2      1570      1569      3060      3525
 -1     11060    3    0    1
 -2      1533      3225      3888      1987
 -1     11061    3    0    1
 -2      3529      1533      3594      1987
 -1     11062    3    0    1
 -2       266       264      3898      1971
 -1     11063    3    0    1
 -2       753       752      2464      3527
 -1     11064    3    0    1
 -2      1908      3677      2029      3745
 -1     11065    3    0    1
 -2      1034      1320      3782      3527
 -1     11066    3    0    1
 -2      1320      1034       753      3527
 -1     11067    3    0    1
 -2       734       753      2464      3527
 -1     11068    3    0    1
 -2      3780      3782      3889      3527
 -1     11069    3    0    1
 -2      3780      2460      3782      3527
 -1     11070    3    0    1
 -2      2448      2460      3780      3527
 -1     11071    3    0    1
 -2      2448      3780      3889      3527
 -1     11072    3    0    1
 -2       752       753      1034      3527
 -1     11073    3    0    1
 -2       752      1034      2460      3527
 -1     11074    3    0    1
 -2      2460      1034      3782      3527
 -1     11075    3    0    1
 -2       753      1026      1320      3527
 -1     11076    3    0    1
 -2       753       734      1026      3527
 -1     11077    3    0    1
 -2       990       186      1307      3925
 -1     11078    3    0    1
 -2       215       202      3784      2015
 -1     11079    3    0    1
 -2      1555      3112      3146      3528
 -1     11080    3    0    1
 -2      1558        19      1758      3528
 -1     11081    3    0    1
 -2      1555      1492      3112      3528
 -1     11082    3    0    1
 -2      3078      1558      1758      3528
 -1     11083    3    0    1
 -2      1549      3078      1758      3528
 -1     11084    3    0    1
 -2        56       273      1938      3616
 -1     11085    3    0    1
 -2      1423      3178      1933      3568
 -1     11086    3    0    1
 -2      2816      3852      3905      3568
 -1     11087    3    0    1
 -2      1462      3096      3438      3580
 -1     11088    3    0    1
 -2      3503      3876      3623      3966
 -1     11089    3    0    1
 -2      2672      3811      3047      3936
 -1     11090    3    0    1
 -2      3789      3809      3896      3938
 -1     11091    3    0    1
 -2       346       255      2480      3682
 -1     11092    3    0    1
 -2      2826      3394      3892      3926
 -1     11093    3    0    1
 -2      1468      1955      1956      3608
 -1     11094    3    0    1
 -2      3230      1421      3349      3926
 -1     11095    3    0    1
 -2      3794      1548      1845      3564
 -1     11096    3    0    1
 -2      3825      2803      3873      3949
 -1     11097    3    0    1
 -2      3823      2672      3529      3936
 -1     11098    3    0    1
 -2      3049      3115      3119      3936
 -1     11099    3    0    1
 -2      3384      2645      3520      3936
 -1     11100    3    0    1
 -2      2645      3024      3520      3936
 -1     11101    3    0    1
 -2       114      2367      3991      4013
 -1     11102    3    0    1
 -2      3933      3430      3552      3596
 -1     11103    3    0    1
 -2      2826      3134      3394      3926
 -1     11104    3    0    1
 -2      1421      1813      3349      3926
 -1     11105    3    0    1
 -2      1813      1596      3349      3926
 -1     11106    3    0    1
 -2      2781      2635      3080      3926
 -1     11107    3    0    1
 -2      2635      2781      3230      3926
 -1     11108    3    0    1
 -2      3275      2966      3394      3926
 -1     11109    3    0    1
 -2       407       122      3817      3704
 -1     11110    3    0    1
 -2      2872      2635      3230      3926
 -1     11111    3    0    1
 -2      2658      2892      3846      3936
 -1     11112    3    0    1
 -2      2872      3230      3349      3926
 -1     11113    3    0    1
 -2      1596      3275      3394      3926
 -1     11114    3    0    1
 -2      2826      2635      2872      3926
 -1     11115    3    0    1
 -2      3293      3906      3600      3966
 -1     11116    3    0    1
 -2      2749      3318      3873      3949
 -1     11117    3    0    1
 -2      2435      1324      2761      3682
 -1     11118    3    0    1
 -2      1596      1813      3275      3926
 -1     11119    3    0    1
 -2      2826      2872      3134      3926
 -1     11120    3    0    1
 -2      1813      1421      3275      3926
 -1     11121    3    0    1
 -2       973      2656      3337      3962
 -1     11122    3    0    1
 -2      1834        25      3405      1936
 -1     11123    3    0    1
 -2       339       231      1954      3952
 -1     11124    3    0    1
 -2      1026      3794      3887      3952
 -1     11125    3    0    1
 -2      1456      3279      3913      1943
 -1     11126    3    0    1
 -2      2415       278      3824      3928
 -1     11127    3    0    1
 -2      3883      3271      3580      3982
 -1     11128    3    0    1
 -2      2525      1068      2780      3928
 -1     11129    3    0    1
 -2      2525      2759      3824      3928
 -1     11130    3    0    1
 -2      2759      2525      2780      3928
 -1     11131    3    0    1
 -2      3271      3883      3900      3982
 -1     11132    3    0    1
 -2      3227      3271      3900      3982
 -1     11133    3    0    1
 -2      3227      1814      3271      3982
 -1     11134    3    0    1
 -2      3319      3368      3610      3982
 -1     11135    3    0    1
 -2      2415      2759      2780      3928
 -1     11136    3    0    1
 -2      3880       406      1986      3983
 -1     11137    3    0    1
 -2      2779       991      1300      3698
 -1     11138    3    0    1
 -2      1745      1502      3531      3679
 -1     11139    3    0    1
 -2      1597      1596      1749      3563
 -1     11140    3    0    1
 -2      1733      1734      1838      3610
 -1     11141    3    0    1
 -2      2839      1026      2884      3929
 -1     11142    3    0    1
 -2      1026       339      3887      3929
 -1     11143    3    0    1
 -2       433       335      1966      3985
 -1     11144    3    0    1
 -2       335      3910      1966      3985
 -1     11145    3    0    1
 -2       335       433      3984      3985
 -1     11146    3    0    1
 -2      3523      1795      2017      2018
 -1     11147    3    0    1
 -2      2829      3101      3412      3929
 -1     11148    3    0    1
 -2      3101      2829      3854      3929
 -1     11149    3    0    1
 -2      1796      1795      3523      2018
 -1     11150    3    0    1
 -2      3914      3366      3628      3681
 -1     11151    3    0    1
 -2      3887       339      1915      3929
 -1     11152    3    0    1
 -2       335       433      1966      2018
 -1     11153    3    0    1
 -2      1883      1824      1884      3681
 -1     11154    3    0    1
 -2      1824      1908      1909      3681
 -1     11155    3    0    1
 -2      2894      1548      1845      3929
 -1     11156    3    0    1
 -2      1026      2839      3422      3929
 -1     11157    3    0    1
 -2      1548      2829      3412      3929
 -1     11158    3    0    1
 -2      1865      1548      3412      3929
 -1     11159    3    0    1
 -2      2829      1548      2894      3929
 -1     11160    3    0    1
 -2      2884      1316      3101      3929
 -1     11161    3    0    1
 -2       339      1026      3422      3929
 -1     11162    3    0    1
 -2       339      3422      1915      3929
 -1     11163    3    0    1
 -2      3822       990      3925      4025
 -1     11164    3    0    1
 -2      3331      3234      3881      3644
 -1     11165    3    0    1
 -2       347       758       751      1950
 -1     11166    3    0    1
 -2      1557      1556      1808      3572
 -1     11167    3    0    1
 -2       106       402      1891      3930
 -1     11168    3    0    1
 -2      1891      1619      3472      3930
 -1     11169    3    0    1
 -2       758       347       395      1950
 -1     11170    3    0    1
 -2       106      1891      3472      3930
 -1     11171    3    0    1
 -2      2909      2856      3233      3611
 -1     11172    3    0    1
 -2      2632      3055      3593      3611
 -1     11173    3    0    1
 -2      1487      1960      3597      3609
 -1     11174    3    0    1
 -2        95        98       943      3764
 -1     11175    3    0    1
 -2      3693      2897      3708      3726
 -1     11176    3    0    1
 -2        98      2426      2992      3757
 -1     11177    3    0    1
 -2      3991        95      4013      3757
 -1     11178    3    0    1
 -2      1011      3987      2012      3758
 -1     11179    3    0    1
 -2       950       114      3689      4013
 -1     11180    3    0    1
 -2      3471      3103      3369      4012
 -1     11181    3    0    1
 -2      3369      3466      3471      4012
 -1     11182    3    0    1
 -2        95       400      3991      4013
 -1     11183    3    0    1
 -2      3708      2897      3720      3726
 -1     11184    3    0    1
 -2      3465      3401      3725      4012
 -1     11185    3    0    1
 -2      3725      3465      1519      1867
 -1     11186    3    0    1
 -2      3103      1519      3725      4012
 -1     11187    3    0    1
 -2      3808       412      3853      3931
 -1     11188    3    0    1
 -2       972      2543      3917      3931
 -1     11189    3    0    1
 -2      3841       972      3905      3931
 -1     11190    3    0    1
 -2      3802      3841      3905      3931
 -1     11191    3    0    1
 -2       412      3841      3853      3931
 -1     11192    3    0    1
 -2       412       972      3841      3931
 -1     11193    3    0    1
 -2      2668      3788      3917      3931
 -1     11194    3    0    1
 -2      3788      2668      3400      3931
 -1     11195    3    0    1
 -2      3802      3905      3917      3931
 -1     11196    3    0    1
 -2      2543      2668      3917      3931
 -1     11197    3    0    1
 -2      3852       972      3917      3931
 -1     11198    3    0    1
 -2       972      3852      3905      3931
 -1     11199    3    0    1
 -2      3905      3852      3917      3931
 -1     11200    3    0    1
 -2      2543      3097      3400      3931
 -1     11201    3    0    1
 -2       972       412      1301      3931
 -1     11202    3    0    1
 -2      2668      2543      3400      3931
 -1     11203    3    0    1
 -2      2830      2667      3885      3543
 -1     11204    3    0    1
 -2      3842      2667      3540      3543
 -1     11205    3    0    1
 -2      2667      3842      3885      3543
 -1     11206    3    0    1
 -2      3201      3842      3540      3543
 -1     11207    3    0    1
 -2      3842      3201      3885      3543
 -1     11208    3    0    1
 -2      3885      3464      2830      3543
 -1     11209    3    0    1
 -2      3464      3885      2830      3893
 -1     11210    3    0    1
 -2      3542      3098      1978      1979
 -1     11211    3    0    1
 -2      3098      2830      3542      3543
 -1     11212    3    0    1
 -2      2667      2830      3098      3543
 -1     11213    3    0    1
 -2       214      3818      3321      1952
 -1     11214    3    0    1
 -2       351      2492      2786      3939
 -1     11215    3    0    1
 -2      2492      1056      3144      3939
 -1     11216    3    0    1
 -2        24        23      1947      1967
 -1     11217    3    0    1
 -2      1443      3351      1991      1992
 -1     11218    3    0    1
 -2      1444      3351      3431      3617
 -1     11219    3    0    1
 -2      1411      1412      3369      3546
 -1     11220    3    0    1
 -2      1412      1411      1660      3546
 -1     11221    3    0    1
 -2      3465      3884      3904      4012
 -1     11222    3    0    1
 -2      1519      1520      1660      3546
 -1     11223    3    0    1
 -2      1411      3369      3471      3546
 -1     11224    3    0    1
 -2      1659      1411      3471      3546
 -1     11225    3    0    1
 -2      2003      2004      2005      3672
 -1     11226    3    0    1
 -2      1576      1885      3927      3976
 -1     11227    3    0    1
 -2      2798      1564      1696      3976
 -1     11228    3    0    1
 -2      3831      2782      3441      3980
 -1     11229    3    0    1
 -2      1885       186      3927      3976
 -1     11230    3    0    1
 -2       186      3406      3881      3976
 -1     11231    3    0    1
 -2      2736      2814      3831      3980
 -1     11232    3    0    1
 -2      3815      3872      3466      4012
 -1     11233    3    0    1
 -2      3872      3052      3884      4012
 -1     11234    3    0    1
 -2      1524      2692      2798      3976
 -1     11235    3    0    1
 -2      1576      2798      3661      3976
 -1     11236    3    0    1
 -2       186      1885      3661      3976
 -1     11237    3    0    1
 -2      1696       186      3661      3976
 -1     11238    3    0    1
 -2      1500      3036      3116      3555
 -1     11239    3    0    1
 -2      2883      2800      3879      3554
 -1     11240    3    0    1
 -2      3352      3068      3926      3553
 -1     11241    3    0    1
 -2      3117      3213      3879      3554
 -1     11242    3    0    1
 -2      2800      3117      3879      3554
 -1     11243    3    0    1
 -2      2575      3017      3873      3949
 -1     11244    3    0    1
 -2      3450      3135      3919      3949
 -1     11245    3    0    1
 -2      1622      2883      3879      3554
 -1     11246    3    0    1
 -2      1644      1476      3009      3549
 -1     11247    3    0    1
 -2      3779      1573      3925      3986
 -1     11248    3    0    1
 -2      1476      2781      3009      3549
 -1     11249    3    0    1
 -2      3825      3318      3919      3949
 -1     11250    3    0    1
 -2      3093      1517      3455      3949
 -1     11251    3    0    1
 -2      3017      3228      3873      3949
 -1     11252    3    0    1
 -2      1500      3116      3257      3555
 -1     11253    3    0    1
 -2      3116      3036      3257      3555
 -1     11254    3    0    1
 -2      3351      3553      1991      3671
 -1     11255    3    0    1
 -2      3021      2734      3331      3979
 -1     11256    3    0    1
 -2      1687      3351      1991      3671
 -1     11257    3    0    1
 -2      3111      1059      3878      1942
 -1     11258    3    0    1
 -2      1752      3111      3878      1942
 -1     11259    3    0    1
 -2      3862      3790      3920      3961
 -1     11260    3    0    1
 -2      1456      3106      1943      3933
 -1     11261    3    0    1
 -2      1939       168      1964      3620
 -1     11262    3    0    1
 -2      3878      1752      3430      3933
 -1     11263    3    0    1
 -2      3886      3129      3447      3620
 -1     11264    3    0    1
 -2      3188      3912      3548      3933
 -1     11265    3    0    1
 -2      3106      1456      3107      3933
 -1     11266    3    0    1
 -2      2593      2755      3912      3933
 -1     11267    3    0    1
 -2      2918      2593      3912      3933
 -1     11268    3    0    1
 -2      2755      2919      3912      3933
 -1     11269    3    0    1
 -2      3912      2919      3548      3933
 -1     11270    3    0    1
 -2      1648      3188      3548      3933
 -1     11271    3    0    1
 -2      1456      1648      3107      3933
 -1     11272    3    0    1
 -2      3107      1648      3548      3933
 -1     11273    3    0    1
 -2      2755      2669      3106      3933
 -1     11274    3    0    1
 -2       284      1941      1942      1977
 -1     11275    3    0    1
 -2      2755      3106      3107      3933
 -1     11276    3    0    1
 -2      1752      3111      1943      3933
 -1     11277    3    0    1
 -2      3111      1456      1943      3933
 -1     11278    3    0    1
 -2      2669      2755      2918      3933
 -1     11279    3    0    1
 -2      2755      2593      2918      3933
 -1     11280    3    0    1
 -2      1648      3111      3188      3933
 -1     11281    3    0    1
 -2      2919      2755      3548      3933
 -1     11282    3    0    1
 -2      2755      3107      3548      3933
 -1     11283    3    0    1
 -2      1648      1456      3111      3933
 -1     11284    3    0    1
 -2      1284       117      3817      3704
 -1     11285    3    0    1
 -2      3068      3287      3926      3553
 -1     11286    3    0    1
 -2      1608      1942      3615      1977
 -1     11287    3    0    1
 -2      1436      1437      1765      3618
 -1     11288    3    0    1
 -2      2889      3891      3970      3979
 -1     11289    3    0    1
 -2      1449      3790      3862      3961
 -1     11290    3    0    1
 -2      1908      1824      1909      3665
 -1     11291    3    0    1
 -2      1608       352      1942      1977
 -1     11292    3    0    1
 -2      1509      3352      3549      3553
 -1     11293    3    0    1
 -2      1509      1249      3352      3553
 -1     11294    3    0    1
 -2      3009      2781      3351      3553
 -1     11295    3    0    1
 -2      3862      3920      3947      3961
 -1     11296    3    0    1
 -2      3395      1908      1932      3665
 -1     11297    3    0    1
 -2      1845      3794      3564      3579
 -1     11298    3    0    1
 -2      3036      2874      3884      3555
 -1     11299    3    0    1
 -2      3872      3211      3884      3555
 -1     11300    3    0    1
 -2      2874      3872      3884      3555
 -1     11301    3    0    1
 -2      3889      3185      3564      3579
 -1     11302    3    0    1
 -2      3794      3889      3564      3579
 -1     11303    3    0    1
 -2      3842      3367      3540      3965
 -1     11304    3    0    1
 -2      1912       264      1913      1971
 -1     11305    3    0    1
 -2      2874      3036      3075      3555
 -1     11306    3    0    1
 -2      1429      1924      1925      3599
 -1     11307    3    0    1
 -2      1430      1429      1925      3599
 -1     11308    3    0    1
 -2      2900      1543      1870      3651
 -1     11309    3    0    1
 -2      1800        23      3497      1948
 -1     11310    3    0    1
 -2        23      1814      3319      1948
 -1     11311    3    0    1
 -2        23      3319      1919      1948
 -1     11312    3    0    1
 -2      1924      3076      1925      3599
 -1     11313    3    0    1
 -2       354      1797      3909      1974
 -1     11314    3    0    1
 -2      1620      3836      3908      3558
 -1     11315    3    0    1
 -2      1755      1620      3908      3558
 -1     11316    3    0    1
 -2      3877      2963      3923      3934
 -1     11317    3    0    1
 -2      3877      3923      3930      3934
 -1     11318    3    0    1
 -2      2724      3807      3923      3934
 -1     11319    3    0    1
 -2      3923      3807      3930      3934
 -1     11320    3    0    1
 -2      2963      2724      3923      3934
 -1     11321    3    0    1
 -2      2724      2794      3807      3934
 -1     11322    3    0    1
 -2      2552      3987      3746      3758
 -1     11323    3    0    1
 -2      3877      3245      3494      3934
 -1     11324    3    0    1
 -2      3843      3877      3494      3934
 -1     11325    3    0    1
 -2      2536      2506      3494      3934
 -1     11326    3    0    1
 -2      2411       347      3820      4000
 -1     11327    3    0    1
 -2      2411      3820      3536      4000
 -1     11328    3    0    1
 -2      3843      2506      3999      2595
 -1     11329    3    0    1
 -2      1619      1491      3472      3934
 -1     11330    3    0    1
 -2       197        11      3720      2030
 -1     11331    3    0    1
 -2      2506      2724      2963      3934
 -1     11332    3    0    1
 -2      2942      3245      3472      3934
 -1     11333    3    0    1
 -2      2724      2506      2794      3934
 -1     11334    3    0    1
 -2      1519      1520      3546      3725
 -1     11335    3    0    1
 -2      3245      2536      3494      3934
 -1     11336    3    0    1
 -2      1519      1867      1868      3725
 -1     11337    3    0    1
 -2      3914      3513      3677      3745
 -1     11338    3    0    1
 -2      3910       335      3958      3985
 -1     11339    3    0    1
 -2      2806      3184      3262      3559
 -1     11340    3    0    1
 -2      1440      1439      3385      3559
 -1     11341    3    0    1
 -2      1439      1440      1656      3559
 -1     11342    3    0    1
 -2      2806      3177      3184      3559
 -1     11343    3    0    1
 -2      1439      1655      3177      3559
 -1     11344    3    0    1
 -2      3177      1655      3184      3559
 -1     11345    3    0    1
 -2      3068      2966      3926      3935
 -1     11346    3    0    1
 -2      2966      3068      3173      3935
 -1     11347    3    0    1
 -2      2635      3080      3926      3935
 -1     11348    3    0    1
 -2      3336      3854      3372      3935
 -1     11349    3    0    1
 -2      3118      3336      3372      3935
 -1     11350    3    0    1
 -2      2970      3854      3336      3935
 -1     11351    3    0    1
 -2      3118       732      3399      3935
 -1     11352    3    0    1
 -2       732      3118      3372      3935
 -1     11353    3    0    1
 -2      1861      3301      3399      3935
 -1     11354    3    0    1
 -2      3287      3080      3467      3935
 -1     11355    3    0    1
 -2      1559      3301      1861      3935
 -1     11356    3    0    1
 -2       732      1861      3399      3935
 -1     11357    3    0    1
 -2      1559      3287      3467      3935
 -1     11358    3    0    1
 -2      3301      1559      3467      3935
 -1     11359    3    0    1
 -2      3173      3068      3287      3935
 -1     11360    3    0    1
 -2      3221      3173      3372      3935
 -1     11361    3    0    1
 -2      2623      2970      3004      3935
 -1     11362    3    0    1
 -2      2635      2826      3004      3935
 -1     11363    3    0    1
 -2      2635      3004      3301      3935
 -1     11364    3    0    1
 -2      3173      3287      3372      3935
 -1     11365    3    0    1
 -2      3004      3118      3399      3935
 -1     11366    3    0    1
 -2      3004      2970      3118      3935
 -1     11367    3    0    1
 -2      3301      3004      3399      3935
 -1     11368    3    0    1
 -2      3080      2635      3301      3935
 -1     11369    3    0    1
 -2      3287      1861      3372      3935
 -1     11370    3    0    1
 -2      3118      2970      3336      3935
 -1     11371    3    0    1
 -2      3080      3301      3467      3935
 -1     11372    3    0    1
 -2      3287      1559      1861      3935
 -1     11373    3    0    1
 -2      1861       732      3372      3935
 -1     11374    3    0    1
 -2      2590      2645      3384      3936
 -1     11375    3    0    1
 -2      1510      3115      1917      3936
 -1     11376    3    0    1
 -2      2590      2642      2645      3936
 -1     11377    3    0    1
 -2      2645      2642      2673      3936
 -1     11378    3    0    1
 -2      2672      2590      3384      3936
 -1     11379    3    0    1
 -2      1917      3115      3529      3936
 -1     11380    3    0    1
 -2      2642      2590      2658      3936
 -1     11381    3    0    1
 -2      2658      2590      2892      3936
 -1     11382    3    0    1
 -2      2590      2672      3047      3936
 -1     11383    3    0    1
 -2      3059      2672      3384      3936
 -1     11384    3    0    1
 -2      2852      2919      2981      3937
 -1     11385    3    0    1
 -2      2852      2981      3538      3937
 -1     11386    3    0    1
 -2      3010      2957      3425      3937
 -1     11387    3    0    1
 -2      2852      2593      2919      3937
 -1     11388    3    0    1
 -2      3031      2852      3095      3937
 -1     11389    3    0    1
 -2      2799      2852      3031      3937
 -1     11390    3    0    1
 -2      3095      2852      3538      3937
 -1     11391    3    0    1
 -2       804      3010      3425      3937
 -1     11392    3    0    1
 -2      2957      3037      3425      3937
 -1     11393    3    0    1
 -2      2981      2919      3451      3937
 -1     11394    3    0    1
 -2      1632       804      3425      3937
 -1     11395    3    0    1
 -2      3031      3095      3537      3937
 -1     11396    3    0    1
 -2      3037      1586      3425      3937
 -1     11397    3    0    1
 -2      1586      1632      3425      3937
 -1     11398    3    0    1
 -2      3010       804      1849      3937
 -1     11399    3    0    1
 -2      3188      3010      1849      3937
 -1     11400    3    0    1
 -2      1319      2163      3643      4000
 -1     11401    3    0    1
 -2      1483      3809      3397      3938
 -1     11402    3    0    1
 -2      3809      1483      1790      3938
 -1     11403    3    0    1
 -2      1899      1790      3544      3938
 -1     11404    3    0    1
 -2       119      1899      3544      3938
 -1     11405    3    0    1
 -2      3484      1693      3544      3938
 -1     11406    3    0    1
 -2      3323      3484      3544      3938
 -1     11407    3    0    1
 -2      1790      3397      3544      3938
 -1     11408    3    0    1
 -2      1882       119      3544      3938
 -1     11409    3    0    1
 -2      1580      1693      3484      3938
 -1     11410    3    0    1
 -2      1693      1882      3544      3938
 -1     11411    3    0    1
 -2      3397      3323      3544      3938
 -1     11412    3    0    1
 -2      1790      1483      3397      3938
 -1     11413    3    0    1
 -2      3321       214      1629      1630
 -1     11414    3    0    1
 -2      3561      1447      1884      3566
 -1     11415    3    0    1
 -2      1447      3561      1884      1883
 -1     11416    3    0    1
 -2      1447      1828      1829      3566
 -1     11417    3    0    1
 -2      1702      1853      3491      3675
 -1     11418    3    0    1
 -2      1828      3248      3341      3566
 -1     11419    3    0    1
 -2      1829      1828      3341      3566
 -1     11420    3    0    1
 -2      3398      2972      3900      3675
 -1     11421    3    0    1
 -2      1634      3800      3428      3567
 -1     11422    3    0    1
 -2      1592      1634      3428      3567
 -1     11423    3    0    1
 -2      3800      2994      3428      3567
 -1     11424    3    0    1
 -2      2994      3800      3851      3567
 -1     11425    3    0    1
 -2      1816      1423      3848      3567
 -1     11426    3    0    1
 -2      3242      1816      3848      3567
 -1     11427    3    0    1
 -2      3852      3893      3464      3568
 -1     11428    3    0    1
 -2      3852      2816      3893      3568
 -1     11429    3    0    1
 -2      2816      3155      3893      3568
 -1     11430    3    0    1
 -2      3155      2816      3178      3568
 -1     11431    3    0    1
 -2      1651      1521      3827      3569
 -1     11432    3    0    1
 -2      3620      3589      3631      3706
 -1     11433    3    0    1
 -2      1470      3423      3447      3706
 -1     11434    3    0    1
 -2      1524      3821      3881      3976
 -1     11435    3    0    1
 -2      3254      3235      3509      3980
 -1     11436    3    0    1
 -2      3881      3821      3927      3976
 -1     11437    3    0    1
 -2      1939       168      3620      3706
 -1     11438    3    0    1
 -2      1651      3827      3837      3569
 -1     11439    3    0    1
 -2      2956      3589      3620      3706
 -1     11440    3    0    1
 -2      1939      3620      3631      3706
 -1     11441    3    0    1
 -2      3795      1627      3043      1987
 -1     11442    3    0    1
 -2      3060      1460      3633      1958
 -1     11443    3    0    1
 -2      3812      2787      3693      3708
 -1     11444    3    0    1
 -2      3192      3860      1980      3639
 -1     11445    3    0    1
 -2      3838      3830      3998      4026
 -1     11446    3    0    1
 -2      1530      1531      1874      3570
 -1     11447    3    0    1
 -2      3152      1569      1958      1959
 -1     11448    3    0    1
 -2      1874      3362      1875      3570
 -1     11449    3    0    1
 -2      1530      1874      1875      3570
 -1     11450    3    0    1
 -2      3780      3819      3974      3729
 -1     11451    3    0    1
 -2      1468      1854      1855      3571
 -1     11452    3    0    1
 -2      1855      1854      3365      3571
 -1     11453    3    0    1
 -2       406       430      1996      2002
 -1     11454    3    0    1
 -2      1315       224      2454      4014
 -1     11455    3    0    1
 -2      3690      2454      4004      4014
 -1     11456    3    0    1
 -2      2374      3690      4004      4014
 -1     11457    3    0    1
 -2      3364      1556      1637      3572
 -1     11458    3    0    1
 -2      1556      3364      1637      1636
 -1     11459    3    0    1
 -2      1556      1807      1808      3572
 -1     11460    3    0    1
 -2      3235      3254      3509      3572
 -1     11461    3    0    1
 -2      1807      3167      1808      3572
 -1     11462    3    0    1
 -2      3254      3235      3456      3572
 -1     11463    3    0    1
 -2      3235      3167      3456      3572
 -1     11464    3    0    1
 -2      3167      1807      3456      3572
 -1     11465    3    0    1
 -2      3254      1556      3509      3572
 -1     11466    3    0    1
 -2      1807      1556      3456      3572
 -1     11467    3    0    1
 -2      1556      3254      3456      3572
 -1     11468    3    0    1
 -2      3322      3844      3461      3573
 -1     11469    3    0    1
 -2      1798      3322      3461      3573
 -1     11470    3    0    1
 -2      3844      1798      3278      3573
 -1     11471    3    0    1
 -2      1798      1477      3278      3573
 -1     11472    3    0    1
 -2      2580      2616      3805      3940
 -1     11473    3    0    1
 -2      2737      2580      3805      3940
 -1     11474    3    0    1
 -2      2888      2616      3848      3940
 -1     11475    3    0    1
 -2      2616      2888      3805      3940
 -1     11476    3    0    1
 -2      3805      3207      3524      3940
 -1     11477    3    0    1
 -2      3805      2888      3207      3940
 -1     11478    3    0    1
 -2      2702      2823      3848      3940
 -1     11479    3    0    1
 -2      3848      2823      3454      3940
 -1     11480    3    0    1
 -2      2984      2568      3805      3940
 -1     11481    3    0    1
 -2      3207      3086      3524      3940
 -1     11482    3    0    1
 -2      2984      3805      3524      3940
 -1     11483    3    0    1
 -2       626      2888      3848      3940
 -1     11484    3    0    1
 -2      3086       626      3454      3940
 -1     11485    3    0    1
 -2       626      3086      3207      3940
 -1     11486    3    0    1
 -2      3183      2737      3202      3940
 -1     11487    3    0    1
 -2      2729      2702      2738      3940
 -1     11488    3    0    1
 -2      2568      2702      2729      3940
 -1     11489    3    0    1
 -2      2568      2729      3019      3940
 -1     11490    3    0    1
 -2      2729      2738      3179      3940
 -1     11491    3    0    1
 -2      2580      2737      3183      3940
 -1     11492    3    0    1
 -2      2702      2752      3454      3940
 -1     11493    3    0    1
 -2      2702      2568      2752      3940
 -1     11494    3    0    1
 -2      2823      2702      3454      3940
 -1     11495    3    0    1
 -2      2752      2568      2984      3940
 -1     11496    3    0    1
 -2      3086      2752      3524      3940
 -1     11497    3    0    1
 -2      2752      2984      3524      3940
 -1     11498    3    0    1
 -2      2888       626      3207      3940
 -1     11499    3    0    1
 -2      2752      3086      3454      3940
 -1     11500    3    0    1
 -2      1546      3363      3941      1460
 -1     11501    3    0    1
 -2      2022      3707      3708      3726
 -1     11502    3    0    1
 -2      3152      2837      3363      3941
 -1     11503    3    0    1
 -2      3521      1569      1958      3941
 -1     11504    3    0    1
 -2      1460      3521      1958      3941
 -1     11505    3    0    1
 -2      3074      2832      3152      3941
 -1     11506    3    0    1
 -2      2832      2837      3152      3941
 -1     11507    3    0    1
 -2      3363      2837      3439      3941
 -1     11508    3    0    1
 -2      1294      1569      3521      3941
 -1     11509    3    0    1
 -2      2832      3147      3369      3941
 -1     11510    3    0    1
 -2      2832      2588      2837      3941
 -1     11511    3    0    1
 -2      2837      3239      3439      3941
 -1     11512    3    0    1
 -2      1770      1626      3216      3602
 -1     11513    3    0    1
 -2      3847      2725      3975      4011
 -1     11514    3    0    1
 -2      3255      3253      1984      3652
 -1     11515    3    0    1
 -2      3066      2643      3255      3652
 -1     11516    3    0    1
 -2      2739      3273      3488      4020
 -1     11517    3    0    1
 -2       511      2611      3718      3754
 -1     11518    3    0    1
 -2      3253      1935      1984      3652
 -1     11519    3    0    1
 -2      2643      1561      3253      3652
 -1     11520    3    0    1
 -2      1581      3066      3255      3652
 -1     11521    3    0    1
 -2      1582      1581      1985      3652
 -1     11522    3    0    1
 -2      1573      1751      3957      3986
 -1     11523    3    0    1
 -2      2795      3883      3438      3580
 -1     11524    3    0    1
 -2       406       949      3977      3983
 -1     11525    3    0    1
 -2        51      1920      1928      3679
 -1     11526    3    0    1
 -2      1421      3482      3587      3638
 -1     11527    3    0    1
 -2      1725      1481      3055      3611
 -1     11528    3    0    1
 -2      3777      1289      3880      3983
 -1     11529    3    0    1
 -2      3424      1928      3954      3679
 -1     11530    3    0    1
 -2      3429      1687      2000      3680
 -1     11531    3    0    1
 -2      1700        20      3662      2003
 -1     11532    3    0    1
 -2      3804      1325      3498      3981
 -1     11533    3    0    1
 -2      2838      2987      3381      3946
 -1     11534    3    0    1
 -2      3032      1913      3918      3583
 -1     11535    3    0    1
 -2      3032      1485      1913      3583
 -1     11536    3    0    1
 -2      3522      3842      3669      4015
 -1     11537    3    0    1
 -2      3218      2712      3685      4019
 -1     11538    3    0    1
 -2      1421      1422      1812      3587
 -1     11539    3    0    1
 -2      2930      3244      3953      4017
 -1     11540    3    0    1
 -2      1876      1568      3916      3736
 -1     11541    3    0    1
 -2        95      2426      3757      3769
 -1     11542    3    0    1
 -2      1665      3076      1924      4020
 -1     11543    3    0    1
 -2      1429      1924      3599      4020
 -1     11544    3    0    1
 -2      3896      1693      3938      4018
 -1     11545    3    0    1
 -2      3836      3849      3932      3945
 -1     11546    3    0    1
 -2      3849      3859      3932      3945
 -1     11547    3    0    1
 -2      3849      1952      3818      3945
 -1     11548    3    0    1
 -2      3918      3032      3583      3943
 -1     11549    3    0    1
 -2      1044       346      1949      3722
 -1     11550    3    0    1
 -2      1748      3030      3456      4008
 -1     11551    3    0    1
 -2      2746      1417      3404      3943
 -1     11552    3    0    1
 -2      3404      1417      3470      3943
 -1     11553    3    0    1
 -2      3437      3918      3583      3943
 -1     11554    3    0    1
 -2      1485      2746      3583      3943
 -1     11555    3    0    1
 -2      3032      1485      3583      3943
 -1     11556    3    0    1
 -2      1485      1417      2746      3943
 -1     11557    3    0    1
 -2      2612      2638      2754      3943
 -1     11558    3    0    1
 -2      2754      2638      3404      3943
 -1     11559    3    0    1
 -2      2638      2612      2880      3943
 -1     11560    3    0    1
 -2      2612      2754      2993      3943
 -1     11561    3    0    1
 -2      2754      3404      3418      3943
 -1     11562    3    0    1
 -2      3032      2768      3470      3943
 -1     11563    3    0    1
 -2      2768      3354      3470      3943
 -1     11564    3    0    1
 -2      2993      2754      3418      3943
 -1     11565    3    0    1
 -2      2638      2746      3404      3943
 -1     11566    3    0    1
 -2      2746      2638      3437      3943
 -1     11567    3    0    1
 -2      1417      3032      3470      3943
 -1     11568    3    0    1
 -2      2746      3437      3583      3943
 -1     11569    3    0    1
 -2      1417      1485      3032      3943
 -1     11570    3    0    1
 -2      2788      2568      3019      3944
 -1     11571    3    0    1
 -2      3026      2788      3198      3944
 -1     11572    3    0    1
 -2      2788      3019      3270      3944
 -1     11573    3    0    1
 -2      1415      2991      1888      3944
 -1     11574    3    0    1
 -2      1888      2959      3443      3944
 -1     11575    3    0    1
 -2      2950      2604      3026      3944
 -1     11576    3    0    1
 -2      3198      2788      3270      3944
 -1     11577    3    0    1
 -2      1603      1888      3443      3944
 -1     11578    3    0    1
 -2      1415      1639      2991      3944
 -1     11579    3    0    1
 -2      1592      1933      3567      3588
 -1     11580    3    0    1
 -2      2946      1486      3381      3946
 -1     11581    3    0    1
 -2      3058      2946      1758      3946
 -1     11582    3    0    1
 -2      1468      1469      1855      3654
 -1     11583    3    0    1
 -2      3297      3876      3503      3966
 -1     11584    3    0    1
 -2      3077      3297      3503      3966
 -1     11585    3    0    1
 -2      1447      3508      3600      3966
 -1     11586    3    0    1
 -2       332       736       739      3732
 -1     11587    3    0    1
 -2       332       333       736      3732
 -1     11588    3    0    1
 -2      1549      2775      3058      3946
 -1     11589    3    0    1
 -2      3381      1758      1902      3946
 -1     11590    3    0    1
 -2      1758      2946      1902      3946
 -1     11591    3    0    1
 -2      1549      3058      1758      3946
 -1     11592    3    0    1
 -2      1549      1445      2775      3946
 -1     11593    3    0    1
 -2      1324      2435      2766      4016
 -1     11594    3    0    1
 -2      1663      2946      3381      3946
 -1     11595    3    0    1
 -2       263       255      2766      4016
 -1     11596    3    0    1
 -2      2987      1827      3381      3946
 -1     11597    3    0    1
 -2      2626      2838      2946      3946
 -1     11598    3    0    1
 -2      2775      2626      2946      3946
 -1     11599    3    0    1
 -2      1758      1827      3277      3946
 -1     11600    3    0    1
 -2      1469      1468      3608      3654
 -1     11601    3    0    1
 -2      2838      1486      2946      3946
 -1     11602    3    0    1
 -2      2775      2946      3058      3946
 -1     11603    3    0    1
 -2      1051      2435      2529      4016
 -1     11604    3    0    1
 -2      1549      1758      3277      3946
 -1     11605    3    0    1
 -2      1051       267      2766      4016
 -1     11606    3    0    1
 -2      1445      1549      3277      3946
 -1     11607    3    0    1
 -2       255      1324      2766      4016
 -1     11608    3    0    1
 -2      1663      3381      1902      3946
 -1     11609    3    0    1
 -2      2946      1663      1902      3946
 -1     11610    3    0    1
 -2       626       619      3454      1978
 -1     11611    3    0    1
 -2      1320      3889      2448      3952
 -1     11612    3    0    1
 -2      1800      3497      3513      3948
 -1     11613    3    0    1
 -2      3497      1691      3513      3948
 -1     11614    3    0    1
 -2      3258      1691      3551      3948
 -1     11615    3    0    1
 -2      3473      3258      3551      3948
 -1     11616    3    0    1
 -2      3048      3258      3267      3948
 -1     11617    3    0    1
 -2      3267      3258      3473      3948
 -1     11618    3    0    1
 -2      1164      1800      3513      3948
 -1     11619    3    0    1
 -2      1800      1164      3268      3948
 -1     11620    3    0    1
 -2      1800      3268      1948      3948
 -1     11621    3    0    1
 -2      3249      1691      3258      3948
 -1     11622    3    0    1
 -2      3268      1733      1948      3948
 -1     11623    3    0    1
 -2      1691      1754      3551      3948
 -1     11624    3    0    1
 -2      1754      1691      3497      3948
 -1     11625    3    0    1
 -2      3048      3249      3258      3948
 -1     11626    3    0    1
 -2      1733      3268      1837      3948
 -1     11627    3    0    1
 -2         2      1936      1937      1970
 -1     11628    3    0    1
 -2      3477      1922      1923      1965
 -1     11629    3    0    1
 -2      2548       349      3939      1975
 -1     11630    3    0    1
 -2      1062       349      2548      1975
 -1     11631    3    0    1
 -2      3839      1427      3417      3612
 -1     11632    3    0    1
 -2      1553      1427      3839      3612
 -1     11633    3    0    1
 -2      2632      2984      3805      3593
 -1     11634    3    0    1
 -2      1062      2548      3939      1975
 -1     11635    3    0    1
 -2      2767      3165      3839      3612
 -1     11636    3    0    1
 -2      2984      2632      3055      3593
 -1     11637    3    0    1
 -2      1427      1428      3417      3612
 -1     11638    3    0    1
 -2      2716       950      3689      4013
 -1     11639    3    0    1
 -2      1542      1545      3819      3729
 -1     11640    3    0    1
 -2      1741      3523      3958      2017
 -1     11641    3    0    1
 -2      3469      1017      3958      2017
 -1     11642    3    0    1
 -2      2549       563      3765      3769
 -1     11643    3    0    1
 -2      1017       335      3958      2017
 -1     11644    3    0    1
 -2      1047      2265      3682      3989
 -1     11645    3    0    1
 -2       379       946      2491      4030
 -1     11646    3    0    1
 -2      2147       169      3994      2035
 -1     11647    3    0    1
 -2       335      1741      3958      2017
 -1     11648    3    0    1
 -2      2426       563      2549      3769
 -1     11649    3    0    1
 -2      3889      3185      3579      3731
 -1     11650    3    0    1
 -2      2871      3083      3834      3953
 -1     11651    3    0    1
 -2      2834      1809      3314      3597
 -1     11652    3    0    1
 -2      2834      1476      1809      3597
 -1     11653    3    0    1
 -2       212      1487      1960      3597
 -1     11654    3    0    1
 -2      1709      3504      2028      3739
 -1     11655    3    0    1
 -2      1642      2905      3181      3953
 -1     11656    3    0    1
 -2      2903      3135      1861      3949
 -1     11657    3    0    1
 -2      1861      3135      3450      3949
 -1     11658    3    0    1
 -2      3071      2803      3919      3949
 -1     11659    3    0    1
 -2      3135      3071      3919      3949
 -1     11660    3    0    1
 -2      3450      3318      3455      3949
 -1     11661    3    0    1
 -2      3318      2749      3455      3949
 -1     11662    3    0    1
 -2       732      3450      3455      3949
 -1     11663    3    0    1
 -2      2866      2903      3361      3949
 -1     11664    3    0    1
 -2      2575      2866      3093      3949
 -1     11665    3    0    1
 -2      2866      2803      2903      3949
 -1     11666    3    0    1
 -2      2575      2803      2866      3949
 -1     11667    3    0    1
 -2      2749      3228      3455      3949
 -1     11668    3    0    1
 -2      1840       732      3455      3949
 -1     11669    3    0    1
 -2      3093      2866      3361      3949
 -1     11670    3    0    1
 -2      1517      1840      3455      3949
 -1     11671    3    0    1
 -2      3017      2575      3093      3949
 -1     11672    3    0    1
 -2       732      1861      3450      3949
 -1     11673    3    0    1
 -2      2903      2803      3135      3949
 -1     11674    3    0    1
 -2      2803      3071      3135      3949
 -1     11675    3    0    1
 -2      2873      1586      1632      3950
 -1     11676    3    0    1
 -2      1632       804      3316      3950
 -1     11677    3    0    1
 -2       804      3256      3316      3950
 -1     11678    3    0    1
 -2      1580      3791      4006      3789
 -1     11679    3    0    1
 -2      1315      2454      2769      4014
 -1     11680    3    0    1
 -2       338       224      3695      4014
 -1     11681    3    0    1
 -2      3256       804      1849      3950
 -1     11682    3    0    1
 -2      3256      1849      3535      3950
 -1     11683    3    0    1
 -2      2769      1035      3695      4014
 -1     11684    3    0    1
 -2      2677      2598      2873      3950
 -1     11685    3    0    1
 -2      1324       255      3682      4016
 -1     11686    3    0    1
 -2      2677      2873      3316      3950
 -1     11687    3    0    1
 -2      1830      3342      3622      3965
 -1     11688    3    0    1
 -2      2594      2677      2953      3950
 -1     11689    3    0    1
 -2      3447      2956      3620      3706
 -1     11690    3    0    1
 -2      1026       734      1316      4023
 -1     11691    3    0    1
 -2      3256      2677      3316      3950
 -1     11692    3    0    1
 -2      2953      2677      3256      3950
 -1     11693    3    0    1
 -2       804      3460      3535      3950
 -1     11694    3    0    1
 -2      1522      1830      3622      3965
 -1     11695    3    0    1
 -2       734       735      1316      4023
 -1     11696    3    0    1
 -2       337       338      3695      4014
 -1     11697    3    0    1
 -2       239      1035      2374      4014
 -1     11698    3    0    1
 -2       804      1632      3460      3950
 -1     11699    3    0    1
 -2      1035       239      3695      4014
 -1     11700    3    0    1
 -2      1849       804      3535      3950
 -1     11701    3    0    1
 -2       239       337      3695      4014
 -1     11702    3    0    1
 -2      2731       492      3200      3601
 -1     11703    3    0    1
 -2      3334      1702      3900      3675
 -1     11704    3    0    1
 -2      3398      3900      3491      3675
 -1     11705    3    0    1
 -2       493      2730      2836      3601
 -1     11706    3    0    1
 -2       185       189      3987      3730
 -1     11707    3    0    1
 -2      1626      2973      3216      3602
 -1     11708    3    0    1
 -2      1947      1733      1948      3610
 -1     11709    3    0    1
 -2       212      1960      1969      3602
 -1     11710    3    0    1
 -2      2973      1626      3145      3602
 -1     11711    3    0    1
 -2      3906      3341      3600      3966
 -1     11712    3    0    1
 -2       698      1788      3264      3604
 -1     11713    3    0    1
 -2      3220      2621      3264      3604
 -1     11714    3    0    1
 -2      1466      2783      3165      3604
 -1     11715    3    0    1
 -2      3165      2783      3839      3604
 -1     11716    3    0    1
 -2      1466      3165      3839      3604
 -1     11717    3    0    1
 -2      2621      2783      3264      3604
 -1     11718    3    0    1
 -2      3048      3857      3948      3605
 -1     11719    3    0    1
 -2      3857      3048      3875      3605
 -1     11720    3    0    1
 -2      3875      3048      3532      3605
 -1     11721    3    0    1
 -2      1462      1676      3532      3605
 -1     11722    3    0    1
 -2      1837      1462      3948      3605
 -1     11723    3    0    1
 -2      3268      1837      3948      3605
 -1     11724    3    0    1
 -2      3267      3048      3948      3605
 -1     11725    3    0    1
 -2      1462      3267      3948      3605
 -1     11726    3    0    1
 -2      3267      1462      3532      3605
 -1     11727    3    0    1
 -2      3048      3267      3532      3605
 -1     11728    3    0    1
 -2       333       332      1989      3732
 -1     11729    3    0    1
 -2      1542      1858      3889      3952
 -1     11730    3    0    1
 -2      3782      1542      3889      3952
 -1     11731    3    0    1
 -2      1542      3782      1858      3952
 -1     11732    3    0    1
 -2       231      3887      1951      3952
 -1     11733    3    0    1
 -2      1951      3887      3579      3952
 -1     11734    3    0    1
 -2      1026       339      1320      3952
 -1     11735    3    0    1
 -2      1954       231      3579      3952
 -1     11736    3    0    1
 -2       231      1951      3579      3952
 -1     11737    3    0    1
 -2      3274      2750      3848      3606
 -1     11738    3    0    1
 -2      1816      3274      3848      3606
 -1     11739    3    0    1
 -2      1933      3567      3588      3606
 -1     11740    3    0    1
 -2      1423      1933      1934      3606
 -1     11741    3    0    1
 -2      1934      1933      3588      3606
 -1     11742    3    0    1
 -2      1816      1423      1817      3606
 -1     11743    3    0    1
 -2      1816      1817      3274      3606
 -1     11744    3    0    1
 -2      1933      1423      3567      3606
 -1     11745    3    0    1
 -2      3060      1569      1958      3633
 -1     11746    3    0    1
 -2      2985      1460      3393      3633
 -1     11747    3    0    1
 -2      3624      3916      4001      3736
 -1     11748    3    0    1
 -2      2849      3798      3911      4019
 -1     11749    3    0    1
 -2      3860      1673      1980      3639
 -1     11750    3    0    1
 -2       957      1294      3896      3960
 -1     11751    3    0    1
 -2      1883      3561      3574      3966
 -1     11752    3    0    1
 -2      4001      3624      3736      4027
 -1     11753    3    0    1
 -2      1883      1447      3561      3966
 -1     11754    3    0    1
 -2       958      2805      3817      3704
 -1     11755    3    0    1
 -2       122       958      3817      3704
 -1     11756    3    0    1
 -2      1693      3074      3715      4006
 -1     11757    3    0    1
 -2      3352      1487      3597      3609
 -1     11758    3    0    1
 -2      1251      1487      3352      3609
 -1     11759    3    0    1
 -2      3828      1701      3990      2011
 -1     11760    3    0    1
 -2      3088      3787      4027      4001
 -1     11761    3    0    1
 -2      2845      3223      3840      4027
 -1     11762    3    0    1
 -2      3834      3861      3875      3953
 -1     11763    3    0    1
 -2      2905      1454      3181      3953
 -1     11764    3    0    1
 -2      3974      3480      3668      3729
 -1     11765    3    0    1
 -2       406      3828      3990      2011
 -1     11766    3    0    1
 -2      3834      2822      3861      3953
 -1     11767    3    0    1
 -2      2822      2699      3861      3953
 -1     11768    3    0    1
 -2      2699      2704      3861      3953
 -1     11769    3    0    1
 -2      3861      2704      3875      3953
 -1     11770    3    0    1
 -2      2808      3083      3181      3953
 -1     11771    3    0    1
 -2      2930      2699      3231      3953
 -1     11772    3    0    1
 -2      3070      2808      3181      3953
 -1     11773    3    0    1
 -2      2699      2930      3244      3953
 -1     11774    3    0    1
 -2      1640      1641      3317      3347
 -1     11775    3    0    1
 -2      3083      1574      3181      3953
 -1     11776    3    0    1
 -2      2740      2905      3231      3953
 -1     11777    3    0    1
 -2      2699      2740      3231      3953
 -1     11778    3    0    1
 -2      1574      1642      3181      3953
 -1     11779    3    0    1
 -2      1574      3083      1810      3953
 -1     11780    3    0    1
 -2      2573      3016      3303      3993
 -1     11781    3    0    1
 -2      2740      2699      2822      3953
 -1     11782    3    0    1
 -2      3830      1435      3734      3737
 -1     11783    3    0    1
 -2      2707      2740      2822      3953
 -1     11784    3    0    1
 -2      1687      1688      2001      3680
 -1     11785    3    0    1
 -2      1746      3187      3429      3680
 -1     11786    3    0    1
 -2      2484      2531      3442      3734
 -1     11787    3    0    1
 -2      3840      3779      3986      4027
 -1     11788    3    0    1
 -2      2355      1327      3629      3738
 -1     11789    3    0    1
 -2       198      1014      3784      2014
 -1     11790    3    0    1
 -2      2909      1590      3138      3611
 -1     11791    3    0    1
 -2      2909      1647      1897      3611
 -1     11792    3    0    1
 -2      1647      2909      3233      3611
 -1     11793    3    0    1
 -2      2632      2990      3055      3611
 -1     11794    3    0    1
 -2      3846      2706      3478      3687
 -1     11795    3    0    1
 -2       554      2673      3478      3687
 -1     11796    3    0    1
 -2      2642      3119      3846      3687
 -1     11797    3    0    1
 -2       281      3939      1975      1976
 -1     11798    3    0    1
 -2       281       350      3939      1976
 -1     11799    3    0    1
 -2       351       350       787      1976
 -1     11800    3    0    1
 -2       787       350       794      1976
 -1     11801    3    0    1
 -2      3091      3826      3308      3633
 -1     11802    3    0    1
 -2      1847      1569      3525      3633
 -1     11803    3    0    1
 -2      1065      1062      3641      3686
 -1     11804    3    0    1
 -2      3809      1483      3397      3688
 -1     11805    3    0    1
 -2      1915      3408      3446      1669
 -1     11806    3    0    1
 -2      1916      1669      3446      1670
 -1     11807    3    0    1
 -2      3446      1915      1669      1916
 -1     11808    3    0    1
 -2      3408      1915      3446      3614
 -1     11809    3    0    1
 -2      2899      3036      3884      3955
 -1     11810    3    0    1
 -2      3279      3020      1943      3978
 -1     11811    3    0    1
 -2      3269      2925      3885      3663
 -1     11812    3    0    1
 -2      2850      3078      3112      3955
 -1     11813    3    0    1
 -2      3112      3078      3528      3955
 -1     11814    3    0    1
 -2      3904      3884      3592      3955
 -1     11815    3    0    1
 -2      3884      3078      3592      3955
 -1     11816    3    0    1
 -2      2850      3904      3592      3955
 -1     11817    3    0    1
 -2      3078      2850      3592      3955
 -1     11818    3    0    1
 -2      3884      3036      3555      3955
 -1     11819    3    0    1
 -2      3257      3884      3555      3955
 -1     11820    3    0    1
 -2      3036      3257      3555      3955
 -1     11821    3    0    1
 -2      3036      3116      3257      3955
 -1     11822    3    0    1
 -2      1439      2967      3238      3955
 -1     11823    3    0    1
 -2      1497      1608      3795      3978
 -1     11824    3    0    1
 -2      1657      1439      3238      3955
 -1     11825    3    0    1
 -2      1439      1655      2967      3955
 -1     11826    3    0    1
 -2      2967      1655      3116      3955
 -1     11827    3    0    1
 -2      3116      1655      3257      3955
 -1     11828    3    0    1
 -2      2637      2605      2850      3955
 -1     11829    3    0    1
 -2      3126      2976      3257      3955
 -1     11830    3    0    1
 -2      2899      2637      3238      3955
 -1     11831    3    0    1
 -2      2605      2637      2899      3955
 -1     11832    3    0    1
 -2      2637      2850      3112      3955
 -1     11833    3    0    1
 -2      2967      2899      3238      3955
 -1     11834    3    0    1
 -2       608      1867      3885      3663
 -1     11835    3    0    1
 -2      1439      3126      3257      3955
 -1     11836    3    0    1
 -2      2899      2967      3116      3955
 -1     11837    3    0    1
 -2      3036      2899      3116      3955
 -1     11838    3    0    1
 -2      3842      2925      3522      3663
 -1     11839    3    0    1
 -2      1439      1657      3126      3955
 -1     11840    3    0    1
 -2      1655      1439      3257      3955
 -1     11841    3    0    1
 -2      3285      1764      3851      3618
 -1     11842    3    0    1
 -2      2962      3285      3851      3618
 -1     11843    3    0    1
 -2      2962      1436      3285      3618
 -1     11844    3    0    1
 -2      1504      3063      3283      3618
 -1     11845    3    0    1
 -2      1504      1503      3063      3618
 -1     11846    3    0    1
 -2      1436      1764      3285      3618
 -1     11847    3    0    1
 -2      2898      2968      3304      3619
 -1     11848    3    0    1
 -2      1438      2898      3304      3619
 -1     11849    3    0    1
 -2      1761      3212      3376      3619
 -1     11850    3    0    1
 -2      1761      3376      1939      3619
 -1     11851    3    0    1
 -2      1438      1717      3094      3619
 -1     11852    3    0    1
 -2      3265      1717      1945      3619
 -1     11853    3    0    1
 -2      3094      1717      3265      3619
 -1     11854    3    0    1
 -2      2898      1438      3094      3619
 -1     11855    3    0    1
 -2       168      1761      1939      3619
 -1     11856    3    0    1
 -2      1441      3585      3986      4027
 -1     11857    3    0    1
 -2      1568      1441      3916      4027
 -1     11858    3    0    1
 -2      3807      1491      3934      3642
 -1     11859    3    0    1
 -2      1491      3472      3934      3642
 -1     11860    3    0    1
 -2      1797      1491      3909      3642
 -1     11861    3    0    1
 -2      1797      3909      1974      3642
 -1     11862    3    0    1
 -2       202       198      3784      2014
 -1     11863    3    0    1
 -2      1520      1519      1868      3725
 -1     11864    3    0    1
 -2      2787      2696      3812      3707
 -1     11865    3    0    1
 -2      2942      3807      3934      3642
 -1     11866    3    0    1
 -2      1491      3807      3909      3642
 -1     11867    3    0    1
 -2      3472      2942      3934      3642
 -1     11868    3    0    1
 -2      2787      3812      3693      3707
 -1     11869    3    0    1
 -2      2785      2655      3895      3956
 -1     11870    3    0    1
 -2      1707      1694      3493      3956
 -1     11871    3    0    1
 -2      1694      1768      3141      3956
 -1     11872    3    0    1
 -2      3141      1768      3290      3956
 -1     11873    3    0    1
 -2       680      2999      3100      3956
 -1     11874    3    0    1
 -2      3008       680      3100      3956
 -1     11875    3    0    1
 -2      3100      2964      3890      3956
 -1     11876    3    0    1
 -2      2901      2842      3290      3956
 -1     11877    3    0    1
 -2      2961      2655      3039      3956
 -1     11878    3    0    1
 -2      2655      2999      3039      3956
 -1     11879    3    0    1
 -2      3008      2901      3290      3956
 -1     11880    3    0    1
 -2      2791      2655      2961      3956
 -1     11881    3    0    1
 -2      3039      2999      3493      3956
 -1     11882    3    0    1
 -2      2961      3039      3141      3956
 -1     11883    3    0    1
 -2      1707      3008      3290      3956
 -1     11884    3    0    1
 -2      2655      2964      2999      3956
 -1     11885    3    0    1
 -2       680      3008      1707      3956
 -1     11886    3    0    1
 -2      2999      2964      3100      3956
 -1     11887    3    0    1
 -2      1694      1707      3290      3956
 -1     11888    3    0    1
 -2      1768      1694      3290      3956
 -1     11889    3    0    1
 -2      3424      2848      3954      1981
 -1     11890    3    0    1
 -2      2848      1938      3616      1981
 -1     11891    3    0    1
 -2      3954      1920      3679      3733
 -1     11892    3    0    1
 -2      1029      2376      3850      1989
 -1     11893    3    0    1
 -2      3549      1509      3553      3671
 -1     11894    3    0    1
 -2      3857      2602      3914      4017
 -1     11895    3    0    1
 -2      2704      3875      3953      4017
 -1     11896    3    0    1
 -2      2400       822      2447      3709
 -1     11897    3    0    1
 -2      1922      3490      1923      3716
 -1     11898    3    0    1
 -2      1755       214      3859      3958
 -1     11899    3    0    1
 -2      3859      3796      3908      3958
 -1     11900    3    0    1
 -2      1620      3796      3910      3958
 -1     11901    3    0    1
 -2      3796      1620      3908      3958
 -1     11902    3    0    1
 -2      2488      3796      3859      3958
 -1     11903    3    0    1
 -2      1017      2488      3859      3958
 -1     11904    3    0    1
 -2      2488      1017      3796      3958
 -1     11905    3    0    1
 -2       335      1741      3910      3958
 -1     11906    3    0    1
 -2      1741       335      3910      1966
 -1     11907    3    0    1
 -2      3469      3085      3523      3958
 -1     11908    3    0    1
 -2      1300       345      2779      4024
 -1     11909    3    0    1
 -2      1630       214      3603      3958
 -1     11910    3    0    1
 -2      1795      3469      3523      3958
 -1     11911    3    0    1
 -2      2779       991      3698      4024
 -1     11912    3    0    1
 -2      1755      1620      3170      3958
 -1     11913    3    0    1
 -2      3085      1620      1741      3958
 -1     11914    3    0    1
 -2      1313      1630      3284      3958
 -1     11915    3    0    1
 -2      1620      2977      3170      3958
 -1     11916    3    0    1
 -2      1755      3170      3603      3958
 -1     11917    3    0    1
 -2      1017      2814      3469      3958
 -1     11918    3    0    1
 -2       162       172      3994      4024
 -1     11919    3    0    1
 -2      2977      1620      3085      3958
 -1     11920    3    0    1
 -2      1313       214      1630      3958
 -1     11921    3    0    1
 -2      3085      1741      3523      3958
 -1     11922    3    0    1
 -2      2601      3341      3906      3966
 -1     11923    3    0    1
 -2      1543      3389      3409      3645
 -1     11924    3    0    1
 -2      1543       768      3389      3645
 -1     11925    3    0    1
 -2      3576      2973      3602      4008
 -1     11926    3    0    1
 -2       200       198       700      3755
 -1     11927    3    0    1
 -2       261       346       772      3722
 -1     11928    3    0    1
 -2      2599      3402      3756      4030
 -1     11929    3    0    1
 -2      3156      3992      3727      4022
 -1     11930    3    0    1
 -2      2904      2801      1863      3646
 -1     11931    3    0    1
 -2      3215        46      1872      1984
 -1     11932    3    0    1
 -2      3246      2927      3864      3651
 -1     11933    3    0    1
 -2      3317      1906      3504      3739
 -1     11934    3    0    1
 -2      1042      2163      2761      3643
 -1     11935    3    0    1
 -2      1060       807      2449      3629
 -1     11936    3    0    1
 -2       807      1060      2355      3629
 -1     11937    3    0    1
 -2       811       808      1214      3641
 -1     11938    3    0    1
 -2      2642      3846      3478      3687
 -1     11939    3    0    1
 -2       400        95      3689      4013
 -1     11940    3    0    1
 -2      1982      2022      2023      3721
 -1     11941    3    0    1
 -2      1698      3273      3488      3630
 -1     11942    3    0    1
 -2      1698       745      1699      3630
 -1     11943    3    0    1
 -2      1698      1699      3273      3630
 -1     11944    3    0    1
 -2       750      1698      3488      3630
 -1     11945    3    0    1
 -2      3780      3819      3903      3974
 -1     11946    3    0    1
 -2      1493      2897      3693      2016
 -1     11947    3    0    1
 -2      2454      2753      3690      4004
 -1     11948    3    0    1
 -2      2821      2696      3812      3691
 -1     11949    3    0    1
 -2      2681      3780      3903      3974
 -1     11950    3    0    1
 -2      3565      1468      3571      4022
 -1     11951    3    0    1
 -2      3560      3224      3992      4022
 -1     11952    3    0    1
 -2      3903      3819      3480      3974
 -1     11953    3    0    1
 -2      3124      3804      3498      3981
 -1     11954    3    0    1
 -2      1460      1546      3393      3633
 -1     11955    3    0    1
 -2      3826      3091      3880      3633
 -1     11956    3    0    1
 -2      2934      2985      3880      3633
 -1     11957    3    0    1
 -2      3308      3826      3393      3633
 -1     11958    3    0    1
 -2      3826      2985      3393      3633
 -1     11959    3    0    1
 -2      3091      1847      3880      3633
 -1     11960    3    0    1
 -2      3880      1847      3525      3633
 -1     11961    3    0    1
 -2      1569      3060      3525      3633
 -1     11962    3    0    1
 -2      2934      3880      3525      3633
 -1     11963    3    0    1
 -2      3880      2985      3907      3633
 -1     11964    3    0    1
 -2      3826      3880      3907      3633
 -1     11965    3    0    1
 -2      2985      3826      3907      3633
 -1     11966    3    0    1
 -2      2985      2934      3060      3633
 -1     11967    3    0    1
 -2      3060      2934      3525      3633
 -1     11968    3    0    1
 -2      3317      1906      1907      1640
 -1     11969    3    0    1
 -2      3938       119      3960      4018
 -1     11970    3    0    1
 -2      1797      3594      1974      1987
 -1     11971    3    0    1
 -2      2849      2887      3798      4019
 -1     11972    3    0    1
 -2      2802      3798      3534      4019
 -1     11973    3    0    1
 -2       281       349      3959      3738
 -1     11974    3    0    1
 -2      1882       119      3938      4018
 -1     11975    3    0    1
 -2      2467      3779      3223      4027
 -1     11976    3    0    1
 -2      3803      1721      3898      3713
 -1     11977    3    0    1
 -2      1673      1674      1839      3735
 -1     11978    3    0    1
 -2      1673      1839      3639      3735
 -1     11979    3    0    1
 -2      3009      3553      3549      2781
 -1     11980    3    0    1
 -2      1577      1442      3894      3636
 -1     11981    3    0    1
 -2      2893      1577      3894      3636
 -1     11982    3    0    1
 -2      1920      3954      3625      3733
 -1     11983    3    0    1
 -2       714       722      1023      1990
 -1     11984    3    0    1
 -2       213       714      1023      1990
 -1     11985    3    0    1
 -2       722       213       334      1990
 -1     11986    3    0    1
 -2       213       722       714      1990
 -1     11987    3    0    1
 -2       281       349      3939      3959
 -1     11988    3    0    1
 -2      3144      2786      3939      3959
 -1     11989    3    0    1
 -2      2548      3144      3939      3959
 -1     11990    3    0    1
 -2      2355      1327      2529      3959
 -1     11991    3    0    1
 -2      1327       351      2529      3959
 -1     11992    3    0    1
 -2      2529       351      2786      3959
 -1     11993    3    0    1
 -2      1906      1907      2028      3739
 -1     11994    3    0    1
 -2      2786      2548      3629      3959
 -1     11995    3    0    1
 -2      2355      2786      3629      3959
 -1     11996    3    0    1
 -2      2548      2786      3144      3959
 -1     11997    3    0    1
 -2      2355      2529      2786      3959
 -1     11998    3    0    1
 -2      3867      1513      3379      4010
 -1     11999    3    0    1
 -2      3492      1936      1937      3723
 -1     12000    3    0    1
 -2       182        12      1907      2028
 -1     12001    3    0    1
 -2      1813      1421      3587      3638
 -1     12002    3    0    1
 -2      1937      1936      2007      3723
 -1     12003    3    0    1
 -2      3896      3938      3960      4018
 -1     12004    3    0    1
 -2      3241      3185      3974      3668
 -1     12005    3    0    1
 -2      1029       333      1989      3732
 -1     12006    3    0    1
 -2      3889      3780      3974      3668
 -1     12007    3    0    1
 -2      2727      2774      3987      3730
 -1     12008    3    0    1
 -2      3867      2593      3912      4010
 -1     12009    3    0    1
 -2      1542      3780      3889      3668
 -1     12010    3    0    1
 -2      3185      3889      3974      3668
 -1     12011    3    0    1
 -2       409      1294      3960      4018
 -1     12012    3    0    1
 -2      3550      1993      2007      3723
 -1     12013    3    0    1
 -2      1306       185      3987      3730
 -1     12014    3    0    1
 -2      2940      3234      3881      3979
 -1     12015    3    0    1
 -2      3816      3909      3637      3963
 -1     12016    3    0    1
 -2      3909       354      1974      3963
 -1     12017    3    0    1
 -2      3912      2918      3933      4010
 -1     12018    3    0    1
 -2      3637      3816      3963      2008
 -1     12019    3    0    1
 -2         1      3637      3963      2008
 -1     12020    3    0    1
 -2      3215      1581      1984      3640
 -1     12021    3    0    1
 -2      2955      1581      3215      3640
 -1     12022    3    0    1
 -2      2907      2955      3215      3640
 -1     12023    3    0    1
 -2      1675      3215      1872      3640
 -1     12024    3    0    1
 -2      2569       816      2633      3641
 -1     12025    3    0    1
 -2       815       816      1065      3641
 -1     12026    3    0    1
 -2       507       506      2633      3641
 -1     12027    3    0    1
 -2      1214       805      1211      3641
 -1     12028    3    0    1
 -2      1211       805      3621      3641
 -1     12029    3    0    1
 -2       506      2569      2633      3641
 -1     12030    3    0    1
 -2      1214       506       507      3641
 -1     12031    3    0    1
 -2       816      2569      3621      3641
 -1     12032    3    0    1
 -2      1065       816      3621      3641
 -1     12033    3    0    1
 -2       506      1214      1211      3641
 -1     12034    3    0    1
 -2      2569       506      3621      3641
 -1     12035    3    0    1
 -2       506      1211      3621      3641
 -1     12036    3    0    1
 -2      1941       284      1942      1994
 -1     12037    3    0    1
 -2      3430      1941      1942      1994
 -1     12038    3    0    1
 -2       352      1567      3971      3845
 -1     12039    3    0    1
 -2      2417      2725      3921      3972
 -1     12040    3    0    1
 -2      1335      3795      3199      3972
 -1     12041    3    0    1
 -2      3074      1569      1847      4006
 -1     12042    3    0    1
 -2      2613      3842      3332      3965
 -1     12043    3    0    1
 -2      3920      1718      1962      3961
 -1     12044    3    0    1
 -2      1434      1718      3920      3961
 -1     12045    3    0    1
 -2      3920      1962      3947      3961
 -1     12046    3    0    1
 -2      1652      1449      3862      3961
 -1     12047    3    0    1
 -2      2882      2987      3261      3965
 -1     12048    3    0    1
 -2      2626      2838      3946      3965
 -1     12049    3    0    1
 -2      1962       245      3947      3961
 -1     12050    3    0    1
 -2      3582      2998      3627      3961
 -1     12051    3    0    1
 -2      1718      3582      3627      3961
 -1     12052    3    0    1
 -2      2681      2404      3506      3961
 -1     12053    3    0    1
 -2      2435      1324      3682      4016
 -1     12054    3    0    1
 -2      1962      1718      3627      3961
 -1     12055    3    0    1
 -2      1718      1434      3582      3961
 -1     12056    3    0    1
 -2      2435      3682      3697      4016
 -1     12057    3    0    1
 -2      2667      3842      3540      3965
 -1     12058    3    0    1
 -2       245      1962      3627      3961
 -1     12059    3    0    1
 -2      3190      1429      3860      4020
 -1     12060    3    0    1
 -2      2904       662      3329      3646
 -1     12061    3    0    1
 -2      2582      2997      3076      4020
 -1     12062    3    0    1
 -2       550      2565      2599      4030
 -1     12063    3    0    1
 -2      1702      1703      1937      3647
 -1     12064    3    0    1
 -2      1703      1702      3491      3647
 -1     12065    3    0    1
 -2      1775      3405      1970      3647
 -1     12066    3    0    1
 -2      2656      2284      3337      3962
 -1     12067    3    0    1
 -2       763       768      3648      3742
 -1     12068    3    0    1
 -2      2284      2885      3337      3962
 -1     12069    3    0    1
 -2       973      2656      3962      3741
 -1     12070    3    0    1
 -2       410      3863      1997      1998
 -1     12071    3    0    1
 -2       410       143      3863      1998
 -1     12072    3    0    1
 -2       614       133       143      1998
 -1     12073    3    0    1
 -2       133       614       606      1998
 -1     12074    3    0    1
 -2      3871      2739      3488      4020
 -1     12075    3    0    1
 -2      3076      1665      3273      4020
 -1     12076    3    0    1
 -2      3190      3860      3864      4020
 -1     12077    3    0    1
 -2      1608      1497      3870      3751
 -1     12078    3    0    1
 -2       255      1044      1047      3763
 -1     12079    3    0    1
 -2      1641      1640      1907      3649
 -1     12080    3    0    1
 -2      1640      1641      3426      3649
 -1     12081    3    0    1
 -2      3304      1706      1879      3649
 -1     12082    3    0    1
 -2      1285      2369      3923      4021
 -1     12083    3    0    1
 -2      3294      1221      1890      3650
 -1     12084    3    0    1
 -2      3294      1890      3429      3650
 -1     12085    3    0    1
 -2      1974         1      3637      3963
 -1     12086    3    0    1
 -2       356       353      3928      3678
 -1     12087    3    0    1
 -2      1974      3637      3642      3963
 -1     12088    3    0    1
 -2       780       779      2611      3754
 -1     12089    3    0    1
 -2      1497      3786      3870      3751
 -1     12090    3    0    1
 -2      2840      1450      3246      3651
 -1     12091    3    0    1
 -2      1450      2840      2900      3651
 -1     12092    3    0    1
 -2      3718       769      3754      3763
 -1     12093    3    0    1
 -2      1543      2900      3648      3651
 -1     12094    3    0    1
 -2      2819      2840      3864      3651
 -1     12095    3    0    1
 -2      2900      2819      3864      3651
 -1     12096    3    0    1
 -2      3847      3786      3975      3751
 -1     12097    3    0    1
 -2      2840      2819      2900      3651
 -1     12098    3    0    1
 -2      3975      3507      3743      3751
 -1     12099    3    0    1
 -2      3253      1561      1935      3652
 -1     12100    3    0    1
 -2      1581      3255      1984      3652
 -1     12101    3    0    1
 -2       125       962      2020      3749
 -1     12102    3    0    1
 -2       405       125      2020      3749
 -1     12103    3    0    1
 -2      3269      1659      3893      3714
 -1     12104    3    0    1
 -2       550       557      2565      4030
 -1     12105    3    0    1
 -2      2772      1473      3502      3964
 -1     12106    3    0    1
 -2      1512      1701      3977      3696
 -1     12107    3    0    1
 -2       450      2718      2009      2010
 -1     12108    3    0    1
 -2      3011      3814      3174      3964
 -1     12109    3    0    1
 -2      3174      3814      3358      3964
 -1     12110    3    0    1
 -2      2682      3174      3358      3964
 -1     12111    3    0    1
 -2      2682      3358      1895      3964
 -1     12112    3    0    1
 -2      2718      2682      1895      3964
 -1     12113    3    0    1
 -2      2197      2524      2570      4002
 -1     12114    3    0    1
 -2       554      2718      1895      3964
 -1     12115    3    0    1
 -2      2607      2606      3156      3964
 -1     12116    3    0    1
 -2      2607      2683      3121      3964
 -1     12117    3    0    1
 -2      3121      2683      3502      3964
 -1     12118    3    0    1
 -2      2624      2598      2677      3964
 -1     12119    3    0    1
 -2      2624      2677      2682      3964
 -1     12120    3    0    1
 -2      2628      3121      3358      3964
 -1     12121    3    0    1
 -2      2628      2607      3121      3964
 -1     12122    3    0    1
 -2      2598      2624      2770      3964
 -1     12123    3    0    1
 -2      2677      2594      2682      3964
 -1     12124    3    0    1
 -2      2624      2682      2718      3964
 -1     12125    3    0    1
 -2      2682      2594      3011      3964
 -1     12126    3    0    1
 -2      3121       554      3358      3964
 -1     12127    3    0    1
 -2      1473      3121      3502      3964
 -1     12128    3    0    1
 -2      2770      2624      2772      3964
 -1     12129    3    0    1
 -2      2682      3011      3174      3964
 -1     12130    3    0    1
 -2      3358       554      1895      3964
 -1     12131    3    0    1
 -2      3156      2606      3460      3964
 -1     12132    3    0    1
 -2      1830      3367      3526      3965
 -1     12133    3    0    1
 -2      2695      2613      3332      3965
 -1     12134    3    0    1
 -2      2695      3332      3342      3965
 -1     12135    3    0    1
 -2      2695      3342      3556      3965
 -1     12136    3    0    1
 -2      2626      2695      2838      3965
 -1     12137    3    0    1
 -2      2435      1051      2766      4016
 -1     12138    3    0    1
 -2      1725      1481      3526      3965
 -1     12139    3    0    1
 -2      1830      1522      3367      3965
 -1     12140    3    0    1
 -2      1481      1830      3526      3965
 -1     12141    3    0    1
 -2      3342      3332      3622      3965
 -1     12142    3    0    1
 -2       267      2529      2715      4016
 -1     12143    3    0    1
 -2      3367      1522      3540      3965
 -1     12144    3    0    1
 -2      1828      1447      3600      3966
 -1     12145    3    0    1
 -2      2601      3077      3248      3966
 -1     12146    3    0    1
 -2      3561      3307      3574      3966
 -1     12147    3    0    1
 -2      1600      1828      3600      3966
 -1     12148    3    0    1
 -2      2601      3248      3341      3966
 -1     12149    3    0    1
 -2      1640      1742      3347      3967
 -1     12150    3    0    1
 -2      3272      3065      3374      3967
 -1     12151    3    0    1
 -2      2897      1821      3504      3967
 -1     12152    3    0    1
 -2      2784      3065      3272      3967
 -1     12153    3    0    1
 -2      2864      2636      3317      3967
 -1     12154    3    0    1
 -2      2680      2636      2864      3967
 -1     12155    3    0    1
 -2      1821      1866      3504      3967
 -1     12156    3    0    1
 -2      1821      3272      1866      3967
 -1     12157    3    0    1
 -2      1821      1140      3272      3967
 -1     12158    3    0    1
 -2      2897      1140      1821      3967
 -1     12159    3    0    1
 -2      2636      1493      3317      3967
 -1     12160    3    0    1
 -2      1493      2897      3504      3967
 -1     12161    3    0    1
 -2       900      1140      2897      3967
 -1     12162    3    0    1
 -2      1640      3272      3374      3967
 -1     12163    3    0    1
 -2      2864      3317      3347      3967
 -1     12164    3    0    1
 -2      2680      2864      3143      3967
 -1     12165    3    0    1
 -2      3272      1640      1866      3967
 -1     12166    3    0    1
 -2      1140      2784      3272      3967
 -1     12167    3    0    1
 -2      1742      1640      3374      3967
 -1     12168    3    0    1
 -2      1640      3504      1866      3967
 -1     12169    3    0    1
 -2       554      3478      2009      3687
 -1     12170    3    0    1
 -2       278       812       805      3658
 -1     12171    3    0    1
 -2       812       278       282      3658
 -1     12172    3    0    1
 -2      3295      3306      3919      3659
 -1     12173    3    0    1
 -2      1687      3429      3650      3659
 -1     12174    3    0    1
 -2      1687      3187      3429      3659
 -1     12175    3    0    1
 -2      1856       402      3968      4021
 -1     12176    3    0    1
 -2      1285       949      2369      4021
 -1     12177    3    0    1
 -2       402      1285      3968      4021
 -1     12178    3    0    1
 -2      2369      3877      3923      4021
 -1     12179    3    0    1
 -2      2369       949      3899      4021
 -1     12180    3    0    1
 -2      3312       402      1856      4021
 -1     12181    3    0    1
 -2      1711      3153      1856      4021
 -1     12182    3    0    1
 -2      1512      3899      3977      4021
 -1     12183    3    0    1
 -2      3923      3877      3968      4021
 -1     12184    3    0    1
 -2      3843      2369      3899      4021
 -1     12185    3    0    1
 -2      1512      1701      3828      4021
 -1     12186    3    0    1
 -2      3153      3828      3312      4021
 -1     12187    3    0    1
 -2      3153      3312      1856      4021
 -1     12188    3    0    1
 -2      3810      3791      3855      3969
 -1     12189    3    0    1
 -2      3582      3241      3974      3676
 -1     12190    3    0    1
 -2      3788      2535      3810      3969
 -1     12191    3    0    1
 -2       406       430      2002      3983
 -1     12192    3    0    1
 -2      1289      3777      3899      3983
 -1     12193    3    0    1
 -2      2756      2828      3209      3969
 -1     12194    3    0    1
 -2      3868      3810      3922      3969
 -1     12195    3    0    1
 -2      3855      1859      3922      3969
 -1     12196    3    0    1
 -2      3788      1585      3432      3969
 -1     12197    3    0    1
 -2      1585      3788      3810      3969
 -1     12198    3    0    1
 -2      3432      2828      3894      3969
 -1     12199    3    0    1
 -2      3788      3432      3894      3969
 -1     12200    3    0    1
 -2      2828      3788      3894      3969
 -1     12201    3    0    1
 -2      1580      3789      3484      3969
 -1     12202    3    0    1
 -2      3789      1580      3791      3969
 -1     12203    3    0    1
 -2      1580      1724      3855      3969
 -1     12204    3    0    1
 -2      3855      1724      1859      3969
 -1     12205    3    0    1
 -2       129      3868      3922      3969
 -1     12206    3    0    1
 -2      3868       129      3479      3969
 -1     12207    3    0    1
 -2      1859       129      3922      3969
 -1     12208    3    0    1
 -2      3209      3432      3479      3969
 -1     12209    3    0    1
 -2      3209      3479      3484      3969
 -1     12210    3    0    1
 -2      2756      2535      2828      3969
 -1     12211    3    0    1
 -2      3432      1661      3479      3969
 -1     12212    3    0    1
 -2      1585      1661      3432      3969
 -1     12213    3    0    1
 -2      3479      1724      3484      3969
 -1     12214    3    0    1
 -2      1724      1580      3484      3969
 -1     12215    3    0    1
 -2      1859      1724      3479      3969
 -1     12216    3    0    1
 -2       129      1859      3479      3969
 -1     12217    3    0    1
 -2      2690      2577      3104      3970
 -1     12218    3    0    1
 -2      3254      3300      3456      3980
 -1     12219    3    0    1
 -2      2576      2782      3831      3980
 -1     12220    3    0    1
 -2      3104      3114      3154      3970
 -1     12221    3    0    1
 -2      3220      3831      3441      3980
 -1     12222    3    0    1
 -2      2577      2690      2841      3970
 -1     12223    3    0    1
 -2      2621      2783      3604      3980
 -1     12224    3    0    1
 -2      2841      2690      3180      3970
 -1     12225    3    0    1
 -2       284       352      3971      3973
 -1     12226    3    0    1
 -2      3845      3806      3921      3972
 -1     12227    3    0    1
 -2      2270      2878      3507      3975
 -1     12228    3    0    1
 -2      3847      3795      3870      3972
 -1     12229    3    0    1
 -2       352      3845      3971      3972
 -1     12230    3    0    1
 -2       352      1059      3845      3972
 -1     12231    3    0    1
 -2      3126      3371      3955      3662
 -1     12232    3    0    1
 -2      2725      2417      3199      3972
 -1     12233    3    0    1
 -2      1059       352      1335      3972
 -1     12234    3    0    1
 -2      1868      1867      3401      3725
 -1     12235    3    0    1
 -2      1824      3307      3574      3665
 -1     12236    3    0    1
 -2      3371      3955      3662      3664
 -1     12237    3    0    1
 -2      3371      2637      3955      3664
 -1     12238    3    0    1
 -2      3112      2637      3528      3664
 -1     12239    3    0    1
 -2      1492      3112      3528      3664
 -1     12240    3    0    1
 -2      2637      3371      3528      3664
 -1     12241    3    0    1
 -2      1910      1492      3662      3664
 -1     12242    3    0    1
 -2      1492      3371      3662      3664
 -1     12243    3    0    1
 -2      3371      1492      3528      3664
 -1     12244    3    0    1
 -2      1825      1824      3574      3665
 -1     12245    3    0    1
 -2      1835      3395      1932      3665
 -1     12246    3    0    1
 -2        51      1920      3581      3666
 -1     12247    3    0    1
 -2      1873        51      3581      3666
 -1     12248    3    0    1
 -2      2870      3778      3865      4023
 -1     12249    3    0    1
 -2      3984       335      3985      4023
 -1     12250    3    0    1
 -2      2488      2870      3796      4023
 -1     12251    3    0    1
 -2      2448      1026      3778      4023
 -1     12252    3    0    1
 -2      3836      3303      3348      3993
 -1     12253    3    0    1
 -2      3899      1512      3977      3696
 -1     12254    3    0    1
 -2       734      1026      3527      4023
 -1     12255    3    0    1
 -2      3839      1427      2022      3721
 -1     12256    3    0    1
 -2      2598      3950      3992      4022
 -1     12257    3    0    1
 -2      3950      2873      3727      4022
 -1     12258    3    0    1
 -2      3506      2681      3961      3974
 -1     12259    3    0    1
 -2      1325      1041      3902      3981
 -1     12260    3    0    1
 -2      1041      1325      3804      3981
 -1     12261    3    0    1
 -2      2681      3903      3920      3974
 -1     12262    3    0    1
 -2      2681      3920      3961      3974
 -1     12263    3    0    1
 -2      3016      3185      3889      3974
 -1     12264    3    0    1
 -2      2619      3016      3889      3974
 -1     12265    3    0    1
 -2      3016      2469      3185      3974
 -1     12266    3    0    1
 -2      2534      2469      3241      3974
 -1     12267    3    0    1
 -2      2469      2534      3185      3974
 -1     12268    3    0    1
 -2      3903      1434      3920      3974
 -1     12269    3    0    1
 -2      3920      1434      3961      3974
 -1     12270    3    0    1
 -2      1718      1434      3920      3981
 -1     12271    3    0    1
 -2      3241      2998      3582      3974
 -1     12272    3    0    1
 -2      2619      2681      3506      3974
 -1     12273    3    0    1
 -2      2469      2619      3506      3974
 -1     12274    3    0    1
 -2      3142      1683      1880      3669
 -1     12275    3    0    1
 -2      2941      1041      3804      3981
 -1     12276    3    0    1
 -2       267      1051      2529      4016
 -1     12277    3    0    1
 -2      3185      2534      3241      3974
 -1     12278    3    0    1
 -2      2619      2469      3016      3974
 -1     12279    3    0    1
 -2      2693      1483      3880      3744
 -1     12280    3    0    1
 -2      3329      2904      3646      4019
 -1     12281    3    0    1
 -2       409      1882      3715      4006
 -1     12282    3    0    1
 -2      1724      3815      3260      4006
 -1     12283    3    0    1
 -2      2922      3975      2270      3507
 -1     12284    3    0    1
 -2      1569      3074      3941      4006
 -1     12285    3    0    1
 -2      2693      3907      3575      3744
 -1     12286    3    0    1
 -2      1908      3681      3745      3753
 -1     12287    3    0    1
 -2      1580      1724      3147      4006
 -1     12288    3    0    1
 -2      3911      3218      3685      4019
 -1     12289    3    0    1
 -2      1995      1986      2002      3744
 -1     12290    3    0    1
 -2      3880      1986      1995      3744
 -1     12291    3    0    1
 -2      3872      3815      3941      4012
 -1     12292    3    0    1
 -2      3880      1483      1986      3744
 -1     12293    3    0    1
 -2      2922      3507      3569      3975
 -1     12294    3    0    1
 -2      2693      3880      3907      3744
 -1     12295    3    0    1
 -2      1567      1994      3971      3752
 -1     12296    3    0    1
 -2      1531      3880      1995      3744
 -1     12297    3    0    1
 -2      2832      3815      3941      4006
 -1     12298    3    0    1
 -2      1996      1995      2002      3744
 -1     12299    3    0    1
 -2      2798      2857      3092      3976
 -1     12300    3    0    1
 -2      2844      3831      3220      3980
 -1     12301    3    0    1
 -2      1885      1576      3661      3976
 -1     12302    3    0    1
 -2       186      1696      3406      3976
 -1     12303    3    0    1
 -2      1696      1564      3406      3976
 -1     12304    3    0    1
 -2      3743      3975      3751      3762
 -1     12305    3    0    1
 -2      1683      3142      3458      3669
 -1     12306    3    0    1
 -2      3142      3410      3885      3669
 -1     12307    3    0    1
 -2      3142      1880      3410      3669
 -1     12308    3    0    1
 -2       267      2715      3989      4016
 -1     12309    3    0    1
 -2       255       263      3989      4016
 -1     12310    3    0    1
 -2      1752      3279      1943      3978
 -1     12311    3    0    1
 -2      3279      1752      3615      3978
 -1     12312    3    0    1
 -2      3000      2877      3888      3978
 -1     12313    3    0    1
 -2      1627      1497      3795      3978
 -1     12314    3    0    1
 -2      1942      1608      3615      3978
 -1     12315    3    0    1
 -2       352      1608      1942      3978
 -1     12316    3    0    1
 -2       352      1335      3973      3978
 -1     12317    3    0    1
 -2      1752      1942      3615      3978
 -1     12318    3    0    1
 -2      1627      3795      3043      3978
 -1     12319    3    0    1
 -2      2877      3043      3888      3978
 -1     12320    3    0    1
 -2      1608       352      3973      3978
 -1     12321    3    0    1
 -2      1335      3795      3972      3978
 -1     12322    3    0    1
 -2      1335      3972      3973      3978
 -1     12323    3    0    1
 -2      3888      3043      1987      3978
 -1     12324    3    0    1
 -2      3795      3888      1987      3978
 -1     12325    3    0    1
 -2      3043      3795      1987      3978
 -1     12326    3    0    1
 -2      3795      1608      3870      3978
 -1     12327    3    0    1
 -2      3870      1608      3973      3978
 -1     12328    3    0    1
 -2      3795      3870      3972      3978
 -1     12329    3    0    1
 -2      3972      3870      3973      3978
 -1     12330    3    0    1
 -2      3020      1335      1942      3978
 -1     12331    3    0    1
 -2      2652      1335      3020      3978
 -1     12332    3    0    1
 -2      2851      3279      3440      3978
 -1     12333    3    0    1
 -2      2877      2851      3440      3978
 -1     12334    3    0    1
 -2      1497      2877      3440      3978
 -1     12335    3    0    1
 -2      1608      1497      3440      3978
 -1     12336    3    0    1
 -2      1335       352      1942      3978
 -1     12337    3    0    1
 -2      1752      3020      1942      3978
 -1     12338    3    0    1
 -2      3020      1752      1943      3978
 -1     12339    3    0    1
 -2      3440      3279      3615      3978
 -1     12340    3    0    1
 -2      2851      2877      3000      3978
 -1     12341    3    0    1
 -2      1497      1627      2877      3978
 -1     12342    3    0    1
 -2      1608      3440      3615      3978
 -1     12343    3    0    1
 -2      2877      1627      3043      3978
 -1     12344    3    0    1
 -2      2940      2591      3234      3979
 -1     12345    3    0    1
 -2      3406      3881      3979      2940
 -1     12346    3    0    1
 -2      2692      3324      3406      3979
 -1     12347    3    0    1
 -2      2692      3406      3976      3979
 -1     12348    3    0    1
 -2      3331      3234      3453      3979
 -1     12349    3    0    1
 -2      3234      2889      3453      3979
 -1     12350    3    0    1
 -2      2577      3005      3105      3979
 -1     12351    3    0    1
 -2      3105      3005      3130      3979
 -1     12352    3    0    1
 -2      2577      2796      3005      3979
 -1     12353    3    0    1
 -2      1768      3331      3453      3979
 -1     12354    3    0    1
 -2      3005      3021      3130      3979
 -1     12355    3    0    1
 -2      3104      3105      3114      3979
 -1     12356    3    0    1
 -2      3104      2577      3105      3979
 -1     12357    3    0    1
 -2      2796      2692      3005      3979
 -1     12358    3    0    1
 -2      2592      2889      3234      3979
 -1     12359    3    0    1
 -2      2692      2734      3005      3979
 -1     12360    3    0    1
 -2      3005      2734      3021      3979
 -1     12361    3    0    1
 -2      1768      1506      3331      3979
 -1     12362    3    0    1
 -2      2591      2940      3276      3979
 -1     12363    3    0    1
 -2      3324      2940      3406      3979
 -1     12364    3    0    1
 -2      3840      2484      3442      4026
 -1     12365    3    0    1
 -2      2578      2621      2835      3980
 -1     12366    3    0    1
 -2      2576      2621      2782      3980
 -1     12367    3    0    1
 -2      2835      2576      3235      3980
 -1     12368    3    0    1
 -2      2833      3220      3604      3980
 -1     12369    3    0    1
 -2      2736      2929      3172      3980
 -1     12370    3    0    1
 -2      3167      2835      3235      3980
 -1     12371    3    0    1
 -2      1779       234      3902      3981
 -1     12372    3    0    1
 -2      3902       234      3498      3981
 -1     12373    3    0    1
 -2      1594      2879      3041      3981
 -1     12374    3    0    1
 -2      3210      3243      3886      3699
 -1     12375    3    0    1
 -2      1479      2880      3229      3996
 -1     12376    3    0    1
 -2      2880      2638      3943      3996
 -1     12377    3    0    1
 -2      3383      3210      3886      3699
 -1     12378    3    0    1
 -2      3920       250      1962      3981
 -1     12379    3    0    1
 -2      1718      3920      1962      3981
 -1     12380    3    0    1
 -2      3210      1712      3243      3699
 -1     12381    3    0    1
 -2      1712      1603      3243      3699
 -1     12382    3    0    1
 -2      3122      2879      3414      3981
 -1     12383    3    0    1
 -2      1594      3122      3414      3981
 -1     12384    3    0    1
 -2      2879      1594      3414      3981
 -1     12385    3    0    1
 -2       250      1594      3041      3981
 -1     12386    3    0    1
 -2       250      3041      1962      3981
 -1     12387    3    0    1
 -2      2879      1434      1718      3981
 -1     12388    3    0    1
 -2      1434      2879      3124      3981
 -1     12389    3    0    1
 -2      1434      3124      1779      3981
 -1     12390    3    0    1
 -2      2879      1718      3041      3981
 -1     12391    3    0    1
 -2      1041      2941      3122      3981
 -1     12392    3    0    1
 -2      1594      1041      3122      3981
 -1     12393    3    0    1
 -2      2879      2631      3124      3981
 -1     12394    3    0    1
 -2      1779      3124      3477      3981
 -1     12395    3    0    1
 -2      3041      1718      1962      3981
 -1     12396    3    0    1
 -2       250      1041      1594      3981
 -1     12397    3    0    1
 -2      1888      3383      3886      3699
 -1     12398    3    0    1
 -2      3096      1837      3610      3982
 -1     12399    3    0    1
 -2      1837      3096      3580      3982
 -1     12400    3    0    1
 -2      3438      2795      3580      3982
 -1     12401    3    0    1
 -2      3096      3438      3580      3982
 -1     12402    3    0    1
 -2      3271      1814      3580      3982
 -1     12403    3    0    1
 -2      2700      3096      3368      3982
 -1     12404    3    0    1
 -2      1472      2700      3368      3982
 -1     12405    3    0    1
 -2      3368      3096      3610      3982
 -1     12406    3    0    1
 -2      3227      1472      3319      3982
 -1     12407    3    0    1
 -2      1814      1733      3580      3982
 -1     12408    3    0    1
 -2      1814      3227      3319      3982
 -1     12409    3    0    1
 -2      1733      1814      1948      3982
 -1     12410    3    0    1
 -2      2700      2795      3096      3982
 -1     12411    3    0    1
 -2      1733      1837      3580      3982
 -1     12412    3    0    1
 -2      3096      2795      3438      3982
 -1     12413    3    0    1
 -2      1986      3777      3880      3983
 -1     12414    3    0    1
 -2      3777      1986      3880      1483
 -1     12415    3    0    1
 -2      3864      2900      3651      4028
 -1     12416    3    0    1
 -2      3577      3864      3651      4028
 -1     12417    3    0    1
 -2       768      1543      3648      4028
 -1     12418    3    0    1
 -2       949       406      1289      3983
 -1     12419    3    0    1
 -2      3779      1441      1573      3986
 -1     12420    3    0    1
 -2      1883      3914      3677      3681
 -1     12421    3    0    1
 -2       769       776      1245      3754
 -1     12422    3    0    1
 -2      1824      1883      3677      3681
 -1     12423    3    0    1
 -2      1047      2265      2480      3682
 -1     12424    3    0    1
 -2       255      1047      2480      3682
 -1     12425    3    0    1
 -2      3887      1845      3929      3683
 -1     12426    3    0    1
 -2      1669      1670      1916      3683
 -1     12427    3    0    1
 -2      1670      1669      3315      3683
 -1     12428    3    0    1
 -2      3422      1915      3929      3683
 -1     12429    3    0    1
 -2      2894      1669      3422      3683
 -1     12430    3    0    1
 -2      2894      3422      3929      3683
 -1     12431    3    0    1
 -2      3422      1669      1915      3683
 -1     12432    3    0    1
 -2      2496      1053      2715      3989
 -1     12433    3    0    1
 -2      1053       267      2715      3989
 -1     12434    3    0    1
 -2      1553      2821      1467      1466
 -1     12435    3    0    1
 -2      3303      3016      3564      3993
 -1     12436    3    0    1
 -2       339      1916      1951      1915
 -1     12437    3    0    1
 -2      3865      3910      3985      3993
 -1     12438    3    0    1
 -2      3796      3836      3348      3993
 -1     12439    3    0    1
 -2      2761      2411      3536      4000
 -1     12440    3    0    1
 -2      2480       346      3536      4000
 -1     12441    3    0    1
 -2       395       347      3643      4000
 -1     12442    3    0    1
 -2      2163      2411      2761      4000
 -1     12443    3    0    1
 -2      3820      3536      2480      2760
 -1     12444    3    0    1
 -2       347      1319      3643      4000
 -1     12445    3    0    1
 -2       346       261      3643      4000
 -1     12446    3    0    1
 -2      1042       346      3643      4000
 -1     12447    3    0    1
 -2       180      1885      3927      3986
 -1     12448    3    0    1
 -2      3927      1885      3586      3986
 -1     12449    3    0    1
 -2      1751       180      3957      3986
 -1     12450    3    0    1
 -2      3585      2845      3586      3986
 -1     12451    3    0    1
 -2      3326      3804      3871      4028
 -1     12452    3    0    1
 -2      2871      3834      3857      4017
 -1     12453    3    0    1
 -2      1751      1573      3585      3986
 -1     12454    3    0    1
 -2      1573      1441      3585      3986
 -1     12455    3    0    1
 -2      1751      3585      3586      3986
 -1     12456    3    0    1
 -2      2809      2698      3871      4028
 -1     12457    3    0    1
 -2      1885       180      3586      3986
 -1     12458    3    0    1
 -2       180      1751      3586      3986
 -1     12459    3    0    1
 -2      2775      1445      3495      4015
 -1     12460    3    0    1
 -2       185       678      1005      2013
 -1     12461    3    0    1
 -2      3842      2902      3946      4015
 -1     12462    3    0    1
 -2      3408      1669      1915      3988
 -1     12463    3    0    1
 -2      1669      3408      3446      3988
 -1     12464    3    0    1
 -2      3228      1832      3330      3988
 -1     12465    3    0    1
 -2      3330      1832      3446      3988
 -1     12466    3    0    1
 -2      2608      2922      2998      4005
 -1     12467    3    0    1
 -2      3827      3898      3705      4005
 -1     12468    3    0    1
 -2      3569      3827      3705      4005
 -1     12469    3    0    1
 -2      1915       339      3614      3988
 -1     12470    3    0    1
 -2       339      1858      3614      3988
 -1     12471    3    0    1
 -2      1832      1669      3446      3988
 -1     12472    3    0    1
 -2      1858       339      3952      3988
 -1     12473    3    0    1
 -2      3782      1858      3952      3988
 -1     12474    3    0    1
 -2      1320      3782      3952      3988
 -1     12475    3    0    1
 -2       339      1320      3952      3988
 -1     12476    3    0    1
 -2      2749      1320      3228      3988
 -1     12477    3    0    1
 -2      2917      3330      3408      3988
 -1     12478    3    0    1
 -2      1542      2917      3408      3988
 -1     12479    3    0    1
 -2      1034      2935      3496      3988
 -1     12480    3    0    1
 -2      2917      1542      3120      3988
 -1     12481    3    0    1
 -2      3228      1320      1915      3988
 -1     12482    3    0    1
 -2      3408      3330      3446      3988
 -1     12483    3    0    1
 -2      1858      1542      3408      3988
 -1     12484    3    0    1
 -2      2720      2608      3790      4005
 -1     12485    3    0    1
 -2      1858      3408      3614      3988
 -1     12486    3    0    1
 -2      1669      3228      1915      3988
 -1     12487    3    0    1
 -2      1320       339      1915      3988
 -1     12488    3    0    1
 -2      3228      1669      1832      3988
 -1     12489    3    0    1
 -2      1053       267      3989      2032
 -1     12490    3    0    1
 -2       267       348      3989      2032
 -1     12491    3    0    1
 -2      2265      2496      2715      3989
 -1     12492    3    0    1
 -2      2265      2715      3682      3989
 -1     12493    3    0    1
 -2       345      2521      2779      4024
 -1     12494    3    0    1
 -2      1865      1548      3929      4023
 -1     12495    3    0    1
 -2      1026      2448      3527      4023
 -1     12496    3    0    1
 -2      3460      3156      3950      3727
 -1     12497    3    0    1
 -2      3950      3156      3992      3727
 -1     12498    3    0    1
 -2      1701      1512      3828      3990
 -1     12499    3    0    1
 -2      1454      3181      3953      3990
 -1     12500    3    0    1
 -2      2740      2905      3953      3990
 -1     12501    3    0    1
 -2      3452      1531      3570      3990
 -1     12502    3    0    1
 -2      1874      3362      3570      3990
 -1     12503    3    0    1
 -2      1454      3362      1874      3990
 -1     12504    3    0    1
 -2      2905      1454      3953      3990
 -1     12505    3    0    1
 -2      1454      2905      3362      3990
 -1     12506    3    0    1
 -2      1531      1874      3570      3990
 -1     12507    3    0    1
 -2      2743      2707      2822      3990
 -1     12508    3    0    1
 -2      1512      2707      2743      3990
 -1     12509    3    0    1
 -2      2707      1512      3452      3990
 -1     12510    3    0    1
 -2      3362      2707      3452      3990
 -1     12511    3    0    1
 -2      2740      2707      3362      3990
 -1     12512    3    0    1
 -2      3070      1531      1995      3990
 -1     12513    3    0    1
 -2       406      3070      1995      3990
 -1     12514    3    0    1
 -2      1512      1701      3452      3990
 -1     12515    3    0    1
 -2      3362      3452      3570      3990
 -1     12516    3    0    1
 -2      1454      3070      3181      3990
 -1     12517    3    0    1
 -2      2905      2740      3362      3990
 -1     12518    3    0    1
 -2      3070      1454      1874      3990
 -1     12519    3    0    1
 -2      1531      3070      1874      3990
 -1     12520    3    0    1
 -2      3804      2809      3871      4028
 -1     12521    3    0    1
 -2      1427      1553      2787      3691
 -1     12522    3    0    1
 -2      3778      1026      3929      4023
 -1     12523    3    0    1
 -2      3565      1955      3666      3692
 -1     12524    3    0    1
 -2      1955      1920      3666      3692
 -1     12525    3    0    1
 -2       947       952      2455      3991
 -1     12526    3    0    1
 -2      2233      2367      2745      3991
 -1     12527    3    0    1
 -2       574       114       952      2034
 -1     12528    3    0    1
 -2      2455      2233      2745      3991
 -1     12529    3    0    1
 -2       952      3991      2033      2034
 -1     12530    3    0    1
 -2       947        95      3402      3756
 -1     12531    3    0    1
 -2      3402      2599       551      2565
 -1     12532    3    0    1
 -2       199       189      3987      2013
 -1     12533    3    0    1
 -2      2776      1005      3987      2013
 -1     12534    3    0    1
 -2       185      2776      3987      2013
 -1     12535    3    0    1
 -2       185      1005      2451      2013
 -1     12536    3    0    1
 -2      2451      1005      2776      2013
 -1     12537    3    0    1
 -2       185      2451      2776      2013
 -1     12538    3    0    1
 -2       686       185       189      2013
 -1     12539    3    0    1
 -2       185       686       678      2013
 -1     12540    3    0    1
 -2      3624      3916      3670      4001
 -1     12541    3    0    1
 -2      2865      2828      3088      4001
 -1     12542    3    0    1
 -2      3984      1865      3993      2026
 -1     12543    3    0    1
 -2      3812      2636      3967      3693
 -1     12544    3    0    1
 -2       169       172      3994      2035
 -1     12545    3    0    1
 -2      1493      2897      3967      3693
 -1     12546    3    0    1
 -2      2636      1493      3967      3693
 -1     12547    3    0    1
 -2      2715      3682      3989      3697
 -1     12548    3    0    1
 -2      3787      3813      3916      4001
 -1     12549    3    0    1
 -2      1687      1688      3680      3694
 -1     12550    3    0    1
 -2      1991      1687      3659      3694
 -1     12551    3    0    1
 -2      1444      1991      3659      3694
 -1     12552    3    0    1
 -2       215       331       718      2015
 -1     12553    3    0    1
 -2       215       718       721      2015
 -1     12554    3    0    1
 -2      3145      1982      3711      3728
 -1     12555    3    0    1
 -2        11      1982      1983      3728
 -1     12556    3    0    1
 -2      2683      3502      3964      3992
 -1     12557    3    0    1
 -2      3156      2683      3964      3992
 -1     12558    3    0    1
 -2      3910      3865      3985      4023
 -1     12559    3    0    1
 -2      2598      3950      3964      3992
 -1     12560    3    0    1
 -2      2374      1035      2769      4014
 -1     12561    3    0    1
 -2      3950      3156      3964      3992
 -1     12562    3    0    1
 -2      3550      3434      3560      3992
 -1     12563    3    0    1
 -2      1017      1316      2488      4023
 -1     12564    3    0    1
 -2      3778      1548      3984      4023
 -1     12565    3    0    1
 -2      2772      2770      3964      3992
 -1     12566    3    0    1
 -2      2770      2772      3502      3992
 -1     12567    3    0    1
 -2      3502      2772      3964      3992
 -1     12568    3    0    1
 -2      3486      3434      3550      3992
 -1     12569    3    0    1
 -2      3560      3550      3045      1631
 -1     12570    3    0    1
 -2      3550      3560      3045      3992
 -1     12571    3    0    1
 -2      3492      3486      3550      3992
 -1     12572    3    0    1
 -2      3045      3492      3550      3992
 -1     12573    3    0    1
 -2      3420      2770      3673      3992
 -1     12574    3    0    1
 -2      3492      3420      3673      3992
 -1     12575    3    0    1
 -2      3486      3492      3673      3992
 -1     12576    3    0    1
 -2      2598      2770      3224      3992
 -1     12577    3    0    1
 -2      2770      3045      3224      3992
 -1     12578    3    0    1
 -2      2683      3486      3502      3992
 -1     12579    3    0    1
 -2      3224      3045      3560      3992
 -1     12580    3    0    1
 -2      3502      3486      3673      3992
 -1     12581    3    0    1
 -2      3865      3984      3985      4023
 -1     12582    3    0    1
 -2      3045      2770      3420      3992
 -1     12583    3    0    1
 -2      3045      3420      3492      3992
 -1     12584    3    0    1
 -2      1282       563      3769      4030
 -1     12585    3    0    1
 -2       588       596      2567      3749
 -1     12586    3    0    1
 -2      1548      1865      3595      3993
 -1     12587    3    0    1
 -2      2447       942      2724      3709
 -1     12588    3    0    1
 -2      1741       335      1966      2017
 -1     12589    3    0    1
 -2      2270      2878      3975      4011
 -1     12590    3    0    1
 -2      3786      3847      3975      4011
 -1     12591    3    0    1
 -2      2878      3547      3975      4011
 -1     12592    3    0    1
 -2      2270      2536      2878      4011
 -1     12593    3    0    1
 -2      3523      1741      1966      2017
 -1     12594    3    0    1
 -2       186      3703      1697      1751
 -1     12595    3    0    1
 -2      3703       186      1697      1696
 -1     12596    3    0    1
 -2      1282       563      2426      3769
 -1     12597    3    0    1
 -2      3994       987      2035      2036
 -1     12598    3    0    1
 -2       642       650       987      2036
 -1     12599    3    0    1
 -2      2521      2487      2778      3994
 -1     12600    3    0    1
 -2       413       645       649      2038
 -1     12601    3    0    1
 -2       224      1032      4004      2039
 -1     12602    3    0    1
 -2      2017      3929      4023      3750
 -1     12603    3    0    1
 -2      1865       335      4023      3750
 -1     12604    3    0    1
 -2       609       136       967      2021
 -1     12605    3    0    1
 -2       613       609       967      2021
 -1     12606    3    0    1
 -2       136       613       408      2021
 -1     12607    3    0    1
 -2       613       136       609      2021
 -1     12608    3    0    1
 -2      3902      3920      3981      3995
 -1     12609    3    0    1
 -2      3902      2404      3920      3995
 -1     12610    3    0    1
 -2      1041      3189      3902      3995
 -1     12611    3    0    1
 -2      1041      3902      3981      3995
 -1     12612    3    0    1
 -2       250      1041      3981      3995
 -1     12613    3    0    1
 -2      3920       250      3981      3995
 -1     12614    3    0    1
 -2       250      3920      3947      3995
 -1     12615    3    0    1
 -2      3862      3833      3947      3995
 -1     12616    3    0    1
 -2      2436      3833      3505      3995
 -1     12617    3    0    1
 -2      2436      1328      3833      3995
 -1     12618    3    0    1
 -2      1041      1328      2436      3995
 -1     12619    3    0    1
 -2      1041      2436      3505      3995
 -1     12620    3    0    1
 -2      3189      2404      3902      3995
 -1     12621    3    0    1
 -2      1328       250      3833      3995
 -1     12622    3    0    1
 -2      3833       250      3947      3995
 -1     12623    3    0    1
 -2      2720      2404      3505      3995
 -1     12624    3    0    1
 -2      2404      3189      3505      3995
 -1     12625    3    0    1
 -2      1041       250      1328      3995
 -1     12626    3    0    1
 -2       255       346      1044      3722
 -1     12627    3    0    1
 -2      1652       250      3833      3996
 -1     12628    3    0    1
 -2      1654      3229      3489      3996
 -1     12629    3    0    1
 -2      1654      1479      3229      3996
 -1     12630    3    0    1
 -2      3006       250      1999      3996
 -1     12631    3    0    1
 -2       250      1652      1999      3996
 -1     12632    3    0    1
 -2      2701      2880      3051      3996
 -1     12633    3    0    1
 -2      2701      3051      3445      3996
 -1     12634    3    0    1
 -2      1652      2701      3006      3996
 -1     12635    3    0    1
 -2      2701      2638      2880      3996
 -1     12636    3    0    1
 -2      3131      1479      3489      3996
 -1     12637    3    0    1
 -2      1594      1479      3131      3996
 -1     12638    3    0    1
 -2      2969      3131      3489      3996
 -1     12639    3    0    1
 -2      1449      2701      1652      3996
 -1     12640    3    0    1
 -2      3006      2701      3445      3996
 -1     12641    3    0    1
 -2       250      1594      3131      3996
 -1     12642    3    0    1
 -2      1652      3006      1999      3996
 -1     12643    3    0    1
 -2      1479      1654      3489      3996
 -1     12644    3    0    1
 -2      2778      2521      3994      3702
 -1     12645    3    0    1
 -2      1668      1667      3416      3701
 -1     12646    3    0    1
 -2      1667      1668      2025      3701
 -1     12647    3    0    1
 -2      3089      2024      2025      3701
 -1     12648    3    0    1
 -2       978      2340      2847      4002
 -1     12649    3    0    1
 -2      2197       984      2524      4002
 -1     12650    3    0    1
 -2      2340       978      2570      4002
 -1     12651    3    0    1
 -2       984      2197      2570      4002
 -1     12652    3    0    1
 -2      2570      2524      2847      4002
 -1     12653    3    0    1
 -2      2524       414      3866      4002
 -1     12654    3    0    1
 -2      2742      3081      3251      4025
 -1     12655    3    0    1
 -2      2911      2742      3856      4025
 -1     12656    3    0    1
 -2      2932      1564      3081      4025
 -1     12657    3    0    1
 -2      1564      2932      1696      4025
 -1     12658    3    0    1
 -2      1441      3822      3925      4025
 -1     12659    3    0    1
 -2       169       991      2147      3702
 -1     12660    3    0    1
 -2      3822      1441      3856      4025
 -1     12661    3    0    1
 -2      1441      2911      3856      4025
 -1     12662    3    0    1
 -2      3798       990      3822      4025
 -1     12663    3    0    1
 -2       978       984      4002      2037
 -1     12664    3    0    1
 -2      1565      1696      1564      2932
 -1     12665    3    0    1
 -2      3613      1973      3632      3997
 -1     12666    3    0    1
 -2      1421      3230      3632      3997
 -1     12667    3    0    1
 -2      3230      1421      3926      3997
 -1     12668    3    0    1
 -2      3549      2781      3553      3997
 -1     12669    3    0    1
 -2      2781      3926      3553      3997
 -1     12670    3    0    1
 -2      1476      2781      3549      3997
 -1     12671    3    0    1
 -2      1762      1973      3613      3997
 -1     12672    3    0    1
 -2      3549      3352      3597      3997
 -1     12673    3    0    1
 -2      2834      3314      3613      3997
 -1     12674    3    0    1
 -2      2834      3613      3632      3997
 -1     12675    3    0    1
 -2      3230      2834      3632      3997
 -1     12676    3    0    1
 -2      2781      1476      2834      3997
 -1     12677    3    0    1
 -2      2781      2834      3230      3997
 -1     12678    3    0    1
 -2      3275      1421      3609      3997
 -1     12679    3    0    1
 -2      1762      1960      3609      3997
 -1     12680    3    0    1
 -2      1421      1973      3609      3997
 -1     12681    3    0    1
 -2      1476      3549      3597      3997
 -1     12682    3    0    1
 -2      1973      1762      3609      3997
 -1     12683    3    0    1
 -2       168      1527      3620      3706
 -1     12684    3    0    1
 -2      3589      3474      3631      3706
 -1     12685    3    0    1
 -2      2956      3474      3589      3706
 -1     12686    3    0    1
 -2      2956      3423      3474      3706
 -1     12687    3    0    1
 -2      3821      1524      3881      3998
 -1     12688    3    0    1
 -2      1524      3821      3858      3998
 -1     12689    3    0    1
 -2      3858      3821      3881      3998
 -1     12690    3    0    1
 -2      3858      3840      3897      3998
 -1     12691    3    0    1
 -2      1524      3858      3897      3998
 -1     12692    3    0    1
 -2      3840      1524      3897      3998
 -1     12693    3    0    1
 -2      1936      3550      2007      3723
 -1     12694    3    0    1
 -2      3809      3688      3777      1483
 -1     12695    3    0    1
 -2      3688      3809      3777      3999
 -1     12696    3    0    1
 -2      3323      2305      3938      3999
 -1     12697    3    0    1
 -2      3397      3323      3938      3999
 -1     12698    3    0    1
 -2      2536      2305      2506      2546
 -1     12699    3    0    1
 -2      2506      2536      3494      3999
 -1     12700    3    0    1
 -2      2506      3494      3934      3999
 -1     12701    3    0    1
 -2      2506      3843      3999      3934
 -1     12702    3    0    1
 -2      3684      3397      3688      3999
 -1     12703    3    0    1
 -2      3159      3397      3684      3999
 -1     12704    3    0    1
 -2      2305      2506      2595      3999
 -1     12705    3    0    1
 -2      3494      3159      3684      3999
 -1     12706    3    0    1
 -2      3494      3684      3696      3999
 -1     12707    3    0    1
 -2      3159      3323      3397      3999
 -1     12708    3    0    1
 -2      2305      2536      2506      3999
 -1     12709    3    0    1
 -2      2536      3159      3494      3999
 -1     12710    3    0    1
 -2      3827      3845      3806      3921
 -1     12711    3    0    1
 -2      1427      2787      2022      3707
 -1     12712    3    0    1
 -2      2865      2893      3894      4001
 -1     12713    3    0    1
 -2      3894      2893      3636      4001
 -1     12714    3    0    1
 -2      3785      2828      3894      4001
 -1     12715    3    0    1
 -2      2300      3787      3088      4001
 -1     12716    3    0    1
 -2      2300      3785      3787      4001
 -1     12717    3    0    1
 -2      3338       768      3742      4028
 -1     12718    3    0    1
 -2      2819      2900      3864      4028
 -1     12719    3    0    1
 -2      2582      2988      3340      4028
 -1     12720    3    0    1
 -2      2871      3857      3449      4017
 -1     12721    3    0    1
 -2      2941      2732      3577      4028
 -1     12722    3    0    1
 -2      3813      1621      3670      4001
 -1     12723    3    0    1
 -2      3787      1621      3813      4001
 -1     12724    3    0    1
 -2      1442      3894      3636      4001
 -1     12725    3    0    1
 -2      1442      3785      3894      4001
 -1     12726    3    0    1
 -2      3785      1442      3787      4001
 -1     12727    3    0    1
 -2      3785      2300      2828      4001
 -1     12728    3    0    1
 -2      3787      1442      1621      4001
 -1     12729    3    0    1
 -2      2865      3266      3624      4001
 -1     12730    3    0    1
 -2      2865      3624      3636      4001
 -1     12731    3    0    1
 -2      2809      3122      3338      4028
 -1     12732    3    0    1
 -2      3636      3624      3670      4001
 -1     12733    3    0    1
 -2      3648      1543      3651      4028
 -1     12734    3    0    1
 -2      2893      2865      3636      4001
 -1     12735    3    0    1
 -2      1621      3636      3670      4001
 -1     12736    3    0    1
 -2      2828      2300      3088      4001
 -1     12737    3    0    1
 -2      1621      1442      3636      4001
 -1     12738    3    0    1
 -2      3145      1626      1953      3711
 -1     12739    3    0    1
 -2       197      1760      1982      3711
 -1     12740    3    0    1
 -2      1760      3219      1982      3711
 -1     12741    3    0    1
 -2      2011      3977      3696      3712
 -1     12742    3    0    1
 -2      3688      3684      3999      3712
 -1     12743    3    0    1
 -2      3983      3688      3999      3712
 -1     12744    3    0    1
 -2      2002      1986      3983      3712
 -1     12745    3    0    1
 -2      3983      1986      3688      3712
 -1     12746    3    0    1
 -2      1411      3195      3893      3714
 -1     12747    3    0    1
 -2      3089      2024      3701      3714
 -1     12748    3    0    1
 -2      1667       134      3416      3714
 -1     12749    3    0    1
 -2      1667      2908      3701      3714
 -1     12750    3    0    1
 -2      3089      2908      3893      3714
 -1     12751    3    0    1
 -2      3852      3162      3893      3714
 -1     12752    3    0    1
 -2      2908      3852      3893      3714
 -1     12753    3    0    1
 -2      2908      1667      3416      3714
 -1     12754    3    0    1
 -2      3852      2908      3416      3714
 -1     12755    3    0    1
 -2      3162      3852      3917      3714
 -1     12756    3    0    1
 -2       134      3162      3917      3714
 -1     12757    3    0    1
 -2      3416       134      3917      3714
 -1     12758    3    0    1
 -2      3852      3416      3917      3714
 -1     12759    3    0    1
 -2      2908      3089      3701      3714
 -1     12760    3    0    1
 -2      3823      2447      1280      3709
 -1     12761    3    0    1
 -2      1280      3709       822      4003
 -1     12762    3    0    1
 -2      3795      3816      3963      4003
 -1     12763    3    0    1
 -2      1067       822      2400      4003
 -1     12764    3    0    1
 -2      2400       822      3709      4003
 -1     12765    3    0    1
 -2      3816      3909      3963      4003
 -1     12766    3    0    1
 -2      3795      2400      3199      4003
 -1     12767    3    0    1
 -2      2468      3795      3199      4003
 -1     12768    3    0    1
 -2      1280       354      3823      4003
 -1     12769    3    0    1
 -2      3823       354      3909      4003
 -1     12770    3    0    1
 -2       354      3795      3963      4003
 -1     12771    3    0    1
 -2       354      1067      3795      4003
 -1     12772    3    0    1
 -2      3909       354      3963      4003
 -1     12773    3    0    1
 -2      2468      2400      3709      4003
 -1     12774    3    0    1
 -2      2400      2468      3199      4003
 -1     12775    3    0    1
 -2      1067       354      1280      4003
 -1     12776    3    0    1
 -2      3496      1922      3988      3716
 -1     12777    3    0    1
 -2      3120      3490      3496      3716
 -1     12778    3    0    1
 -2      3120      3496      3988      3716
 -1     12779    3    0    1
 -2      3782      1545      3988      3716
 -1     12780    3    0    1
 -2      1545      3782      1922      3716
 -1     12781    3    0    1
 -2      1922      3782      3988      3716
 -1     12782    3    0    1
 -2      1922      3490      3496      1756
 -1     12783    3    0    1
 -2      3490      1922      3496      3716
 -1     12784    3    0    1
 -2      2922      2270      2462      3507
 -1     12785    3    0    1
 -2      3921      3827      3569      4005
 -1     12786    3    0    1
 -2      2270      2462      2608      4005
 -1     12787    3    0    1
 -2      2608      2462      2922      4005
 -1     12788    3    0    1
 -2      2608      2998      3961      4005
 -1     12789    3    0    1
 -2      3961      2998      3653      4005
 -1     12790    3    0    1
 -2      3803      1449      3713      4005
 -1     12791    3    0    1
 -2      2725      3921      3975      4005
 -1     12792    3    0    1
 -2      2270      2725      3975      4005
 -1     12793    3    0    1
 -2      3975      2922      2270      4005
 -1     12794    3    0    1
 -2      1449      3961      3653      4005
 -1     12795    3    0    1
 -2      1449      3790      3961      4005
 -1     12796    3    0    1
 -2      3790      1449      3803      4005
 -1     12797    3    0    1
 -2      2922      3569      3705      4005
 -1     12798    3    0    1
 -2      3653      2922      3705      4005
 -1     12799    3    0    1
 -2      2998      2922      3653      4005
 -1     12800    3    0    1
 -2      3653      3705      3713      4005
 -1     12801    3    0    1
 -2      2608      2720      2725      4005
 -1     12802    3    0    1
 -2      1449      3653      3713      4005
 -1     12803    3    0    1
 -2      2270      2608      2725      4005
 -1     12804    3    0    1
 -2      2922      2270      4005      2462
 -1     12805    3    0    1
 -2      1569      1294      1847      4006
 -1     12806    3    0    1
 -2       700      3710      3747      3755
 -1     12807    3    0    1
 -2       198       200      1011      3755
 -1     12808    3    0    1
 -2       199       700       703      3755
 -1     12809    3    0    1
 -2       198      1014      3710      3755
 -1     12810    3    0    1
 -2       198      1011      1014      3755
 -1     12811    3    0    1
 -2      1014      1011      3747      3755
 -1     12812    3    0    1
 -2      3145      3219      1982      3721
 -1     12813    3    0    1
 -2      1982      3219      2022      3721
 -1     12814    3    0    1
 -2      3389      2915      3645      4007
 -1     12815    3    0    1
 -2      2708      2881      3869      4007
 -1     12816    3    0    1
 -2      2915      2708      3869      4007
 -1     12817    3    0    1
 -2      3427       768      3487      4007
 -1     12818    3    0    1
 -2      1528      3050      3487      4007
 -1     12819    3    0    1
 -2      2880      3229      3489      4007
 -1     12820    3    0    1
 -2      2880      3489      3996      4007
 -1     12821    3    0    1
 -2      3918      3943      3996      4007
 -1     12822    3    0    1
 -2      2969      3918      3996      4007
 -1     12823    3    0    1
 -2      2969      2768      3918      4007
 -1     12824    3    0    1
 -2      3918      2768      3943      4007
 -1     12825    3    0    1
 -2      2768      2731      3869      4007
 -1     12826    3    0    1
 -2      2731      2768      2969      4007
 -1     12827    3    0    1
 -2       768      3389      3645      4007
 -1     12828    3    0    1
 -2      3389       768      3427      4007
 -1     12829    3    0    1
 -2       768      1528      3487      4007
 -1     12830    3    0    1
 -2      3050      1528      3229      4007
 -1     12831    3    0    1
 -2      3229      1528      3489      4007
 -1     12832    3    0    1
 -2      2612      2880      3943      4007
 -1     12833    3    0    1
 -2      3943      2880      3996      4007
 -1     12834    3    0    1
 -2      3353      2969      3489      4007
 -1     12835    3    0    1
 -2      3353      3489      3645      4007
 -1     12836    3    0    1
 -2      3050      2881      3427      4007
 -1     12837    3    0    1
 -2      2612      2881      3050      4007
 -1     12838    3    0    1
 -2      2730      2969      3353      4007
 -1     12839    3    0    1
 -2      3013      3353      3645      4007
 -1     12840    3    0    1
 -2      3050      3427      3487      4007
 -1     12841    3    0    1
 -2      2881      2612      2965      4007
 -1     12842    3    0    1
 -2      2880      2612      3050      4007
 -1     12843    3    0    1
 -2      2881      3389      3427      4007
 -1     12844    3    0    1
 -2      3489       768      3645      4007
 -1     12845    3    0    1
 -2      3013      2836      3353      4007
 -1     12846    3    0    1
 -2      2881      2915      3389      4007
 -1     12847    3    0    1
 -2      2881      2708      2915      4007
 -1     12848    3    0    1
 -2      2880      3050      3229      4007
 -1     12849    3    0    1
 -2      1528       768      3489      4007
 -1     12850    3    0    1
 -2      3482      3286      3587      4008
 -1     12851    3    0    1
 -2      3300      1748      3456      4008
 -1     12852    3    0    1
 -2      1813      1596      3638      4008
 -1     12853    3    0    1
 -2      3286      3584      3587      4008
 -1     12854    3    0    1
 -2      3030      2835      3167      4008
 -1     12855    3    0    1
 -2      1596      1748      3300      4008
 -1     12856    3    0    1
 -2      3022      1417      3082      4010
 -1     12857    3    0    1
 -2      2989      1513      1704      4010
 -1     12858    3    0    1
 -2      1704      1417      3044      4010
 -1     12859    3    0    1
 -2      1485      3064      3082      4010
 -1     12860    3    0    1
 -2      1417      1485      3082      4010
 -1     12861    3    0    1
 -2      2793      3064      3517      4010
 -1     12862    3    0    1
 -2      2918      2989      3022      4010
 -1     12863    3    0    1
 -2      2918      2593      2989      4010
 -1     12864    3    0    1
 -2      2912      2918      3022      4010
 -1     12865    3    0    1
 -2      3022      2989      3044      4010
 -1     12866    3    0    1
 -2      3064      1417      3517      4010
 -1     12867    3    0    1
 -2      2989      2648      3379      4010
 -1     12868    3    0    1
 -2      2593      2648      2989      4010
 -1     12869    3    0    1
 -2      2912      3022      3082      4010
 -1     12870    3    0    1
 -2      1417      1704      3517      4010
 -1     12871    3    0    1
 -2      1485      1417      3064      4010
 -1     12872    3    0    1
 -2      1704      1513      3517      4010
 -1     12873    3    0    1
 -2      3909      3816      3637      4011
 -1     12874    3    0    1
 -2      3909      3637      3642      4011
 -1     12875    3    0    1
 -2      3807      3909      3642      4011
 -1     12876    3    0    1
 -2      2878      2942      3547      4011
 -1     12877    3    0    1
 -2      2270      2725      2794      4011
 -1     12878    3    0    1
 -2      2506      2270      2794      4011
 -1     12879    3    0    1
 -2      3547      2942      3637      4011
 -1     12880    3    0    1
 -2      2878      2536      2942      4011
 -1     12881    3    0    1
 -2      2270      2506      2546      4011
 -1     12882    3    0    1
 -2      2942      2536      3245      4011
 -1     12883    3    0    1
 -2      3637      2942      3642      4011
 -1     12884    3    0    1
 -2      3815      3147      3941      4012
 -1     12885    3    0    1
 -2      3147      3815      3466      4012
 -1     12886    3    0    1
 -2      3369      3147      3466      4012
 -1     12887    3    0    1
 -2      3941      3369      2588      4012
 -1     12888    3    0    1
 -2      3052      3401      3904      4012
 -1     12889    3    0    1
 -2      3466      3465      3471      4012
 -1     12890    3    0    1
 -2      3113      3465      3466      4012
 -1     12891    3    0    1
 -2      3539      3103      3725      4012
 -1     12892    3    0    1
 -2      2588      3103      3539      4012
 -1     12893    3    0    1
 -2      3465      1519      3471      4012
 -1     12894    3    0    1
 -2      3401      3539      3725      4012
 -1     12895    3    0    1
 -2      3465      3725      1519      4012
 -1     12896    3    0    1
 -2      3103      2588      3369      4012
 -1     12897    3    0    1
 -2      3052      2588      3539      4012
 -1     12898    3    0    1
 -2      3369      3941      2588      2832
 -1     12899    3    0    1
 -2      3401      3052      3539      4012
 -1     12900    3    0    1
 -2      3796      3865      3910      4023
 -1     12901    3    0    1
 -2       335      1017      3985      4023
 -1     12902    3    0    1
 -2      1026      1316      3929      4023
 -1     12903    3    0    1
 -2      1548      1865      3984      4023
 -1     12904    3    0    1
 -2      1017      2488      3796      4023
 -1     12905    3    0    1
 -2      2488       734      3527      4023
 -1     12906    3    0    1
 -2      1548      3778      3929      4023
 -1     12907    3    0    1
 -2      1542      3780      3668      3729
 -1     12908    3    0    1
 -2      3780      1542      3819      3729
 -1     12909    3    0    1
 -2      1815      3480      3942      3729
 -1     12910    3    0    1
 -2      1545      1815      3942      3729
 -1     12911    3    0    1
 -2       200      1009      3987      3730
 -1     12912    3    0    1
 -2       199       200      3987      3730
 -1     12913    3    0    1
 -2      1306      2213      2727      3730
 -1     12914    3    0    1
 -2      2213      1306      3987      3730
 -1     12915    3    0    1
 -2      2774      2213      3987      3730
 -1     12916    3    0    1
 -2      2727      2213      2774      3730
 -1     12917    3    0    1
 -2      1445      1903      3495      4015
 -1     12918    3    0    1
 -2      2613      3142      3842      4015
 -1     12919    3    0    1
 -2      3142      3458      3669      4015
 -1     12920    3    0    1
 -2      3842      3142      3669      4015
 -1     12921    3    0    1
 -2      2695      2613      3965      4015
 -1     12922    3    0    1
 -2      2626      2695      3965      4015
 -1     12923    3    0    1
 -2      1903      1683      3458      4015
 -1     12924    3    0    1
 -2      3458      1683      3669      4015
 -1     12925    3    0    1
 -2      2765      2775      3495      4015
 -1     12926    3    0    1
 -2      3458      2765      3495      4015
 -1     12927    3    0    1
 -2      1445      3277      3522      4015
 -1     12928    3    0    1
 -2      3277      2902      3522      4015
 -1     12929    3    0    1
 -2      3142      2765      3458      4015
 -1     12930    3    0    1
 -2      2765      2626      2775      4015
 -1     12931    3    0    1
 -2      1903      1445      3522      4015
 -1     12932    3    0    1
 -2      2613      2626      2765      4015
 -1     12933    3    0    1
 -2      2613      2765      3142      4015
 -1     12934    3    0    1
 -2      1903      3522      3669      4015
 -1     12935    3    0    1
 -2      2626      2613      2695      4015
 -1     12936    3    0    1
 -2      1683      1903      3669      4015
 -1     12937    3    0    1
 -2      3608      1955      3625      3733
 -1     12938    3    0    1
 -2      1468      1955      3608      3733
 -1     12939    3    0    1
 -2      1854      1468      3654      3733
 -1     12940    3    0    1
 -2      3037      1854      3654      3733
 -1     12941    3    0    1
 -2      3608      3562      3954      3733
 -1     12942    3    0    1
 -2      3954      3562      3625      3733
 -1     12943    3    0    1
 -2      1468      3608      3654      3733
 -1     12944    3    0    1
 -2      3537      3608      3954      3733
 -1     12945    3    0    1
 -2      3037      3537      3954      3733
 -1     12946    3    0    1
 -2      3537      3037      3654      3733
 -1     12947    3    0    1
 -2      3562      3608      3625      3733
 -1     12948    3    0    1
 -2      3608      3537      3654      3733
 -1     12949    3    0    1
 -2      2531      2484      3018      3734
 -1     12950    3    0    1
 -2      1327       351      3959      3738
 -1     12951    3    0    1
 -2      1060      1327      2355      3738
 -1     12952    3    0    1
 -2      1617      3192      3639      3735
 -1     12953    3    0    1
 -2      3326      3871      4020      4028
 -1     12954    3    0    1
 -2      3871      2739      4020      4028
 -1     12955    3    0    1
 -2      3916      3624      3670      3736
 -1     12956    3    0    1
 -2      1876      3916      3670      3736
 -1     12957    3    0    1
 -2      2582      3864      4020      4028
 -1     12958    3    0    1
 -2      3122      1528      3338      4028
 -1     12959    3    0    1
 -2      2739      2582      4020      4028
 -1     12960    3    0    1
 -2      2698      2739      3871      4028
 -1     12961    3    0    1
 -2      1570      1847      3525      1848
 -1     12962    3    0    1
 -2      2704      3244      3875      4017
 -1     12963    3    0    1
 -2       572      3356      3634      4017
 -1     12964    3    0    1
 -2      3356       572      3607      4017
 -1     12965    3    0    1
 -2      2699      2704      3953      4017
 -1     12966    3    0    1
 -2      3244      2699      3953      4017
 -1     12967    3    0    1
 -2       572      1842      3607      4017
 -1     12968    3    0    1
 -2      2602      3250      3914      4017
 -1     12969    3    0    1
 -2      1828      3449      3914      4017
 -1     12970    3    0    1
 -2      1600      3313      3607      4017
 -1     12971    3    0    1
 -2      1842      1600      3607      4017
 -1     12972    3    0    1
 -2      3250      1828      3914      4017
 -1     12973    3    0    1
 -2      1828      3250      3313      4017
 -1     12974    3    0    1
 -2      1600      1828      3313      4017
 -1     12975    3    0    1
 -2      2871      3449      3634      4017
 -1     12976    3    0    1
 -2      3083      2871      3634      4017
 -1     12977    3    0    1
 -2      3244      3356      3607      4017
 -1     12978    3    0    1
 -2      3244      2930      3356      4017
 -1     12979    3    0    1
 -2      3313      3244      3607      4017
 -1     12980    3    0    1
 -2      2602      3244      3313      4017
 -1     12981    3    0    1
 -2      2704      2699      3244      4017
 -1     12982    3    0    1
 -2      3449      1842      3634      4017
 -1     12983    3    0    1
 -2      1842       572      3634      4017
 -1     12984    3    0    1
 -2      3250      2602      3313      4017
 -1     12985    3    0    1
 -2      1600      1842      3449      4017
 -1     12986    3    0    1
 -2      1828      1600      3449      4017
 -1     12987    3    0    1
 -2      3798      2802      3911      4019
 -1     12988    3    0    1
 -2      3798      2937      3251      4019
 -1     12989    3    0    1
 -2      3798      3251      3534      4019
 -1     12990    3    0    1
 -2      3087      2849      3911      4019
 -1     12991    3    0    1
 -2      2995      3062      3329      4019
 -1     12992    3    0    1
 -2      2995      3329      3591      4019
 -1     12993    3    0    1
 -2      2670      2995      3591      4019
 -1     12994    3    0    1
 -2      3886      2670      3591      4019
 -1     12995    3    0    1
 -2      2812      3886      3591      4019
 -1     12996    3    0    1
 -2      3015      3123      3886      4019
 -1     12997    3    0    1
 -2      3886      3123      3685      4019
 -1     12998    3    0    1
 -2      2804      3886      3685      4019
 -1     12999    3    0    1
 -2      2712      2804      3685      4019
 -1     13000    3    0    1
 -2      2804      2670      3886      4019
 -1     13001    3    0    1
 -2      2802      2625      3911      4019
 -1     13002    3    0    1
 -2      2904      2801      3646      4019
 -1     13003    3    0    1
 -2      3062      2904      3329      4019
 -1     13004    3    0    1
 -2      2801      3534      3646      4019
 -1     13005    3    0    1
 -2       214      3321      1629      1952
 -1     13006    3    0    1
 -2      2810      2887      4019      2811
 -1     13007    3    0    1
 -2      2801      2802      3534      4019
 -1     13008    3    0    1
 -2      2811      2810      3015      4019
 -1     13009    3    0    1
 -2      2812      2811      3015      4019
 -1     13010    3    0    1
 -2      2937      2812      3329      4019
 -1     13011    3    0    1
 -2      2712      2625      2758      4019
 -1     13012    3    0    1
 -2      2670      2712      2758      4019
 -1     13013    3    0    1
 -2      2937      3329      3646      4019
 -1     13014    3    0    1
 -2      3329      2812      3591      4019
 -1     13015    3    0    1
 -2      2887      2812      2937      4019
 -1     13016    3    0    1
 -2      2670      2758      2995      4019
 -1     13017    3    0    1
 -2      3033      3087      3685      4019
 -1     13018    3    0    1
 -2      2758      2625      2801      4019
 -1     13019    3    0    1
 -2      3534      2937      3646      4019
 -1     13020    3    0    1
 -2      2811      2812      2887      4019
 -1     13021    3    0    1
 -2      3251      2937      3534      4019
 -1     13022    3    0    1
 -2      3033      2849      3087      4019
 -1     13023    3    0    1
 -2      2995      2758      3062      4019
 -1     13024    3    0    1
 -2      3015      3033      3123      4019
 -1     13025    3    0    1
 -2      3015      2810      3033      4019
 -1     13026    3    0    1
 -2      3123      3033      3685      4019
 -1     13027    3    0    1
 -2      2712      2670      2804      4019
 -1     13028    3    0    1
 -2      2801      2625      2802      4019
 -1     13029    3    0    1
 -2      2758      2801      2904      4019
 -1     13030    3    0    1
 -2      2758      2904      3062      4019
 -1     13031    3    0    1
 -2      2810      2849      3033      4019
 -1     13032    3    0    1
 -2      1955      3565      3666      4022
 -1     13033    3    0    1
 -2      3560      3666      1873      3581
 -1     13034    3    0    1
 -2      3666      3560      1873      4022
 -1     13035    3    0    1
 -2      3373      3156      3727      4022
 -1     13036    3    0    1
 -2      3666      3373      3727      4022
 -1     13037    3    0    1
 -2      3365      3224      3571      4022
 -1     13038    3    0    1
 -2      2598      3224      3365      4022
 -1     13039    3    0    1
 -2      3224      3565      3571      4022
 -1     13040    3    0    1
 -2      1468      3666      3727      4022
 -1     13041    3    0    1
 -2      3224      3560      3565      4022
 -1     13042    3    0    1
 -2      1873      3373      3666      4022
 -1     13043    3    0    1
 -2      2873      2598      3365      4022
 -1     13044    3    0    1
 -2      1854      1468      3727      4022
 -1     13045    3    0    1
 -2      3565      3560      3692      4022
 -1     13046    3    0    1
 -2      1468      1955      3666      4022
 -1     13047    3    0    1
 -2      1300      2779      3698      4024
 -1     13048    3    0    1
 -2      2521       345      3994      4024
 -1     13049    3    0    1
 -2      3796      3910      3958      4023
 -1     13050    3    0    1
 -2      1017      3796      3958      4023
 -1     13051    3    0    1
 -2      3958      3910      3985      4023
 -1     13052    3    0    1
 -2      1017      3958      3985      4023
 -1     13053    3    0    1
 -2      2488      2448      2870      4023
 -1     13054    3    0    1
 -2      2448      2488      3527      4023
 -1     13055    3    0    1
 -2      1316       335      2017      4023
 -1     13056    3    0    1
 -2      1017       335      1316      4023
 -1     13057    3    0    1
 -2       113       400      3991      2034
 -1     13058    3    0    1
 -2      3991       400      2033      2034
 -1     13059    3    0    1
 -2      3991       114      4013      2034
 -1     13060    3    0    1
 -2       113      3991      4013      2034
 -1     13061    3    0    1
 -2       114       113      4013      2034
 -1     13062    3    0    1
 -2       113       114       574      2034
 -1     13063    3    0    1
 -2       113       574       577      2034
 -1     13064    3    0    1
 -2       690      2166      2451      3746
 -1     13065    3    0    1
 -2      2166       690      2303      3746
 -1     13066    3    0    1
 -2      1005       690      2451      3746
 -1     13067    3    0    1
 -2      1005      2451      2776      3746
 -1     13068    3    0    1
 -2      1011      1005      2776      3746
 -1     13069    3    0    1
 -2      3759       660      2651      3463
 -1     13070    3    0    1
 -2      2776      2552      3987      3746
 -1     13071    3    0    1
 -2      1011      2776      3987      3746
 -1     13072    3    0    1
 -2      3759       996      2651       993
 -1     13073    3    0    1
 -2       707      1005      1011      3746
 -1     13074    3    0    1
 -2       707       690      1005      3746
 -1     13075    3    0    1
 -2       541      1270      2662      3747
 -1     13076    3    0    1
 -2       541      2662      2664      3747
 -1     13077    3    0    1
 -2      3710       700      2662       696
 -1     13078    3    0    1
 -2       700      3710      2662      3747
 -1     13079    3    0    1
 -2      3194       588      1186      2567
 -1     13080    3    0    1
 -2        95       947      2033      3756
 -1     13081    3    0    1
 -2        95       551      3402      3756
 -1     13082    3    0    1
 -2       707       708      1014      3747
 -1     13083    3    0    1
 -2      1014      2662      3710      3747
 -1     13084    3    0    1
 -2      1014       708      2662      3747
 -1     13085    3    0    1
 -2       411       147      2037      3760
 -1     13086    3    0    1
 -2        96       379      2491      4030
 -1     13087    3    0    1
 -2       172      3994      2035      2036
 -1     13088    3    0    1
 -2       172       162      3994      2036
 -1     13089    3    0    1
 -2       345       162       642      2036
 -1     13090    3    0    1
 -2       642       162       650      2036
 -1     13091    3    0    1
 -2       125       588      3533      3749
 -1     13092    3    0    1
 -2      2567       962      3194      3749
 -1     13093    3    0    1
 -2      3194       962      3533      3749
 -1     13094    3    0    1
 -2      3533       588      3194      3749
 -1     13095    3    0    1
 -2       588      3194      3749      2567
 -1     13096    3    0    1
 -2       125       596       588      3749
 -1     13097    3    0    1
 -2       596       125       405      3749
 -1     13098    3    0    1
 -2      3557      2017      2018      3750
 -1     13099    3    0    1
 -2      2017      3412      3557      1795
 -1     13100    3    0    1
 -2      3412      2017      3557      3750
 -1     13101    3    0    1
 -2      2018      1795      3557      1796
 -1     13102    3    0    1
 -2      3557      2017      1795      2018
 -1     13103    3    0    1
 -2      3994      2147      3702      4024
 -1     13104    3    0    1
 -2      2779      2521      3702      4024
 -1     13105    3    0    1
 -2       172       162      3698      4024
 -1     13106    3    0    1
 -2       162       345      3698      4024
 -1     13107    3    0    1
 -2       169       172      3698      4024
 -1     13108    3    0    1
 -2      2490      2779      3702      4024
 -1     13109    3    0    1
 -2       345      1300      3698      4024
 -1     13110    3    0    1
 -2       991       169      3698      4024
 -1     13111    3    0    1
 -2      1573      1441      3925      4025
 -1     13112    3    0    1
 -2      1751      1573      3925      4025
 -1     13113    3    0    1
 -2       186      1696      3703      4025
 -1     13114    3    0    1
 -2      3081      1564      1773      4025
 -1     13115    3    0    1
 -2      3081      1773      3251      4025
 -1     13116    3    0    1
 -2      1751       186      3703      4025
 -1     13117    3    0    1
 -2       186      1751      3925      4025
 -1     13118    3    0    1
 -2      2932      1573      3703      4025
 -1     13119    3    0    1
 -2       186       990      3251      4025
 -1     13120    3    0    1
 -2      2742      1441      2932      4025
 -1     13121    3    0    1
 -2      2742      2932      3081      4025
 -1     13122    3    0    1
 -2      1441      1573      2932      4025
 -1     13123    3    0    1
 -2      1564      1696      3251      4025
 -1     13124    3    0    1
 -2      1696       186      3251      4025
 -1     13125    3    0    1
 -2      1441      2742      2911      4025
 -1     13126    3    0    1
 -2      1573      1751      3703      4025
 -1     13127    3    0    1
 -2      1773      1564      3251      4025
 -1     13128    3    0    1
 -2       239       757       337      2040
 -1     13129    3    0    1
 -2       757       239       754      2040
 -1     13130    3    0    1
 -2      2865      3266      4001      4027
 -1     13131    3    0    1
 -2      3779      2467      3799      4027
 -1     13132    3    0    1
 -2      1851       427      3998      2041
 -1     13133    3    0    1
 -2      3998       427      4009      2041
 -1     13134    3    0    1
 -2      3442      2484      3734      4026
 -1     13135    3    0    1
 -2      2634      2484      3840      4026
 -1     13136    3    0    1
 -2      2484      2634      3830      4026
 -1     13137    3    0    1
 -2      3838      3998      4009      4026
 -1     13138    3    0    1
 -2      3998      1851      2041      4026
 -1     13139    3    0    1
 -2      1524      1851      3998      4026
 -1     13140    3    0    1
 -2      3840      1524      3998      4026
 -1     13141    3    0    1
 -2      1524      3840      3635      4026
 -1     13142    3    0    1
 -2      2634      3840      3858      4026
 -1     13143    3    0    1
 -2      3830      2634      3858      4026
 -1     13144    3    0    1
 -2      2484      3836      3734      4026
 -1     13145    3    0    1
 -2      3838      1826      3737      4026
 -1     13146    3    0    1
 -2      1826      3838      4009      4026
 -1     13147    3    0    1
 -2      4009      3998      2041      4026
 -1     13148    3    0    1
 -2      2484      3783      3836      4026
 -1     13149    3    0    1
 -2      3783      2484      3830      4026
 -1     13150    3    0    1
 -2      3783      3830      3734      4026
 -1     13151    3    0    1
 -2      3836      3783      3734      4026
 -1     13152    3    0    1
 -2       183      1826      4009      4026
 -1     13153    3    0    1
 -2       183      4009      2041      4026
 -1     13154    3    0    1
 -2      3635      3442      3737      4026
 -1     13155    3    0    1
 -2      3442      3734      3737      4026
 -1     13156    3    0    1
 -2      1826      3635      3737      4026
 -1     13157    3    0    1
 -2      1851      3635      2041      4026
 -1     13158    3    0    1
 -2      1851      1524      3635      4026
 -1     13159    3    0    1
 -2      1826       183      3635      4026
 -1     13160    3    0    1
 -2      3635       183      2041      4026
 -1     13161    3    0    1
 -2      2773      3787      3799      4027
 -1     13162    3    0    1
 -2      2467      2773      3799      4027
 -1     13163    3    0    1
 -2      2773      2467      3088      4027
 -1     13164    3    0    1
 -2      3088      2467      3223      4027
 -1     13165    3    0    1
 -2      3266      3585      3736      4027
 -1     13166    3    0    1
 -2      3624      3266      3736      4027
 -1     13167    3    0    1
 -2      3585      1441      3736      4027
 -1     13168    3    0    1
 -2      2865      2561      3266      4027
 -1     13169    3    0    1
 -2      2561      2845      3266      4027
 -1     13170    3    0    1
 -2      3266      2845      3585      4027
 -1     13171    3    0    1
 -2      1441      1568      3736      4027
 -1     13172    3    0    1
 -2      2988      2809      3338      4028
 -1     13173    3    0    1
 -2      2988      3338      3742      4028
 -1     13174    3    0    1
 -2      3648      3340      3742      4028
 -1     13175    3    0    1
 -2      2819      2582      3340      4028
 -1     13176    3    0    1
 -2      3122      2941      3577      4028
 -1     13177    3    0    1
 -2      1528      3122      3577      4028
 -1     13178    3    0    1
 -2      2582      2739      2988      4028
 -1     13179    3    0    1
 -2      2698      2809      2988      4028
 -1     13180    3    0    1
 -2      2900      2819      3340      4028
 -1     13181    3    0    1
 -2      1543      3577      3651      4028
 -1     13182    3    0    1
 -2      2900      3340      3648      4028
 -1     13183    3    0    1
 -2       768      1528      3577      4028
 -1     13184    3    0    1
 -2      2739      2698      2988      4028
 -1     13185    3    0    1
 -2      1543       768      3577      4028
 -1     13186    3    0    1
 -2      1044       779      1047      3754
 -1     13187    3    0    1
 -2      2194       943      2447      3764
 -1     13188    3    0    1
 -2       511      1245       526      3754
 -1     13189    3    0    1
 -2      1217       511      3718      3754
 -1     13190    3    0    1
 -2      1245       511      1217      3754
 -1     13191    3    0    1
 -2       779      1044      3718      3754
 -1     13192    3    0    1
 -2       636      2340      2570      3770
 -1     13193    3    0    1
 -2      2533       636      2570      3770
 -1     13194    3    0    1
 -2      2745      3991      4013      3757
 -1     13195    3    0    1
 -2      2764      2745      4013      3757
 -1     13196    3    0    1
 -2      2745       947      3991      3757
 -1     13197    3    0    1
 -2       947        95      3991      3757
 -1     13198    3    0    1
 -2      3987       200      2012      3758
 -1     13199    3    0    1
 -2       198       200      2508      3758
 -1     13200    3    0    1
 -2      2508       200      2552      3758
 -1     13201    3    0    1
 -2       198      2508      2711      3758
 -1     13202    3    0    1
 -2       173       996      3463      3759
 -1     13203    3    0    1
 -2       173       169       996      3759
 -1     13204    3    0    1
 -2       169       173       660      3759
 -1     13205    3    0    1
 -2       660       173      3463      3759
 -1     13206    3    0    1
 -2       667       169       663      3759
 -1     13207    3    0    1
 -2       169       667       172      3759
 -1     13208    3    0    1
 -2       632       147       411      3760
 -1     13209    3    0    1
 -2      2644       531      2671      3761
 -1     13210    3    0    1
 -2       733       333      1027       224
 -1     13211    3    0    1
 -2      3732       733      2644      3761
 -1     13212    3    0    1
 -2       733      3732      2644       736
 -1     13213    3    0    1
 -2       743      2644      2671      3761
 -1     13214    3    0    1
 -2       744       743      2671      3761
 -1     13215    3    0    1
 -2       743       744      1032      3761
 -1     13216    3    0    1
 -2      1029       743      1032      3761
 -1     13217    3    0    1
 -2      2644      1029      3732      3761
 -1     13218    3    0    1
 -2       743      1029      2644      3761
 -1     13219    3    0    1
 -2       776       255       263      3763
 -1     13220    3    0    1
 -2      3718      1044      3722      3763
 -1     13221    3    0    1
 -2        95      1279      2194      3764
 -1     13222    3    0    1
 -2      3623      3508      3395      3966
 -1     13223    3    0    1
 -2      3863       148      1997      3776
 -1     13224    3    0    1
 -2       147       148      3766      3776
 -1     13225    3    0    1
 -2      2340       147      2847      3776
 -1     13226    3    0    1
 -2      2533       977      3770      3775
 -1     13227    3    0    1
 -2      3766       148      3771      3773
 -1     13228    3    0    1
 -2      2523      3252      3866      3766
 -1     13229    3    0    1
 -2      1297      2523      3866      3766
 -1     13230    3    0    1
 -2       147      1297      3866      3766
 -1     13231    3    0    1
 -2      2105       976      2443      3767
 -1     13232    3    0    1
 -2      3732       733       333       736
 -1     13233    3    0    1
 -2       224      1029      1032      3768
 -1     13234    3    0    1
 -2      1029      3732      3761      3768
 -1     13235    3    0    1
 -2      1032      1029      3761      3768
 -1     13236    3    0    1
 -2       733      3732       333      3768
 -1     13237    3    0    1
 -2       224       333      1029      3768
 -1     13238    3    0    1
 -2      1029       333      3732      3768
 -1     13239    3    0    1
 -2       224       740       733      3768
 -1     13240    3    0    1
 -2       740       224       338      3768
 -1     13241    3    0    1
 -2      2237       947      2745      3769
 -1     13242    3    0    1
 -2      2745       947      3757      3769
 -1     13243    3    0    1
 -2       975      2340      2372      3776
 -1     13244    3    0    1
 -2        98      1282      2426      3769
 -1     13245    3    0    1
 -2        95        98      2426      3769
 -1     13246    3    0    1
 -2       147      1297      3766      3771
 -1     13247    3    0    1
 -2       147       973      1297      3771
 -1     13248    3    0    1
 -2       148       147      3766      3771
 -1     13249    3    0    1
 -2       147       148       973      3771
 -1     13250    3    0    1
 -2       975      3863      1997      3776
 -1     13251    3    0    1
 -2      3771       148      3337      3773
 -1     13252    3    0    1
 -2       148      3771      3337       973
 -1     13253    3    0    1
 -2      3337       148      3962      3773
 -1     13254    3    0    1
 -2       563       945      2549      4030
 -1     13255    3    0    1
 -2      2366       146      2533      3775
 -1     13256    3    0    1
 -2       146      2366      2443      3775
 -1     13257    3    0    1
 -2       550        96       557      4030
 -1     13258    3    0    1
 -2       379       550       946      4030
 -1     13259    3    0    1
 -2      1282       947      3402      4030
 -1     13260    3    0    1
 -2      2566       623      2571      4029
 -1     13261    3    0    1
 -2       977       623      2566      4029
 -1     13262    3    0    1
 -2       975       148      3740      4029
 -1     13263    3    0    1
 -2       147       978      3760      4029
 -1     13264    3    0    1
 -2       635       976      3767      4029
 -1     13265    3    0    1
 -2      3767       976      3774      4029
 -1     13266    3    0    1
 -2       623       629      2571      4029
 -1     13267    3    0    1
 -2       148       147       627      4029
 -1     13268    3    0    1
 -2       148       627      3740      4029
 -1     13269    3    0    1
 -2       624       147      3760      4029
 -1     13270    3    0    1
 -2       977      3770      3775      4029
 -1     13271    3    0    1
 -2       977       636      3770      4029
 -1     13272    3    0    1
 -2       629       976      2571      4029
 -1     13273    3    0    1
 -2       146       623       977      4029
 -1     13274    3    0    1
 -2       627      2571      3740      4029
 -1     13275    3    0    1
 -2      2566       624      3760      4029
 -1     13276    3    0    1
 -2       624      2566      2571      4029
 -1     13277    3    0    1
 -2       147       624       627      4029
 -1     13278    3    0    1
 -2       976      2443      3774      4029
 -1     13279    3    0    1
 -2       623       146       629      4029
 -1     13280    3    0    1
 -2       627       624      2571      4029
 -1     13281    3    0    1
 -2       146       977      3775      4029
 -1     13282    3    0    1
 -2      2443       146      3775      4029
 -1     13283    3    0    1
 -2       146       151       629      4029
 -1     13284    3    0    1
 -2       629       151       976      4029
 -1     13285    3    0    1
 -2       151       146      2443      4029
 -1     13286    3    0    1
 -2       976       151      2443      4029
 -1     13287    3    0    1
 -2       978       636      2566      4029
 -1     13288    3    0    1
 -2      2340      3767      3770      4029
 -1     13289    3    0    1
 -2      2340      2372      3767      4029
 -1     13290    3    0    1
 -2       635       975      2571      4029
 -1     13291    3    0    1
 -2      3770      3767      3774      4029
 -1     13292    3    0    1
 -2       978      2566      3760      4029
 -1     13293    3    0    1
 -2       636       977      2566      4029
 -1     13294    3    0    1
 -2      2571       975      3740      4029
 -1     13295    3    0    1
 -2      3770      3774      3775      4029
 -1     13296    3    0    1
 -2       976       635      2571      4029
 -1     13297    3    0    1
 -2      3774      2443      3775      4029
 -3
    1PSTEP                         1           1           1          
  100CL  101 1.000000000        4030                     0    1           1
 -4  DISP        4    1
 -5  D1          1    2    1    0
 -5  D2          1    2    2    0
 -5  D3          1    2    3    0
 -5  ALL         1    2    0    0    1ALL
 -1         1-3.45798E-04 7.07938E-05-7.05896E-03
 -1         2 1.94813E-03 5.30517E-04-6.95137E-03
 -1         3 1.44905E-03 1.45486E-03 1.11671E-02
 -1         4 2.55834E-04 1.74201E-03 1.20299E-02
 -1         5 1.29941E-03 1.50503E-03 1.16633E-02
 -1         6 4.48562E-04 1.66297E-03 1.25241E-02
 -1         7 3.63613E-03 1.49349E-03 6.23273E-03
 -1         8 1.84493E-03 2.45061E-03 8.11710E-03
 -1         9 8.72942E-04-6.78976E-05 1.16389E-02
 -1        10 8.81458E-04 8.82856E-05 1.16894E-02
 -1        11 1.96023E-03-4.66633E-04 7.46868E-03
 -1        12 1.99452E-03 5.18270E-04 7.60417E-03
 -1        13 1.32454E-03 1.33032E-03 1.03975E-02
 -1        14 3.72184E-03-1.19905E-03-2.40122E-03
 -1        15 2.38500E-03-1.59166E-03-4.13085E-03
 -1        16 3.73664E-03-1.14148E-03-3.20406E-03
 -1        17 3.73446E-03-1.23593E-03-4.95797E-03
 -1        18 3.43420E-03-1.01724E-03-3.83563E-03
 -1        19 4.09694E-03-4.08695E-04-1.24680E-03
 -1        20 3.47092E-03-1.02214E-03-3.89586E-03
 -1        21 2.62580E-03-1.06662E-03-5.90647E-03
 -1        22 2.62784E-03-1.67774E-03-7.05507E-03
 -1        23 1.96076E-03-3.68226E-04-7.05985E-03
 -1        24 1.93268E-03-3.57272E-04-6.94347E-03
 -1        25 1.97965E-03 5.40885E-04-7.06067E-03
 -1        26-2.35092E-04 1.14092E-04-1.21189E-02
 -1        27 8.36351E-04 1.32043E-05-1.09993E-02
 -1        28 7.84858E-04 1.75336E-04-1.10498E-02
 -1        29-1.50723E-03 1.30935E-04-9.64651E-03
 -1        30-5.10856E-04 1.68046E-04-1.19566E-02
 -1        31 3.33468E-03 1.50112E-03-5.43445E-03
 -1        32 1.83833E-03-2.20329E-03-7.88044E-03
 -1        33-7.45100E-04-1.66762E-03-8.76813E-03
 -1        34 1.40832E-03-1.23722E-03-1.05481E-02
 -1        35 4.56489E-04-1.39626E-03-1.06183E-02
 -1        36 1.13877E-03-1.21371E-03-9.61683E-03
 -1        37 2.64309E-03-1.76441E-03-8.45672E-03
 -1        38 2.54470E-03-1.85269E-03-9.17892E-03
 -1        39 2.53208E-03-1.76216E-03-6.48648E-03
 -1        40 3.73285E-03 1.28957E-03-5.99502E-03
 -1        41 2.24934E-03 1.58503E-03-3.35886E-03
 -1        42 3.80133E-03 1.20595E-03-5.08577E-03
 -1        43 3.27357E-03 1.51110E-03-3.89921E-03
 -1        44 3.76401E-03 1.16704E-03-3.33547E-03
 -1        45 4.28517E-03-4.52048E-05-8.96630E-04
 -1        46 4.09140E-03 4.12798E-04-1.25806E-03
 -1        47 4.13455E-03-5.00456E-04 1.63465E-03
 -1        48 4.25389E-03-7.32241E-05 1.01712E-03
 -1        49 1.34481E-03 1.31779E-03-1.05233E-02
 -1        50 1.18571E-03 1.19214E-03-9.83559E-03
 -1        51 2.59418E-03 1.03858E-03-5.91194E-03
 -1        52 2.58061E-03 1.03926E-03-5.83508E-03
 -1        53 8.32416E-05 1.49968E-03-1.12152E-02
 -1        54 1.48087E-05 1.36832E-03-1.07123E-02
 -1        55 2.56507E-03 1.65417E-03-7.16232E-03
 -1        56 3.43317E-03 1.04198E-03-3.92496E-03
 -1        57 2.59167E-03 1.75837E-03-8.50783E-03
 -1        58 1.61122E-03 2.14795E-03-7.93415E-03
 -1        59 1.88212E-03 2.04411E-03-9.83528E-03
 -1        60 1.74194E-03 2.22015E-03-9.14323E-03
 -1        61 7.00077E-04 2.24523E-03-6.55607E-03
 -1        62 3.73486E-03 1.22071E-03-2.51404E-03
 -1        63 3.87799E-03-6.24807E-05 7.91509E-04
 -1        64 3.78399E-03-1.45541E-03 6.23815E-03
 -1        65 4.24327E-03 1.00195E-04 1.14106E-03
 -1        66 3.89504E-03 8.01865E-05 1.79143E-03
 -1        67 3.14684E-03 7.40813E-05-5.96985E-04
 -1        68 3.88200E-03 9.62219E-05 9.50972E-04
 -1        69 4.04229E-03-4.01912E-04-1.23139E-03
 -1        70 3.70969E-03 1.32370E-03 3.59208E-03
 -1        71 2.40047E-03 1.78339E-03 3.12854E-03
 -1        72 2.42398E-03 1.80418E-03 4.14332E-03
 -1        73 4.21485E-03 9.13753E-05-1.65642E-03
 -1        74 3.87624E-03 1.11823E-04-7.55963E-04
 -1        75 3.90079E-03-9.16008E-05-1.70980E-03
 -1        76 2.63580E-03-1.13404E-03 6.32939E-03
 -1        77 2.67026E-03-1.88287E-03 7.39762E-03
 -1        78 2.57995E-03 1.87100E-03 7.52918E-03
 -1        79 1.81953E-03-2.40945E-03 8.09397E-03
 -1        80 2.70484E-03-1.96122E-03 8.87303E-03
 -1        81 2.55690E-03-1.99015E-03 6.77390E-03
 -1        82 1.91415E-03-2.45935E-03 9.42796E-03
 -1        83 1.41824E-03-1.35885E-03 1.02963E-02
 -1        84 1.45778E-03-1.46945E-03 1.11381E-02
 -1        85 1.29962E-03-1.51988E-03 1.16307E-02
 -1        86 3.06943E-04-1.67242E-03 1.12676E-02
 -1        87 3.38603E-04-1.78737E-03 1.20232E-02
 -1        88-6.70568E-04 1.92891E-03 9.44482E-03
 -1        89-6.70209E-04 2.07427E-03 1.01033E-02
 -1        90 1.93740E-03 2.53432E-03 9.47778E-03
 -1        91 1.08807E-03 2.83874E-03 7.61053E-03
 -1        92-4.42328E-04-1.72429E-04 1.26982E-02
 -1        93 7.95935E-04-2.54885E-03 6.57311E-03
 -1        94-6.85757E-04-1.97853E-03 9.21155E-03
 -1        95-4.30137E-04-2.08016E-05-1.13391E-02
 -1        96-4.08935E-04 6.07743E-05-1.22594E-02
 -1        97-1.50384E-03 3.48544E-05-9.70117E-03
 -1        98-4.27495E-04 7.81350E-05-1.13387E-02
 -1        99-4.66390E-04 2.63465E-05-1.19505E-02
 -1       100-4.19046E-04 1.31678E-04-1.12405E-02
 -1       101 6.58272E-04 1.70029E-05-1.10962E-02
 -1       102-2.54250E-04 3.78643E-05-1.20432E-02
 -1       103-3.84799E-04-9.01655E-05-1.24053E-02
 -1       104 5.80037E-04 1.77687E-04-1.11812E-02
 -1       105 2.58803E-03-1.04178E-03-5.81785E-03
 -1       106-3.90558E-04-1.36537E-05-7.01638E-03
 -1       107-6.75562E-04-1.73447E-03-9.33540E-03
 -1       108-5.67341E-04-3.81044E-04-8.44164E-03
 -1       109 2.13497E-04-1.43792E-03-1.08117E-02
 -1       110 1.32237E-03-1.10625E-03-9.85864E-03
 -1       111-2.56559E-04-3.17793E-04-1.17912E-02
 -1       112 2.40411E-04-1.59404E-03-1.13689E-02
 -1       113-3.69912E-04-1.37095E-04-1.11765E-02
 -1       114-3.04120E-04-2.04718E-04-1.08529E-02
 -1       115 1.24993E-03-1.28961E-03-1.10014E-02
 -1       116-1.62497E-04-3.33598E-04-9.66729E-03
 -1       117-2.28977E-04-2.86407E-04-1.01297E-02
 -1       118 4.06331E-04-1.51481E-03-1.18125E-02
 -1       119-1.81429E-04-8.43787E-05-3.89968E-03
 -1       120 1.80371E-04-5.00850E-04-8.21607E-03
 -1       121 9.67440E-04-2.37477E-03-6.53913E-03
 -1       122-3.87324E-05-3.85172E-04-8.67585E-03
 -1       123 1.09463E-03-2.35967E-03-7.50595E-03
 -1       124 1.88423E-03-2.27094E-03-9.09548E-03
 -1       125 8.05365E-05-3.73016E-04-7.31372E-03
 -1       126 9.01034E-05-4.84661E-04-9.37002E-03
 -1       127 1.96530E-03-2.19035E-03-9.79089E-03
 -1       128 1.96825E-03-2.08914E-03-7.34398E-03
 -1       129-1.39649E-04-1.54649E-05-1.23008E-03
 -1       130 2.49575E-04-4.11469E-04-3.80264E-03
 -1       131 2.32591E-03-1.64699E-03-3.10616E-03
 -1       132 3.30061E-03-1.50095E-03-3.69241E-03
 -1       133 2.81668E-04-2.27789E-04-3.28967E-03
 -1       134-1.65086E-04-1.17826E-05-1.26766E-03
 -1       135 4.23236E-04-3.45613E-04-5.37154E-03
 -1       136 2.12344E-04-2.88544E-04-5.10667E-03
 -1       137 3.69657E-03-1.30786E-03-5.84777E-03
 -1       138 3.39243E-03-1.54131E-03-5.27256E-03
 -1       139 3.41786E-03-1.50727E-03-6.11852E-03
 -1       140 4.71433E-04-3.22824E-04-3.90179E-03
 -1       141 4.18563E-04-3.47506E-04-6.02861E-03
 -1       142 3.34069E-03-1.43604E-03-2.94635E-03
 -1       143 2.95483E-04-1.66367E-04-2.30086E-03
 -1       144 4.05768E-03 5.74529E-04 1.68436E-03
 -1       145 3.14946E-03 7.71731E-05 5.79958E-04
 -1       146 5.43015E-04 6.63093E-05 9.04953E-04
 -1       147 3.61872E-04 7.79407E-05 1.18719E-03
 -1       148 3.72535E-04-2.32871E-05-7.86497E-04
 -1       149 4.22781E-03 8.83642E-05-7.45858E-04
 -1       150 4.35509E-04-7.89473E-05-4.87180E-04
 -1       151 5.49195E-04-1.09134E-05-6.93327E-04
 -1       152 4.23188E-03 8.16931E-05 2.03913E-03
 -1       153 5.66357E-04-4.21678E-05-1.45125E-03
 -1       154 3.88366E-03 1.24611E-04-1.60197E-03
 -1       155 3.49829E-03 1.21362E-03 4.36029E-03
 -1       156 2.83790E-04 4.78250E-04 3.85065E-03
 -1       157 3.35335E-03 1.70800E-03 5.45564E-03
 -1       158 3.54044E-03 1.22461E-03 4.41648E-03
 -1       159 4.11102E-03 5.86419E-04 1.69630E-03
 -1       160 4.05936E-04 3.72132E-04 4.04695E-03
 -1       161 3.71360E-03 1.39344E-03 5.33746E-03
 -1       162 1.56055E-04 3.61424E-04 6.44004E-03
 -1       163 3.26546E-03 1.67159E-03 3.86506E-03
 -1       164 3.37926E-03 1.66724E-03 6.30848E-03
 -1       165 3.29715E-03 1.61577E-03 3.10474E-03
 -1       166 3.68352E-03 1.37518E-03 2.77807E-03
 -1       167-1.64641E-04 6.50018E-04 6.90304E-03
 -1       168 2.62594E-03 1.20737E-03 6.48362E-03
 -1       169 3.90229E-05 4.23483E-04 7.69299E-03
 -1       170-1.97952E-04 1.61835E-04 4.49513E-03
 -1       171 1.05218E-03 2.75213E-03 6.43179E-03
 -1       172 9.13847E-05 3.93707E-04 6.89290E-03
 -1       173-1.29628E-05 4.13194E-04 9.15665E-03
 -1       174 2.65063E-03 1.96716E-03 8.96145E-03
 -1       175 2.54748E-03 2.06710E-03 9.73352E-03
 -1       176 1.53071E-04 5.34039E-04 8.48221E-03
 -1       177 1.97665E-03 2.34592E-03 7.54953E-03
 -1       178 2.48505E-03 1.96049E-03 6.90959E-03
 -1       179 2.04672E-03 2.42752E-03 1.02314E-02
 -1       180-2.62165E-04 1.49712E-04 6.55252E-03
 -1       181 2.59433E-03 1.19530E-03 6.39514E-03
 -1       182 1.96750E-03 5.08725E-04 7.49261E-03
 -1       183-3.45870E-04 5.68490E-05 7.66485E-03
 -1       184-2.82417E-04 3.55267E-04 1.24364E-02
 -1       185-3.24282E-04 2.71462E-04 1.14604E-02
 -1       186-2.80247E-04 1.44598E-04 6.66913E-03
 -1       187-2.34289E-04 3.62652E-04 1.06878E-02
 -1       188 1.15506E-03 1.39499E-03 1.01064E-02
 -1       189-4.01204E-04 2.09954E-04 1.18119E-02
 -1       190-2.30540E-04 4.54442E-04 1.18441E-02
 -1       191 4.28878E-04 1.57058E-03 1.11672E-02
 -1       192 1.94644E-04 1.60390E-03 1.14032E-02
 -1       193-3.20862E-04 3.15715E-04 1.27682E-02
 -1       194-1.38255E-03 4.72159E-05 1.06164E-02
 -1       195-1.52286E-03 1.83083E-04 1.07104E-02
 -1       196-7.91941E-04 9.24971E-06 1.00478E-02
 -1       197 1.97295E-03-4.56354E-04 7.56752E-03
 -1       198-4.20643E-04-4.69471E-05 1.20160E-02
 -1       199-4.37220E-04 1.47846E-04 1.19308E-02
 -1       200-4.27559E-04 8.01018E-05 1.20491E-02
 -1       201 7.03678E-04 9.17758E-05 1.17983E-02
 -1       202-3.89789E-04-9.80830E-05 1.19438E-02
 -1       203-2.57213E-04-1.55797E-04 1.28274E-02
 -1       204-4.11240E-04-4.19885E-05 1.30523E-02
 -1       205-3.98914E-04 8.22957E-06 1.26832E-02
 -1       206 6.76119E-04-6.26507E-05 1.17506E-02
 -1       207-4.32959E-04 7.98810E-05 1.31834E-02
 -1       208-1.66563E-04 3.79652E-06 1.27897E-02
 -1       209-3.17430E-04-4.46788E-05 7.56607E-03
 -1       210-5.99889E-04-2.04497E-03 9.91727E-03
 -1       211-5.82803E-04-4.84064E-04 8.86008E-03
 -1       212 2.67470E-03-1.14719E-03 6.42442E-03
 -1       213-2.28159E-04-3.45286E-04 1.05739E-02
 -1       214-3.33469E-04-4.86271E-05 7.73579E-03
 -1       215-3.55167E-04-1.55813E-04 1.18106E-02
 -1       216-3.43485E-04-2.90884E-04 1.26423E-02
 -1       217-2.48240E-04-3.33225E-04 1.24850E-02
 -1       218 4.74789E-04-1.61707E-03 1.10229E-02
 -1       219 5.27065E-04-1.70536E-03 1.24915E-02
 -1       220-1.72819E-04-4.99239E-04 1.13672E-02
 -1       221 1.23730E-03-1.43221E-03 1.00104E-02
 -1       222 9.42465E-04-2.54442E-03 7.50388E-03
 -1       223-1.25781E-04-6.47208E-04 6.22875E-03
 -1       224 6.58479E-05-4.37859E-04 7.62979E-03
 -1       225 2.01953E-03-2.35102E-03 1.01634E-02
 -1       226 7.12041E-05-5.00810E-04 9.61005E-03
 -1       227 1.94041E-03-2.30305E-03 7.52499E-03
 -1       228 2.61586E-03-2.04310E-03 9.64267E-03
 -1       229 1.93020E-04-5.40276E-04 7.78129E-03
 -1       230 3.50791E-03-1.17678E-03 4.27185E-03
 -1       231-1.89467E-04-1.16795E-04 4.30234E-03
 -1       232 2.46330E-03-1.74312E-03 4.16295E-03
 -1       233 2.41191E-03-1.78261E-03 3.11233E-03
 -1       234-1.54962E-04-2.86285E-05 1.64722E-03
 -1       235 3.85483E-03-1.30962E-03 3.48211E-03
 -1       236 3.52803E-03-1.17902E-03 4.34772E-03
 -1       237 3.85896E-03-1.36469E-03 5.32233E-03
 -1       238 3.40186E-03-1.67019E-03 5.45991E-03
 -1       239 2.44702E-04-2.88041E-04 5.43160E-03
 -1       240 3.82132E-03-1.35959E-03 2.63625E-03
 -1       241 4.06732E-04-3.71461E-04 6.22257E-03
 -1       242 3.43779E-03-1.60017E-03 6.31724E-03
 -1       243 3.31013E-03-1.66002E-03 3.82640E-03
 -1       244 3.34703E-03-1.60613E-03 3.06600E-03
 -1       245-1.33173E-04 6.42749E-05-1.29079E-03
 -1       246 4.04112E-03 4.09319E-04-1.24592E-03
 -1       247 4.08828E-03-4.93546E-04 1.60709E-03
 -1       248-1.24451E-04-2.65412E-05 1.62465E-03
 -1       249 3.11576E-03-9.64581E-05-7.09444E-04
 -1       250-1.49924E-04 6.88016E-05-1.31870E-03
 -1       251 3.96359E-04 1.06248E-05 3.68997E-04
 -1       252 5.75936E-04-1.92772E-07 7.54672E-04
 -1       253 3.12244E-03-1.20497E-05 5.06308E-04
 -1       254 4.27600E-03-6.16977E-05-1.80477E-03
 -1       255 3.60641E-04 3.18600E-05-9.10189E-04
 -1       256 5.80306E-04-2.31333E-05 1.46641E-03
 -1       257 3.88956E-03-3.92153E-05 1.62930E-03
 -1       258 3.88943E-03-7.89264E-05-8.73263E-04
 -1       259 6.03625E-04 4.85884E-05-8.70698E-04
 -1       260 6.10746E-04 1.73515E-05-1.61227E-03
 -1       261 3.23033E-04-9.28689E-05 2.07155E-03
 -1       262 4.24289E-03-6.34713E-05 1.93666E-03
 -1       263 3.08926E-04 1.29645E-04-1.94557E-03
 -1       264-1.98094E-04 1.30112E-04-3.91241E-03
 -1       265 2.30081E-03 1.52933E-03-4.30963E-03
 -1       266-2.13059E-04 1.31863E-04-4.00580E-03
 -1       267 2.67125E-04 2.68814E-04-3.41449E-03
 -1       268 3.31121E-03 1.45493E-03-3.15256E-03
 -1       269 3.76813E-04 3.50836E-04-5.55498E-03
 -1       270 3.36755E-03 1.43844E-03-6.27995E-03
 -1       271 3.12201E-04 4.09328E-04-6.27533E-03
 -1       272 4.66498E-04 3.38137E-04-3.42591E-03
 -1       273 3.41505E-03 1.03731E-03-3.86935E-03
 -1       274 7.86063E-04 2.30725E-03-7.36643E-03
 -1       275 6.03773E-05 4.66631E-04-9.37955E-03
 -1       276 9.38799E-05 5.01703E-04-8.29081E-03
 -1       277 2.46611E-03 1.74565E-03-6.58230E-03
 -1       278-4.11667E-05 4.29276E-04-8.75405E-03
 -1       279 2.49574E-03 1.85372E-03-9.23008E-03
 -1       280 1.71169E-03 2.06972E-03-7.43184E-03
 -1       281 7.10898E-05 4.05644E-04-6.61769E-03
 -1       282-1.22383E-04 4.06622E-04-9.42310E-03
 -1       283 2.21814E-06 4.82558E-04-9.84920E-03
 -1       284-2.86550E-04 1.38966E-04-5.92716E-03
 -1       285-8.29900E-04 1.63330E-03-8.67715E-03
 -1       286-8.42671E-04 1.77386E-03-9.22694E-03
 -1       287-2.95423E-04 3.06229E-04-1.15919E-02
 -1       288-2.94219E-04 3.71816E-04-1.10695E-02
 -1       289 1.19458E-03 1.36580E-03-1.09737E-02
 -1       290-2.99027E-04 2.51219E-04-1.08502E-02
 -1       291 1.57578E-04 1.31679E-03-1.05156E-02
 -1       292 9.97439E-04 1.26430E-03-9.59458E-03
 -1       293 2.88358E-04 1.41673E-03-1.16525E-02
 -1       294 0.00000E+00 0.00000E+00 0.00000E+00
 -1       295 0.00000E+00 0.00000E+00 0.00000E+00
 -1       296 0.00000E+00 0.00000E+00 0.00000E+00
 -1       297 0.00000E+00 0.00000E+00 0.00000E+00
 -1       298 0.00000E+00 0.00000E+00 0.00000E+00
 -1       299 0.00000E+00 0.00000E+00 0.00000E+00
 -1       300 0.00000E+00 0.00000E+00 0.00000E+00
 -1       301 0.00000E+00 0.00000E+00 0.00000E+00
 -1       302 0.00000E+00 0.00000E+00 0.00000E+00
 -1       303 0.00000E+00 0.00000E+00 0.00000E+00
 -1       304 0.00000E+00 0.00000E+00 0.00000E+00
 -1       305 0.00000E+00 0.00000E+00 0.00000E+00
 -1       306 0.00000E+00 0.00000E+00 0.00000E+00
 -1       307 0.00000E+00 0.00000E+00 0.00000E+00
 -1       308 0.00000E+00 0.00000E+00 0.00000E+00
 -1       309 0.00000E+00 0.00000E+00 0.00000E+00
 -1       310 0.00000E+00 0.00000E+00 0.00000E+00
 -1       311 0.00000E+00 0.00000E+00 0.00000E+00
 -1       312 0.00000E+00 0.00000E+00 0.00000E+00
 -1       313 0.00000E+00 0.00000E+00 0.00000E+00
 -1       314 0.00000E+00 0.00000E+00 0.00000E+00
 -1       315 0.00000E+00 0.00000E+00 0.00000E+00
 -1       316 0.00000E+00 0.00000E+00 0.00000E+00
 -1       317 0.00000E+00 0.00000E+00 0.00000E+00
 -1       318 0.00000E+00 0.00000E+00 0.00000E+00
 -1       319 0.00000E+00 0.00000E+00 0.00000E+00
 -1       320 0.00000E+00 0.00000E+00 0.00000E+00
 -1       321 0.00000E+00 0.00000E+00 0.00000E+00
 -1       322 0.00000E+00 0.00000E+00 0.00000E+00
 -1       323 0.00000E+00 0.00000E+00 0.00000E+00
 -1       324 0.00000E+00 0.00000E+00 0.00000E+00
 -1       325 0.00000E+00 0.00000E+00 0.00000E+00
 -1       326 0.00000E+00 0.00000E+00 0.00000E+00
 -1       327 0.00000E+00 0.00000E+00 0.00000E+00
 -1       328 0.00000E+00 0.00000E+00 0.00000E+00
 -1       329 0.00000E+00 0.00000E+00 0.00000E+00
 -1       330 0.00000E+00 0.00000E+00 0.00000E+00
 -1       331-3.39237E-04-2.52802E-04 1.14447E-02
 -1       332-9.16491E-05-4.26940E-04 9.80482E-03
 -1       333-3.72606E-06-4.39118E-04 9.07377E-03
 -1       334-1.61680E-04-3.97194E-04 1.00938E-02
 -1       335-2.66338E-04-1.04899E-04 6.53533E-03
 -1       336 5.31571E-05-4.83813E-04 1.01852E-02
 -1       337 1.77159E-04-3.26286E-04 6.38025E-03
 -1       338 1.18611E-04-3.76093E-04 6.80921E-03
 -1       339-2.00674E-04-1.16326E-04 4.40829E-03
 -1       340 3.92678E-04-3.91627E-04 5.56303E-03
 -1       341 2.56071E-04-4.38293E-04 3.86514E-03
 -1       342 3.57167E-04 4.10360E-04 5.55982E-03
 -1       343 3.56119E-04 4.59060E-04 6.21847E-03
 -1       344 1.63388E-04 5.38914E-04 7.89719E-03
 -1       345 2.31691E-04 3.37746E-04 5.48294E-03
 -1       346 3.63265E-04-2.84264E-05 1.06964E-03
 -1       347 2.65701E-04-2.74957E-04 3.56643E-03
 -1       348 2.76129E-04 2.15605E-04-2.43498E-03
 -1       349 1.81771E-05 4.45127E-04-7.40187E-03
 -1       350 1.41861E-04 3.49909E-04-6.17415E-03
 -1       351 2.16039E-04 3.22117E-04-5.23021E-03
 -1       352-3.18372E-04 1.40751E-04-6.08758E-03
 -1       353-2.45937E-04 3.29668E-04-1.01215E-02
 -1       354-3.76157E-04 7.06398E-05-7.23891E-03
 -1       355-3.92111E-04 1.92642E-04-1.11357E-02
 -1       356-1.96779E-04 3.82939E-04-9.68606E-03
 -1       357-6.36119E-04-4.19403E-04-8.76579E-03
 -1       358 0.00000E+00 0.00000E+00 0.00000E+00
 -1       359 0.00000E+00 0.00000E+00 0.00000E+00
 -1       360-1.34542E-04-6.43016E-04-6.32343E-03
 -1       361 3.15307E-04-3.65728E-04-3.08497E-03
 -1       362 5.34648E-04-2.64070E-04-3.24653E-03
 -1       363 0.00000E+00 0.00000E+00 0.00000E+00
 -1       364 5.44170E-04 1.56332E-04 1.62164E-03
 -1       365 4.50160E-04 2.95984E-04 3.31940E-03
 -1       366 4.91597E-04 9.25641E-05 2.99051E-04
 -1       367 2.94846E-04 3.95994E-04 3.10901E-03
 -1       368-1.46737E-04 6.39659E-04 6.30465E-03
 -1       369 0.00000E+00 0.00000E+00 0.00000E+00
 -1       370 0.00000E+00 0.00000E+00 0.00000E+00
 -1       371-1.69570E-04-4.37952E-04-1.08831E-02
 -1       372-1.86751E-04-3.88391E-04-1.11763E-02
 -1       373-1.25065E-04-5.98136E-04-6.89235E-03
 -1       374 0.00000E+00 0.00000E+00 0.00000E+00
 -1       375-7.39364E-04 3.91002E-05-9.21920E-03
 -1       376 0.00000E+00 0.00000E+00 0.00000E+00
 -1       377 0.00000E+00 0.00000E+00 0.00000E+00
 -1       378-7.93093E-04 4.19379E-05-9.15175E-03
 -1       379-4.61605E-04-4.69761E-05-1.23773E-02
 -1       380-6.48168E-04 3.56546E-04-8.55098E-03
 -1       381-4.11238E-04 9.14926E-05-1.23155E-02
 -1       382-2.93963E-04 2.62384E-04-1.18713E-02
 -1       383-6.43336E-04 4.21622E-04-8.25591E-03
 -1       384-2.23150E-04 4.19390E-04-1.07404E-02
 -1       385-2.63549E-04 6.80554E-04-6.91921E-03
 -1       386 2.00962E-04 4.01461E-04-4.07993E-03
 -1       387-2.54753E-04 6.72006E-04-6.29378E-03
 -1       388 1.51903E-04 5.19558E-04-7.80033E-03
 -1       389 0.00000E+00 0.00000E+00 0.00000E+00
 -1       390 2.28385E-04 4.27427E-04-3.36122E-03
 -1       391 4.21984E-04 3.85233E-04-4.12520E-03
 -1       392 4.07363E-04 1.82578E-05-4.47676E-04
 -1       393 0.00000E+00 0.00000E+00 0.00000E+00
 -1       394 4.58392E-04-3.45633E-04 3.33338E-03
 -1       395 2.87168E-04-1.94035E-04 2.56027E-03
 -1       396 4.27827E-04-3.53488E-04 4.04089E-03
 -1       397 3.24808E-04-4.07303E-04 3.14237E-03
 -1       398 1.47606E-04-5.39673E-04 8.46838E-03
 -1       399 0.00000E+00 0.00000E+00 0.00000E+00
 -1       400-3.95817E-04-7.22698E-05-1.12992E-02
 -1       401-2.80107E-04-2.63063E-04-1.20603E-02
 -1       402-4.12463E-04-2.12146E-05-7.20115E-03
 -1       403 5.59513E-05-4.67355E-04-9.88260E-03
 -1       404 2.46964E-04-4.82874E-04-7.61103E-03
 -1       405 1.10768E-04-3.43592E-04-6.50963E-03
 -1       406-3.08612E-04-8.23910E-05-6.07594E-03
 -1       407-9.95593E-05-3.56338E-04-9.39017E-03
 -1       408 1.55215E-04-3.12684E-04-6.06877E-03
 -1       409-2.06532E-04-8.86286E-05-3.99272E-03
 -1       410 3.27300E-04-8.26084E-05-1.80781E-03
 -1       411 3.22881E-04 1.54446E-04 2.21077E-03
 -1       412-1.42026E-04 7.46233E-05 1.75624E-03
 -1       413 2.96101E-04 2.30045E-04 2.70628E-03
 -1       414 2.67157E-04 2.99956E-04 3.69677E-03
 -1       415-1.90396E-04-4.42330E-04 1.17393E-02
 -1       416-1.71072E-04-6.58861E-04 6.92451E-03
 -1       417 0.00000E+00 0.00000E+00 0.00000E+00
 -1       418-5.49386E-04-4.54141E-04 9.21846E-03
 -1       419 6.31757E-05 5.26905E-04 9.78163E-03
 -1       420-1.98714E-04 5.13134E-04 1.15105E-02
 -1       421-1.04017E-04 4.10107E-04 9.89646E-03
 -1       422-4.74226E-06 5.08212E-04 1.02088E-02
 -1       423-1.84766E-04 3.98992E-04 1.01886E-02
 -1       424-3.94260E-04 4.61978E-05 1.31706E-02
 -1       425-6.25404E-04 4.97902E-04 9.39423E-03
 -1       426-6.02786E-04 5.22237E-04 9.00243E-03
 -1       427-3.56930E-04 5.93639E-05 7.78913E-03
 -1       428-3.77016E-04-1.00162E-04 1.29825E-02
 -1       429-8.41455E-04 2.87375E-06 1.00226E-02
 -1       430-2.88013E-04-7.48612E-05-5.94084E-03
 -1       431-1.23775E-04 7.38644E-05 1.71706E-03
 -1       432-1.73696E-04 1.54839E-04 4.41057E-03
 -1       433-2.47864E-04-1.03934E-04 6.41225E-03
 -1       434 0.00000E+00 0.00000E+00 0.00000E+00
 -1       435 0.00000E+00 0.00000E+00 0.00000E+00
 -1       436 0.00000E+00 0.00000E+00 0.00000E+00
 -1       437 0.00000E+00 0.00000E+00 0.00000E+00
 -1       438 0.00000E+00 0.00000E+00 0.00000E+00
 -1       439 0.00000E+00 0.00000E+00 0.00000E+00
 -1       440 0.00000E+00 0.00000E+00 0.00000E+00
 -1       441 0.00000E+00 0.00000E+00 0.00000E+00
 -1       442 0.00000E+00 0.00000E+00 0.00000E+00
 -1       443 0.00000E+00 0.00000E+00 0.00000E+00
 -1       444 0.00000E+00 0.00000E+00 0.00000E+00
 -1       445 0.00000E+00 0.00000E+00 0.00000E+00
 -1       446 0.00000E+00 0.00000E+00 0.00000E+00
 -1       447 0.00000E+00 0.00000E+00 0.00000E+00
 -1       448 0.00000E+00 0.00000E+00 0.00000E+00
 -1       449 6.01002E-04-1.85018E-04-7.18337E-03
 -1       450 6.05425E-04 2.83968E-04-7.17436E-03
 -1       451 8.14260E-04 1.46548E-03 1.08806E-02
 -1       452 9.82726E-04 1.61554E-03 1.24173E-02
 -1       453 3.66572E-03-1.55532E-03 6.33138E-03
 -1       454 3.54498E-03 1.60287E-03 6.38629E-03
 -1       455 2.22009E-03 2.12797E-03 7.43267E-03
 -1       456 2.27136E-03 2.28816E-03 1.02267E-02
 -1       457 1.58259E-03-5.79215E-05 9.91201E-03
 -1       458 1.61864E-03 6.69907E-05 9.94049E-03
 -1       459 2.06509E-03-1.11256E-03 8.65317E-03
 -1       460 2.07706E-03-1.22224E-03 9.56649E-03
 -1       461 3.60178E-03-1.48687E-03 2.95055E-03
 -1       462 2.06704E-03 1.10093E-03 8.75536E-03
 -1       463 2.03447E-03 1.25708E-03 9.63565E-03
 -1       464 3.57638E-03 1.47061E-03 3.06728E-03
 -1       465 3.62073E-03-1.29076E-03-2.79735E-03
 -1       466 2.74675E-03-1.60497E-03-4.80308E-03
 -1       467 2.64494E-03-1.66987E-03-3.59458E-03
 -1       468 3.99693E-03-1.06761E-03-4.42141E-03
 -1       469 4.02894E-03-9.17220E-04-2.42496E-03
 -1       470 3.57456E-03-1.43597E-03-6.11753E-03
 -1       471 3.04266E-03-1.51107E-03-7.26267E-03
 -1       472 3.06078E-03-1.34257E-03-5.76152E-03
 -1       473 2.03348E-03-1.05188E-03-9.03255E-03
 -1       474 1.98734E-03-9.33303E-04-8.18137E-03
 -1       475 1.58560E-03 1.87476E-04-9.32862E-03
 -1       476 1.50283E-03 5.42257E-05-9.26129E-03
 -1       477 1.45761E-04 2.16311E-04-1.19381E-02
 -1       478 1.61580E-04 7.02865E-06-1.18742E-02
 -1       479-1.32080E-03 1.58286E-04-1.10664E-02
 -1       480-1.29254E-03 6.84406E-05-1.10737E-02
 -1       481 3.57716E-03 1.41602E-03-6.25952E-03
 -1       482 1.29826E-03-2.41772E-03-8.39851E-03
 -1       483 1.22763E-03-2.42522E-03-7.38961E-03
 -1       484-5.31334E-04-1.75135E-03-1.05794E-02
 -1       485-5.00680E-04-1.63805E-03-1.00571E-02
 -1       486 7.73721E-04-1.37939E-03-1.16248E-02
 -1       487 8.34465E-04-1.27880E-03-1.03018E-02
 -1       488 2.28271E-03-2.02097E-03-9.69142E-03
 -1       489 2.20891E-03-1.89532E-03-7.12312E-03
 -1       490 2.69510E-03 1.58013E-03-4.97348E-03
 -1       491 2.58420E-03 1.67097E-03-3.78416E-03
 -1       492 4.05394E-03 1.06792E-03-4.46069E-03
 -1       493 4.04671E-03 9.40102E-04-2.49486E-03
 -1       494 4.47520E-03-2.27316E-06-9.42004E-04
 -1       495 4.50852E-03-1.35505E-04 1.25866E-03
 -1       496 3.39281E-03-4.45127E-05-7.67243E-04
 -1       497 3.40744E-03-4.15931E-06 5.97549E-04
 -1       498 2.03488E-03 1.21056E-03-9.02487E-03
 -1       499 1.99542E-03 1.08296E-03-8.13149E-03
 -1       500 8.50237E-04 1.44111E-03-1.16432E-02
 -1       501 6.30298E-04 1.29470E-03-1.03094E-02
 -1       502-7.13757E-04 1.60530E-03-1.03589E-02
 -1       503-6.55581E-04 1.50372E-03-9.93282E-03
 -1       504 3.06379E-03 1.48349E-03-7.33762E-03
 -1       505 3.01720E-03 1.37429E-03-5.80547E-03
 -1       506 2.25306E-03 2.02892E-03-9.78407E-03
 -1       507 2.11091E-03 1.88048E-03-7.26314E-03
 -1       508 9.88068E-04 2.29784E-03-8.39985E-03
 -1       509 9.27364E-04 2.30776E-03-7.48608E-03
 -1       510 3.58821E-03 1.29705E-03-2.93006E-03
 -1       511 4.10373E-03-7.44050E-05 1.81870E-03
 -1       512 4.11223E-03-1.05902E-03 2.75730E-03
 -1       513 4.12194E-03-1.21802E-03 4.79401E-03
 -1       514 2.70845E-03-1.79204E-03 3.62624E-03
 -1       515 2.80265E-03-1.75331E-03 4.95870E-03
 -1       516 4.05062E-03 9.37842E-05 1.86823E-03
 -1       517 3.36597E-03 1.10680E-04-6.38453E-04
 -1       518 4.47905E-03 1.69404E-05-8.41208E-04
 -1       519 4.44046E-03 1.41770E-04 1.29431E-03
 -1       520 3.39838E-03 6.27021E-05 7.20321E-04
 -1       521 4.06305E-03 1.15885E-03 2.87367E-03
 -1       522 4.06492E-03 1.25612E-03 4.97226E-03
 -1       523 2.63111E-03 1.82641E-03 3.60915E-03
 -1       524 2.73590E-03 1.79401E-03 4.90211E-03
 -1       525 4.03110E-03 9.78574E-05-1.60580E-03
 -1       526 4.09821E-03-5.30413E-05-1.73911E-03
 -1       527 3.10448E-03-1.52155E-03 6.15298E-03
 -1       528 3.10339E-03-1.65708E-03 7.76182E-03
 -1       529 3.11088E-03 1.56409E-03 6.22412E-03
 -1       530 3.08214E-03 1.69804E-03 7.85276E-03
 -1       531 2.26785E-03-2.08219E-03 7.38398E-03
 -1       532 2.30034E-03-2.22544E-03 1.00757E-02
 -1       533 8.84959E-04-1.50429E-03 1.07742E-02
 -1       534 1.01696E-03-1.64780E-03 1.23333E-02
 -1       535-1.18701E-03-1.38791E-04 1.19668E-02
 -1       536-1.25818E-03-2.69719E-05 1.19866E-02
 -1       537-4.68062E-04 1.80318E-03 1.06061E-02
 -1       538-5.32703E-04 1.92720E-03 1.12750E-02
 -1       539 1.16424E-03 2.68194E-03 7.47339E-03
 -1       540 1.25131E-03 2.74633E-03 8.66681E-03
 -1       541 2.65423E-04-1.04151E-04 1.25867E-02
 -1       542 2.33669E-04 6.84106E-05 1.25668E-02
 -1       543 1.13586E-03-2.60437E-03 7.53499E-03
 -1       544 1.23623E-03-2.60750E-03 8.63908E-03
 -1       545-4.30575E-04-1.93281E-03 1.04868E-02
 -1       546-4.46070E-04-2.04538E-03 1.12155E-02
 -1       547-1.16653E-03 1.00355E-04-9.50253E-03
 -1       548-1.10896E-03 5.53016E-05-9.59169E-03
 -1       549-4.82324E-04 8.63714E-06-1.14145E-02
 -1       550-4.49220E-04 1.14055E-04-1.22968E-02
 -1       551 1.63716E-04 8.71084E-05-1.12908E-02
 -1       552-4.56642E-04-1.22590E-05-9.58653E-03
 -1       553 6.23475E-04-1.99197E-04-7.26950E-03
 -1       554 6.23864E-04 2.77827E-04-7.25839E-03
 -1       555-4.57684E-04 8.88971E-05-9.47482E-03
 -1       556 1.36535E-04 4.58505E-05-1.12717E-02
 -1       557-4.42169E-04 4.53298E-05-1.22582E-02
 -1       558-5.52160E-04 3.75373E-05-1.13387E-02
 -1       559 3.74652E-05 6.84379E-05-1.12733E-02
 -1       560 3.96608E-05 6.22599E-05-1.13551E-02
 -1       561-3.63976E-04 4.53983E-05-1.22706E-02
 -1       562-3.91999E-04 1.07492E-04-1.23724E-02
 -1       563-3.63590E-04 1.56190E-04-1.22041E-02
 -1       564-3.41248E-04-7.07311E-05-1.21969E-02
 -1       565 9.65529E-04-5.34404E-04-6.06307E-03
 -1       566-6.74505E-04-1.02657E-03-8.65348E-03
 -1       567-5.92239E-04-1.03977E-03-9.20915E-03
 -1       568-2.87808E-04-3.38267E-04-1.03259E-02
 -1       569 5.71196E-05-9.00678E-04-1.10636E-02
 -1       570 4.99504E-04-7.13278E-04-1.00684E-02
 -1       571-2.48859E-04-1.92025E-04-8.40184E-03
 -1       572 9.87434E-04-5.37932E-04-6.13283E-03
 -1       573-3.83961E-04-1.43026E-04-9.27837E-03
 -1       574 5.03157E-04-7.62286E-04-1.08138E-02
 -1       575 3.78934E-05-9.50449E-04-1.17159E-02
 -1       576-3.42783E-04-3.57195E-04-1.08894E-02
 -1       577 4.20370E-04-7.88479E-04-1.11982E-02
 -1       578 4.73426E-04-7.13227E-04-9.75642E-03
 -1       579 8.84931E-05-9.23423E-04-1.20430E-02
 -1       580 1.24561E-04-8.77147E-04-1.07945E-02
 -1       581-2.41322E-04-2.55172E-04-1.18864E-02
 -1       582-1.69449E-04-3.62475E-04-1.05726E-02
 -1       583 1.46100E-03-5.44019E-04-3.96245E-03
 -1       584 3.81734E-04-1.51502E-03-6.44640E-03
 -1       585 4.82829E-04-1.45799E-03-7.37128E-03
 -1       586 1.07267E-04-5.70130E-04-7.60160E-03
 -1       587 1.00956E-03-1.32748E-03-8.12163E-03
 -1       588 1.30816E-03-1.05393E-03-7.23880E-03
 -1       589-1.03737E-04-2.44070E-04-5.85869E-03
 -1       590 1.48104E-03-5.51529E-04-4.00731E-03
 -1       591 1.31215E-03-1.11118E-03-8.65795E-03
 -1       592-2.00509E-04-2.65596E-04-7.50974E-03
 -1       593 9.89151E-04-1.36556E-03-9.27642E-03
 -1       594 1.58278E-05-5.82696E-04-8.63634E-03
 -1       595 1.24577E-03-1.15843E-03-9.31790E-03
 -1       596 1.26264E-03-1.12102E-03-6.59809E-03
 -1       597 1.00591E-03-1.32395E-03-9.90442E-03
 -1       598 1.05814E-03-1.28149E-03-7.52532E-03
 -1       599 8.54542E-07-4.03739E-04-9.92656E-03
 -1       600 1.71786E-04-3.99621E-04-7.32089E-03
 -1       601 1.78905E-03-1.72187E-04-1.23178E-03
 -1       602 1.30323E-03-1.04707E-03-4.03936E-03
 -1       603 1.29241E-03-1.02337E-03-3.12202E-03
 -1       604 3.89110E-04-4.00916E-04-3.74886E-03
 -1       605 1.86000E-03-9.05768E-04-3.85049E-03
 -1       606 2.00168E-03-7.25843E-04-3.30852E-03
 -1       607 8.25521E-05-1.64325E-04-2.43321E-03
 -1       608 1.82504E-03-1.76227E-04-1.24728E-03
 -1       609 1.98446E-03-7.85122E-04-5.07554E-03
 -1       610 1.24225E-05-2.01159E-04-4.61827E-03
 -1       611 1.89070E-03-9.24816E-04-5.34472E-03
 -1       612 3.96796E-04-3.70385E-04-4.94759E-03
 -1       613 1.96116E-03-8.21185E-04-5.95057E-03
 -1       614 2.00349E-03-6.99531E-04-2.44636E-03
 -1       615 1.88995E-03-9.12155E-04-6.13806E-03
 -1       616 1.87969E-03-8.65782E-04-3.08492E-03
 -1       617 2.48295E-04-3.72558E-04-6.24165E-03
 -1       618 3.83597E-04-2.34646E-04-2.89974E-03
 -1       619 1.79995E-03 3.26360E-04 1.74232E-03
 -1       620 1.80611E-03 2.00448E-05-5.56353E-04
 -1       621 1.80530E-03 1.01699E-04 5.20087E-04
 -1       622 6.08370E-04 8.17499E-06 6.84794E-04
 -1       623 2.18807E-03 7.05052E-05 9.46624E-04
 -1       624 2.31717E-03 7.93511E-05 1.15092E-03
 -1       625 1.36248E-04 9.23766E-05 1.39263E-03
 -1       626 1.83264E-03 3.30352E-04 1.76526E-03
 -1       627 2.30915E-03 6.10062E-05-7.71407E-04
 -1       628 1.37490E-04-4.41558E-05-9.29630E-04
 -1       629 2.18118E-03 6.08305E-05-7.53254E-04
 -1       630 5.79267E-04-1.87183E-06-6.00335E-04
 -1       631 2.30426E-03 5.87941E-05-1.68992E-03
 -1       632 2.31317E-03 7.16939E-05 2.06425E-03
 -1       633 2.18653E-03 6.49061E-05-1.57298E-03
 -1       634 2.18878E-03 7.78581E-05 1.77208E-03
 -1       635 4.57851E-04-5.28282E-05-1.61583E-03
 -1       636 4.18201E-04 1.80713E-04 1.92305E-03
 -1       637 1.46880E-03 6.84842E-04 4.52619E-03
 -1       638 1.33876E-03 1.10772E-03 3.10650E-03
 -1       639 1.32909E-03 1.18984E-03 4.06840E-03
 -1       640 3.86047E-04 4.28628E-04 4.96530E-03
 -1       641 1.85787E-03 1.04499E-03 5.52809E-03
 -1       642 1.97383E-03 8.84772E-04 5.45334E-03
 -1       643 4.08021E-06 2.65833E-04 5.08802E-03
 -1       644 1.48875E-03 6.92781E-04 4.57174E-03
 -1       645 1.98084E-03 8.13488E-04 3.69613E-03
 -1       646 7.22533E-05 1.56133E-04 2.92357E-03
 -1       647 1.79847E-03 1.03809E-03 4.00327E-03
 -1       648 4.10558E-04 4.10078E-04 3.74909E-03
 -1       649 1.96762E-03 8.12337E-04 2.83645E-03
 -1       650 1.95241E-03 9.12446E-04 6.32636E-03
 -1       651 1.81416E-03 1.00014E-03 3.22984E-03
 -1       652 1.85712E-03 1.02468E-03 6.33459E-03
 -1       653 3.85189E-04 2.85035E-04 3.15646E-03
 -1       654 2.86194E-04 4.07180E-04 6.50406E-03
 -1       655 9.58030E-04 6.79020E-04 6.63865E-03
 -1       656 3.81042E-04 1.67393E-03 6.33428E-03
 -1       657 4.24044E-04 1.85748E-03 7.42366E-03
 -1       658-6.13353E-05 5.89429E-04 8.75249E-03
 -1       659 1.01233E-03 1.51416E-03 9.69191E-03
 -1       660 1.28673E-03 1.22463E-03 9.14565E-03
 -1       661-2.10240E-04 3.33290E-04 8.06311E-03
 -1       662 9.74077E-04 6.88083E-04 6.72118E-03
 -1       663 1.27480E-03 1.15602E-03 7.71683E-03
 -1       664-8.80067E-05 3.02358E-04 6.36215E-03
 -1       665 1.00749E-03 1.46671E-03 8.41640E-03
 -1       666-3.42180E-06 5.71008E-04 7.81560E-03
 -1       667 1.23816E-03 1.21542E-03 7.02744E-03
 -1       668 1.21706E-03 1.28461E-03 9.87051E-03
 -1       669 1.05560E-03 1.42220E-03 7.76475E-03
 -1       670 1.02891E-03 1.48841E-03 1.03609E-02
 -1       671 1.63062E-04 4.42804E-04 7.61702E-03
 -1       672-2.44430E-05 4.42858E-04 1.04378E-02
 -1       673 6.42527E-04 2.80508E-04 7.76186E-03
 -1       674-7.02111E-04 1.18511E-03 9.27863E-03
 -1       675-6.93145E-04 1.36495E-03 9.94266E-03
 -1       676-5.16098E-04 4.44217E-04 1.15550E-02
 -1       677 1.85727E-05 1.04916E-03 1.23765E-02
 -1       678 5.22567E-04 8.89990E-04 1.14379E-02
 -1       679-3.76195E-04 1.50993E-04 9.89283E-03
 -1       680 6.59531E-04 2.85630E-04 7.85814E-03
 -1       681-2.94703E-04 2.50927E-04 9.01500E-03
 -1       682 5.11317E-04 8.47396E-04 1.06127E-02
 -1       683-4.50728E-06 9.92913E-04 1.16639E-02
 -1       684-4.82798E-04 4.72187E-04 1.09900E-02
 -1       685 4.77068E-04 8.49990E-04 1.02535E-02
 -1       686 4.76200E-04 9.09494E-04 1.18538E-02
 -1       687 4.45947E-05 9.80863E-04 1.13328E-02
 -1       688 9.40840E-05 9.98403E-04 1.27471E-02
 -1       689-2.03185E-04 3.90307E-04 1.11336E-02
 -1       690-3.58952E-04 2.57485E-04 1.26844E-02
 -1       691 6.65668E-04-2.74386E-04 7.70763E-03
 -1       692-1.13883E-03-1.38238E-05 1.04348E-02
 -1       693-1.25415E-03 1.36109E-04 1.05610E-02
 -1       694-5.85544E-04-3.40345E-05 1.22759E-02
 -1       695-3.78975E-04-3.37403E-05 1.29724E-02
 -1       696 2.21776E-04 2.78761E-05 1.19197E-02
 -1       697-4.04225E-04-2.78358E-05 1.02074E-02
 -1       698 6.83744E-04-2.79094E-04 7.79571E-03
 -1       699-3.82344E-04 6.62963E-05 1.02432E-02
 -1       700 1.57309E-04-2.73050E-05 1.19230E-02
 -1       701-3.98930E-04-8.29774E-05 1.30069E-02
 -1       702-6.04702E-04 2.96736E-05 1.23395E-02
 -1       703 5.11814E-05-1.59510E-05 1.19543E-02
 -1       704 1.03237E-04 1.06480E-05 1.19552E-02
 -1       705-3.06135E-04-6.88568E-05 1.30613E-02
 -1       706-2.93824E-04-3.52799E-05 1.29939E-02
 -1       707-3.93839E-04 1.05402E-04 1.28496E-02
 -1       708-3.97749E-04-7.91981E-05 1.28097E-02
 -1       709 9.91559E-04-6.11242E-04 6.52837E-03
 -1       710-5.73356E-04-1.21642E-03 9.78091E-03
 -1       711-6.77061E-04-1.21718E-03 9.08846E-03
 -1       712-3.77825E-04-4.64773E-04 1.08428E-02
 -1       713 6.90850E-05-1.01398E-03 1.15692E-02
 -1       714 5.40364E-04-8.54082E-04 1.05725E-02
 -1       715-2.83558E-04-2.51806E-04 8.88409E-03
 -1       716 1.01861E-03-6.22192E-04 6.59961E-03
 -1       717-3.66024E-04-1.68165E-04 9.84721E-03
 -1       718 5.39196E-04-8.81080E-04 1.13833E-02
 -1       719 5.88110E-05-1.07741E-03 1.23289E-02
 -1       720-4.00125E-04-4.06842E-04 1.14371E-02
 -1       721 4.72847E-04-9.07262E-04 1.18180E-02
 -1       722 5.15136E-04-8.55924E-04 1.01983E-02
 -1       723 1.50899E-04-1.04664E-03 1.27006E-02
 -1       724 1.64813E-04-9.89500E-04 1.12497E-02
 -1       725-2.64936E-04-2.64867E-04 1.25574E-02
 -1       726-1.29942E-04-3.98175E-04 1.09765E-02
 -1       727 1.48354E-03-6.40744E-04 4.42109E-03
 -1       728 3.84403E-04-1.66278E-03 7.35313E-03
 -1       729 2.73764E-04-1.65381E-03 6.47336E-03
 -1       730 9.52401E-04-1.42721E-03 8.32327E-03
 -1       731 7.20239E-05-6.04057E-04 7.80822E-03
 -1       732 1.50912E-03-6.48235E-04 4.47159E-03
 -1       733 1.31926E-03-1.16977E-03 7.58218E-03
 -1       734-5.34836E-05-2.96273E-04 6.32731E-03
 -1       735-1.97627E-04-2.96173E-04 8.04301E-03
 -1       736 1.32247E-03-1.22058E-03 9.04606E-03
 -1       737 9.94542E-04-1.46280E-03 9.63346E-03
 -1       738 5.57397E-06-6.09647E-04 8.79004E-03
 -1       739 1.26556E-03-1.26892E-03 9.76872E-03
 -1       740 1.27162E-03-1.23725E-03 6.89520E-03
 -1       741 1.02848E-03-1.43256E-03 1.02995E-02
 -1       742 1.02561E-03-1.37023E-03 7.71017E-03
 -1       743-6.18487E-06-4.52958E-04 1.02535E-02
 -1       744 1.67986E-04-4.84666E-04 7.62906E-03
 -1       745 1.81325E-03-2.53524E-04 1.65807E-03
 -1       746 1.37080E-03-1.14083E-03 4.07093E-03
 -1       747 1.37417E-03-1.10389E-03 3.12881E-03
 -1       748 1.87020E-03-1.00642E-03 3.96449E-03
 -1       749 4.18397E-04-3.50806E-04 3.79160E-03
 -1       750 1.84595E-03-2.57848E-04 1.66610E-03
 -1       751 2.05342E-03-8.16716E-04 3.56688E-03
 -1       752 1.28563E-04-1.65544E-04 2.79779E-03
 -1       753 3.90212E-05-2.54932E-04 4.97410E-03
 -1       754 2.06245E-03-8.59332E-04 5.45311E-03
 -1       755 1.87640E-03-1.00644E-03 5.55046E-03
 -1       756 3.45828E-04-4.00459E-04 5.02341E-03
 -1       757 2.04793E-03-8.84931E-04 6.33951E-03
 -1       758 2.04949E-03-7.95039E-04 2.67481E-03
 -1       759 1.89645E-03-9.78099E-04 6.35723E-03
 -1       760 1.88486E-03-9.81491E-04 3.19152E-03
 -1       761 3.35471E-04-3.69032E-04 6.44469E-03
 -1       762 4.34986E-04-2.79793E-04 3.06895E-03
 -1       763 1.81767E-03 2.40224E-04-1.31392E-03
 -1       764 1.79476E-03-3.08794E-05 4.67549E-04
 -1       765 1.80174E-03-3.75116E-05-6.42014E-04
 -1       766 2.21568E-03-2.33129E-05-8.64974E-04
 -1       767 5.37710E-04 3.29422E-06-8.13519E-04
 -1       768 1.85023E-03 2.41116E-04-1.33356E-03
 -1       769 2.34150E-03-9.50372E-06-8.99409E-04
 -1       770 1.29781E-04 7.07312E-05-1.04065E-03
 -1       771 1.29621E-04-4.05700E-05 1.31789E-03
 -1       772 2.32072E-03-5.21125E-05 1.03692E-03
 -1       773 2.21330E-03-1.75117E-05 7.69992E-04
 -1       774 5.38244E-04-3.81668E-06 5.17132E-04
 -1       775 2.31135E-03-5.05796E-05 1.96124E-03
 -1       776 2.33994E-03-1.30269E-05-1.81960E-03
 -1       777 2.21187E-03-1.69514E-05 1.59419E-03
 -1       778 2.21514E-03-3.55262E-05-1.68889E-03
 -1       779 4.90282E-04-5.56126E-05 1.79424E-03
 -1       780 4.46807E-04 4.75393E-05-1.73432E-03
 -1       781 1.47356E-03 5.98460E-04-3.98047E-03
 -1       782 1.24624E-03 1.00562E-03-3.33401E-03
 -1       783 1.27060E-03 9.83486E-04-4.24143E-03
 -1       784 1.85945E-03 9.25846E-04-5.53781E-03
 -1       785 4.21386E-04 3.81152E-04-5.04063E-03
 -1       786 1.51052E-03 6.06501E-04-4.02049E-03
 -1       787 2.01232E-03 8.05958E-04-5.20244E-03
 -1       788 4.50348E-05 2.34567E-04-4.67969E-03
 -1       789 6.55753E-05 1.84211E-04-2.51003E-03
 -1       790 2.01353E-03 7.53489E-04-3.42211E-03
 -1       791 1.82001E-03 9.30385E-04-4.02617E-03
 -1       792 3.93566E-04 4.31512E-04-3.85131E-03
 -1       793 2.00743E-03 7.45101E-04-2.55594E-03
 -1       794 1.98858E-03 8.38374E-04-6.08832E-03
 -1       795 1.85248E-03 8.87981E-04-3.27642E-03
 -1       796 1.86136E-03 9.07978E-04-6.32899E-03
 -1       797 4.11099E-04 2.91421E-04-3.02058E-03
 -1       798 3.18188E-04 3.67874E-04-6.34603E-03
 -1       799 9.76236E-04 6.09215E-04-6.04586E-03
 -1       800 2.50288E-04 1.53716E-03-7.19642E-03
 -1       801 2.69944E-04 1.45002E-03-6.50181E-03
 -1       802 8.93065E-04 1.31802E-03-9.32998E-03
 -1       803-4.99464E-05 5.44577E-04-8.69690E-03
 -1       804 9.93434E-04 6.12367E-04-6.12176E-03
 -1       805 1.28266E-03 1.10733E-03-8.69239E-03
 -1       806-2.20873E-04 3.26372E-04-7.59309E-03
 -1       807-8.82965E-05 3.14882E-04-5.91716E-03
 -1       808 1.26518E-03 1.07100E-03-7.32703E-03
 -1       809 8.55727E-04 1.29598E-03-8.18477E-03
 -1       810-4.81160E-05 5.63763E-04-7.77139E-03
 -1       811 1.21009E-03 1.12526E-03-6.69297E-03
 -1       812 1.21917E-03 1.15194E-03-9.36262E-03
 -1       813 9.07129E-04 1.26542E-03-7.62228E-03
 -1       814 9.09833E-04 1.29223E-03-9.93399E-03
 -1       815 1.86745E-04 4.63252E-04-7.47022E-03
 -1       816-6.77968E-05 4.43158E-04-9.99419E-03
 -1       817-7.93205E-04 1.16084E-03-9.07932E-03
 -1       818-7.93018E-04 9.98717E-04-8.51916E-03
 -1       819-5.30457E-04 3.87327E-04-1.06893E-02
 -1       820-5.50105E-05 9.02382E-04-1.15562E-02
 -1       821 4.76544E-04 8.13971E-04-1.08128E-02
 -1       822-3.93338E-04 1.88316E-04-9.27259E-03
 -1       823-2.79158E-04 2.59252E-04-8.36130E-03
 -1       824 4.37399E-04 7.72406E-04-1.00595E-02
 -1       825-1.01866E-04 8.53329E-04-1.09690E-02
 -1       826-4.21071E-04 3.73205E-04-1.02817E-02
 -1       827 3.94367E-04 7.79151E-04-9.74918E-03
 -1       828 4.31473E-04 8.34351E-04-1.11738E-02
 -1       829-4.24149E-05 8.41349E-04-1.06943E-02
 -1       830 3.92639E-05 8.44980E-04-1.18718E-02
 -1       831-2.21052E-04 3.72801E-04-1.05658E-02
 -1       832-3.78372E-04 2.51435E-04-1.18764E-02
 -1       833 0.00000E+00 0.00000E+00 0.00000E+00
 -1       834 0.00000E+00 0.00000E+00 0.00000E+00
 -1       835 0.00000E+00 0.00000E+00 0.00000E+00
 -1       836 0.00000E+00 0.00000E+00 0.00000E+00
 -1       837 0.00000E+00 0.00000E+00 0.00000E+00
 -1       838 0.00000E+00 0.00000E+00 0.00000E+00
 -1       839 0.00000E+00 0.00000E+00 0.00000E+00
 -1       840 0.00000E+00 0.00000E+00 0.00000E+00
 -1       841 0.00000E+00 0.00000E+00 0.00000E+00
 -1       842 0.00000E+00 0.00000E+00 0.00000E+00
 -1       843 0.00000E+00 0.00000E+00 0.00000E+00
 -1       844 0.00000E+00 0.00000E+00 0.00000E+00
 -1       845 0.00000E+00 0.00000E+00 0.00000E+00
 -1       846 0.00000E+00 0.00000E+00 0.00000E+00
 -1       847 0.00000E+00 0.00000E+00 0.00000E+00
 -1       848 0.00000E+00 0.00000E+00 0.00000E+00
 -1       849 0.00000E+00 0.00000E+00 0.00000E+00
 -1       850 0.00000E+00 0.00000E+00 0.00000E+00
 -1       851 0.00000E+00 0.00000E+00 0.00000E+00
 -1       852 0.00000E+00 0.00000E+00 0.00000E+00
 -1       853 0.00000E+00 0.00000E+00 0.00000E+00
 -1       854 0.00000E+00 0.00000E+00 0.00000E+00
 -1       855 0.00000E+00 0.00000E+00 0.00000E+00
 -1       856 0.00000E+00 0.00000E+00 0.00000E+00
 -1       857 0.00000E+00 0.00000E+00 0.00000E+00
 -1       858 0.00000E+00 0.00000E+00 0.00000E+00
 -1       859 0.00000E+00 0.00000E+00 0.00000E+00
 -1       860 0.00000E+00 0.00000E+00 0.00000E+00
 -1       861 0.00000E+00 0.00000E+00 0.00000E+00
 -1       862 0.00000E+00 0.00000E+00 0.00000E+00
 -1       863 0.00000E+00 0.00000E+00 0.00000E+00
 -1       864 0.00000E+00 0.00000E+00 0.00000E+00
 -1       865 0.00000E+00 0.00000E+00 0.00000E+00
 -1       866 0.00000E+00 0.00000E+00 0.00000E+00
 -1       867 0.00000E+00 0.00000E+00 0.00000E+00
 -1       868 0.00000E+00 0.00000E+00 0.00000E+00
 -1       869 0.00000E+00 0.00000E+00 0.00000E+00
 -1       870 0.00000E+00 0.00000E+00 0.00000E+00
 -1       871 0.00000E+00 0.00000E+00 0.00000E+00
 -1       872 0.00000E+00 0.00000E+00 0.00000E+00
 -1       873 0.00000E+00 0.00000E+00 0.00000E+00
 -1       874 0.00000E+00 0.00000E+00 0.00000E+00
 -1       875 0.00000E+00 0.00000E+00 0.00000E+00
 -1       876 0.00000E+00 0.00000E+00 0.00000E+00
 -1       877 0.00000E+00 0.00000E+00 0.00000E+00
 -1       878 0.00000E+00 0.00000E+00 0.00000E+00
 -1       879 0.00000E+00 0.00000E+00 0.00000E+00
 -1       880 0.00000E+00 0.00000E+00 0.00000E+00
 -1       881 0.00000E+00 0.00000E+00 0.00000E+00
 -1       882 0.00000E+00 0.00000E+00 0.00000E+00
 -1       883 0.00000E+00 0.00000E+00 0.00000E+00
 -1       884 0.00000E+00 0.00000E+00 0.00000E+00
 -1       885 0.00000E+00 0.00000E+00 0.00000E+00
 -1       886 0.00000E+00 0.00000E+00 0.00000E+00
 -1       887 0.00000E+00 0.00000E+00 0.00000E+00
 -1       888 0.00000E+00 0.00000E+00 0.00000E+00
 -1       889 0.00000E+00 0.00000E+00 0.00000E+00
 -1       890 0.00000E+00 0.00000E+00 0.00000E+00
 -1       891 0.00000E+00 0.00000E+00 0.00000E+00
 -1       892 0.00000E+00 0.00000E+00 0.00000E+00
 -1       893 0.00000E+00 0.00000E+00 0.00000E+00
 -1       894 0.00000E+00 0.00000E+00 0.00000E+00
 -1       895 0.00000E+00 0.00000E+00 0.00000E+00
 -1       896 0.00000E+00 0.00000E+00 0.00000E+00
 -1       897 3.54441E-03-1.60327E-03 6.36803E-03
 -1       898 2.07363E-03 2.24099E-03 7.51502E-03
 -1       899 1.27458E-03-5.96534E-05 1.09014E-02
 -1       900 1.95147E-03 2.06018E-05 8.85743E-03
 -1       901 1.82647E-03-1.34954E-03 1.04960E-02
 -1       902 3.74507E-03-1.38084E-03 2.84589E-03
 -1       903 3.44549E-03 1.56351E-03 3.09579E-03
 -1       904 2.95479E-03-1.61475E-03-3.65620E-03
 -1       905 3.49187E-03-1.50752E-03-6.17309E-03
 -1       906 2.91120E-03-1.62369E-03-7.93111E-03
 -1       907 3.29389E-03-1.15193E-03-4.95888E-03
 -1       908 2.22727E-03-7.75884E-04-7.21345E-03
 -1       909 1.21094E-03 3.68923E-05-1.02499E-02
 -1       910 4.17167E-04 2.20064E-04-1.16537E-02
 -1       911-1.02448E-03 1.81155E-04-1.15807E-02
 -1       912-1.46979E-03 6.79481E-05-1.02769E-02
 -1       913 3.69972E-03 1.33240E-03-6.18270E-03
 -1       914-6.53702E-04-1.74200E-03-9.85954E-03
 -1       915 5.42102E-04-1.30002E-03-1.05843E-02
 -1       916 1.00239E-03-1.16719E-03-1.00065E-02
 -1       917 2.39774E-03-1.76952E-03-6.91291E-03
 -1       918 3.92697E-03 1.05418E-03-2.95623E-03
 -1       919 4.47271E-03 6.15541E-05-9.81456E-04
 -1       920 3.23206E-03-3.29398E-05 4.99525E-04
 -1       921 1.64591E-03 1.15319E-03-9.07039E-03
 -1       922-3.84977E-04 1.51505E-03-1.08411E-02
 -1       923-8.13429E-04 1.58934E-03-9.21821E-03
 -1       924 3.15803E-03 1.36430E-03-6.62334E-03
 -1       925 2.81415E-03 1.53764E-03-6.60502E-03
 -1       926 1.27531E-03 2.27389E-03-8.79093E-03
 -1       927 7.55150E-04 2.26997E-03-6.99980E-03
 -1       928 3.66304E-03 1.23640E-03-2.73726E-03
 -1       929 3.42893E-03 1.40688E-03-3.08512E-03
 -1       930 3.99287E-03-5.39655E-05 1.71037E-03
 -1       931 4.40195E-03 7.82281E-05-7.75142E-04
 -1       932 4.47610E-03 2.12967E-04 1.35308E-03
 -1       933 2.16116E-03-2.34844E-03 1.01719E-02
 -1       934-6.46157E-04 1.89841E-03 9.97560E-03
 -1       935-1.94944E-04 1.81096E-03 1.16703E-02
 -1       936 1.05872E-03 2.72214E-03 6.87724E-03
 -1       937-9.63217E-05-1.74432E-04 1.27806E-02
 -1       938 1.39163E-03-2.52539E-03 7.85774E-03
 -1       939 1.02506E-03-2.61906E-03 7.94125E-03
 -1       940-5.74297E-04-2.05607E-03 1.04660E-02
 -1       941-4.27707E-04 6.23306E-06-1.21207E-02
 -1       942-4.58853E-04-1.65109E-05-8.52349E-03
 -1       943-4.35325E-04 5.69043E-05-1.05171E-02
 -1       944-6.83769E-04 3.99429E-05-1.03737E-02
 -1       945-4.07419E-04 9.22044E-05-1.22987E-02
 -1       946-3.37212E-04-6.78242E-05-1.24946E-02
 -1       947-3.83909E-04-6.92175E-05-1.18286E-02
 -1       948-2.63701E-04-3.49576E-04-1.08955E-02
 -1       949-3.13661E-04-1.34256E-04-7.31314E-03
 -1       950-3.34929E-04-1.94633E-04-1.01713E-02
 -1       951-4.64432E-04-4.07397E-04-9.88382E-03
 -1       952-3.13860E-04-2.13601E-04-1.16121E-02
 -1       953-2.47173E-04-2.82918E-04-1.20518E-02
 -1       954-1.84195E-04-3.88138E-04-1.07671E-02
 -1       955-1.71546E-04-3.38728E-04-1.02215E-02
 -1       956 9.29313E-05-4.98560E-04-7.96652E-03
 -1       957-1.88008E-04-1.82426E-04-5.04539E-03
 -1       958-8.53955E-05-3.51574E-04-8.14808E-03
 -1       959 1.46888E-06-6.33381E-04-7.89432E-03
 -1       960 2.52994E-05-4.20907E-04-1.00069E-02
 -1       961 1.72097E-04-4.51049E-04-7.47335E-03
 -1       962 1.45004E-04-4.03488E-04-6.96121E-03
 -1       963 4.49218E-04-3.53230E-04-3.84133E-03
 -1       964-4.74975E-05-1.10289E-04-1.94536E-03
 -1       965 1.52593E-04-2.60661E-04-4.91893E-03
 -1       966 2.56738E-04-3.91795E-04-4.47262E-03
 -1       967 2.49132E-04-3.54551E-04-6.13979E-03
 -1       968 3.82824E-04-3.51105E-04-6.18734E-03
 -1       969 4.45335E-04-2.68808E-04-3.02868E-03
 -1       970 3.80517E-04-2.27886E-04-2.66303E-03
 -1       971 5.37878E-04 1.57434E-05 8.04392E-04
 -1       972-2.56205E-05 1.06812E-04 1.47421E-03
 -1       973 2.70205E-04-2.88578E-05-8.26344E-04
 -1       974 4.36183E-04 6.15001E-06-5.64354E-04
 -1       975 3.98592E-04-4.20768E-05-1.73459E-03
 -1       976 5.04057E-04-5.61467E-05-1.52465E-03
 -1       977 4.68293E-04 1.37922E-04 1.80907E-03
 -1       978 4.10387E-04 1.62068E-04 2.05240E-03
 -1       979 2.29210E-04 4.33439E-04 4.49821E-03
 -1       980 3.57671E-04 4.24329E-04 5.32711E-03
 -1       981-1.03467E-04 2.24801E-04 4.74663E-03
 -1       982 1.52664E-04 2.37372E-04 3.32505E-03
 -1       983 2.71485E-04 3.80495E-04 3.46342E-03
 -1       984 3.64694E-04 2.71376E-04 2.99258E-03
 -1       985 4.43997E-04 3.28182E-04 3.26497E-03
 -1       986 3.50208E-04 4.17226E-04 6.47289E-03
 -1       987 2.79384E-04 3.93616E-04 6.44082E-03
 -1       988-1.96217E-04 6.37153E-04 8.06390E-03
 -1       989 7.03073E-05 5.54789E-04 9.46419E-03
 -1       990-3.02527E-04 2.28386E-04 7.38570E-03
 -1       991 1.66110E-06 3.71261E-04 7.10940E-03
 -1       992-6.55588E-05 6.02478E-04 7.16656E-03
 -1       993 1.45806E-04 4.34011E-04 7.41159E-03
 -1       994 1.81319E-04 4.93277E-04 7.74785E-03
 -1       995-3.98992E-05 4.50238E-04 1.04298E-02
 -1       996-8.67694E-05 4.08768E-04 1.02098E-02
 -1       997-5.91881E-04 5.06588E-04 1.05978E-02
 -1       998-3.57100E-04 4.07461E-04 1.20785E-02
 -1       999-3.98380E-04 1.33596E-04 8.85476E-03
 -1      1000-2.49998E-04 2.88048E-04 9.87429E-03
 -1      1001-5.56635E-04 4.95801E-04 1.01491E-02
 -1      1002-1.80493E-04 4.04187E-04 1.07193E-02
 -1      1003-1.95585E-04 3.93759E-04 1.13349E-02
 -1      1004-3.03724E-04 2.94822E-04 1.28109E-02
 -1      1005-3.51086E-04 2.33520E-04 1.22867E-02
 -1      1006-7.78956E-04-6.36149E-06 1.13514E-02
 -1      1007-4.54474E-04-1.56330E-07 1.27109E-02
 -1      1008-3.91314E-04-3.39419E-05 9.03115E-03
 -1      1009-4.29150E-04 6.11499E-05 1.11467E-02
 -1      1010-7.00950E-04-1.17489E-05 1.14303E-02
 -1      1011-4.18378E-04 1.51720E-04 1.24823E-02
 -1      1012-3.84826E-04 8.18785E-05 1.30721E-02
 -1      1013-3.87933E-04-8.83075E-05 1.30075E-02
 -1      1014-3.94801E-04-9.91457E-05 1.24776E-02
 -1      1015-4.99687E-04-4.55055E-04 9.91261E-03
 -1      1016-2.79365E-04-3.94226E-04 1.14298E-02
 -1      1017-2.93804E-04-1.93621E-04 7.79084E-03
 -1      1018-3.09151E-04-2.41441E-04 1.07111E-02
 -1      1019-4.72450E-04-4.79304E-04 1.05162E-02
 -1      1020-2.95727E-04-2.19093E-04 1.22135E-02
 -1      1021-2.62082E-04-2.92385E-04 1.27456E-02
 -1      1022-1.45760E-04-4.23846E-04 1.12645E-02
 -1      1023-1.16780E-04-4.07339E-04 1.06150E-02
 -1      1024-9.67010E-05-6.57604E-04 7.16482E-03
 -1      1025 1.44724E-04-5.28816E-04 8.24397E-03
 -1      1026-1.18840E-04-1.96816E-04 5.43167E-03
 -1      1027-8.26514E-05-3.87698E-04 8.59968E-03
 -1      1028-5.06836E-05-6.92239E-04 8.04645E-03
 -1      1029-4.19311E-05-4.47312E-04 1.00732E-02
 -1      1030-1.16570E-05-4.83827E-04 1.03331E-02
 -1      1031 1.57747E-04-4.88453E-04 7.75330E-03
 -1      1032 1.51413E-04-4.61221E-04 7.29090E-03
 -1      1033 4.05034E-04-3.64210E-04 3.93799E-03
 -1      1034-5.36929E-05-9.83981E-05 2.29889E-03
 -1      1035 1.43892E-04-2.83360E-04 5.23520E-03
 -1      1036 3.46815E-04-4.31681E-04 4.52799E-03
 -1      1037 3.71219E-04-3.84636E-04 6.45112E-03
 -1      1038 4.66990E-04-3.21633E-04 3.20277E-03
 -1      1039 3.68074E-04-2.62171E-04 2.86976E-03
 -1      1040 5.99299E-04-1.00442E-05-7.81393E-04
 -1      1041-4.14386E-05 7.52812E-05-1.11488E-03
 -1      1042 2.59723E-04-3.59600E-05 1.20530E-03
 -1      1043 5.16206E-04-7.15287E-06 5.10195E-04
 -1      1044 3.97897E-04-8.40091E-05 1.90965E-03
 -1      1045 5.45655E-04-4.38592E-05 1.65468E-03
 -1      1046 5.99647E-04 5.55470E-05-1.66352E-03
 -1      1047 3.93886E-04 7.96719E-05-1.78682E-03
 -1      1048 3.36118E-04 3.74702E-04-4.59685E-03
 -1      1049 4.21644E-04 3.71176E-04-5.39692E-03
 -1      1050-1.05179E-04 1.80049E-04-4.32062E-03
 -1      1051 2.04325E-04 2.46141E-04-3.02019E-03
 -1      1052 3.18425E-04 4.41538E-04-3.62434E-03
 -1      1053 3.40648E-04 2.55425E-04-2.78762E-03
 -1      1054 4.39823E-04 3.17572E-04-3.24412E-03
 -1      1055 2.95409E-04 3.72328E-04-6.35199E-03
 -1      1056 2.30360E-04 3.71174E-04-6.26854E-03
 -1      1057-1.31228E-04 6.44590E-04-7.84469E-03
 -1      1058 1.00139E-04 5.01878E-04-9.07498E-03
 -1      1059-3.03811E-04 2.33714E-04-6.80410E-03
 -1      1060-1.18539E-05 3.68833E-04-6.69433E-03
 -1      1061-1.66786E-04 6.21306E-04-7.07761E-03
 -1      1062 8.23638E-05 4.41312E-04-7.13172E-03
 -1      1063 1.53382E-04 4.73723E-04-7.64996E-03
 -1      1064-4.13577E-05 4.44573E-04-1.00014E-02
 -1      1065-1.07669E-04 4.12619E-04-9.74478E-03
 -1      1066-3.20982E-04 3.76828E-04-1.12524E-02
 -1      1067-4.15797E-04 1.63267E-04-8.27814E-03
 -1      1068-2.48227E-04 2.93588E-04-9.30192E-03
 -1      1069-5.60253E-04 4.01994E-04-9.40314E-03
 -1      1070-2.60058E-04 3.87358E-04-1.07402E-02
 -1      1071-2.61299E-04 2.92293E-04-1.19790E-02
 -1      1072-3.29722E-04 2.33181E-04-1.15420E-02
 -1      1073 0.00000E+00 0.00000E+00 0.00000E+00
 -1      1074 0.00000E+00 0.00000E+00 0.00000E+00
 -1      1075 0.00000E+00 0.00000E+00 0.00000E+00
 -1      1076 0.00000E+00 0.00000E+00 0.00000E+00
 -1      1077 0.00000E+00 0.00000E+00 0.00000E+00
 -1      1078 0.00000E+00 0.00000E+00 0.00000E+00
 -1      1079 0.00000E+00 0.00000E+00 0.00000E+00
 -1      1080 0.00000E+00 0.00000E+00 0.00000E+00
 -1      1081 0.00000E+00 0.00000E+00 0.00000E+00
 -1      1082 0.00000E+00 0.00000E+00 0.00000E+00
 -1      1083 0.00000E+00 0.00000E+00 0.00000E+00
 -1      1084 0.00000E+00 0.00000E+00 0.00000E+00
 -1      1085 0.00000E+00 0.00000E+00 0.00000E+00
 -1      1086 0.00000E+00 0.00000E+00 0.00000E+00
 -1      1087 0.00000E+00 0.00000E+00 0.00000E+00
 -1      1088 0.00000E+00 0.00000E+00 0.00000E+00
 -1      1089 0.00000E+00 0.00000E+00 0.00000E+00
 -1      1090 0.00000E+00 0.00000E+00 0.00000E+00
 -1      1091 0.00000E+00 0.00000E+00 0.00000E+00
 -1      1092 0.00000E+00 0.00000E+00 0.00000E+00
 -1      1093 0.00000E+00 0.00000E+00 0.00000E+00
 -1      1094 0.00000E+00 0.00000E+00 0.00000E+00
 -1      1095 0.00000E+00 0.00000E+00 0.00000E+00
 -1      1096 0.00000E+00 0.00000E+00 0.00000E+00
 -1      1097 0.00000E+00 0.00000E+00 0.00000E+00
 -1      1098 0.00000E+00 0.00000E+00 0.00000E+00
 -1      1099 0.00000E+00 0.00000E+00 0.00000E+00
 -1      1100 0.00000E+00 0.00000E+00 0.00000E+00
 -1      1101 0.00000E+00 0.00000E+00 0.00000E+00
 -1      1102 0.00000E+00 0.00000E+00 0.00000E+00
 -1      1103 0.00000E+00 0.00000E+00 0.00000E+00
 -1      1104 0.00000E+00 0.00000E+00 0.00000E+00
 -1      1105 0.00000E+00 0.00000E+00 0.00000E+00
 -1      1106 0.00000E+00 0.00000E+00 0.00000E+00
 -1      1107 0.00000E+00 0.00000E+00 0.00000E+00
 -1      1108 0.00000E+00 0.00000E+00 0.00000E+00
 -1      1109 0.00000E+00 0.00000E+00 0.00000E+00
 -1      1110 0.00000E+00 0.00000E+00 0.00000E+00
 -1      1111 0.00000E+00 0.00000E+00 0.00000E+00
 -1      1112 0.00000E+00 0.00000E+00 0.00000E+00
 -1      1113 0.00000E+00 0.00000E+00 0.00000E+00
 -1      1114 0.00000E+00 0.00000E+00 0.00000E+00
 -1      1115 0.00000E+00 0.00000E+00 0.00000E+00
 -1      1116 0.00000E+00 0.00000E+00 0.00000E+00
 -1      1117 0.00000E+00 0.00000E+00 0.00000E+00
 -1      1118 0.00000E+00 0.00000E+00 0.00000E+00
 -1      1119 0.00000E+00 0.00000E+00 0.00000E+00
 -1      1120 0.00000E+00 0.00000E+00 0.00000E+00
 -1      1121 0.00000E+00 0.00000E+00 0.00000E+00
 -1      1122 0.00000E+00 0.00000E+00 0.00000E+00
 -1      1123 0.00000E+00 0.00000E+00 0.00000E+00
 -1      1124 0.00000E+00 0.00000E+00 0.00000E+00
 -1      1125 0.00000E+00 0.00000E+00 0.00000E+00
 -1      1126 0.00000E+00 0.00000E+00 0.00000E+00
 -1      1127 0.00000E+00 0.00000E+00 0.00000E+00
 -1      1128 0.00000E+00 0.00000E+00 0.00000E+00
 -1      1129 0.00000E+00 0.00000E+00 0.00000E+00
 -1      1130 5.15864E-04 1.48726E-03 1.11390E-02
 -1      1131 1.00004E-03 1.38015E-03 1.05012E-02
 -1      1132 1.17944E-03 1.57433E-03 1.20599E-02
 -1      1133 6.44909E-04 1.66596E-03 1.25696E-02
 -1      1134 3.74473E-03-1.50352E-03 6.31598E-03
 -1      1135 3.59028E-03 1.53541E-03 6.31556E-03
 -1      1136 3.46133E-03 1.67076E-03 6.38654E-03
 -1      1137 2.37776E-03 2.00579E-03 7.23989E-03
 -1      1138 2.45563E-03 2.15046E-03 1.00492E-02
 -1      1139 2.18990E-03 2.42017E-03 1.02575E-02
 -1      1140 1.85148E-03-3.78826E-05 8.87703E-03
 -1      1141 1.32247E-03 8.00434E-05 1.09351E-02
 -1      1142 2.32931E-03-9.50821E-04 7.66037E-03
 -1      1143 1.79069E-03-1.22732E-03 9.60240E-03
 -1      1144 2.29838E-03-1.10302E-03 8.60942E-03
 -1      1145 3.47535E-03-1.56009E-03 3.03527E-03
 -1      1146 2.27538E-03 1.10087E-03 8.69184E-03
 -1      1147 1.74774E-03 1.24392E-03 9.65807E-03
 -1      1148 2.30571E-03 9.76635E-04 7.73663E-03
 -1      1149 1.82815E-03 1.35099E-03 1.05184E-02
 -1      1150 3.59654E-03 1.38556E-03 2.93895E-03
 -1      1151 3.64449E-03-1.21388E-03-2.61033E-03
 -1      1152 3.49024E-03-1.38010E-03-2.89044E-03
 -1      1153 2.52090E-03-1.61930E-03-4.45924E-03
 -1      1154 3.03345E-03-1.57766E-03-5.08690E-03
 -1      1155 2.44670E-03-1.65082E-03-3.32301E-03
 -1      1156 4.07560E-03-7.63906E-04-1.98829E-03
 -1      1157 3.89691E-03-1.12188E-03-4.73499E-03
 -1      1158 4.02561E-03-1.00591E-03-4.06635E-03
 -1      1159 3.92595E-03-1.04310E-03-2.85515E-03
 -1      1160 3.62162E-03-1.36673E-03-5.99111E-03
 -1      1161 3.09297E-03-1.36060E-03-6.62674E-03
 -1      1162 2.88246E-03-1.49474E-03-6.49563E-03
 -1      1163 1.78733E-03-1.14287E-03-9.93587E-03
 -1      1164 2.22651E-03-9.54269E-04-8.08677E-03
 -1      1165 1.72404E-03-1.03138E-03-9.12368E-03
 -1      1166 1.82383E-03 1.83555E-04-8.33318E-03
 -1      1167 1.24729E-03 1.81528E-04-1.03329E-02
 -1      1168 1.81250E-03 9.86097E-05-8.26132E-03
 -1      1169-8.11347E-05 2.44208E-04-1.20702E-02
 -1      1170-8.50117E-05-9.20513E-06-1.19798E-02
 -1      1171 5.10537E-04-1.03951E-05-1.15929E-02
 -1      1172-1.48428E-03 1.53526E-04-1.02973E-02
 -1      1173-9.70407E-04 4.18401E-05-1.15977E-02
 -1      1174 3.49358E-03 1.45276E-03-6.28853E-03
 -1      1175 1.15754E-03-2.41960E-03-7.90017E-03
 -1      1176 1.55421E-03-2.36383E-03-8.75767E-03
 -1      1177 1.41402E-03-2.33658E-03-7.68858E-03
 -1      1178 1.05916E-03-2.41389E-03-6.92245E-03
 -1      1179-1.90394E-04-1.65584E-03-1.10447E-02
 -1      1180-2.32909E-04-1.53491E-03-1.04966E-02
 -1      1181-7.02889E-04-1.71221E-03-9.32181E-03
 -1      1182 5.78847E-04-1.51212E-03-1.18020E-02
 -1      1183 1.12658E-03-1.36150E-03-1.14222E-02
 -1      1184 2.05702E-03-1.98217E-03-7.28752E-03
 -1      1185 2.06825E-03-2.16437E-03-9.79340E-03
 -1      1186 2.44997E-03-1.92085E-03-9.49408E-03
 -1      1187 3.03557E-03 1.54553E-03-5.26256E-03
 -1      1188 2.46083E-03 1.56579E-03-4.61968E-03
 -1      1189 2.36533E-03 1.63820E-03-3.53207E-03
 -1      1190 2.88741E-03 1.60802E-03-3.83969E-03
 -1      1191 4.00266E-03 1.03180E-03-4.12404E-03
 -1      1192 3.98140E-03 1.11596E-03-4.77859E-03
 -1      1193 4.06527E-03 7.53515E-04-2.03910E-03
 -1      1194 4.44582E-03-5.01392E-05-9.16550E-04
 -1      1195 3.61616E-03-7.10797E-05-8.40051E-04
 -1      1196 4.39299E-03-9.55290E-05 1.14210E-03
 -1      1197 4.48326E-03-1.57820E-04 1.28063E-03
 -1      1198 3.21904E-03-8.34610E-05-7.01109E-04
 -1      1199 3.60719E-03-1.47600E-05 6.89861E-04
 -1      1200 2.25133E-03 1.10119E-03-8.09412E-03
 -1      1201 1.79701E-03 1.26583E-03-9.89763E-03
 -1      1202 2.29174E-03 9.60372E-04-7.16041E-03
 -1      1203 1.05769E-03 1.41369E-03-1.13351E-02
 -1      1204 4.94520E-04 1.45235E-03-1.17505E-02
 -1      1205 3.12032E-04 1.29824E-03-1.05321E-02
 -1      1206 8.25849E-04 1.21916E-03-9.96208E-03
 -1      1207-8.33267E-04 1.72016E-03-9.75348E-03
 -1      1208-4.24752E-04 1.41588E-03-1.03795E-02
 -1      1209 2.88139E-03 1.60028E-03-8.03109E-03
 -1      1210 3.19147E-03 1.22459E-03-5.05626E-03
 -1      1211 2.38505E-03 1.92301E-03-9.56778E-03
 -1      1212 2.06435E-03 2.10926E-03-9.86890E-03
 -1      1213 1.84861E-03 2.01485E-03-7.40338E-03
 -1      1214 2.35090E-03 1.77846E-03-6.98833E-03
 -1      1215 8.15088E-04 2.33362E-03-7.78417E-03
 -1      1216 1.21289E-03 2.25979E-03-7.74516E-03
 -1      1217 4.18074E-03-6.85007E-05 1.86304E-03
 -1      1218 4.05599E-03-1.26931E-03 5.07534E-03
 -1      1219 4.19304E-03-9.04968E-04 2.31415E-03
 -1      1220 4.00395E-03-1.19069E-03 3.16954E-03
 -1      1221 4.09695E-03-1.16025E-03 4.49229E-03
 -1      1222 2.59844E-03-1.76817E-03 4.53306E-03
 -1      1223 3.00909E-03-1.75839E-03 3.74465E-03
 -1      1224 2.51934E-03-1.78155E-03 3.36410E-03
 -1      1225 3.03034E-03-1.72712E-03 5.22127E-03
 -1      1226 4.11607E-03 9.57947E-05 1.95981E-03
 -1      1227 4.00334E-03 8.68506E-05 1.83855E-03
 -1      1228 3.23963E-03 1.01980E-04-6.52455E-04
 -1      1229 3.60564E-03 1.29208E-04-6.78936E-04
 -1      1230 4.45018E-03-4.06796E-05-9.14419E-04
 -1      1231 4.38647E-03 1.01575E-04 1.24744E-03
 -1      1232 3.58221E-03 4.55316E-05 8.30359E-04
 -1      1233 3.19342E-03 1.09248E-04 5.84217E-04
 -1      1234 3.98032E-03 1.03707E-04-1.60083E-03
 -1      1235 3.91080E-03 1.23104E-03 3.26306E-03
 -1      1236 4.17477E-03 9.87677E-04 2.36854E-03
 -1      1237 4.07954E-03 1.21563E-03 4.62950E-03
 -1      1238 3.95324E-03 1.31338E-03 5.15428E-03
 -1      1239 2.46081E-03 1.81226E-03 3.33447E-03
 -1      1240 2.94099E-03 1.76606E-03 3.74592E-03
 -1      1241 3.01907E-03 1.75198E-03 5.21850E-03
 -1      1242 2.52924E-03 1.81558E-03 4.50969E-03
 -1      1243 4.16889E-03 8.45133E-05-1.61815E-03
 -1      1244 2.53374E-03-2.11071E-03 9.95300E-03
 -1      1245 4.17939E-03-5.31443E-05-1.77912E-03
 -1      1246 4.00586E-03-8.18405E-05-1.71320E-03
 -1      1247 3.16368E-03 1.56154E-03 7.18656E-03
 -1      1248 2.93854E-03-1.79511E-03 8.40923E-03
 -1      1249 3.23160E-03-1.29889E-03 5.43798E-03
 -1      1250 2.90058E-03-1.68630E-03 6.88659E-03
 -1      1251 3.12840E-03-1.50304E-03 7.07965E-03
 -1      1252 2.82571E-03 1.72606E-03 6.96457E-03
 -1      1253 3.25705E-03 1.36565E-03 5.49270E-03
 -1      1254 2.97001E-03 1.80822E-03 8.47497E-03
 -1      1255 2.40958E-03-1.99274E-03 7.12783E-03
 -1      1256 2.02940E-03-2.19665E-03 7.54133E-03
 -1      1257 1.06039E-03-1.41051E-03 1.04249E-02
 -1      1258 6.12622E-04-1.53440E-03 1.09996E-02
 -1      1259 7.06007E-04-1.70189E-03 1.24832E-02
 -1      1260 1.18832E-03-1.59405E-03 1.20029E-02
 -1      1261-1.35304E-03-5.94310E-05 1.11989E-02
 -1      1262-8.80246E-04-1.73911E-04 1.23894E-02
 -1      1263-9.40385E-04-1.38776E-05 1.23828E-02
 -1      1264-1.48155E-03 5.79502E-05 1.12644E-02
 -1      1265-2.34414E-04 1.69334E-03 1.10598E-02
 -1      1266-6.55198E-04 2.03456E-03 1.06263E-02
 -1      1267 1.45442E-03 2.61189E-03 7.86609E-03
 -1      1268 1.54227E-03 2.67621E-03 9.15276E-03
 -1      1269 1.08385E-03 2.80103E-03 8.06599E-03
 -1      1270 5.13009E-04-1.04859E-04 1.22542E-02
 -1      1271 5.53080E-04 1.14371E-04 1.23154E-02
 -1      1272 6.93139E-07 8.88365E-05 1.27473E-02
 -1      1273 8.98414E-04-2.61431E-03 7.03934E-03
 -1      1274 1.54355E-03-2.57035E-03 9.08640E-03
 -1      1275-1.23039E-04-1.76235E-03 1.09716E-02
 -1      1276-6.36934E-04-2.02442E-03 9.77052E-03
 -1      1277-1.47607E-04-1.92885E-03 1.16152E-02
 -1      1278-6.56714E-04 4.65862E-05-1.03861E-02
 -1      1279-4.15240E-04-1.41678E-05-1.05825E-02
 -1      1280-4.48368E-04 8.10681E-05-8.43596E-03
 -1      1281-3.96107E-04 4.94767E-05-1.19713E-02
 -1      1282-3.97592E-04 1.34786E-04-1.17583E-02
 -1      1283-4.60585E-04-3.80330E-04-9.45535E-03
 -1      1284-2.50074E-04-2.46942E-04-9.29480E-03
 -1      1285-4.51081E-04-6.53876E-05-8.26977E-03
 -1      1286-2.29291E-04-3.07553E-04-1.14573E-02
 -1      1287-5.23845E-05-6.19329E-04-7.02826E-03
 -1      1288 1.76543E-05-3.21305E-04-6.67943E-03
 -1      1289-2.72619E-04-1.83174E-04-6.79734E-03
 -1      1290 2.99672E-05-5.20122E-04-9.08204E-03
 -1      1291-6.90607E-05-3.79855E-04-9.65273E-03
 -1      1292 2.85898E-04-4.07681E-04-3.45027E-03
 -1      1293 1.81526E-04-2.15470E-04-2.92694E-03
 -1      1294-1.30859E-04-1.40626E-04-4.27331E-03
 -1      1295 4.61756E-04-3.44618E-04-5.19401E-03
 -1      1296 4.24979E-04 5.96670E-05 5.47486E-04
 -1      1297 2.22736E-04 9.48268E-05 1.28199E-03
 -1      1298-1.51339E-05-4.86874E-05-1.05071E-03
 -1      1299 5.84494E-04-1.50724E-06-6.47251E-04
 -1      1300 1.21072E-04 3.26281E-04 5.29170E-03
 -1      1301-3.04579E-05 1.39497E-04 2.40146E-03
 -1      1302 4.49014E-04 3.91710E-04 3.96390E-03
 -1      1303-1.06874E-04 4.01814E-04 8.70025E-03
 -1      1304-1.52981E-04 2.59626E-04 5.54747E-03
 -1      1305 6.96186E-05 5.44761E-04 8.27977E-03
 -1      1306-3.65362E-04 2.41416E-04 1.07373E-02
 -1      1307-3.28663E-04 1.94590E-04 7.90277E-03
 -1      1308-3.37195E-04 4.02316E-04 1.14325E-02
 -1      1309-3.96193E-04-1.58279E-05 1.11853E-02
 -1      1310-4.12545E-04 5.85681E-05 9.05901E-03
 -1      1311-5.19538E-04 9.69114E-06 1.28791E-02
 -1      1312-2.86840E-04-3.11221E-04 9.83110E-03
 -1      1313-4.00090E-04-1.01921E-04 8.83181E-03
 -1      1314-2.59082E-04-3.89220E-04 1.19991E-02
 -1      1315-6.02808E-06-3.38968E-04 7.07777E-03
 -1      1316-2.72439E-04-2.16168E-04 7.28030E-03
 -1      1317 8.75398E-05-5.64162E-04 9.36834E-03
 -1      1318 3.82456E-04-4.28871E-04 3.52561E-03
 -1      1319 1.76433E-04-2.06241E-04 3.23844E-03
 -1      1320-8.51795E-05-1.68081E-04 4.65713E-03
 -1      1321 4.06256E-04-3.77818E-04 5.35281E-03
 -1      1322 3.05984E-04-3.38994E-04 6.44029E-03
 -1      1323 5.20903E-04 1.46922E-05-5.95503E-04
 -1      1324 2.33545E-04 4.21509E-05-9.80572E-04
 -1      1325-2.77689E-05-5.05875E-05 1.39702E-03
 -1      1326 5.98379E-04-2.14416E-05 6.74145E-04
 -1      1327 1.48572E-04 3.15044E-04-4.96236E-03
 -1      1328-6.05090E-05 1.25206E-04-2.03721E-03
 -1      1329 4.28368E-04 4.07691E-04-4.05450E-03
 -1      1330-1.27267E-04 3.89168E-04-8.18917E-03
 -1      1331-1.76916E-04 2.39362E-04-5.03458E-03
 -1      1332 5.18053E-05 5.29839E-04-8.09839E-03
 -1      1333-6.15830E-04 4.23832E-04-9.76694E-03
 -1      1334-3.55912E-04 2.41399E-04-1.01616E-02
 -1      1335-3.59473E-04 2.13648E-04-7.30443E-03
 -1      1336-2.89100E-04 3.82433E-04-1.07804E-02
 -1      1337-1.87899E-04 3.90487E-04-1.01904E-02
 -1      1338 0.00000E+00 0.00000E+00 0.00000E+00
 -1      1339 0.00000E+00 0.00000E+00 0.00000E+00
 -1      1340 0.00000E+00 0.00000E+00 0.00000E+00
 -1      1341 0.00000E+00 0.00000E+00 0.00000E+00
 -1      1342 0.00000E+00 0.00000E+00 0.00000E+00
 -1      1343 0.00000E+00 0.00000E+00 0.00000E+00
 -1      1344 0.00000E+00 0.00000E+00 0.00000E+00
 -1      1345 0.00000E+00 0.00000E+00 0.00000E+00
 -1      1346 0.00000E+00 0.00000E+00 0.00000E+00
 -1      1347 0.00000E+00 0.00000E+00 0.00000E+00
 -1      1348 0.00000E+00 0.00000E+00 0.00000E+00
 -1      1349 0.00000E+00 0.00000E+00 0.00000E+00
 -1      1350 0.00000E+00 0.00000E+00 0.00000E+00
 -1      1351 0.00000E+00 0.00000E+00 0.00000E+00
 -1      1352 0.00000E+00 0.00000E+00 0.00000E+00
 -1      1353 0.00000E+00 0.00000E+00 0.00000E+00
 -1      1354 0.00000E+00 0.00000E+00 0.00000E+00
 -1      1355 0.00000E+00 0.00000E+00 0.00000E+00
 -1      1356 0.00000E+00 0.00000E+00 0.00000E+00
 -1      1357 0.00000E+00 0.00000E+00 0.00000E+00
 -1      1358 0.00000E+00 0.00000E+00 0.00000E+00
 -1      1359 0.00000E+00 0.00000E+00 0.00000E+00
 -1      1360 0.00000E+00 0.00000E+00 0.00000E+00
 -1      1361 0.00000E+00 0.00000E+00 0.00000E+00
 -1      1362 0.00000E+00 0.00000E+00 0.00000E+00
 -1      1363 0.00000E+00 0.00000E+00 0.00000E+00
 -1      1364 0.00000E+00 0.00000E+00 0.00000E+00
 -1      1365 0.00000E+00 0.00000E+00 0.00000E+00
 -1      1366 0.00000E+00 0.00000E+00 0.00000E+00
 -1      1367 0.00000E+00 0.00000E+00 0.00000E+00
 -1      1368 0.00000E+00 0.00000E+00 0.00000E+00
 -1      1369 0.00000E+00 0.00000E+00 0.00000E+00
 -1      1370 0.00000E+00 0.00000E+00 0.00000E+00
 -1      1371 0.00000E+00 0.00000E+00 0.00000E+00
 -1      1372 0.00000E+00 0.00000E+00 0.00000E+00
 -1      1373 0.00000E+00 0.00000E+00 0.00000E+00
 -1      1374 0.00000E+00 0.00000E+00 0.00000E+00
 -1      1375 0.00000E+00 0.00000E+00 0.00000E+00
 -1      1376 0.00000E+00 0.00000E+00 0.00000E+00
 -1      1377 0.00000E+00 0.00000E+00 0.00000E+00
 -1      1378 0.00000E+00 0.00000E+00 0.00000E+00
 -1      1379 0.00000E+00 0.00000E+00 0.00000E+00
 -1      1380 0.00000E+00 0.00000E+00 0.00000E+00
 -1      1381 0.00000E+00 0.00000E+00 0.00000E+00
 -1      1382 0.00000E+00 0.00000E+00 0.00000E+00
 -1      1383 0.00000E+00 0.00000E+00 0.00000E+00
 -1      1384 0.00000E+00 0.00000E+00 0.00000E+00
 -1      1385 0.00000E+00 0.00000E+00 0.00000E+00
 -1      1386 0.00000E+00 0.00000E+00 0.00000E+00
 -1      1387 0.00000E+00 0.00000E+00 0.00000E+00
 -1      1388 0.00000E+00 0.00000E+00 0.00000E+00
 -1      1389 0.00000E+00 0.00000E+00 0.00000E+00
 -1      1390 0.00000E+00 0.00000E+00 0.00000E+00
 -1      1391 0.00000E+00 0.00000E+00 0.00000E+00
 -1      1392 0.00000E+00 0.00000E+00 0.00000E+00
 -1      1393 0.00000E+00 0.00000E+00 0.00000E+00
 -1      1394 0.00000E+00 0.00000E+00 0.00000E+00
 -1      1395 0.00000E+00 0.00000E+00 0.00000E+00
 -1      1396 0.00000E+00 0.00000E+00 0.00000E+00
 -1      1397 0.00000E+00 0.00000E+00 0.00000E+00
 -1      1398 0.00000E+00 0.00000E+00 0.00000E+00
 -1      1399 0.00000E+00 0.00000E+00 0.00000E+00
 -1      1400 0.00000E+00 0.00000E+00 0.00000E+00
 -1      1401 0.00000E+00 0.00000E+00 0.00000E+00
 -1      1402 0.00000E+00 0.00000E+00 0.00000E+00
 -1      1403 0.00000E+00 0.00000E+00 0.00000E+00
 -1      1404 0.00000E+00 0.00000E+00 0.00000E+00
 -1      1405 0.00000E+00 0.00000E+00 0.00000E+00
 -1      1406 0.00000E+00 0.00000E+00 0.00000E+00
 -1      1407 0.00000E+00 0.00000E+00 0.00000E+00
 -1      1408 0.00000E+00 0.00000E+00 0.00000E+00
 -1      1409 1.28173E-03 4.02352E-04 7.79800E-03
 -1      1410 1.26204E-03 3.88736E-04 7.69660E-03
 -1      1411 8.61212E-04-9.94875E-05-1.22702E-03
 -1      1412 8.42965E-04-9.76923E-05-1.22237E-03
 -1      1413 3.02033E-04 4.34486E-04 6.71457E-03
 -1      1414 2.88820E-04 4.31680E-04 6.65431E-03
 -1      1415 2.41594E-03 9.37552E-04 4.52679E-03
 -1      1416 2.38409E-03 9.29081E-04 4.47494E-03
 -1      1417 6.30241E-04 3.78543E-04-4.01803E-03
 -1      1418 6.04589E-04 3.74881E-04-3.98159E-03
 -1      1419 1.26074E-04-2.03146E-04 7.78176E-03
 -1      1420 9.86585E-05-1.93843E-04 7.70413E-03
 -1      1421 1.78082E-03-8.57038E-04 6.55779E-03
 -1      1422 1.75747E-03-8.54371E-04 6.48084E-03
 -1      1423 8.41406E-04 1.96244E-04 1.73969E-03
 -1      1424 8.18156E-04 1.95238E-04 1.72468E-03
 -1      1425 8.50318E-04-1.53569E-04 1.65822E-03
 -1      1426 8.34916E-04-1.55604E-04 1.64662E-03
 -1      1427 1.25738E-03-3.57568E-04 7.74814E-03
 -1      1428 1.24315E-03-3.60545E-04 7.64778E-03
 -1      1429 2.90490E-03-4.04040E-04 1.66433E-03
 -1      1430 2.86666E-03-3.91463E-04 1.65081E-03
 -1      1431 3.28991E-04-3.86797E-04 6.60239E-03
 -1      1432 3.12204E-04-3.87006E-04 6.53595E-03
 -1      1433 3.87841E-03-8.88801E-04 2.99910E-03
 -1      1434-8.93404E-05 4.03631E-06 1.83042E-04
 -1      1435-2.75002E-04 3.91788E-07 7.62421E-03
 -1      1436 6.22803E-04 4.33966E-04 4.55258E-03
 -1      1437 5.98491E-04 4.29149E-04 4.50540E-03
 -1      1438 2.35332E-03 8.65081E-04 7.04495E-03
 -1      1439 2.39832E-03-7.61883E-04-3.97527E-03
 -1      1440 2.36930E-03-7.55379E-04-3.92738E-03
 -1      1441-1.97819E-04 1.61421E-04 5.54937E-03
 -1      1442-1.37915E-04 1.10996E-04 3.10039E-03
 -1      1443 2.41043E-03-9.11532E-04 4.39071E-03
 -1      1444 2.43604E-03-9.22526E-04 4.44310E-03
 -1      1445 2.87628E-03-3.05450E-04-1.27747E-03
 -1      1446 2.83431E-03-2.96368E-04-1.25606E-03
 -1      1447 1.74228E-03-7.75669E-04-6.06976E-03
 -1      1448 1.71746E-03-7.67244E-04-5.98766E-03
 -1      1449-1.26233E-04 9.69258E-05-2.65998E-03
 -1      1450 2.88495E-03 3.33995E-04-1.29792E-03
 -1      1451 2.84888E-03 3.28885E-04-1.27695E-03
 -1      1452 1.03307E-04 1.82944E-04-7.26228E-03
 -1      1453 8.45385E-05 1.81939E-04-7.18169E-03
 -1      1454 3.30891E-04-3.09014E-04-6.13124E-03
 -1      1455 3.15690E-04-3.17890E-04-6.05669E-03
 -1      1456 3.36194E-04 3.80882E-04-6.12380E-03
 -1      1457 3.16575E-04 3.82622E-04-6.05742E-03
 -1      1458 9.67660E-04 3.41878E-04 7.82522E-03
 -1      1459 9.44005E-04 3.34832E-04 7.73664E-03
 -1      1460 6.27166E-04-3.15789E-04-4.00077E-03
 -1      1461 6.09564E-04-3.18784E-04-3.95597E-03
 -1      1462 1.20727E-03-2.77937E-04-7.19145E-03
 -1      1463 1.19038E-03-2.67774E-04-7.10937E-03
 -1      1464 1.20668E-03 4.20294E-04-7.20350E-03
 -1      1465 1.19156E-03 4.13982E-04-7.10851E-03
 -1      1466 9.70812E-04-3.28811E-04 7.77587E-03
 -1      1467 9.50574E-04-3.15896E-04 7.68713E-03
 -1      1468 1.75563E-03 8.55753E-04-6.06475E-03
 -1      1469 1.73159E-03 8.38042E-04-5.98136E-03
 -1      1470 1.76896E-03 9.71930E-04 6.62205E-03
 -1      1471 1.73409E-03 9.45247E-04 6.54500E-03
 -1      1472 1.93644E-03 1.10350E-04-7.04415E-03
 -1      1473 9.19794E-04 3.56547E-04-7.25031E-03
 -1      1474 9.04931E-04 3.52395E-04-7.15516E-03
 -1      1475 3.88754E-03 9.40990E-04 3.03592E-03
 -1      1476 3.09361E-03-1.17022E-03 5.38199E-03
 -1      1477 2.39038E-03 8.33259E-04-3.99788E-03
 -1      1478 2.36466E-03 8.22868E-04-3.93974E-03
 -1      1479 8.48861E-04 1.56856E-04-1.31237E-03
 -1      1480 8.33518E-04 1.59178E-04-1.29123E-03
 -1      1481 2.87692E-03 4.43669E-04 1.72806E-03
 -1      1482 2.83984E-03 4.39453E-04 1.70918E-03
 -1      1483-2.29320E-04-9.52524E-05-4.95224E-03
 -1      1484 1.84981E-04 2.59919E-04-3.97275E-03
 -1      1485 1.96016E-04 2.61529E-04-4.01547E-03
 -1      1486 4.15021E-03 7.73218E-05 2.42661E-04
 -1      1487 3.06552E-03-1.45766E-03 6.76362E-03
 -1      1488 9.04173E-05-8.34818E-05-7.26463E-03
 -1      1489 7.37186E-05-9.21350E-05-7.18599E-03
 -1      1490 4.16825E-03-3.85017E-05 1.37734E-04
 -1      1491-3.45201E-04 4.03021E-05-7.13101E-03
 -1      1492 3.80673E-03-7.44494E-04-2.56702E-03
 -1      1493 2.10316E-03 2.45611E-05 7.57136E-03
 -1      1494 6.48830E-04-3.98879E-04 4.45014E-03
 -1      1495 6.32213E-04-3.96820E-04 4.40535E-03
 -1      1496 3.10503E-03 1.23670E-03 5.47522E-03
 -1      1497-2.64707E-04 1.00266E-04-6.54871E-03
 -1      1498 1.32750E-03 2.56771E-04 1.73682E-03
 -1      1499 1.29842E-03 2.58124E-04 1.72799E-03
 -1      1500 1.95053E-03-6.67302E-04-3.98331E-03
 -1      1501 1.91576E-03-6.54170E-04-3.94010E-03
 -1      1502 3.08047E-03 1.11325E-03-4.89108E-03
 -1      1503 1.98644E-04 2.88068E-04 4.47679E-03
 -1      1504 2.08842E-04 2.82818E-04 4.52382E-03
 -1      1505 1.05744E-04 1.75151E-04 7.77288E-03
 -1      1506 1.24237E-04 1.76933E-04 7.85367E-03
 -1      1507 9.26314E-04-2.29583E-04-7.25153E-03
 -1      1508 9.04324E-04-2.24406E-04-7.16556E-03
 -1      1509 3.34533E-03-1.19125E-03 4.94244E-03
 -1      1510 3.69700E-04 2.49632E-04-7.27601E-03
 -1      1511 3.51972E-04 2.45642E-04-7.19259E-03
 -1      1512-2.85821E-04-2.26620E-05-6.51574E-03
 -1      1513 1.06586E-03 4.97523E-04-4.03183E-03
 -1      1514 1.03496E-03 4.90655E-04-3.98755E-03
 -1      1515 6.62907E-04 5.19952E-04-6.12783E-03
 -1      1516 6.44094E-04 5.14010E-04-6.05617E-03
 -1      1517 1.06145E-03-5.39206E-04 4.47978E-03
 -1      1518 1.04796E-03-5.34759E-04 4.42343E-03
 -1      1519 1.33191E-03-1.54921E-04-1.26950E-03
 -1      1520 1.30102E-03-1.50538E-04-1.24439E-03
 -1      1521-2.17909E-04 1.27952E-04-4.93875E-03
 -1      1522 2.36890E-03 3.91088E-04 1.71478E-03
 -1      1523 2.32854E-03 3.82444E-04 1.71657E-03
 -1      1524-2.81435E-04 9.42108E-05 7.17005E-03
 -1      1525 3.91264E-04-2.30643E-04 7.80578E-03
 -1      1526 3.70601E-04-2.26944E-04 7.71557E-03
 -1      1527 3.06809E-03 1.49148E-03 6.85315E-03
 -1      1528 1.38723E-03 1.77005E-04-1.30903E-03
 -1      1529 1.35256E-03 1.83573E-04-1.29423E-03
 -1      1530 1.89108E-05-2.09693E-04-6.01249E-03
 -1      1531 4.36074E-05-2.08857E-04-6.08234E-03
 -1      1532 3.96150E-03 8.28873E-04 2.40633E-03
 -1      1533-1.24983E-04 1.33391E-04-7.24876E-03
 -1      1534-1.46941E-04 1.39614E-04-7.17382E-03
 -1      1535 3.82302E-03 7.56584E-04-2.57480E-03
 -1      1536 8.15681E-04-2.99107E-04 7.78659E-03
 -1      1537 7.97383E-04-2.92079E-04 7.69989E-03
 -1      1538 3.59691E-04-1.11741E-04-7.30050E-03
 -1      1539 3.42220E-04-1.08840E-04-7.21067E-03
 -1      1540 6.34684E-04 5.61110E-04 6.72165E-03
 -1      1541 6.16985E-04 5.58185E-04 6.65072E-03
 -1      1542-1.17255E-04-3.87628E-05 3.00198E-03
 -1      1543 2.34138E-03 2.65106E-04-1.29895E-03
 -1      1544 2.30797E-03 2.60085E-04-1.28869E-03
 -1      1545-1.29320E-04-3.55928E-05 2.33268E-03
 -1      1546 1.05914E-03-4.17475E-04-4.00980E-03
 -1      1547 1.04155E-03-4.18075E-04-3.96780E-03
 -1      1548-1.83240E-04-9.05484E-05 5.39781E-03
 -1      1549 3.44715E-03-3.53981E-04-1.27373E-03
 -1      1550 3.40089E-03-3.44243E-04-1.25430E-03
 -1      1551 2.91160E-03 9.23465E-04-3.96566E-03
 -1      1552 2.88928E-03 9.14469E-04-3.90773E-03
 -1      1553 1.11915E-03-3.27729E-04 7.77297E-03
 -1      1554 1.10616E-03-3.39810E-04 7.67656E-03
 -1      1555 3.91025E-03-6.19097E-04-1.93666E-03
 -1      1556 6.65308E-04-4.77720E-04 6.60412E-03
 -1      1557 6.51418E-04-4.86289E-04 6.53030E-03
 -1      1558 4.06553E-03-6.10554E-04-1.66976E-03
 -1      1559 1.96004E-03-7.92950E-04 4.47360E-03
 -1      1560 1.93735E-03-7.82421E-04 4.41732E-03
 -1      1561 4.12722E-03 1.28988E-04-5.21967E-04
 -1      1562 1.94213E-03 8.14037E-04 4.56320E-03
 -1      1563 1.91030E-03 8.04913E-04 4.51891E-03
 -1      1564 7.25258E-06 2.82283E-04 6.71163E-03
 -1      1565-9.53824E-06 2.91356E-04 6.64113E-03
 -1      1566 3.62955E-03 9.21900E-04-3.22993E-03
 -1      1567-2.79723E-04 1.52934E-04-5.47854E-03
 -1      1568-1.75314E-04 1.58538E-04 4.99791E-03
 -1      1569 2.47229E-04-1.85529E-04-3.95172E-03
 -1      1570 2.27848E-04-1.81257E-04-3.92237E-03
 -1      1571 1.33358E-03 8.18470E-04 6.67675E-03
 -1      1572 1.31602E-03 8.11028E-04 6.60133E-03
 -1      1573-2.25204E-04 1.60355E-04 6.04537E-03
 -1      1574 6.48820E-04-4.33658E-04-6.14933E-03
 -1      1575 6.27730E-04-4.26326E-04-6.07807E-03
 -1      1576-2.59448E-04 1.18844E-04 6.86098E-03
 -1      1577-1.30953E-04 9.39031E-05 2.40621E-03
 -1      1578 1.36203E-03-2.15167E-04 1.67603E-03
 -1      1579 1.33048E-03-2.15546E-04 1.66294E-03
 -1      1580-1.38440E-04-4.82228E-05-2.53497E-03
 -1      1581 3.48386E-03 3.55642E-04-1.28423E-03
 -1      1582 3.43265E-03 3.54571E-04-1.26459E-03
 -1      1583-1.28601E-04-4.47518E-05-7.21948E-03
 -1      1584-1.49103E-04-4.97491E-05-7.13944E-03
 -1      1585-9.97365E-05 2.44621E-05 2.29377E-04
 -1      1586 1.35880E-03 7.05894E-04-6.11545E-03
 -1      1587 1.34154E-03 6.99173E-04-6.03091E-03
 -1      1588 1.94626E-03 7.12454E-04-4.01354E-03
 -1      1589 1.91700E-03 7.03157E-04-3.96513E-03
 -1      1590 3.48615E-03 5.24037E-04 1.71564E-03
 -1      1591 3.43701E-03 5.15004E-04 1.70179E-03
 -1      1592 3.33077E-04 1.18706E-04 1.73825E-03
 -1      1593 3.23017E-04 1.23562E-04 1.72798E-03
 -1      1594 3.62620E-04 8.38189E-05-1.27770E-03
 -1      1595 3.53890E-04 8.63777E-05-1.27053E-03
 -1      1596 1.41449E-03-7.46182E-04 6.57652E-03
 -1      1597 1.38475E-03-7.31087E-04 6.50973E-03
 -1      1598 1.04158E-03 5.65108E-04 4.57841E-03
 -1      1599 1.01883E-03 5.56936E-04 4.52887E-03
 -1      1600 1.39765E-03-6.75283E-04-6.09192E-03
 -1      1601 1.35874E-03-6.49106E-04-6.02296E-03
 -1      1602 3.09243E-03-1.04785E-03-4.91758E-03
 -1      1603 2.95461E-03 1.06637E-03 4.48961E-03
 -1      1604 2.92137E-03 1.05686E-03 4.42572E-03
 -1      1605-9.42091E-05 3.72850E-05 9.66983E-04
 -1      1606 1.69325E-03-5.98463E-04-4.00701E-03
 -1      1607 1.66770E-03-5.87526E-04-3.95337E-03
 -1      1608-3.22036E-04 1.32003E-04-6.26503E-03
 -1      1609 3.48457E-03-4.61181E-04 1.66095E-03
 -1      1610 3.43737E-03-4.52412E-04 1.63395E-03
 -1      1611 7.77796E-04-1.92774E-04-7.26064E-03
 -1      1612 7.56314E-04-1.94533E-04-7.17515E-03
 -1      1613-1.07476E-04-1.20628E-04 7.76089E-03
 -1      1614-1.26775E-04-1.16514E-04 7.68521E-03
 -1      1615 1.58797E-03-2.45940E-04 1.67834E-03
 -1      1616 1.55662E-03-2.43717E-04 1.66529E-03
 -1      1617 4.14993E-03-2.25284E-04 8.45423E-04
 -1      1618-3.02688E-04-1.78536E-05 7.61948E-03
 -1      1619-3.60310E-04 6.71877E-06-7.09703E-03
 -1      1620-2.54873E-04-1.02593E-04 7.05161E-03
 -1      1621-1.55851E-04 1.44554E-04 3.78241E-03
 -1      1622 1.12959E-03 3.39838E-04 7.82366E-03
 -1      1623 1.10751E-03 3.37536E-04 7.71835E-03
 -1      1624 4.72601E-04-1.79755E-04-7.27636E-03
 -1      1625 4.56835E-04-1.67392E-04-7.19913E-03
 -1      1626 2.30465E-03-8.21790E-04 7.00806E-03
 -1      1627-3.29203E-04 9.86206E-05-6.82903E-03
 -1      1628 2.05040E-03 6.02788E-06 8.28945E-03
 -1      1629-2.08850E-04-7.70375E-05 7.63344E-03
 -1      1630-1.82090E-04-8.22533E-05 7.73223E-03
 -1      1631 2.33725E-03 8.84131E-04-6.45856E-03
 -1      1632 1.17091E-03 6.56897E-04-6.12008E-03
 -1      1633 1.15220E-03 6.52809E-04-6.03758E-03
 -1      1634 8.65723E-05 1.03097E-04 1.75632E-03
 -1      1635 9.26919E-05 1.06118E-04 1.72932E-03
 -1      1636 5.17337E-04-4.48915E-04 6.58995E-03
 -1      1637 4.93218E-04-4.44943E-04 6.52710E-03
 -1      1638 2.15314E-03 8.68974E-04 4.49209E-03
 -1      1639 2.19093E-03 8.82811E-04 4.53256E-03
 -1      1640 1.60809E-03 4.53219E-04 7.70135E-03
 -1      1641 1.58505E-03 4.50394E-04 7.60991E-03
 -1      1642 4.99445E-04-3.66092E-04-6.14133E-03
 -1      1643 4.77968E-04-3.68231E-04-6.06890E-03
 -1      1644 3.30207E-03-1.20425E-03 4.80987E-03
 -1      1645 8.30376E-04 3.30127E-04 7.83578E-03
 -1      1646 8.06793E-04 3.21027E-04 7.75337E-03
 -1      1647 4.16021E-03 8.39537E-04 2.08407E-03
 -1      1648 5.02513E-04 4.46280E-04-6.12112E-03
 -1      1649 4.83195E-04 4.44876E-04-6.05336E-03
 -1      1650 3.71658E-03 1.06287E-03 3.69978E-03
 -1      1651-2.11346E-04 1.34036E-04-4.43365E-03
 -1      1652-1.23776E-04 7.14316E-05-1.99239E-03
 -1      1653 1.07429E-03 1.86130E-04-1.28848E-03
 -1      1654 1.08699E-03 1.87170E-04-1.32035E-03
 -1      1655 2.17836E-03-7.16825E-04-3.97422E-03
 -1      1656 2.14990E-03-7.06585E-04-3.93171E-03
 -1      1657 2.93155E-03-8.87044E-04-3.95534E-03
 -1      1658 2.89636E-03-8.78709E-04-3.90195E-03
 -1      1659 1.08217E-03-1.21081E-04-1.23289E-03
 -1      1660 1.06173E-03-1.24360E-04-1.22397E-03
 -1      1661-1.21764E-04-5.94721E-06-4.93241E-04
 -1      1662 3.28052E-03 1.25866E-03 4.94185E-03
 -1      1663 4.09918E-03-1.39719E-04-4.63965E-04
 -1      1664 3.97466E-03-7.30073E-04 2.31340E-03
 -1      1665 2.37125E-03-3.52122E-04 1.67109E-03
 -1      1666 2.33304E-03-3.43766E-04 1.65379E-03
 -1      1667 3.39392E-04-8.53751E-05-1.30070E-03
 -1      1668 3.33067E-04-8.80713E-05-1.26373E-03
 -1      1669 2.32697E-04-2.25761E-04 4.40960E-03
 -1      1670 2.24761E-04-2.36457E-04 4.36509E-03
 -1      1671-1.15754E-04 1.33545E-04 7.81810E-03
 -1      1672-1.41413E-04 1.24690E-04 7.74442E-03
 -1      1673 3.81339E-03-4.76339E-04 1.65025E-03
 -1      1674 3.76167E-03-4.69553E-04 1.61971E-03
 -1      1675 3.91901E-03 6.40587E-04-1.97151E-03
 -1      1676 1.08804E-03-2.45896E-04-7.25311E-03
 -1      1677 1.06784E-03-2.38307E-04-7.15399E-03
 -1      1678 4.12425E-03 2.71470E-04 9.35289E-04
 -1      1679 3.17078E-03 3.32168E-04-1.28689E-03
 -1      1680 3.13354E-03 3.30958E-04-1.26477E-03
 -1      1681 2.62522E-04-2.30308E-04 7.79870E-03
 -1      1682 2.39467E-04-2.17573E-04 7.71164E-03
 -1      1683 2.35013E-03-2.55454E-04-1.26228E-03
 -1      1684 2.31093E-03-2.52854E-04-1.25102E-03
 -1      1685 3.17554E-03-4.43942E-04 1.66228E-03
 -1      1686 3.13530E-03-4.36047E-04 1.64196E-03
 -1      1687 2.97168E-03-1.05958E-03 4.37777E-03
 -1      1688 2.93776E-03-1.04557E-03 4.32885E-03
 -1      1689 1.28874E-03 5.54479E-04-4.02455E-03
 -1      1690 1.25591E-03 5.44753E-04-3.98657E-03
 -1      1691 2.32905E-03-7.00205E-04-6.47842E-03
 -1      1692 2.37289E-03-7.68026E-04-6.65018E-03
 -1      1693-1.41586E-04-6.59860E-05-3.21968E-03
 -1      1694 3.73271E-04 2.47573E-04 7.86243E-03
 -1      1695 3.54198E-04 2.32613E-04 7.78323E-03
 -1      1696-1.27840E-04 2.16883E-04 6.68431E-03
 -1      1697-1.50995E-04 2.31660E-04 6.60336E-03
 -1      1698 2.10176E-03-3.10456E-04 1.67239E-03
 -1      1699 2.06632E-03-3.07943E-04 1.66415E-03
 -1      1700 3.90404E-03-1.04498E-03-3.96486E-03
 -1      1701-2.88077E-04-4.47597E-05-6.24410E-03
 -1      1702 1.61135E-03 4.82700E-04-7.15309E-03
 -1      1703 1.58946E-03 4.59168E-04-7.05621E-03
 -1      1704 8.47033E-04 4.39679E-04-4.02683E-03
 -1      1705 8.17823E-04 4.33005E-04-3.98477E-03
 -1      1706 2.16236E-03 7.14530E-04 7.29832E-03
 -1      1707 5.17463E-04 2.84032E-04 7.86306E-03
 -1      1708 4.95440E-04 2.63786E-04 7.77478E-03
 -1      1709 2.03611E-03 2.28627E-04 7.55164E-03
 -1      1710 4.37703E-03 3.56783E-04 1.50282E-03
 -1      1711-3.43588E-04-1.80888E-05-6.76792E-03
 -1      1712 3.25915E-03 1.15141E-03 4.44376E-03
 -1      1713 3.21068E-03 1.13401E-03 4.39312E-03
 -1      1714 1.70813E-03 7.52795E-04 4.56325E-03
 -1      1715 1.68258E-03 7.45292E-04 4.51750E-03
 -1      1716 4.03233E-03-6.14695E-04 1.96007E-03
 -1      1717 2.42878E-03 1.05526E-03 6.73013E-03
 -1      1718-1.02520E-04 4.14022E-05-5.59014E-04
 -1      1719-2.56472E-05 1.54191E-04-7.25920E-03
 -1      1720-4.56711E-05 1.57292E-04-7.18093E-03
 -1      1721-1.60692E-04 1.13233E-04-3.30582E-03
 -1      1722 2.08327E-03 3.41119E-04 1.73699E-03
 -1      1723 2.05086E-03 3.36058E-04 1.72602E-03
 -1      1724-1.50006E-04-2.82786E-05-1.89047E-03
 -1      1725 3.16025E-03 4.74748E-04 1.71799E-03
 -1      1726 3.12470E-03 4.69710E-04 1.70732E-03
 -1      1727 3.60966E-03 1.14313E-03 4.03529E-03
 -1      1728 2.13517E-03 1.07223E-03 6.57968E-03
 -1      1729 2.11473E-03 1.06115E-03 6.48481E-03
 -1      1730-3.66485E-06 1.66353E-04 7.84078E-03
 -1      1731-2.56414E-05 1.58982E-04 7.76279E-03
 -1      1732 4.38165E-03 1.88223E-04-1.11473E-03
 -1      1733 1.54623E-03-3.13680E-04-7.14197E-03
 -1      1734 1.52442E-03-3.07223E-04-7.04264E-03
 -1      1735-7.10608E-05-3.69206E-04-9.51214E-03
 -1      1736-1.69257E-04-3.25139E-04-9.89974E-03
 -1      1737 1.05174E-03 3.91453E-04-7.22754E-03
 -1      1738 1.04200E-03 3.86174E-04-7.13522E-03
 -1      1739 4.51272E-04 5.00691E-04 6.72149E-03
 -1      1740 4.39494E-04 4.99854E-04 6.65162E-03
 -1      1741-2.61244E-04-9.79206E-05 6.75461E-03
 -1      1742 1.46015E-03 4.74685E-04 7.74482E-03
 -1      1743 1.43973E-03 4.53335E-04 7.65405E-03
 -1      1744 3.98932E-03 1.24472E-03 4.52596E-03
 -1      1745 2.86712E-03 1.09178E-03-5.37905E-03
 -1      1746 3.70929E-03-1.01812E-03 3.61804E-03
 -1      1747 3.34919E-03 1.24134E-03 5.04266E-03
 -1      1748 1.21537E-03-6.81320E-04 6.59776E-03
 -1      1749 1.19118E-03-6.71694E-04 6.52218E-03
 -1      1750 1.92504E-03-1.09646E-04-7.00077E-03
 -1      1751-2.45943E-04 1.57699E-04 6.29915E-03
 -1      1752 4.59566E-05 2.62705E-04-6.09710E-03
 -1      1753 2.44893E-05 2.70277E-04-6.02802E-03
 -1      1754 2.11867E-03-5.47199E-04-6.72693E-03
 -1      1755-2.91134E-04-7.77535E-05 7.33296E-03
 -1      1756 3.67751E-04-8.66744E-05 1.64432E-03
 -1      1757 3.50997E-04-8.76682E-05 1.63612E-03
 -1      1758 3.76531E-03-3.72644E-04-1.25660E-03
 -1      1759 3.71319E-03-3.66138E-04-1.23535E-03
 -1      1760 2.24036E-03-9.69103E-04 8.16282E-03
 -1      1761 2.42974E-03 9.21378E-04 7.19979E-03
 -1      1762 2.17595E-03-9.72866E-04 6.50027E-03
 -1      1763 2.15848E-03-9.76260E-04 6.41968E-03
 -1      1764 4.19454E-04 3.55791E-04 4.52163E-03
 -1      1765 4.02914E-04 3.61233E-04 4.49097E-03
 -1      1766 8.61867E-04-4.74975E-04 4.46487E-03
 -1      1767 8.45415E-04-4.71847E-04 4.41290E-03
 -1      1768 2.47194E-04 2.03514E-04 7.86067E-03
 -1      1769 2.32922E-04 1.99709E-04 7.77804E-03
 -1      1770 2.43334E-03-9.96434E-04 6.69043E-03
 -1      1771-1.26659E-04 8.20216E-05 2.06331E-03
 -1      1772 4.39695E-03-2.96425E-04 1.41033E-03
 -1      1773 1.68221E-04 3.55493E-04 6.71320E-03
 -1      1774 1.53941E-04 3.53144E-04 6.65292E-03
 -1      1775 1.91321E-03 2.96078E-04-7.02255E-03
 -1      1776 3.89648E-03 1.05769E-03-3.98897E-03
 -1      1777 1.54472E-03 8.81625E-04 6.65408E-03
 -1      1778 1.51970E-03 8.64670E-04 6.57569E-03
 -1      1779-1.19255E-04 1.22909E-06 9.10421E-04
 -1      1780 4.09590E-03 6.32331E-04-1.74018E-03
 -1      1781 2.17371E-03-8.49905E-04 4.45847E-03
 -1      1782 2.15518E-03-8.41792E-04 4.40584E-03
 -1      1783 1.12485E-03-1.87487E-04 1.67112E-03
 -1      1784 1.09609E-03-1.88763E-04 1.65581E-03
 -1      1785 2.24151E-04-9.86708E-05-7.28301E-03
 -1      1786 2.04992E-04-1.02067E-04-7.19712E-03
 -1      1787 4.18088E-03-7.47151E-04 2.00735E-03
 -1      1788 5.23220E-04-2.84070E-04 7.79665E-03
 -1      1789 5.07948E-04-2.71116E-04 7.71455E-03
 -1      1790-1.93101E-04-8.78278E-05-4.41902E-03
 -1      1791 3.81687E-06-1.64743E-04 7.76877E-03
 -1      1792-1.80223E-05-1.56961E-04 7.69165E-03
 -1      1793-6.37011E-05 4.13257E-04 1.00279E-02
 -1      1794-1.94357E-04 4.03321E-04 1.04142E-02
 -1      1795 6.24608E-05-2.23372E-04 6.56799E-03
 -1      1796 4.39553E-05-2.33308E-04 6.50345E-03
 -1      1797-3.42501E-04 4.76360E-05-7.12439E-03
 -1      1798 2.20683E-03 7.78866E-04-3.98285E-03
 -1      1799 2.16182E-03 7.64845E-04-3.94511E-03
 -1      1800 2.20742E-03-8.04070E-04-7.61414E-03
 -1      1801 1.24656E-03-4.85973E-04-4.01722E-03
 -1      1802 1.22762E-03-4.85444E-04-3.97038E-03
 -1      1803-4.24366E-04 1.44702E-04-1.15274E-02
 -1      1804-3.64617E-04 2.16568E-04-1.13156E-02
 -1      1805-3.09027E-04-5.98764E-05 7.44923E-03
 -1      1806-3.20011E-04 2.79533E-05 7.65563E-03
 -1      1807 8.51653E-04-5.50635E-04 6.60101E-03
 -1      1808 8.28889E-04-5.48593E-04 6.53076E-03
 -1      1809 2.85774E-03-1.18163E-03 5.83697E-03
 -1      1810 8.03691E-04-4.72394E-04-6.14959E-03
 -1      1811 7.91138E-04-4.73283E-04-6.07533E-03
 -1      1812 1.56277E-03-7.91026E-04 6.49664E-03
 -1      1813 1.58552E-03-7.90541E-04 6.57545E-03
 -1      1814 1.89402E-03 1.23856E-04-7.78022E-03
 -1      1815-1.16917E-04-3.82753E-05 1.97711E-03
 -1      1816 1.09373E-03 2.30686E-04 1.73267E-03
 -1      1817 1.06598E-03 2.31120E-04 1.72257E-03
 -1      1818 5.25336E-06 2.07731E-04 4.51197E-03
 -1      1819-3.57991E-06 2.15974E-04 4.46043E-03
 -1      1820 3.22600E-03-1.07139E-03-4.41478E-03
 -1      1821 1.98009E-03 2.54000E-05 8.28203E-03
 -1      1822 1.71132E-03 6.56311E-04-4.02689E-03
 -1      1823 1.68546E-03 6.51340E-04-3.97415E-03
 -1      1824 2.16001E-03-9.30244E-04-5.98473E-03
 -1      1825 2.13746E-03-9.11763E-04-5.91401E-03
 -1      1826-3.26414E-04 4.71749E-05 7.65658E-03
 -1      1827 4.38170E-03-2.02817E-04-1.05053E-03
 -1      1828 1.56281E-03-7.20941E-04-6.08145E-03
 -1      1829 1.53147E-03-7.05033E-04-6.01115E-03
 -1      1830 2.60880E-03 4.16362E-04 1.72293E-03
 -1      1831 2.57174E-03 4.13953E-04 1.71104E-03
 -1      1832 4.46224E-04-2.86281E-04 4.41438E-03
 -1      1833 4.33397E-04-2.94993E-04 4.37792E-03
 -1      1834 1.91304E-03 1.39331E-04-7.69604E-03
 -1      1835 2.88318E-03-1.03662E-03-5.37201E-03
 -1      1836 2.24300E-03 9.86254E-04 8.22270E-03
 -1      1837 1.37517E-03-2.96969E-04-7.16678E-03
 -1      1838 1.35647E-03-2.90573E-04-7.07735E-03
 -1      1839 4.12880E-03-3.44890E-04 1.21410E-03
 -1      1840 1.27588E-03-5.89350E-04 4.47287E-03
 -1      1841 1.25838E-03-5.83230E-04 4.42277E-03
 -1      1842 1.18532E-03-6.00255E-04-6.11472E-03
 -1      1843 1.15875E-03-5.85544E-04-6.03394E-03
 -1      1844 3.30227E-03-1.03901E-03-4.55979E-03
 -1      1845-1.68277E-04-9.52755E-05 4.84194E-03
 -1      1846-1.08491E-04 5.87260E-05 1.35250E-03
 -1      1847 1.42714E-05-1.27750E-04-3.98390E-03
 -1      1848 1.23062E-05-1.36206E-04-3.91652E-03
 -1      1849 8.16071E-04 5.55797E-04-6.12687E-03
 -1      1850 8.04955E-04 5.55810E-04-6.05185E-03
 -1      1851-3.15978E-04 8.01564E-05 7.43349E-03
 -1      1852 1.38324E-03 4.36884E-04-7.07561E-03
 -1      1853 1.39747E-03 4.45191E-04-7.17916E-03
 -1      1854 1.56171E-03 7.99866E-04-6.08664E-03
 -1      1855 1.53928E-03 7.77990E-04-6.00976E-03
 -1      1856-2.44533E-04-3.68600E-05-7.19981E-03
 -1      1857-2.65599E-04-3.70171E-05-7.09993E-03
 -1      1858-1.51385E-04-7.76410E-05 3.65518E-03
 -1      1859-1.45283E-04-2.15466E-05-1.56632E-03
 -1      1860 4.23373E-03 4.74699E-04 1.59998E-03
 -1      1861 1.73481E-03-7.06132E-04 4.46889E-03
 -1      1862 1.70504E-03-7.01119E-04 4.42339E-03
 -1      1863 7.92443E-04 6.19508E-04 6.71651E-03
 -1      1864 7.75779E-04 6.14704E-04 6.64529E-03
 -1      1865-2.24537E-04-1.08677E-04 5.91957E-03
 -1      1866 1.99044E-03 1.37765E-04 7.93298E-03
 -1      1867 1.57022E-03-1.61633E-04-1.25406E-03
 -1      1868 1.54188E-03-1.57049E-04-1.23772E-03
 -1      1869 3.05732E-03-1.26955E-03-6.26616E-03
 -1      1870 2.61427E-03 3.08845E-04-1.30019E-03
 -1      1871 2.58860E-03 3.09469E-04-1.28244E-03
 -1      1872 3.97695E-03 5.44751E-04-1.61394E-03
 -1      1873 2.48623E-03 1.01018E-03-6.55896E-03
 -1      1874 1.80672E-04-2.63728E-04-6.11103E-03
 -1      1875 1.57687E-04-2.70748E-04-6.04405E-03
 -1      1876-1.71263E-04 1.57684E-04 4.69564E-03
 -1      1877-8.33900E-05 4.17028E-04-9.57152E-03
 -1      1878-2.05746E-04 3.84110E-04-9.90227E-03
 -1      1879 2.04374E-03 6.20980E-04 7.39636E-03
 -1      1880 2.08415E-03-2.06928E-04-1.25736E-03
 -1      1881 2.04520E-03-2.07223E-04-1.24819E-03
 -1      1882-1.63073E-04-8.00279E-05-3.56725E-03
 -1      1883 1.95509E-03-8.30115E-04-6.05359E-03
 -1      1884 1.93008E-03-8.19285E-04-5.96179E-03
 -1      1885-2.59289E-04 1.29398E-04 6.70311E-03
 -1      1886 1.90294E-04-3.23471E-04 6.59018E-03
 -1      1887 1.71764E-04-3.24659E-04 6.52916E-03
 -1      1888 2.66667E-03 1.00985E-03 4.51524E-03
 -1      1889 2.64512E-03 1.00529E-03 4.45287E-03
 -1      1890 3.97570E-03-1.21176E-03 4.42432E-03
 -1      1891-3.72639E-04-6.55688E-06-7.07017E-03
 -1      1892 2.85121E-03 1.22794E-03 5.93654E-03
 -1      1893 3.37967E-03 1.24903E-03 4.64380E-03
 -1      1894 2.23154E-03 1.01249E-03-7.65541E-03
 -1      1895 4.84844E-04 2.78372E-04-7.26112E-03
 -1      1896 4.68579E-04 2.73683E-04-7.18540E-03
 -1      1897 3.77175E-03 5.52299E-04 1.71331E-03
 -1      1898 3.72168E-03 5.43581E-04 1.69579E-03
 -1      1899-1.83379E-04-8.43684E-05-4.15722E-03
 -1      1900 6.02404E-04-1.19166E-04 1.64542E-03
 -1      1901 5.87199E-04-1.21014E-04 1.64028E-03
 -1      1902 4.07165E-03-2.72181E-04-8.34443E-04
 -1      1903 2.60405E-03-2.96189E-04-1.27390E-03
 -1      1904 2.56940E-03-2.89418E-04-1.25512E-03
 -1      1905-1.76940E-04 1.46594E-04 4.10435E-03
 -1      1906 1.78038E-03 4.97322E-04 7.66352E-03
 -1      1907 1.75470E-03 4.89768E-04 7.56025E-03
 -1      1908 2.37208E-03-1.00247E-03-5.94619E-03
 -1      1909 2.33998E-03-9.81203E-04-5.86784E-03
 -1      1910 3.66476E-03-8.65533E-04-3.16461E-03
 -1      1911 2.41741E-03-8.80105E-04-6.18593E-03
 -1      1912-1.09527E-05 1.93941E-04-3.95554E-03
 -1      1913 2.19534E-06 1.87042E-04-4.01457E-03
 -1      1914 4.00036E-03 7.23150E-04 2.05789E-03
 -1      1915 1.98595E-05-1.64448E-04 4.40093E-03
 -1      1916 1.92841E-05-1.74653E-04 4.33949E-03
 -1      1917 2.47542E-04 2.25452E-04-7.26921E-03
 -1      1918 2.27113E-04 2.20774E-04-7.18651E-03
 -1      1919 1.89813E-03-2.29864E-04-6.97358E-03
 -1      1920 2.22083E-03 9.55195E-04-5.99040E-03
 -1      1921 2.19294E-03 9.42127E-04-5.91359E-03
 -1      1922 1.05609E-04-7.38626E-05 1.67836E-03
 -1      1923 1.03227E-04-7.51226E-05 1.65358E-03
 -1      1924 2.63321E-03-3.75095E-04 1.67190E-03
 -1      1925 2.60023E-03-3.65774E-04 1.65235E-03
 -1      1926 3.59672E-03-1.10884E-03 3.93603E-03
 -1      1927 2.48675E-03 9.63109E-04-6.17865E-03
 -1      1928 3.04389E-03 1.32681E-03-6.28457E-03
 -1      1929 1.14731E-03 7.48373E-04 6.69837E-03
 -1      1930 1.13360E-03 7.39557E-04 6.62115E-03
 -1      1931 3.30462E-03-1.07387E-03-4.14110E-03
 -1      1932 2.72859E-03-1.04528E-03-5.58664E-03
 -1      1933 5.91479E-04 1.76299E-04 1.74626E-03
 -1      1934 5.76080E-04 1.76693E-04 1.73551E-03
 -1      1935 4.08674E-03 2.56559E-04-8.80239E-04
 -1      1936 1.77272E-03 5.15203E-04-7.10852E-03
 -1      1937 1.74968E-03 4.94511E-04-7.01691E-03
 -1      1938 3.31335E-03 1.05906E-03-4.40539E-03
 -1      1939 2.39593E-03 1.13303E-03 6.51457E-03
 -1      1940 2.37426E-03 1.12104E-03 6.43629E-03
 -1      1941-1.49690E-04 2.05179E-04-6.00209E-03
 -1      1942-1.28640E-04 1.96415E-04-6.08388E-03
 -1      1943 1.75258E-04 3.15070E-04-6.12384E-03
 -1      1944 1.67256E-04 3.31115E-04-6.04827E-03
 -1      1945 2.50227E-03 1.13316E-03 6.55994E-03
 -1      1946 2.47797E-03-9.84902E-04-6.00362E-03
 -1      1947 1.72024E-03-3.42185E-04-7.00381E-03
 -1      1948 1.74670E-03-3.53605E-04-7.11606E-03
 -1      1949 3.75472E-04-7.45559E-05 1.98839E-03
 -1      1950 3.20743E-04-2.31838E-04 2.71682E-03
 -1      1951-1.94863E-04-1.11048E-04 4.57630E-03
 -1      1952-3.10708E-04-2.99688E-05 7.61590E-03
 -1      1953 2.14447E-03-6.68670E-04 7.24807E-03
 -1      1954-1.63152E-04-9.86170E-05 3.96846E-03
 -1      1955 1.94892E-03 8.91591E-04-6.05369E-03
 -1      1956 1.92848E-03 8.79753E-04-5.95528E-03
 -1      1957 3.51920E-03 9.94975E-04-3.53155E-03
 -1      1958 4.34009E-04-2.52478E-04-3.97773E-03
 -1      1959 4.14229E-04-2.61341E-04-3.93863E-03
 -1      1960 2.43007E-03-1.07594E-03 6.46049E-03
 -1      1961 2.40284E-03-1.06332E-03 6.38125E-03
 -1      1962-1.19877E-04 5.63408E-05-9.19579E-04
 -1      1963 4.09117E-03 4.10304E-04 1.30408E-03
 -1      1964 2.71430E-03 1.21874E-03 6.16370E-03
 -1      1965-1.16404E-04-1.45348E-05 1.26788E-03
 -1      1966-2.50555E-04-1.02669E-04 6.56977E-03
 -1      1967 2.01524E-03-4.63384E-04-6.83363E-03
 -1      1968 2.51235E-03-1.07767E-03 6.51900E-03
 -1      1969 2.45442E-03-9.16574E-04 7.10399E-03
 -1      1970 1.89782E-03 4.11762E-04-6.98741E-03
 -1      1971-1.81947E-04 1.24418E-04-3.61256E-03
 -1      1972 1.94817E-03-9.00247E-04 6.45036E-03
 -1      1973 1.95702E-03-8.84784E-04 6.53066E-03
 -1      1974-3.37449E-04 5.25145E-05-7.07381E-03
 -1      1975 7.43452E-05 4.24162E-04-6.87783E-03
 -1      1976 1.90822E-04 3.62498E-04-6.20197E-03
 -1      1977-3.05394E-04 1.38977E-04-6.10099E-03
 -1      1978 1.57875E-03 2.91504E-04 1.75684E-03
 -1      1979 1.54980E-03 2.88879E-04 1.74424E-03
 -1      1980 4.28201E-03-3.87792E-04 1.51693E-03
 -1      1981 3.33363E-03 1.12195E-03-4.51606E-03
 -1      1982 1.61804E-03-4.39978E-04 7.65070E-03
 -1      1983 1.60416E-03-4.39195E-04 7.56152E-03
 -1      1984 3.78307E-03 3.67172E-04-1.26692E-03
 -1      1985 3.72999E-03 3.64059E-04-1.25393E-03
 -1      1986-2.52050E-04-9.67448E-05-5.45305E-03
 -1      1987-2.19779E-04 1.06261E-04-7.23342E-03
 -1      1988-2.46052E-04 1.05448E-04-7.14232E-03
 -1      1989-3.33787E-05-4.40364E-04 9.93361E-03
 -1      1990-1.56159E-04-3.93952E-04 1.03231E-02
 -1      1991 2.66761E-03-9.73300E-04 4.42379E-03
 -1      1992 2.65709E-03-9.65499E-04 4.35844E-03
 -1      1993 2.13584E-03 7.37934E-04-6.74177E-03
 -1      1994-2.80669E-04 1.47438E-04-5.69494E-03
 -1      1995-1.25671E-04-1.49354E-04-6.06372E-03
 -1      1996-1.44962E-04-1.52937E-04-5.98356E-03
 -1      1997 3.76754E-04-4.74600E-05-1.75978E-03
 -1      1998 3.30894E-04-1.96662E-04-2.47917E-03
 -1      1999-1.30326E-04 6.67363E-05-1.64358E-03
 -1      2000 3.23507E-03-1.12874E-03 4.35520E-03
 -1      2001 3.20698E-03-1.11773E-03 4.29479E-03
 -1      2002-2.68572E-04-8.72980E-05-5.69495E-03
 -1      2003 3.17814E-03-9.59151E-04-3.92566E-03
 -1      2004 3.14306E-03-9.48144E-04-3.87435E-03
 -1      2005 3.55253E-03-9.49439E-04-3.48955E-03
 -1      2006 3.44711E-03-1.18500E-03 4.53903E-03
 -1      2007 2.03203E-03 6.33621E-04-6.85336E-03
 -1      2008-3.37629E-04 8.65249E-05-6.93813E-03
 -1      2009 7.70189E-04 3.07825E-04-7.25529E-03
 -1      2010 7.52374E-04 3.06132E-04-7.16576E-03
 -1      2011-2.90713E-04-6.14048E-05-6.10450E-03
 -1      2012-4.44580E-04 1.39803E-04 1.22337E-02
 -1      2013-3.84681E-04 2.29659E-04 1.20189E-02
 -1      2014-3.87288E-04-9.37524E-05 1.21962E-02
 -1      2015-3.26157E-04-1.95749E-04 1.19694E-02
 -1      2016 2.00806E-03-2.34290E-04 7.53200E-03
 -1      2017-7.02818E-05-1.56594E-04 6.53842E-03
 -1      2018-8.29133E-05-1.64476E-04 6.45651E-03
 -1      2019 2.71003E-03 1.07328E-03-5.59014E-03
 -1      2020 1.14114E-04-3.88491E-04-6.76836E-03
 -1      2021 2.02996E-04-3.34038E-04-6.07475E-03
 -1      2022 1.44080E-03-3.58419E-04 7.72940E-03
 -1      2023 1.43440E-03-3.68801E-04 7.61667E-03
 -1      2024 6.03177E-04-8.64270E-05-1.25835E-03
 -1      2025 5.95267E-04-7.56989E-05-1.23813E-03
 -1      2026-2.29219E-04-1.04576E-04 6.15763E-03
 -1      2027 2.03981E-03-5.66734E-04 7.33565E-03
 -1      2028 1.96269E-03 3.67667E-04 7.51606E-03
 -1      2029 2.44368E-03-8.24047E-04-6.32542E-03
 -1      2030 1.98870E-03-3.69007E-04 7.50016E-03
 -1      2031 3.61917E-04 1.00386E-04-1.86826E-03
 -1      2032 3.06490E-04 2.43483E-04-2.60148E-03
 -1      2033-3.89665E-04-6.80747E-05-1.15575E-02
 -1      2034-3.35281E-04-1.69136E-04-1.13690E-02
 -1      2035 1.10351E-04 4.31985E-04 7.15114E-03
 -1      2036 2.16530E-04 3.79248E-04 6.43211E-03
 -1      2037 3.77787E-04 1.35679E-04 2.11192E-03
 -1      2038 3.26705E-04 2.48704E-04 2.84447E-03
 -1      2039 1.39422E-04-4.25973E-04 7.03205E-03
 -1      2040 2.45474E-04-3.31301E-04 6.37959E-03
 -1      2041-3.24535E-04 6.85686E-05 7.54333E-03
 -1      2042-1.99179E-03 2.31338E-04-6.58831E-03
 -1      2043-3.16216E-05 4.54614E-04 3.39613E-03
 -1      2044 4.96461E-04 5.54696E-04-7.21468E-03
 -1      2045-1.06521E-03 1.61572E-04 1.19296E-02
 -1      2046 4.37879E-04-6.77540E-04 6.31982E-03
 -1      2047-6.20576E-04-1.82466E-04-1.77412E-03
 -1      2048 1.13580E-03 5.84118E-05 9.62194E-03
 -1      2049-5.01317E-04-6.89835E-04-2.98490E-03
 -1      2050-1.25736E-04-6.07561E-04-2.88071E-03
 -1      2051-4.66331E-05-2.26398E-04-1.49702E-03
 -1      2052 1.51517E-04-1.66837E-04-1.10197E-03
 -1      2053 1.77978E-04-2.33386E-05-7.29182E-05
 -1      2054 1.99919E-04 2.25411E-04 1.04810E-03
 -1      2055 8.06223E-05 3.43886E-04 1.49720E-03
 -1      2056-9.70774E-05 5.03321E-04 2.78739E-03
 -1      2057-8.72035E-04-4.64411E-04-3.76349E-03
 -1      2058-5.57007E-04-5.39787E-04-4.21841E-03
 -1      2059-1.07777E-03 4.44362E-05-4.19034E-03
 -1      2060-8.84469E-04 1.31490E-04-4.96779E-03
 -1      2061-8.86576E-04-2.14901E-04-5.04000E-03
 -1      2062-7.43913E-04 4.05774E-04-3.84302E-03
 -1      2063-6.58701E-04 5.67177E-04-4.33320E-03
 -1      2064-5.82710E-04 6.64161E-04-7.84242E-03
 -1      2065-5.83151E-04 6.86044E-04-3.00335E-03
 -1      2066-1.21732E-04 6.08651E-04-2.81834E-03
 -1      2067-1.92426E-05 4.44678E-04-1.60583E-03
 -1      2068 2.17506E-04 1.87927E-04-1.11773E-03
 -1      2069 2.27378E-04 9.81745E-06 4.95281E-05
 -1      2070 2.04173E-04-2.31028E-04 9.47478E-04
 -1      2071-1.95992E-06-3.02326E-04 1.52082E-03
 -1      2072-1.24514E-04-5.91413E-04 2.72076E-03
 -1      2073-4.52502E-04-6.71751E-04 2.96726E-03
 -1      2074 1.33581E-04-3.23930E-04-1.76653E-03
 -1      2075-5.06690E-04-6.59762E-04 4.35104E-03
 -1      2076-6.12329E-04-4.92181E-04 3.95437E-03
 -1      2077-2.76921E-04 3.48659E-04 2.76256E-03
 -1      2078 1.66140E-04 6.29420E-04 3.25365E-03
 -1      2079-5.51971E-04 5.40463E-04 4.42368E-03
 -1      2080-1.06506E-03 5.30948E-04 4.06265E-03
 -1      2081-8.92981E-04-3.13686E-04 5.45927E-03
 -1      2082-1.08782E-03 2.52041E-04 5.34434E-03
 -1      2083-1.22009E-03 2.94828E-05 4.30011E-03
 -1      2084-6.19577E-04-3.65565E-04 2.93450E-03
 -1      2085 1.95600E-04 6.17998E-06 2.77860E-04
 -1      2086 2.56797E-05 2.52143E-04 1.33938E-03
 -1      2087 4.92292E-05-5.70260E-04-4.91443E-03
 -1      2088-7.12627E-05 5.36666E-04-3.35470E-03
 -1      2089-8.84275E-04-2.58083E-04-9.38428E-03
 -1      2090 2.52178E-04 4.00401E-04 2.16600E-03
 -1      2091-8.68591E-04 4.05165E-05-6.11065E-03
 -1      2092 2.29688E-05 2.15984E-04 7.85442E-04
 -1      2093-9.18773E-04 5.99292E-04 5.70917E-03
 -1      2094-7.18531E-04 1.94944E-04 2.89077E-03
 -1      2095-1.01440E-03 4.83796E-04 6.25923E-03
 -1      2096 2.79543E-04 1.23833E-04-6.21621E-04
 -1      2097 4.58352E-04 2.81127E-04-2.34197E-03
 -1      2098 8.71632E-05 6.42056E-04-6.17200E-03
 -1      2099-8.15930E-04-4.85274E-04-5.87246E-03
 -1      2100-4.70022E-06-6.10850E-04-5.30477E-03
 -1      2101 3.32967E-04 2.76072E-04 1.79089E-03
 -1      2102-2.48478E-04-2.56892E-05-9.10626E-05
 -1      2103 1.10305E-03-9.82295E-05 4.91552E-03
 -1      2104 7.24326E-04-3.43686E-04-8.10416E-03
 -1      2105-1.09468E-03 5.34065E-05-2.29539E-03
 -1      2106-8.18003E-04 3.10946E-04-5.67717E-03
 -1      2107 9.17444E-04 2.38777E-06-8.88584E-03
 -1      2108-8.31396E-04-3.60463E-04 6.47216E-03
 -1      2109-4.00357E-04 3.24366E-04-2.21654E-03
 -1      2110 6.50519E-04 4.87398E-04 9.76169E-03
 -1      2111-8.19349E-04 2.79233E-04-9.09364E-03
 -1      2112 1.22726E-04-4.00756E-04 1.65542E-03
 -1      2113-4.73911E-04 2.02004E-04-2.57010E-03
 -1      2114 2.95368E-04-5.88435E-05 6.36374E-04
 -1      2115 3.84330E-04-5.81725E-04-4.24799E-03
 -1      2116-5.55839E-05 5.40421E-04 2.74256E-03
 -1      2117-3.07379E-04 6.09826E-04 3.62312E-03
 -1      2118 5.36240E-05-4.35394E-04 2.66593E-03
 -1      2119-1.84617E-06 2.84611E-04-8.70188E-04
 -1      2120-2.96660E-05-2.09154E-04-6.63211E-04
 -1      2121 5.63946E-05 3.83592E-04-1.32909E-03
 -1      2122-6.27665E-04 5.19102E-04 2.48213E-03
 -1      2123-4.07142E-04-6.11013E-04-8.97734E-03
 -1      2124 2.54517E-04 3.14905E-04 1.70298E-03
 -1      2125 5.82613E-04-2.85080E-04-3.40240E-03
 -1      2126-7.91198E-05-4.07368E-04 3.29379E-03
 -1      2127 2.85432E-04 1.17233E-04 5.26564E-04
 -1      2128 6.92201E-04-5.85434E-04 8.42830E-03
 -1      2129-4.12675E-04 3.76802E-04-7.72774E-03
 -1      2130 5.05558E-04-2.24543E-04-1.81009E-03
 -1      2131-1.90026E-04-3.45387E-04 1.55660E-03
 -1      2132-1.84737E-05 1.48479E-04-6.08776E-04
 -1      2133-2.03948E-04-2.47957E-04 1.03194E-03
 -1      2134-6.46912E-05 6.24098E-04-4.43854E-03
 -1      2135 9.42675E-04-2.79975E-04-5.20375E-03
 -1      2136 4.31832E-04 6.09431E-04 7.98354E-03
 -1      2137-1.49641E-04-3.95964E-04-9.46140E-03
 -1      2138-2.55040E-04-6.41368E-04-3.90714E-03
 -1      2139 8.84203E-04 6.37161E-04 4.80290E-03
 -1      2140 6.87906E-04 4.47286E-05 2.35816E-03
 -1      2141-1.95943E-04 8.85478E-05 9.92042E-04
 -1      2142-8.52908E-04-1.95221E-04 1.00499E-02
 -1      2143-6.37469E-04 2.36695E-04-1.13059E-02
 -1      2144-4.75284E-06-3.11053E-04 1.32560E-03
 -1      2145-3.61121E-04-4.15129E-04-2.22864E-03
 -1      2146-3.82345E-04 3.60744E-04 2.12528E-03
 -1      2147-1.40194E-03-2.25917E-04 7.97507E-03
 -1      2148-4.92727E-04-2.86319E-04-2.36335E-03
 -1      2149-1.64296E-04-2.22193E-04-1.34888E-03
 -1      2150-6.64292E-04 2.25555E-04-2.72001E-03
 -1      2151 3.68144E-04-2.35817E-04 1.77715E-03
 -1      2152-4.62089E-04-7.12373E-04 8.09271E-03
 -1      2153 7.54547E-04 6.34729E-05-3.79369E-03
 -1      2154-9.84972E-04 3.77808E-04 1.00296E-02
 -1      2155-7.73401E-04-2.44454E-04-6.09951E-03
 -1      2156 1.11897E-03 2.12601E-04 6.35828E-03
 -1      2157-1.26776E-03 2.38234E-04-6.17817E-03
 -1      2158 7.35588E-04-4.05655E-04 3.51789E-03
 -1      2159 1.95475E-04 5.82542E-04-4.82658E-03
 -1      2160-6.21963E-04 6.58354E-04 8.29077E-03
 -1      2161-3.19733E-04 5.61533E-04-9.76353E-03
 -1      2162-6.28687E-04-2.21640E-04-2.46143E-03
 -1      2163-2.11800E-03 1.02298E-04 2.00646E-03
 -1      2164 3.48558E-04 1.76137E-04-1.55661E-03
 -1      2165 1.41554E-04 2.80807E-04 1.44196E-03
 -1      2166-4.89537E-04-2.18011E-04 1.25521E-02
 -1      2167-5.29703E-04-1.93753E-04-1.14953E-02
 -1      2168 6.90988E-04-6.93767E-04 3.77220E-03
 -1      2169-5.13635E-04 1.70791E-04-1.17416E-02
 -1      2170 3.47261E-05-6.87602E-05-3.85832E-04
 -1      2171-5.74210E-04 3.43831E-04-4.72708E-03
 -1      2172-4.00402E-04-1.99972E-04 2.10807E-03
 -1      2173 8.30605E-04 4.50139E-04-3.54973E-03
 -1      2174 1.71237E-04-5.47996E-04 3.12503E-03
 -1      2175 3.92286E-04 6.65330E-04-2.33512E-03
 -1      2176-4.15222E-05 5.42833E-05 2.97588E-04
 -1      2177-1.76180E-04-4.50415E-04 6.17611E-03
 -1      2178-1.84690E-04-3.55317E-04-1.66846E-03
 -1      2179 1.94171E-04 6.14004E-04-2.33401E-03
 -1      2180 5.66744E-04-2.61528E-04 1.14271E-02
 -1      2181-1.05301E-03 2.35130E-04-9.63890E-03
 -1      2182 1.85360E-04-3.29078E-04 2.62609E-03
 -1      2183-1.57323E-04 3.18406E-04-1.02752E-02
 -1      2184 6.93577E-04 2.89673E-04-9.63147E-03
 -1      2185-7.54327E-04 2.99354E-04-9.41551E-03
 -1      2186 5.97978E-04 1.89977E-04 1.15455E-02
 -1      2187-4.74946E-04 6.11780E-04-4.90720E-03
 -1      2188 5.36685E-04 2.74063E-04-2.56750E-03
 -1      2189 3.47204E-04-2.64967E-04 1.75245E-03
 -1      2190-2.42355E-04-1.71457E-04 1.11174E-03
 -1      2191-4.40980E-05 5.47045E-04-4.63824E-03
 -1      2192 7.60887E-05-2.75533E-04 1.49581E-03
 -1      2193-3.44193E-04-4.57370E-04 1.00678E-02
 -1      2194-1.47502E-03 3.87225E-05-1.07253E-02
 -1      2195-6.74484E-04 1.95003E-04 2.42081E-03
 -1      2196 7.74344E-05-4.88864E-04 4.33957E-03
 -1      2197-1.11636E-03-1.86686E-04 3.31362E-03
 -1      2198-2.71597E-04 6.29448E-04 1.02409E-02
 -1      2199 1.03341E-03-3.15944E-04 3.98226E-03
 -1      2200 3.08718E-04 1.07602E-04-1.18432E-02
 -1      2201 2.44117E-04 6.21198E-04 5.52073E-03
 -1      2202-3.60419E-05-4.30598E-04-2.36852E-03
 -1      2203-6.54804E-04 3.06362E-04 1.24383E-02
 -1      2204 1.38120E-04-3.72060E-04-2.18270E-03
 -1      2205-6.75300E-04-3.83094E-04-5.53629E-03
 -1      2206 2.87594E-05 6.34735E-04 4.78142E-03
 -1      2207-1.45250E-04 4.63019E-04 1.64457E-03
 -1      2208 9.08691E-04 5.36052E-04-7.02440E-03
 -1      2209-7.13468E-04-6.82060E-05 2.85268E-03
 -1      2210-5.95171E-04 1.89594E-04 2.58808E-03
 -1      2211 5.86616E-04-6.54143E-04 4.29912E-03
 -1      2212 3.32992E-04 4.62943E-04-9.92890E-03
 -1      2213-1.54315E-03-8.33805E-05 1.08290E-02
 -1      2214-1.55725E-03 1.54565E-04-9.60772E-03
 -1      2215-6.38817E-04-1.65342E-05-2.53611E-03
 -1      2216 4.04615E-05-1.47655E-04 7.46002E-04
 -1      2217-1.27012E-04 2.35186E-04-1.75698E-03
 -1      2218-3.16031E-04-6.81033E-04 3.79406E-03
 -1      2219-5.62367E-04 9.73854E-05-2.01310E-03
 -1      2220-6.15707E-05-6.95717E-04 5.26883E-03
 -1      2221 2.55344E-04 4.69064E-04-2.57815E-03
 -1      2222 2.65047E-05-6.18631E-05 3.29796E-04
 -1      2223-8.74622E-05 4.62628E-04-1.40594E-03
 -1      2224-1.94054E-04 4.17647E-04-1.84209E-03
 -1      2225-1.61934E-03 1.94061E-04-8.39568E-03
 -1      2226 1.01674E-03-4.14856E-05 5.75538E-03
 -1      2227 5.43869E-04-5.04130E-04-3.04982E-03
 -1      2228-1.76245E-03 1.80336E-04-6.25346E-03
 -1      2229 1.56137E-04-5.59876E-04-4.10972E-03
 -1      2230-3.40410E-04 3.18357E-04 2.29898E-03
 -1      2231 1.41914E-04 3.31651E-04 1.81142E-03
 -1      2232-2.64104E-05-3.57681E-04 1.80278E-03
 -1      2233-9.24352E-04 1.49670E-04-1.10462E-02
 -1      2234 4.96939E-04-3.03851E-04 2.21917E-03
 -1      2235-6.22959E-05-1.21141E-04 6.37817E-04
 -1      2236-6.50227E-04 3.99162E-04-5.60252E-03
 -1      2237-7.29702E-04 1.92282E-05-1.20798E-02
 -1      2238-1.15815E-05-2.85449E-04-9.62248E-04
 -1      2239-4.03882E-04-2.38679E-04 1.21724E-02
 -1      2240 2.88720E-04 2.41927E-04-1.15098E-02
 -1      2241-2.39850E-05 5.17029E-04-2.17146E-03
 -1      2242-1.75948E-04-7.92880E-05 2.38146E-04
 -1      2243-1.40879E-05 1.22441E-04 6.19890E-04
 -1      2244 3.33771E-05-1.99728E-04-9.26606E-04
 -1      2245-5.52190E-05 2.69810E-05 1.30204E-02
 -1      2246 4.57850E-04-6.62253E-04 4.22826E-03
 -1      2247 9.57848E-04-4.11968E-04 6.32305E-03
 -1      2248-7.76403E-04 3.44164E-04-6.14035E-03
 -1      2249 5.58948E-04-6.01992E-04 7.77450E-03
 -1      2250-2.12804E-04 5.34656E-04-4.90019E-03
 -1      2251-1.95964E-04-2.62988E-04 1.95217E-03
 -1      2252-8.68160E-04 3.03819E-04 7.69332E-03
 -1      2253-4.82389E-04 3.82130E-04-6.34545E-03
 -1      2254-1.44083E-04-5.41563E-04 8.01635E-03
 -1      2255 1.75574E-04-2.71805E-04 1.31171E-03
 -1      2256 9.08511E-05-3.93733E-04 1.12709E-02
 -1      2257 1.03067E-03 2.50504E-04 9.19957E-03
 -1      2258 2.94700E-04-2.92532E-04 1.83647E-03
 -1      2259 5.14816E-04-1.48981E-04 2.24399E-03
 -1      2260-1.59494E-04 3.60000E-04 1.70110E-03
 -1      2261-8.37424E-05-1.35390E-04 1.30135E-02
 -1      2262 2.50077E-04 2.91755E-04-1.65502E-03
 -1      2263-1.00291E-03-1.09931E-04 7.88790E-03
 -1      2264 2.01883E-04-5.38665E-04-6.50278E-03
 -1      2265-1.33986E-03-2.55692E-05-1.92489E-03
 -1      2266-8.84919E-05-1.21614E-04-4.25989E-04
 -1      2267 3.98344E-05 2.36667E-04 8.70622E-04
 -1      2268 4.92206E-04-2.33339E-04-2.21492E-03
 -1      2269 4.80618E-04 6.93108E-04-5.39973E-03
 -1      2270-2.80350E-03-8.58998E-06-3.81257E-03
 -1      2271 1.03356E-04-5.69513E-04-7.28405E-03
 -1      2272-1.05799E-03-2.27062E-04 1.08529E-02
 -1      2273-1.11925E-04 2.98543E-04 1.20481E-03
 -1      2274-5.94120E-05-6.21279E-05-6.41606E-05
 -1      2275-1.06756E-03 1.22774E-04 6.86795E-03
 -1      2276 1.75415E-04 6.17416E-04 6.39555E-03
 -1      2277-6.17914E-04 2.19930E-04-2.41383E-03
 -1      2278-1.57481E-04-2.89626E-04-1.38837E-03
 -1      2279-3.70111E-04 6.77522E-04 5.10449E-03
 -1      2280 3.08440E-04-8.08764E-05-6.23044E-04
 -1      2281 6.02175E-05-4.95169E-04-3.08764E-03
 -1      2282-9.71935E-04-3.41532E-04 9.57913E-03
 -1      2283 5.60526E-05 1.22069E-04-3.30091E-04
 -1      2284-1.65253E-03 1.09431E-04-2.59317E-03
 -1      2285-3.91009E-04-5.86717E-04-4.67663E-03
 -1      2286-5.74295E-04-3.98022E-04 2.49092E-03
 -1      2287-2.91865E-04-4.56732E-04 2.16660E-03
 -1      2288-3.62998E-04-6.41914E-04 4.98758E-03
 -1      2289 5.71097E-04 1.53209E-05-2.31450E-03
 -1      2290 1.04558E-03 8.77484E-05-3.14737E-03
 -1      2291 8.07548E-04 6.19837E-04-6.23939E-03
 -1      2292-5.27214E-04-3.07936E-04 1.14163E-02
 -1      2293 8.39149E-05 2.75969E-04 1.54929E-03
 -1      2294 1.47735E-04-3.07188E-04-1.23097E-03
 -1      2295-4.37630E-04-2.39350E-04 8.60757E-04
 -1      2296 6.50910E-04-1.65086E-04-2.40634E-03
 -1      2297-6.32338E-04 6.05388E-05-2.09695E-03
 -1      2298 1.73123E-04-5.78714E-04 9.33537E-03
 -1      2299 2.21745E-05 2.49551E-04-1.09147E-03
 -1      2300-2.74344E-03-1.13017E-04 2.48064E-03
 -1      2301 1.09170E-03 2.90481E-04 9.45653E-03
 -1      2302-1.89448E-04 1.93772E-04 1.28089E-02
 -1      2303-5.10342E-04-3.88684E-05 1.30227E-02
 -1      2304 1.70506E-04-6.39225E-04 6.55354E-03
 -1      2305-2.83781E-03 1.10681E-04-3.32729E-03
 -1      2306-5.29055E-04-6.53634E-04-7.02237E-03
 -1      2307 2.33779E-04-3.40614E-04-1.71439E-03
 -1      2308 2.58952E-05-1.81979E-04-1.19854E-02
 -1      2309 4.99652E-04-3.01474E-04-2.62157E-03
 -1      2310-1.25624E-03 2.30657E-04-7.98288E-03
 -1      2311 2.78079E-04-6.29336E-04 4.49345E-03
 -1      2312-7.78387E-05-4.48217E-04 2.89578E-03
 -1      2313 5.86067E-04 2.18070E-04 2.76045E-03
 -1      2314-1.62078E-03 2.00281E-04 8.22588E-03
 -1      2315 8.86186E-04-2.26773E-04-5.84860E-03
 -1      2316 5.79249E-04-1.35095E-04-2.24880E-03
 -1      2317-6.79648E-04-5.81378E-04 5.91827E-03
 -1      2318 8.91241E-04 2.28302E-04-5.34477E-03
 -1      2319-3.76234E-04-3.65505E-04-7.69628E-03
 -1      2320-8.15509E-04 2.77304E-04 1.06967E-02
 -1      2321 3.39961E-04-2.65741E-04-1.71534E-03
 -1      2322 5.34163E-04 8.32329E-05 2.35396E-03
 -1      2323-1.52949E-04-5.35418E-04 4.84626E-03
 -1      2324-1.31155E-03 1.61300E-04 2.53624E-03
 -1      2325 4.74691E-04-4.72790E-04-7.71086E-03
 -1      2326 5.60793E-04 5.84802E-04 8.47456E-03
 -1      2327 6.39780E-04 5.67472E-04 5.54468E-03
 -1      2328 4.36095E-04-9.22047E-05 1.21864E-02
 -1      2329-1.70448E-04 1.47794E-04-6.21047E-04
 -1      2330-6.55060E-04 2.12433E-04-1.08263E-02
 -1      2331-3.37964E-04 6.66859E-04-4.14186E-03
 -1      2332 4.77148E-04 2.34059E-04 2.24402E-03
 -1      2333 1.10338E-04 9.20496E-05 3.00072E-04
 -1      2334-9.05326E-04-1.30141E-04-1.15360E-02
 -1      2335-3.93833E-04-2.06026E-04-3.32313E-03
 -1      2336-4.23919E-04 1.31495E-04-7.76782E-04
 -1      2337-1.29528E-04-4.75749E-04-4.21343E-03
 -1      2338-4.25603E-04 4.98066E-05 8.46403E-04
 -1      2339 3.99971E-05-3.12438E-04-1.04713E-02
 -1      2340-1.40559E-03-1.12393E-05 4.64588E-04
 -1      2341-1.45183E-04-4.57404E-04-6.77502E-03
 -1      2342 1.84104E-04 3.50355E-04-1.95917E-03
 -1      2343 1.12427E-03 4.93307E-04 6.48321E-03
 -1      2344 9.25716E-04 3.03493E-04 2.94158E-03
 -1      2345-3.74186E-04 1.56049E-04-2.06772E-03
 -1      2346-2.41933E-04-9.98534E-05-2.15825E-04
 -1      2347-1.19492E-03 1.82744E-04 1.05760E-02
 -1      2348-7.42160E-04 2.14311E-04 1.21190E-02
 -1      2349-7.51395E-05 3.89484E-04 1.06302E-02
 -1      2350 8.84752E-04 6.27045E-04 7.39022E-03
 -1      2351-1.23540E-04-3.52193E-04-2.32502E-03
 -1      2352-4.03968E-04-2.55608E-04-1.90772E-03
 -1      2353-6.54132E-04-2.06022E-04-3.82270E-03
 -1      2354 4.20269E-04 3.39769E-04-2.26281E-03
 -1      2355-2.00358E-03-7.44924E-05-4.95480E-03
 -1      2356 1.44701E-05-2.71602E-04 1.22700E-02
 -1      2357-5.89047E-05 1.48829E-04-1.15915E-03
 -1      2358 2.77457E-04 3.45875E-04 1.18474E-02
 -1      2359 7.54800E-04 1.47717E-04 1.13354E-02
 -1      2360 3.80990E-04-5.63765E-04 9.71006E-03
 -1      2361 5.07893E-04-3.85541E-04 1.05887E-02
 -1      2362 1.34825E-04-3.00885E-04 1.23720E-03
 -1      2363 2.31359E-04-2.58748E-04 1.32468E-03
 -1      2364-1.42092E-04 4.91107E-04-6.71712E-03
 -1      2365-3.66096E-04 2.12943E-04-3.25692E-03
 -1      2366-7.22056E-04-1.95701E-04 1.65502E-03
 -1      2367-1.35696E-03 1.57146E-04-1.08018E-02
 -1      2368 4.97134E-05-5.95683E-04 6.34875E-03
 -1      2369-2.09751E-03 1.73902E-04-7.71121E-03
 -1      2370-6.02991E-05 3.80412E-04-2.13751E-03
 -1      2371 3.39217E-06-8.60134E-05 4.08313E-04
 -1      2372-1.36678E-03 3.36904E-05-1.63904E-03
 -1      2373-9.37400E-04-5.52216E-05-2.43049E-03
 -1      2374-1.50613E-03 1.95077E-04 5.62111E-03
 -1      2375-2.77238E-04 4.82271E-04 8.54080E-03
 -1      2376-1.20823E-03 2.29987E-04 9.31426E-03
 -1      2377 6.23326E-04-1.37501E-04-9.77528E-03
 -1      2378 5.58086E-05-4.75059E-04-3.15117E-03
 -1      2379 4.32696E-04-4.04835E-04-9.16758E-03
 -1      2380 7.71179E-04 1.39208E-04-9.94517E-03
 -1      2381 1.07001E-03-2.43425E-04 8.06564E-03
 -1      2382-8.19397E-04 3.30561E-04-7.70848E-03
 -1      2383 6.64261E-04-1.55498E-04 2.19417E-03
 -1      2384-8.40582E-04 2.44363E-04 4.97506E-03
 -1      2385 4.27921E-04 5.41851E-04 4.22328E-03
 -1      2386-1.43189E-04 4.28387E-04 5.80660E-03
 -1      2387-6.48346E-04 1.65884E-04 1.26793E-02
 -1      2388 1.79292E-04 4.99171E-04 3.70153E-03
 -1      2389-2.11943E-05-3.88624E-05 1.90724E-04
 -1      2390-5.06403E-05 2.31666E-04 9.61368E-04
 -1      2391 1.00117E-03 2.25548E-04-6.64306E-03
 -1      2392-2.57145E-04-5.46650E-04-1.01336E-02
 -1      2393 4.11143E-04 3.23407E-04 2.11962E-03
 -1      2394 6.61215E-04-3.92261E-04-5.69062E-03
 -1      2395 2.27570E-04 4.75795E-04-9.23474E-03
 -1      2396 5.44322E-04 4.84208E-04-4.64498E-03
 -1      2397 2.52626E-05 1.49796E-04 1.26744E-02
 -1      2398 4.40425E-04 3.57154E-04-1.04912E-02
 -1      2399-2.07466E-03-2.20453E-04 7.50477E-03
 -1      2400-1.87441E-03-1.23212E-04-8.56198E-03
 -1      2401 8.52386E-05 5.37008E-04 3.20194E-03
 -1      2402 1.02548E-03-2.75075E-04-6.99431E-03
 -1      2403-1.06594E-05 5.45521E-04-2.89998E-03
 -1      2404-2.63828E-03 1.62756E-05-1.20948E-03
 -1      2405-1.92197E-03-1.32279E-04 4.41558E-03
 -1      2406 1.73890E-05 1.12019E-04 4.21779E-04
 -1      2407 1.64337E-04 5.69703E-04-6.67205E-03
 -1      2408 5.31884E-05-4.77895E-05-2.28013E-04
 -1      2409-4.34139E-05 8.67702E-05-2.82815E-04
 -1      2410 6.62416E-04 2.44660E-05-1.08256E-02
 -1      2411-1.59418E-03 1.78665E-04 3.07021E-03
 -1      2412-5.83294E-04 1.82457E-04-3.34028E-03
 -1      2413 6.35210E-05 5.17397E-04 9.33500E-03
 -1      2414 8.63039E-04-2.19691E-04 1.04912E-02
 -1      2415-1.19139E-03-1.48436E-04-9.18757E-03
 -1      2416-2.28518E-03-2.26640E-04 4.96153E-03
 -1      2417-2.27873E-03-1.56516E-04-5.58642E-03
 -1      2418-1.48210E-03-6.07932E-05-1.06023E-02
 -1      2419-3.00289E-04 4.16650E-04-9.09645E-03
 -1      2420 5.54983E-04 4.62603E-05-2.06581E-03
 -1      2421-9.52290E-04 1.46376E-04 3.01412E-03
 -1      2422-3.86690E-06 2.67927E-04-1.10148E-02
 -1      2423-9.38124E-04-3.24209E-05-6.20414E-03
 -1      2424-1.96017E-03 1.51445E-04 9.38718E-03
 -1      2425 1.21862E-03 2.34439E-04 5.33162E-03
 -1      2426-1.05305E-03-3.38453E-05-1.16333E-02
 -1      2427 5.34744E-04 2.77581E-04 2.10938E-03
 -1      2428-3.87553E-04-1.99578E-04 3.41818E-03
 -1      2429-3.64292E-04-6.45539E-04 1.00306E-02
 -1      2430-9.03312E-04 1.94278E-04-3.85031E-03
 -1      2431-3.86192E-04 3.93293E-04 1.65310E-03
 -1      2432-1.72101E-03 1.71182E-04 9.55464E-03
 -1      2433-2.05044E-03-8.18331E-05 8.74179E-03
 -1      2434 1.66037E-04-3.62138E-04-9.52493E-03
 -1      2435-1.93537E-03-1.94682E-05-1.70635E-03
 -1      2436-2.21007E-03-7.04757E-05-2.40786E-03
 -1      2437-9.19341E-05 1.37567E-04-1.22777E-02
 -1      2438-2.27886E-03 2.78198E-04-5.89915E-03
 -1      2439-5.34228E-04 2.85643E-04 4.07476E-03
 -1      2440-1.02496E-03 2.29285E-04 2.42845E-03
 -1      2441-5.49576E-04-1.21824E-04 1.91675E-03
 -1      2442 5.83703E-04-5.27368E-04 2.00084E-03
 -1      2443-1.05879E-03-1.34504E-05 4.26079E-05
 -1      2444-3.93762E-04 4.14996E-04 9.76579E-03
 -1      2445 1.12892E-04 5.43612E-04 7.51051E-03
 -1      2446-6.74392E-04-3.31834E-04 6.08865E-03
 -1      2447-1.80399E-03-1.95626E-05-9.24773E-03
 -1      2448-2.48068E-03 2.66053E-04 4.96175E-03
 -1      2449-1.70428E-03-1.10526E-04-7.86637E-03
 -1      2450 3.25972E-04-3.11331E-04-1.72827E-03
 -1      2451-1.00403E-03-1.38503E-04 1.21296E-02
 -1      2452-5.39521E-04 5.09658E-04-2.03468E-03
 -1      2453 6.43555E-04-5.94501E-04-5.78743E-03
 -1      2454-1.39374E-03 2.42650E-04 7.55741E-03
 -1      2455-6.82386E-04 1.43732E-04-1.18855E-02
 -1      2456-4.11179E-05 3.57006E-05-1.29127E-04
 -1      2457-8.63429E-04 7.84358E-05 2.41895E-04
 -1      2458-8.30428E-04 3.13062E-04 9.40794E-03
 -1      2459-2.32296E-03 1.77489E-04-2.24093E-03
 -1      2460-2.46364E-03 1.53245E-04 2.11917E-03
 -1      2461 1.59439E-04-6.30432E-06-1.31421E-03
 -1      2462 1.47953E-04 3.39084E-05-2.68387E-03
 -1      2463-1.27191E-03 1.72411E-04-4.13074E-03
 -1      2464-2.00798E-03 2.00266E-04 5.28793E-03
 -1      2465 9.86434E-04 1.91926E-04-7.17813E-03
 -1      2466-1.77450E-03 1.10478E-04-9.46800E-03
 -1      2467-2.58561E-03-1.68944E-04 5.61510E-03
 -1      2468-2.23985E-03-1.09739E-04-7.14123E-03
 -1      2469-2.87539E-03 7.74148E-05 1.19209E-03
 -1      2470 4.31678E-05 1.42293E-04-4.62919E-04
 -1      2471 5.00073E-05 4.03887E-05-5.94711E-05
 -1      2472-1.66752E-04-4.55122E-04-5.65022E-03
 -1      2473 5.55801E-04-4.83262E-04-4.68546E-03
 -1      2474 4.25358E-04-3.59003E-04-9.90260E-03
 -1      2475-1.63146E-04-1.23999E-04-7.02922E-04
 -1      2476 4.24281E-05 3.10363E-04-7.81502E-04
 -1      2477-6.65841E-04-6.01744E-05 8.97580E-06
 -1      2478 4.73032E-04 6.06004E-04-7.87846E-03
 -1      2479 3.70647E-04-9.63302E-05-1.15634E-02
 -1      2480-1.52624E-03 3.91197E-05 3.65540E-04
 -1      2481 1.62881E-04-2.37244E-04-1.12296E-02
 -1      2482 1.07353E-04 5.68275E-04 5.07207E-03
 -1      2483-3.71023E-04-4.36570E-04 7.36122E-03
 -1      2484-2.74512E-03 4.94191E-05 5.57421E-03
 -1      2485 8.87729E-04 4.78056E-04 4.78953E-03
 -1      2486 6.02502E-04 1.32691E-04-2.34009E-03
 -1      2487-1.22438E-03-1.69796E-04 6.04355E-03
 -1      2488-2.14863E-03 2.61987E-04 7.67740E-03
 -1      2489 3.91615E-04-1.59142E-04-1.12060E-02
 -1      2490-1.88033E-03-2.00851E-04 6.66529E-03
 -1      2491-2.00573E-04-2.88573E-05-1.23840E-02
 -1      2492-1.31512E-03-1.26822E-04-5.57089E-03
 -1      2493-3.91746E-04 7.10273E-05 1.29919E-02
 -1      2494-2.88699E-03-2.49830E-06 1.55423E-03
 -1      2495-4.23456E-04-1.68881E-04-7.57782E-04
 -1      2496-1.08755E-03-1.32684E-04-4.20969E-03
 -1      2497-6.35803E-04-1.88574E-04 3.07907E-03
 -1      2498-2.69793E-04 3.62500E-05 4.26946E-04
 -1      2499-3.91000E-04 2.92246E-04 1.14818E-02
 -1      2500 3.61993E-04 4.82492E-04 1.03771E-02
 -1      2501-2.08057E-03 1.80544E-04-4.60730E-03
 -1      2502 3.71862E-04 2.13652E-04-1.75939E-03
 -1      2503-3.17892E-04-2.54581E-04-1.65943E-03
 -1      2504 8.78486E-05 3.97607E-04 1.15669E-02
 -1      2505-4.53595E-04-4.27802E-04 8.64173E-03
 -1      2506-2.68239E-03 7.80547E-05-5.51225E-03
 -1      2507-5.62695E-04-3.47274E-04 4.68753E-03
 -1      2508-1.50980E-03 3.41031E-05 1.14055E-02
 -1      2509 9.24726E-04-3.31384E-04 9.09184E-03
 -1      2510-5.08050E-04-1.94333E-04-1.08449E-02
 -1      2511 5.33033E-04 2.17537E-04-1.11379E-02
 -1      2512-8.19781E-04 1.36752E-05 1.27362E-02
 -1      2513-5.02069E-04 3.63232E-04 6.82169E-03
 -1      2514-1.21257E-03 2.33535E-04 4.92155E-03
 -1      2515-3.02820E-04 4.93567E-04 5.48922E-03
 -1      2516 5.45154E-04 5.47512E-04 2.27188E-03
 -1      2517-1.62016E-03-2.21365E-04 9.45319E-03
 -1      2518 3.37116E-04-5.23856E-04-8.29299E-03
 -1      2519-1.07640E-03 9.52434E-05 1.33939E-03
 -1      2520-6.94913E-04 1.61843E-04 1.03485E-03
 -1      2521-1.59259E-03-1.63810E-04 5.81996E-03
 -1      2522 6.96549E-04-1.24187E-04-1.02307E-02
 -1      2523-1.93266E-03 6.76074E-06 7.38414E-04
 -1      2524-1.55300E-03-1.33914E-04 3.03891E-03
 -1      2525-1.42170E-03-9.03756E-05-9.77476E-03
 -1      2526-9.55524E-05 4.95501E-04 4.70871E-03
 -1      2527 1.08228E-03-1.85152E-04 7.98064E-03
 -1      2528-8.30265E-04-2.76923E-04-8.03808E-03
 -1      2529-1.68377E-03-1.02392E-04-4.16156E-03
 -1      2530-7.89659E-05 5.08979E-04-7.89918E-03
 -1      2531 1.53142E-04 7.14665E-07 4.39475E-03
 -1      2532-8.18848E-04 5.68220E-05-1.54383E-03
 -1      2533-1.01153E-03-1.55400E-04 1.72796E-03
 -1      2534 1.45324E-04-1.91467E-05 1.76630E-03
 -1      2535-2.80240E-03 6.46535E-05-1.08479E-03
 -1      2536 6.41053E-05-9.62404E-06-3.86377E-03
 -1      2537-5.80619E-05-1.33041E-04-4.16026E-04
 -1      2538-4.09075E-04-3.23024E-04-4.69276E-03
 -1      2539-4.20483E-04-3.64355E-04-6.51684E-03
 -1      2540 1.22484E-04 5.47280E-04-6.48973E-03
 -1      2541-2.79524E-05-1.52192E-04-5.82218E-04
 -1      2542 8.70471E-04 4.43465E-04 2.51685E-03
 -1      2543-2.35908E-03-1.01111E-05 7.93503E-04
 -1      2544 2.82057E-04 4.71382E-04 6.70106E-03
 -1      2545-4.39987E-04-1.60348E-04-2.04465E-03
 -1      2546-2.89758E-03 4.25901E-05-1.75926E-03
 -1      2547-1.03961E-03-3.13705E-04 7.86339E-03
 -1      2548-1.41195E-03-1.31129E-04-7.19050E-03
 -1      2549-5.04317E-04-5.39390E-05-1.22446E-02
 -1      2550-8.08911E-04-2.18069E-04 4.00949E-03
 -1      2551-1.55394E-03 1.42945E-04 1.10421E-02
 -1      2552-1.23302E-03 5.45898E-06 1.19233E-02
 -1      2553-2.95482E-04-1.61394E-04-1.14778E-02
 -1      2554-2.33205E-04-2.56956E-04-1.04843E-02
 -1      2555-6.13527E-04-2.96724E-04-9.65877E-03
 -1      2556-5.58100E-04 3.63551E-04 7.91287E-03
 -1      2557-3.39815E-04-3.30052E-04 1.59292E-03
 -1      2558-9.52299E-04-1.45491E-04-1.04388E-02
 -1      2559-5.68892E-05-5.93467E-05-1.20464E-02
 -1      2560-9.72037E-04-2.04878E-04-6.55138E-03
 -1      2561 1.48707E-04 5.14964E-05 2.54486E-03
 -1      2562-4.63722E-04-2.16133E-04 1.78221E-03
 -1      2563-7.68252E-04-3.73814E-04 7.52826E-03
 -1      2564-4.64165E-04-3.41057E-04-8.68134E-03
 -1      2565-3.05842E-05 2.79806E-06-1.19128E-02
 -1      2566 2.27082E-03 8.26875E-05 1.92927E-03
 -1      2567 1.18257E-03-1.10494E-03-7.15652E-03
 -1      2568 2.17692E-03 6.28457E-04 3.13377E-03
 -1      2569 1.05273E-03 1.27545E-03-9.97447E-03
 -1      2570-1.31337E-03-1.33831E-04 2.17046E-03
 -1      2571 2.29872E-03 3.90415E-05-1.61646E-03
 -1      2572-1.41221E-03 2.02155E-04-6.73534E-03
 -1      2573-2.63236E-03 1.53800E-04 6.04213E-03
 -1      2574 1.09484E-03-1.28386E-03-9.87370E-03
 -1      2575 1.22691E-03-3.68957E-04 3.09059E-03
 -1      2576 5.34140E-04-3.67755E-04 7.16827E-03
 -1      2577 5.32523E-04 3.79064E-04 7.25580E-03
 -1      2578 1.24298E-03-5.29179E-04 7.10120E-03
 -1      2579 6.77033E-04 3.44113E-04 3.15100E-03
 -1      2580 1.40157E-03 5.91472E-04 4.66902E-03
 -1      2581 1.96354E-04 9.39516E-04 1.11782E-02
 -1      2582 2.40101E-03-1.93794E-05 1.62502E-04
 -1      2583 1.91997E-03-9.12749E-04-6.22134E-03
 -1      2584 1.02025E-03 1.08553E-05 7.77718E-03
 -1      2585 9.71289E-05 8.40331E-04-1.05920E-02
 -1      2586 1.13865E-03 1.34927E-03 1.02573E-02
 -1      2587 1.35750E-03 6.68665E-05 2.39362E-04
 -1      2588 1.21133E-03-2.97441E-04-2.61821E-03
 -1      2589-1.38405E-03 1.11322E-04-2.91047E-03
 -1      2590 3.44508E-04 4.60693E-05-7.24746E-03
 -1      2591 8.72562E-04 6.35324E-04 8.44306E-03
 -1      2592 8.36259E-04 6.86337E-04 9.28860E-03
 -1      2593 8.61409E-04 4.94585E-04-5.05973E-03
 -1      2594 5.47242E-04 3.79812E-04-6.67140E-03
 -1      2595-2.46037E-03 1.88419E-04-6.08933E-03
 -1      2596 2.48839E-04-8.25060E-04-1.06053E-02
 -1      2597 1.28474E-03 6.57468E-04 7.59466E-03
 -1      2598 1.22453E-03 5.46631E-04-6.60088E-03
 -1      2599-2.66105E-05 1.19664E-04-1.19828E-02
 -1      2600 3.23345E-04-8.18397E-04-1.16957E-02
 -1      2601 1.69922E-03-6.63702E-04-5.01618E-03
 -1      2602 1.15454E-03-4.36273E-04-6.67075E-03
 -1      2603 9.36901E-04 8.10563E-05-7.22126E-03
 -1      2604 2.95349E-03 7.90098E-04 3.34849E-03
 -1      2605 2.18641E-03-4.21384E-04-2.51515E-03
 -1      2606 8.60880E-04 6.38915E-04-7.84125E-03
 -1      2607 8.40347E-04 6.83841E-04-8.67434E-03
 -1      2608-2.86646E-03-8.72889E-06-1.84103E-03
 -1      2609 4.52190E-04-3.16588E-04-5.02924E-03
 -1      2610 2.76500E-03-6.63781E-04 3.01420E-03
 -1      2611 2.27106E-03-1.44818E-05-1.69454E-03
 -1      2612 1.24076E-03 3.54325E-04-2.67797E-03
 -1      2613 2.38028E-03 4.85751E-05 1.33511E-04
 -1      2614 1.71803E-04 8.81699E-04-1.18769E-02
 -1      2615 3.22851E-03-7.89301E-05 4.36493E-04
 -1      2616 1.50463E-03 4.39117E-04 2.44204E-03
 -1      2617 6.39598E-04 3.47947E-05 9.59348E-03
 -1      2618 6.36857E-04-2.27356E-05 9.53251E-03
 -1      2619-2.79086E-03 1.49263E-04 2.50532E-03
 -1      2620-2.51383E-03 2.11220E-04-3.75382E-03
 -1      2621 8.38700E-04-3.63378E-04 7.36531E-03
 -1      2622 8.16572E-04-1.34370E-04 7.77856E-03
 -1      2623 9.27281E-04-5.30192E-04 5.52782E-03
 -1      2624 9.02723E-04 4.15563E-04-6.89777E-03
 -1      2625 8.78320E-04 5.55877E-04 5.63040E-03
 -1      2626 3.19896E-03 1.62950E-05-6.57963E-05
 -1      2627 2.81579E-04-9.52077E-04 1.10387E-02
 -1      2628 5.38306E-04 5.01560E-04-7.91925E-03
 -1      2629-2.19649E-03 6.34497E-05 8.06449E-03
 -1      2630 1.98707E-03-7.99689E-04-2.93667E-03
 -1      2631 8.70249E-04 2.23192E-05 1.62247E-04
 -1      2632 2.77231E-03 6.60346E-04 2.63257E-03
 -1      2633 1.02714E-03 1.21325E-03-7.45499E-03
 -1      2634-2.47749E-03-6.40673E-05 6.88291E-03
 -1      2635 1.77316E-03-7.50660E-04 5.42051E-03
 -1      2636 1.52427E-03 4.49464E-05 7.70822E-03
 -1      2637 2.92213E-03-5.96504E-04-2.83158E-03
 -1      2638 5.19553E-04 2.40200E-04-2.94337E-03
 -1      2639 2.92480E-04-1.01441E-03 1.25719E-02
 -1      2640 2.02449E-03-6.28585E-04-4.28815E-03
 -1      2641 2.02263E-03-4.61653E-04-2.22941E-03
 -1      2642 6.66105E-04 1.35227E-04-7.22784E-03
 -1      2643 3.49402E-03 1.07121E-04-4.84763E-04
 -1      2644 1.22379E-03-1.33215E-03 1.01662E-02
 -1      2645 3.81152E-04 1.72006E-04-7.22346E-03
 -1      2646 2.78031E-03 7.06596E-04 2.35810E-03
 -1      2647 8.93863E-04-3.05520E-04-6.92378E-03
 -1      2648 1.14349E-03 5.68846E-04-4.56921E-03
 -1      2649 1.42706E-03 9.29016E-04-7.10380E-03
 -1      2650 1.46751E-03 7.77134E-04-5.49660E-03
 -1      2651 1.21118E-03 1.22416E-03 7.47397E-03
 -1      2652 4.23981E-04 4.14175E-04-7.14448E-03
 -1      2653 1.91396E-03 1.01219E-03 6.46196E-03
 -1      2654 1.96760E-03 9.17746E-04 3.17801E-03
 -1      2655 4.97769E-04 1.05927E-05 7.80346E-03
 -1      2656-2.01757E-03 9.04984E-05-1.63435E-03
 -1      2657 2.26919E-04 9.90701E-04 1.26799E-02
 -1      2658 6.37799E-04 2.55495E-05-7.25288E-03
 -1      2659 5.78394E-04 1.13058E-04-9.00258E-03
 -1      2660 5.95358E-04 5.38844E-05-8.88022E-03
 -1      2661 8.12340E-04-8.05616E-05-7.23385E-03
 -1      2662-8.67189E-06 4.92749E-05 1.26482E-02
 -1      2663-2.21867E-03-1.65794E-04 7.54203E-03
 -1      2664-1.73598E-04-5.30439E-05 1.28448E-02
 -1      2665 2.31454E-03 1.30640E-04 1.30785E-03
 -1      2666 2.26498E-03-2.64815E-05-9.16349E-04
 -1      2667 1.87717E-03 1.45923E-04 7.17357E-04
 -1      2668-2.66599E-03-1.51736E-05 5.74493E-04
 -1      2669 2.90288E-04 3.55508E-04-5.23146E-03
 -1      2670 1.73366E-03 8.18041E-04 5.59209E-03
 -1      2671 1.10466E-03-1.31083E-03 7.58040E-03
 -1      2672 9.40887E-05 7.19452E-05-7.21867E-03
 -1      2673 5.58937E-04 2.00608E-04-7.21812E-03
 -1      2674 3.41673E-05-2.04497E-05 7.76838E-03
 -1      2675 2.03710E-03-8.49891E-04 2.97942E-03
 -1      2676 1.98253E-03-9.68249E-04 6.40875E-03
 -1      2677 8.90311E-04 5.18260E-04-6.46950E-03
 -1      2678 1.94952E-03 8.27487E-04-3.11078E-03
 -1      2679 1.96634E-03 8.84403E-04-6.31185E-03
 -1      2680 1.13192E-03 1.85943E-04 7.75991E-03
 -1      2681-2.72673E-03 6.85293E-05 7.63150E-04
 -1      2682 5.80291E-04 3.34318E-04-6.94855E-03
 -1      2683 1.41757E-03 7.91171E-04-8.02780E-03
 -1      2684-1.88809E-03-8.45191E-05 2.77607E-03
 -1      2685-1.51721E-03 1.64129E-04 9.56590E-03
 -1      2686 5.77189E-04 3.96861E-04 4.56915E-03
 -1      2687 8.69402E-04-5.00631E-04-7.82012E-03
 -1      2688 8.39863E-04-5.90471E-04-8.61292E-03
 -1      2689 2.27842E-03-5.63935E-05 1.72447E-03
 -1      2690 9.59527E-04 4.96797E-04 7.35359E-03
 -1      2691-1.30492E-03 1.65507E-04-9.61184E-03
 -1      2692 1.22584E-04 2.80003E-04 7.12443E-03
 -1      2693 2.48347E-04-2.96911E-04-5.54023E-03
 -1      2694 2.17712E-04 5.96280E-05-8.27749E-03
 -1      2695 2.87503E-03 1.50939E-04 6.96105E-04
 -1      2696 1.16742E-03-2.13024E-04 7.68351E-03
 -1      2697 1.61847E-03 6.75335E-04 7.13539E-03
 -1      2698 1.59528E-03-6.44378E-05 4.55944E-04
 -1      2699 4.57024E-04-2.66135E-04-6.65343E-03
 -1      2700 1.44319E-03 2.70456E-06-7.13843E-03
 -1      2701 3.58668E-04 1.74989E-04-2.08101E-03
 -1      2702 1.42753E-03 4.29729E-04 2.92221E-03
 -1      2703 5.97865E-04-6.28478E-05-7.23827E-03
 -1      2704 5.95014E-04-2.31090E-04-6.90249E-03
 -1      2705 1.52625E-03 2.72496E-04-7.10264E-03
 -1      2706 9.85171E-04 2.07823E-04-7.20674E-03
 -1      2707 3.37708E-05-1.80273E-04-6.51221E-03
 -1      2708 2.17734E-03 4.82843E-04-2.71742E-03
 -1      2709 1.84278E-03 4.36549E-05-4.87659E-05
 -1      2710-1.26701E-03-2.28290E-04 9.62083E-03
 -1      2711-1.28238E-03 4.23439E-05 1.16795E-02
 -1      2712 1.39210E-03 7.08373E-04 5.22908E-03
 -1      2713 1.49988E-03-7.62612E-04-5.51056E-03
 -1      2714 1.40886E-03-8.53565E-04-7.02094E-03
 -1      2715-1.56795E-03-7.04221E-05-2.65483E-03
 -1      2716-1.59333E-03 1.14978E-04-1.03583E-02
 -1      2717 2.89087E-03 6.62020E-04-2.91595E-03
 -1      2718 6.75377E-04 3.51423E-04-7.01763E-03
 -1      2719 8.76781E-04 9.76748E-05-8.15613E-03
 -1      2720-2.54654E-03-1.45903E-04-3.48015E-03
 -1      2721 2.03076E-03-7.22883E-04 4.69489E-03
 -1      2722 2.10973E-03-5.89536E-04 2.63190E-03
 -1      2723 7.58592E-04 6.38687E-04-6.57009E-03
 -1      2724-2.14072E-03 4.72799E-05-7.50787E-03
 -1      2725-2.53714E-03-1.29666E-04-5.62096E-03
 -1      2726 1.20306E-03 1.85120E-05 8.79976E-03
 -1      2727-1.53948E-03-3.82442E-05 1.12663E-02
 -1      2728 9.28143E-04-6.25414E-04-6.49926E-03
 -1      2729 1.61452E-03 5.70901E-04 3.66748E-03
 -1      2730 2.07407E-03 5.30285E-04-2.33775E-03
 -1      2731 1.99259E-03 6.67142E-04-4.37015E-03
 -1      2732 2.25344E-03 3.40851E-05-9.81076E-04
 -1      2733 2.30425E-03-9.16878E-05 1.25751E-03
 -1      2734-3.96933E-05 1.75387E-04 7.45069E-03
 -1      2735 8.64884E-04-7.05383E-04 9.25176E-03
 -1      2736 9.30955E-04-5.99946E-04 8.27475E-03
 -1      2737 2.37806E-03 8.27943E-04 4.54752E-03
 -1      2738 1.09278E-03 4.30601E-04 3.62293E-03
 -1      2739 2.07369E-03-1.27349E-04 8.35526E-04
 -1      2740 3.37239E-04-2.97228E-04-6.39783E-03
 -1      2741 1.43243E-04-3.05912E-04-5.97457E-03
 -1      2742 2.75386E-04 3.74379E-04 5.84157E-03
 -1      2743-4.67862E-05-9.86219E-05-6.80767E-03
 -1      2744-3.17058E-04-1.53474E-04 1.12903E-02
 -1      2745-9.58404E-04 5.60209E-05-1.15757E-02
 -1      2746 4.49726E-04 2.84348E-04-3.54656E-03
 -1      2747 1.38029E-03-6.68976E-04-7.98223E-03
 -1      2748-1.11810E-03-8.27071E-05-1.13148E-02
 -1      2749 1.12254E-03-4.88844E-04 4.48201E-03
 -1      2750 9.98192E-04 3.39942E-04 2.52348E-03
 -1      2751-1.32995E-03 2.24211E-04 9.75981E-03
 -1      2752 1.93753E-03 4.80994E-04 2.51883E-03
 -1      2753-1.22273E-03 2.76966E-04 7.04427E-03
 -1      2754 8.97497E-04 3.63778E-04-3.24861E-03
 -1      2755 5.80190E-04 4.53005E-04-5.51455E-03
 -1      2756-2.79586E-03 1.31149E-04-2.83511E-03
 -1      2757 1.32769E-03 1.51373E-04 1.37398E-03
 -1      2758 1.19420E-03 7.10472E-04 5.88168E-03
 -1      2759-1.26851E-03-1.17085E-04-9.56946E-03
 -1      2760-1.47974E-03 7.86338E-05 1.88107E-03
 -1      2761-1.82139E-03 6.90342E-05 1.25268E-03
 -1      2762-3.57286E-04 1.56286E-04-1.06641E-02
 -1      2763-7.19551E-04 2.17560E-04 3.70379E-03
 -1      2764-1.35243E-03 8.12532E-05-1.08896E-02
 -1      2765 2.69278E-03-6.68576E-05-4.65008E-04
 -1      2766 2.98784E-04 1.68233E-04-2.08146E-03
 -1      2767 1.21089E-03-4.47442E-04 7.40135E-03
 -1      2768 1.06518E-03 4.46776E-04-4.16412E-03
 -1      2769-1.71042E-03 1.91983E-04 6.12983E-03
 -1      2770 1.29468E-03 4.90522E-04-6.84403E-03
 -1      2771 5.06340E-04 3.57192E-05 8.73010E-03
 -1      2772 1.05741E-03 4.14940E-04-6.95032E-03
 -1      2773-2.59681E-03-2.04334E-04 4.49680E-03
 -1      2774-1.44473E-03-6.01560E-05 1.14612E-02
 -1      2775 3.13951E-03-1.61353E-04-7.14067E-04
 -1      2776-1.16651E-03-9.40127E-05 1.19290E-02
 -1      2777-1.40630E-04 3.58584E-04 9.55351E-03
 -1      2778-1.29432E-03-2.27221E-04 7.04409E-03
 -1      2779-1.79334E-03-1.81479E-04 5.80457E-03
 -1      2780-1.58249E-03-1.16139E-04-9.01645E-03
 -1      2781 2.48699E-03-9.67596E-04 5.20568E-03
 -1      2782 5.60957E-04-2.95645E-04 7.43428E-03
 -1      2783 9.90201E-04-3.74634E-04 7.50206E-03
 -1      2784 1.20338E-03-2.66648E-05 8.78818E-03
 -1      2785 5.52606E-04-1.15056E-04 7.77943E-03
 -1      2786-1.58776E-03-1.12036E-04-5.75283E-03
 -1      2787 1.26182E-03-6.06209E-05 8.27797E-03
 -1      2788 2.33989E-03 7.62910E-04 3.78472E-03
 -1      2789 1.25305E-03-5.33351E-04-4.86515E-03
 -1      2790 1.58947E-03-6.00333E-04-4.54911E-03
 -1      2791 3.01691E-04-1.44475E-05 7.78101E-03
 -1      2792 1.02877E-03-4.94841E-04-5.22108E-03
 -1      2793 8.16297E-04 4.77129E-04-4.92740E-03
 -1      2794-2.46472E-03 1.98861E-05-6.34847E-03
 -1      2795 1.12883E-03-7.94333E-05-7.17225E-03
 -1      2796 4.16709E-04 3.97293E-04 7.00986E-03
 -1      2797 1.17322E-03-4.13175E-04-4.06016E-03
 -1      2798-6.87703E-05 2.51175E-04 6.91299E-03
 -1      2799 1.77132E-03 7.13990E-04-4.67865E-03
 -1      2800 1.27533E-03 5.15525E-04 7.41016E-03
 -1      2801 8.34670E-04 5.76963E-04 6.12293E-03
 -1      2802 5.95237E-04 4.68404E-04 5.94529E-03
 -1      2803 1.92643E-03-5.34425E-04 3.31747E-03
 -1      2804 1.78570E-03 7.83673E-04 5.10094E-03
 -1      2805-1.60186E-03 1.97539E-04-9.04201E-03
 -1      2806 2.06816E-03-7.50384E-04-4.53547E-03
 -1      2807 1.32171E-04 1.87129E-05 7.56145E-04
 -1      2808 4.20650E-04-2.81650E-04-7.14901E-03
 -1      2809 1.30909E-03 3.03992E-05-3.36691E-04
 -1      2810 1.50725E-03 9.00854E-04 6.01599E-03
 -1      2811 1.41886E-03 9.89945E-04 7.59653E-03
 -1      2812 1.55203E-03 9.67710E-04 7.04471E-03
 -1      2813 1.43905E-03-7.77663E-04 8.55451E-03
 -1      2814 4.57269E-04-3.69171E-04 7.61370E-03
 -1      2815 2.24725E-03 8.45224E-04-5.12512E-03
 -1      2816 6.45559E-04 7.89617E-05 5.73874E-04
 -1      2817 1.46738E-03-9.41198E-04 7.49455E-03
 -1      2818 1.50127E-03-8.37292E-04 5.89575E-03
 -1      2819 2.89754E-03 5.31206E-05-2.24984E-04
 -1      2820 2.42511E-03 1.01063E-03 5.31139E-03
 -1      2821 9.64893E-04-2.37043E-04 7.71100E-03
 -1      2822 1.71880E-04-1.80785E-04-6.74073E-03
 -1      2823 1.39261E-03 3.44636E-04 2.34850E-03
 -1      2824 6.67758E-04-1.88542E-04 7.76509E-03
 -1      2825 1.66423E-03-1.31529E-04 1.08666E-03
 -1      2826 1.27198E-03-5.98096E-04 5.84592E-03
 -1      2827 1.50895E-03-3.60477E-04 2.42760E-03
 -1      2828-2.91364E-03-6.51541E-06 1.00422E-03
 -1      2829 3.39530E-04-3.16371E-04 5.70018E-03
 -1      2830 1.42479E-03 1.31898E-04 9.21153E-04
 -1      2831 5.32671E-04 1.62917E-05-7.81857E-03
 -1      2832 5.41724E-04-1.94274E-04-2.85896E-03
 -1      2833 1.27888E-03-6.37860E-04 8.13429E-03
 -1      2834 2.38809E-03-1.01976E-03 5.87812E-03
 -1      2835 8.70717E-04-4.70493E-04 7.05009E-03
 -1      2836 2.81726E-03 5.58906E-04-2.01430E-03
 -1      2837 9.09031E-04-3.05725E-04-3.24235E-03
 -1      2838 3.53674E-03 1.69082E-04 6.41650E-04
 -1      2839 8.01015E-04-4.67094E-04 5.35455E-03
 -1      2840 3.05508E-03 1.42432E-04-6.90471E-04
 -1      2841 9.28426E-04 5.57634E-04 7.05374E-03
 -1      2842 2.60042E-04 1.18200E-06 8.81503E-03
 -1      2843 1.55075E-03 7.54450E-04 4.91093E-03
 -1      2844 4.15293E-04-4.48295E-04 8.58777E-03
 -1      2845 7.40768E-05 6.17527E-05 4.82757E-03
 -1      2846 2.54772E-03 1.03855E-03 4.83905E-03
 -1      2847-1.54547E-03-3.43536E-05 1.61278E-03
 -1      2848 2.77259E-03 9.55383E-04-4.59470E-03
 -1      2849 8.35382E-04 5.43102E-04 5.47594E-03
 -1      2850 2.81396E-03-4.68272E-04-2.11987E-03
 -1      2851 9.20917E-05 2.80283E-04-6.53312E-03
 -1      2852 1.37220E-03 6.25651E-04-5.29447E-03
 -1      2853 1.31586E-03-9.51153E-05 1.33105E-03
 -1      2854-2.24804E-03 1.75388E-04 7.84115E-03
 -1      2855 4.48187E-03-4.88324E-05 1.60997E-04
 -1      2856 3.34751E-03 7.64040E-04 2.73144E-03
 -1      2857 1.83305E-04 3.48134E-04 6.91739E-03
 -1      2858 1.45282E-03 7.96939E-04 8.60314E-03
 -1      2859 2.14388E-03-4.52353E-04 2.45200E-03
 -1      2860 6.25633E-04-4.42328E-04 5.97863E-03
 -1      2861 8.67567E-04 2.06405E-05 8.46755E-03
 -1      2862-1.14034E-04-4.46875E-05 7.67818E-03
 -1      2863 5.50415E-04 4.80387E-04 5.48681E-03
 -1      2864 1.39067E-03 2.62435E-04 7.71417E-03
 -1      2865 1.13472E-04 5.74554E-05 2.68565E-03
 -1      2866 1.43178E-03-4.91036E-04 3.69430E-03
 -1      2867 4.14228E-03 1.06508E-03 3.34039E-03
 -1      2868 3.14415E-04 8.12267E-05 1.03407E-03
 -1      2869-1.26197E-04 1.68783E-05-7.17259E-03
 -1      2870-2.41970E-03 2.64514E-04 6.31097E-03
 -1      2871 1.08524E-03-4.76811E-04-7.00655E-03
 -1      2872 1.59403E-03-7.49716E-04 5.95467E-03
 -1      2873 1.20598E-03 6.30007E-04-6.31189E-03
 -1      2874 1.66031E-03-4.30021E-04-3.09021E-03
 -1      2875 9.83738E-04 4.29486E-04 7.54451E-03
 -1      2876 6.72736E-04-2.27776E-04-7.01287E-03
 -1      2877-3.67676E-05 2.38666E-04-6.83215E-03
 -1      2878 5.61063E-05 6.35339E-05-4.80703E-03
 -1      2879 3.51897E-04 4.58265E-05-3.70797E-04
 -1      2880 8.79946E-04 2.59895E-04-2.14023E-03
 -1      2881 1.77221E-03 3.93231E-04-2.27347E-03
 -1      2882 3.06009E-03 1.92575E-04 1.34861E-03
 -1      2883 1.11365E-03 4.23222E-04 7.57337E-03
 -1      2884 7.61315E-04-6.23474E-04 7.03726E-03
 -1      2885-1.52010E-03 6.28660E-05-2.03564E-03
 -1      2886 3.36264E-03-6.62089E-04 2.50937E-03
 -1      2887 6.82523E-04 6.60526E-04 7.20628E-03
 -1      2888 1.98894E-03 4.62512E-04 2.24169E-03
 -1      2889 7.10243E-04 5.51666E-04 8.52532E-03
 -1      2890 2.74222E-04 2.44933E-04 3.45709E-03
 -1      2891 3.24591E-04-2.01968E-04-6.85414E-03
 -1      2892 4.52663E-04-1.83308E-05-7.23987E-03
 -1      2893 7.37268E-05 6.43019E-05 1.71455E-03
 -1      2894 2.01128E-04-2.57820E-04 4.93311E-03
 -1      2895 5.99629E-04-4.84403E-05 8.23266E-03
 -1      2896 2.61132E-04-1.31699E-04 7.76481E-03
 -1      2897 2.12688E-03-2.77570E-05 7.99170E-03
 -1      2898 1.90382E-03 6.53945E-04 7.31147E-03
 -1      2899 2.32606E-03-5.28200E-04-3.18235E-03
 -1      2900 2.60311E-03 1.25693E-04-6.64321E-04
 -1      2901 7.17016E-04-1.44003E-05 8.55814E-03
 -1      2902 3.07291E-03-5.49934E-05-9.28299E-04
 -1      2903 1.74440E-03-6.12801E-04 3.87951E-03
 -1      2904 1.04392E-03 6.34916E-04 6.24208E-03
 -1      2905 3.72141E-04-3.24485E-04-6.19823E-03
 -1      2906-4.73436E-05-3.95919E-05-7.17911E-03
 -1      2907 3.30214E-03 5.55781E-04-2.16482E-03
 -1      2908 4.06340E-04 4.09508E-05-4.35937E-04
 -1      2909 4.08252E-03 8.54258E-04 2.41655E-03
 -1      2910 8.91191E-04 9.01824E-06-1.40881E-04
 -1      2911 1.33421E-04 3.17191E-04 5.27261E-03
 -1      2912 1.79057E-04 3.27997E-04-4.63590E-03
 -1      2913 2.10556E-03 9.29852E-04 5.16674E-03
 -1      2914 5.51714E-04 4.92969E-04 6.32797E-03
 -1      2915 2.28791E-03 4.22299E-04-2.10223E-03
 -1      2916 2.82310E-03 4.68289E-04-2.03571E-03
 -1      2917 4.99123E-04-2.54628E-04 3.36698E-03
 -1      2918 5.47325E-04 3.98450E-04-4.85867E-03
 -1      2919 9.48423E-04 5.26574E-04-5.51424E-03
 -1      2920 1.75424E-03 7.35817E-04-4.84948E-03
 -1      2921 8.47796E-04 4.25714E-05-7.70946E-03
 -1      2922 8.55079E-05 6.24791E-05-3.03228E-03
 -1      2923 1.27483E-03-2.85633E-05-5.34205E-04
 -1      2924 2.01933E-03 8.72336E-04 4.87517E-03
 -1      2925 1.86099E-03-4.53615E-05-9.58228E-04
 -1      2926 4.67022E-04 4.19502E-04 4.97785E-03
 -1      2927 3.08039E-03 5.76087E-05-9.63834E-04
 -1      2928 3.21636E-03 2.84329E-04 1.13936E-03
 -1      2929 1.53669E-03-6.87199E-04 7.60061E-03
 -1      2930 6.67369E-04-3.80346E-04-6.38803E-03
 -1      2931 1.08438E-03 6.20282E-04 8.24546E-03
 -1      2932-3.59481E-06 3.16379E-04 6.14727E-03
 -1      2933 3.59289E-03-2.14179E-04 8.98512E-04
 -1      2934 1.13033E-04-2.34935E-04-4.61135E-03
 -1      2935 1.21106E-03-3.10435E-04 2.28800E-03
 -1      2936 5.78718E-04-4.75406E-04-6.28528E-03
 -1      2937 9.81478E-04 7.26534E-04 6.90841E-03
 -1      2938 2.56680E-03 4.02480E-04-1.68708E-03
 -1      2939 2.88573E-03-5.64794E-04 2.36143E-03
 -1      2940 1.34882E-04 2.66580E-04 7.47073E-03
 -1      2941 1.28020E-03 8.02284E-05-1.02466E-03
 -1      2942-1.17693E-04 3.88606E-05-5.99336E-03
 -1      2943 8.93339E-04-4.37862E-04-4.66261E-03
 -1      2944 8.80960E-04 5.89514E-05-5.20155E-04
 -1      2945 2.76310E-03-8.76775E-04 4.47592E-03
 -1      2946 3.59703E-03-8.50677E-05-3.90140E-04
 -1      2947 1.22463E-03-8.99164E-05 9.29049E-04
 -1      2948 2.84866E-03-6.20085E-04 2.29216E-03
 -1      2949 3.36436E-05 2.35780E-04-4.29137E-03
 -1      2950 3.19298E-03 9.62393E-04 3.78918E-03
 -1      2951 5.68286E-04-4.26919E-04 5.24204E-03
 -1      2952 2.31631E-05-8.32165E-06 8.52601E-03
 -1      2953 5.81552E-04 4.55216E-04-6.39053E-03
 -1      2954 2.57057E-03 9.55393E-04-4.74087E-03
 -1      2955 3.15567E-03 4.69696E-04-1.74408E-03
 -1      2956 2.07012E-03 9.23006E-04 5.90103E-03
 -1      2957 1.69190E-03 9.10673E-04-6.50433E-03
 -1      2958 2.50126E-03-8.66108E-04 4.40790E-03
 -1      2959 3.10194E-03 1.02056E-03 4.52200E-03
 -1      2960 8.75639E-04-5.41457E-04 6.06517E-03
 -1      2961 1.94017E-04 6.28783E-05 7.79861E-03
 -1      2962 5.86343E-04 3.50015E-04 3.83793E-03
 -1      2963-2.27817E-03 1.06829E-04-6.99467E-03
 -1      2964 8.15560E-04 1.52756E-04 7.79473E-03
 -1      2965 1.66962E-03 4.32257E-04-2.89769E-03
 -1      2966 1.61702E-03-8.99501E-04 6.91032E-03
 -1      2967 2.35327E-03-6.60483E-04-3.55407E-03
 -1      2968 2.37511E-03 9.83542E-04 7.86799E-03
 -1      2969 1.23501E-03 3.29749E-04-2.00576E-03
 -1      2970 9.45935E-04-5.35990E-04 4.97569E-03
 -1      2971 1.26038E-03 1.56163E-04-7.19063E-03
 -1      2972 1.19483E-03 2.84545E-04-7.15401E-03
 -1      2973 1.85665E-03-6.99761E-04 6.98366E-03
 -1      2974 2.57076E-04 1.75244E-04 2.36624E-03
 -1      2975 1.18532E-03-4.87943E-05-9.77149E-04
 -1      2976 2.72743E-03-7.34308E-04-4.02982E-03
 -1      2977 1.19919E-04-2.38764E-04 7.22761E-03
 -1      2978 3.32662E-04 3.88116E-04-6.33668E-03
 -1      2979 1.15228E-03 5.85234E-05-8.16571E-03
 -1      2980 6.91378E-04-4.60788E-04-7.90209E-03
 -1      2981 1.12316E-03 6.20490E-04-5.66307E-03
 -1      2982 6.57017E-04-4.91706E-04 6.23141E-03
 -1      2983 2.99236E-03-1.53465E-04 1.28301E-03
 -1      2984 2.37915E-03 5.40440E-04 2.37581E-03
 -1      2985 5.02645E-04-3.03586E-04-4.52745E-03
 -1      2986 2.37278E-03-3.84963E-04-1.92519E-03
 -1      2987 4.45816E-03 8.14533E-05 2.29129E-04
 -1      2988 1.89178E-03 2.56195E-05-2.62794E-04
 -1      2989 7.83466E-04 4.67495E-04-4.49119E-03
 -1      2990 3.15076E-03 6.54786E-04 2.28777E-03
 -1      2991 2.50515E-03 9.02179E-04 4.49051E-03
 -1      2992-1.34308E-03-8.21893E-06-1.10746E-02
 -1      2993 1.27712E-03 4.14495E-04-3.23639E-03
 -1      2994 3.33072E-04 2.15502E-04 2.68243E-03
 -1      2995 1.62734E-03 8.11808E-04 6.08169E-03
 -1      2996 5.10715E-04 4.52451E-04-6.23923E-03
 -1      2997 2.78786E-03-5.50099E-05 3.28063E-04
 -1      2998 1.32144E-04 3.28883E-05-5.91563E-04
 -1      2999 5.57910E-04 1.47730E-04 7.80368E-03
 -1      3000 2.42244E-04 3.00616E-04-6.77870E-03
 -1      3001 1.23741E-03-5.17461E-04-4.78608E-03
 -1      3002 1.18612E-03-8.15629E-05-8.99373E-04
 -1      3003 2.62128E-04-2.55668E-04 7.43304E-03
 -1      3004 1.31941E-03-6.35262E-04 5.33662E-03
 -1      3005 1.88219E-04 2.79395E-04 7.40980E-03
 -1      3006 1.27558E-04 1.02624E-04-1.69710E-03
 -1      3007 1.14765E-03 7.72796E-05-7.19391E-04
 -1      3008 7.67374E-04 1.05975E-04 8.18915E-03
 -1      3009 2.87676E-03-1.06818E-03 4.84305E-03
 -1      3010 1.10269E-03 7.16935E-04-6.30267E-03
 -1      3011 3.97006E-04 3.22191E-04-6.87143E-03
 -1      3012-2.22377E-03-1.94623E-05 8.03461E-03
 -1      3013 2.71182E-03 4.62904E-04-1.72595E-03
 -1      3014-1.29192E-03-1.77827E-04 1.01536E-02
 -1      3015 2.19494E-03 9.99837E-04 5.46927E-03
 -1      3016-2.82909E-03 1.10239E-04 3.81650E-03
 -1      3017 9.13345E-04-3.58286E-04 3.69888E-03
 -1      3018 5.59835E-06 1.17325E-05 5.91759E-03
 -1      3019 1.91789E-03 6.60677E-04 3.93081E-03
 -1      3020 3.74836E-04 3.54213E-04-6.64952E-03
 -1      3021 8.16779E-05 2.14162E-04 7.57820E-03
 -1      3022 4.70465E-04 3.86257E-04-4.44869E-03
 -1      3023 5.41707E-04-3.28145E-04-7.57532E-03
 -1      3024 4.09977E-04 2.17239E-04-7.21124E-03
 -1      3025 1.97910E-03-4.28282E-04 2.18707E-03
 -1      3026 2.70029E-03 9.09509E-04 3.94832E-03
 -1      3027 2.81081E-03-4.93036E-04-1.92797E-03
 -1      3028 8.75752E-04 5.54413E-04 5.08844E-03
 -1      3029 1.35797E-04-2.48552E-04-7.91145E-03
 -1      3030 1.18008E-03-5.97688E-04 6.85025E-03
 -1      3031 1.79362E-03 7.13412E-04-5.12573E-03
 -1      3032 5.67734E-04 3.29982E-04-4.07610E-03
 -1      3033 1.47262E-03 7.11070E-04 5.23964E-03
 -1      3034 7.71614E-04-2.45016E-04-7.05943E-03
 -1      3035 4.30166E-03 2.96194E-04 1.08346E-03
 -1      3036 1.89674E-03-4.91503E-04-3.37254E-03
 -1      3037 1.87090E-03 9.47351E-04-6.26225E-03
 -1      3038-2.11559E-04 5.31364E-05-7.19017E-03
 -1      3039 3.57303E-04 1.03411E-04 7.81779E-03
 -1      3040-6.38252E-05 8.61274E-05-7.17970E-03
 -1      3041 1.75400E-04 6.19154E-05-8.22445E-04
 -1      3042 7.04418E-05-1.26899E-04-6.95397E-03
 -1      3043-1.45704E-04 1.53774E-04-6.91813E-03
 -1      3044 6.58755E-04 4.18795E-04-4.26570E-03
 -1      3045 1.75044E-03 6.30775E-04-6.73735E-03
 -1      3046 2.21650E-03 8.47849E-04-4.63627E-03
 -1      3047 1.36452E-04-6.03062E-07-7.22583E-03
 -1      3048 1.27087E-03-3.71828E-04-6.87205E-03
 -1      3049 5.17256E-04 4.83881E-05-8.07702E-03
 -1      3050 1.33364E-03 3.22932E-04-2.04200E-03
 -1      3051 6.55282E-04 1.87988E-04-1.78366E-03
 -1      3052 1.68643E-03-3.51499E-04-2.37833E-03
 -1      3053 2.11636E-03 6.68017E-04-4.04947E-03
 -1      3054 1.03097E-03-6.89265E-04 6.77087E-03
 -1      3055 2.82382E-03 5.88015E-04 2.20294E-03
 -1      3056-1.63183E-04 3.83148E-05 7.77610E-03
 -1      3057 2.27962E-03-8.46899E-04-4.89014E-03
 -1      3058 3.44622E-03-2.06164E-04-7.99278E-04
 -1      3059 6.93229E-05 1.15665E-04-7.20711E-03
 -1      3060 2.74013E-04-2.71616E-04-4.30838E-03
 -1      3061 9.55141E-04-1.40572E-04-7.19169E-03
 -1      3062 1.30162E-03 7.20047E-04 6.28416E-03
 -1      3063 1.32039E-04 2.31914E-04 3.95899E-03
 -1      3064 3.77789E-04 3.15087E-04-4.54043E-03
 -1      3065 1.12236E-03 7.40264E-05 8.31249E-03
 -1      3066 3.34051E-03 2.00556E-04-8.65418E-04
 -1      3067 6.24230E-04 4.83338E-04 7.05105E-03
 -1      3068 2.24114E-03-9.69238E-04 5.36705E-03
 -1      3069 8.69068E-04 4.17870E-04 4.07899E-03
 -1      3070 1.48222E-04-1.57845E-04-6.68117E-03
 -1      3071 2.25110E-03-6.98259E-04 3.74044E-03
 -1      3072 2.70343E-03-4.18387E-04-1.71462E-03
 -1      3073 3.59231E-04-1.43780E-04-7.02545E-03
 -1      3074 2.15059E-04-1.49272E-04-3.30364E-03
 -1      3075 1.59153E-03-4.80417E-04-3.50293E-03
 -1      3076 2.51369E-03-1.84361E-04 9.38325E-04
 -1      3077 2.35376E-03-8.34458E-04-5.10603E-03
 -1      3078 3.21311E-03-4.79979E-04-1.67822E-03
 -1      3079 1.75734E-03-6.54269E-04-4.59134E-03
 -1      3080 2.16428E-03-8.59360E-04 4.97359E-03
 -1      3081 2.48962E-04 3.79924E-04 6.25875E-03
 -1      3082 2.66984E-04 3.03395E-04-4.28912E-03
 -1      3083 7.20424E-04-3.51898E-04-6.73388E-03
 -1      3084 6.97949E-04 4.87398E-04 4.83169E-03
 -1      3085 2.40805E-05-2.31989E-04 6.82737E-03
 -1      3086 1.88819E-03 4.22398E-04 2.11596E-03
 -1      3087 9.80532E-04 5.44984E-04 5.07161E-03
 -1      3088-2.87691E-03-5.24091E-05 3.44351E-03
 -1      3089 7.39168E-04-3.21127E-05-6.91901E-04
 -1      3090 2.07632E-03 7.98914E-04-4.30126E-03
 -1      3091 4.53578E-04-2.79794E-04-4.73688E-03
 -1      3092 4.70672E-05 3.12790E-04 6.81016E-03
 -1      3093 1.13012E-03-4.66460E-04 3.94863E-03
 -1      3094 1.99053E-03 9.09459E-04 6.86281E-03
 -1      3095 1.52149E-03 6.88450E-04-5.55760E-03
 -1      3096 1.36861E-03-1.84372E-04-7.12747E-03
 -1      3097-2.34302E-03-1.50027E-04 2.94067E-03
 -1      3098 1.70292E-03 2.01350E-04 1.17970E-03
 -1      3099 2.37800E-03 6.43187E-04-3.31003E-03
 -1      3100 7.28061E-04 2.24963E-04 7.78108E-03
 -1      3101 5.78450E-04-4.96209E-04 6.76882E-03
 -1      3102 9.44904E-04 2.28429E-04 7.76207E-03
 -1      3103 1.14573E-03-2.08927E-04-1.93802E-03
 -1      3104 6.24662E-04 3.63284E-04 7.49888E-03
 -1      3105 3.44544E-04 2.59299E-04 7.55716E-03
 -1      3106 2.85314E-04 3.90969E-04-5.64158E-03
 -1      3107 4.29868E-04 4.31557E-04-5.76549E-03
 -1      3108 1.17698E-03 4.31462E-04-6.97835E-03
 -1      3109 1.89609E-03 5.72394E-04-3.37992E-03
 -1      3110 4.49900E-04-7.80478E-05-7.23057E-03
 -1      3111 6.17026E-04 5.45042E-04-6.29460E-03
 -1      3112 3.32767E-03-5.05220E-04-1.99140E-03
 -1      3113 1.68251E-03-3.11793E-04-1.85602E-03
 -1      3114 4.92894E-04 2.76781E-04 7.63269E-03
 -1      3115 2.57627E-04 5.69567E-05-7.72743E-03
 -1      3116 2.09260E-03-5.91495E-04-3.55682E-03
 -1      3117 1.57742E-03 5.24569E-04 7.43835E-03
 -1      3118 1.28611E-03-6.12242E-04 4.84346E-03
 -1      3119 5.49134E-04 1.45193E-04-7.65231E-03
 -1      3120 3.82529E-04-1.73421E-04 2.50493E-03
 -1      3121 9.51391E-04 6.23061E-04-7.69008E-03
 -1      3122 1.13316E-03 9.34962E-05-1.12897E-03
 -1      3123 2.01245E-03 8.65034E-04 5.07169E-03
 -1      3124 3.51102E-04 5.78870E-06 7.27783E-04
 -1      3125-9.33872E-06 9.30680E-05 7.79210E-03
 -1      3126 3.08943E-03-8.57746E-04-3.94416E-03
 -1      3127 5.21815E-04 4.12000E-04 4.95490E-03
 -1      3128-5.48497E-05 1.65967E-04 7.61512E-03
 -1      3129 3.25366E-03 1.37567E-03 6.00651E-03
 -1      3130 2.05838E-04 2.39321E-04 7.53741E-03
 -1      3131 6.80354E-04 2.03883E-04-1.73004E-03
 -1      3132-5.01014E-05 1.96930E-04-7.00440E-03
 -1      3133 6.69508E-04-3.34038E-05-7.57293E-03
 -1      3134 1.30318E-03-6.63695E-04 6.14081E-03
 -1      3135 1.99633E-03-6.91175E-04 3.99335E-03
 -1      3136 1.32863E-03-2.66463E-04 2.06349E-03
 -1      3137 3.36884E-04 4.31691E-04 6.83161E-03
 -1      3138 3.56280E-03 7.11362E-04 2.28028E-03
 -1      3139-9.66458E-04 2.18558E-04 1.05397E-02
 -1      3140 9.94792E-04-2.79223E-04 2.42044E-03
 -1      3141 2.45155E-04 1.38291E-04 7.79786E-03
 -1      3142 2.18309E-03-5.28766E-05-5.21588E-04
 -1      3143 1.21975E-03 2.82280E-04 7.73492E-03
 -1      3144-1.33073E-03-1.60830E-04-6.57730E-03
 -1      3145 1.82553E-03-5.71556E-04 7.29919E-03
 -1      3146 3.63810E-03-5.07495E-04-1.70711E-03
 -1      3147 4.07235E-04-1.42313E-04-2.07186E-03
 -1      3148 2.57053E-03 9.03651E-04-4.27721E-03
 -1      3149 8.06669E-04 3.84630E-04 7.52346E-03
 -1      3150 3.30897E-03 7.66982E-04-2.93044E-03
 -1      3151 3.15747E-03 8.83125E-04-3.44718E-03
 -1      3152 5.24279E-04-2.51034E-04-3.44479E-03
 -1      3153-1.74438E-04-4.58004E-05-6.89546E-03
 -1      3154 6.42103E-04 3.19124E-04 7.63257E-03
 -1      3155 9.69800E-04 1.15238E-04 9.66905E-04
 -1      3156 1.47503E-03 7.05786E-04-7.11371E-03
 -1      3157-2.27241E-04-7.09676E-06-7.13691E-03
 -1      3158 2.89977E-03-1.72606E-04 8.33535E-04
 -1      3159 9.65483E-05-1.08644E-05-4.11721E-03
 -1      3160 1.65359E-03-5.87058E-05-6.53112E-04
 -1      3161 1.03545E-03-5.08893E-04-7.65849E-03
 -1      3162 9.08197E-04-5.68222E-05-1.03065E-03
 -1      3163 2.82874E-04-3.29037E-04 6.98745E-03
 -1      3164 1.08531E-04-6.23906E-05-7.19284E-03
 -1      3165 1.05954E-03-3.63643E-04 7.54684E-03
 -1      3166 6.09541E-04-5.53951E-05 1.15184E-03
 -1      3167 9.21570E-04-5.11289E-04 6.83250E-03
 -1      3168 2.08312E-03 7.54719E-04-4.54120E-03
 -1      3169-1.55936E-03 1.79460E-04-5.22686E-03
 -1      3170-7.13083E-05-1.55850E-04 7.39100E-03
 -1      3171 1.85846E-03 9.42542E-04 6.68474E-03
 -1      3172 9.71913E-04-5.21165E-04 7.66202E-03
 -1      3173 1.48782E-03-6.86630E-04 5.19087E-03
 -1      3174 4.31053E-04 2.90041E-04-7.02219E-03
 -1      3175 2.17514E-04-3.13345E-04 6.78024E-03
 -1      3176 2.61084E-04-1.39020E-05 8.27262E-03
 -1      3177 2.30744E-03-7.77663E-04-4.45065E-03
 -1      3178 6.41728E-04 8.97865E-05 1.07580E-03
 -1      3179 1.28753E-03 5.24365E-04 3.99473E-03
 -1      3180 1.32792E-03 6.65650E-04 7.06986E-03
 -1      3181 4.36618E-04-2.71166E-04-6.54353E-03
 -1      3182 1.15691E-03 6.97562E-04 6.87462E-03
 -1      3183 1.20302E-03 5.46302E-04 4.51632E-03
 -1      3184 1.99403E-03-6.89518E-04-4.33427E-03
 -1      3185 8.60597E-05-2.06509E-05 3.16765E-03
 -1      3186 3.62164E-05-9.32263E-05 7.75919E-03
 -1      3187 3.12416E-03-8.58576E-04 3.54795E-03
 -1      3188 8.10179E-04 5.68309E-04-6.23491E-03
 -1      3189-2.41432E-03 3.77765E-05 2.03796E-04
 -1      3190 3.52906E-03-2.43783E-04 1.37582E-03
 -1      3191 1.84488E-03-3.74089E-04 2.21678E-03
 -1      3192 4.35577E-03-1.63885E-04 7.06537E-04
 -1      3193 3.18218E-04-3.53913E-04 6.11410E-03
 -1      3194 8.28045E-04-9.81529E-04-9.74966E-03
 -1      3195 9.97567E-04-5.42007E-05-5.93145E-04
 -1      3196 4.94954E-04-1.98318E-04 7.76515E-03
 -1      3197 1.42350E-03 7.76259E-04 6.83564E-03
 -1      3198 2.40097E-03 8.57301E-04 4.10997E-03
 -1      3199-2.13559E-03-1.67812E-04-7.01643E-03
 -1      3200 3.09251E-03 8.36525E-04-4.04480E-03
 -1      3201 2.09286E-03 1.87721E-04 1.40895E-03
 -1      3202 1.99350E-03 7.49070E-04 4.49418E-03
 -1      3203 1.61186E-03 6.28890E-04 4.06941E-03
 -1      3204 1.03816E-04-3.92553E-06 8.34908E-03
 -1      3205 2.83899E-03 1.12646E-03 5.26592E-03
 -1      3206 2.67327E-03 7.60918E-04-3.48210E-03
 -1      3207 2.29689E-03 4.57519E-04 2.03651E-03
 -1      3208 1.48734E-03 6.44803E-04-4.45502E-03
 -1      3209 7.41137E-05 2.78259E-06-1.19012E-03
 -1      3210 3.34250E-03 1.28173E-03 5.34248E-03
 -1      3211 1.82111E-03-5.75892E-04-3.96470E-03
 -1      3212 1.82666E-03 8.07309E-04 7.55143E-03
 -1      3213 1.47625E-03 6.85607E-04 8.17458E-03
 -1      3214 2.17387E-04 3.24004E-04 4.85711E-03
 -1      3215 4.06167E-03 6.57630E-04-1.99897E-03
 -1      3216 2.13039E-03-8.93196E-04 6.75014E-03
 -1      3217 3.38338E-03 5.62620E-04-1.83739E-03
 -1      3218 1.23684E-03 6.36241E-04 4.92086E-03
 -1      3219 1.74031E-03-7.19182E-04 8.10227E-03
 -1      3220 7.85008E-04-5.10709E-04 8.23148E-03
 -1      3221 9.94947E-04-5.06569E-04 4.95199E-03
 -1      3222-2.37638E-04 5.90197E-05 7.73181E-03
 -1      3223-2.80327E-03-4.45663E-05 5.19037E-03
 -1      3224 1.58675E-03 6.90070E-04-6.36376E-03
 -1      3225 1.72526E-04 3.27734E-04-7.68742E-03
 -1      3226 3.18197E-03 4.78654E-04-1.63512E-03
 -1      3227 1.90324E-03 1.25248E-04-7.92180E-03
 -1      3228 9.33616E-04-4.41228E-04 4.41607E-03
 -1      3229 1.09346E-03 2.41783E-04-1.78799E-03
 -1      3230 1.94694E-03-8.80933E-04 5.96774E-03
 -1      3231 5.07581E-04-3.59929E-04-6.30121E-03
 -1      3232 5.80058E-04 5.01219E-04 6.86614E-03
 -1      3233 3.34276E-03 6.96477E-04 2.10306E-03
 -1      3234 1.22102E-04 3.27780E-04 8.45105E-03
 -1      3235 6.97163E-04-4.21761E-04 6.95475E-03
 -1      3236 5.04391E-04-3.61575E-04 4.78574E-03
 -1      3237 6.42973E-04 2.71580E-04 2.61566E-03
 -1      3238 2.78838E-03-7.35323E-04-3.40422E-03
 -1      3239 1.27049E-03-3.76931E-04-3.32734E-03
 -1      3240 1.98413E-04-1.60473E-04-6.98811E-03
 -1      3241 1.35216E-04-1.45246E-05 1.29019E-03
 -1      3242 1.24731E-03 3.43109E-04 2.17336E-03
 -1      3243 2.90984E-03 1.10389E-03 4.83458E-03
 -1      3244 1.02427E-03-4.50134E-04-6.43392E-03
 -1      3245-8.75813E-05 1.08575E-05-5.52753E-03
 -1      3246 3.31235E-03 1.78593E-04-1.10393E-03
 -1      3247 1.29200E-03-5.94720E-04-5.51525E-03
 -1      3248 1.79429E-03-7.30541E-04-5.48757E-03
 -1      3249 1.76289E-03-6.06934E-04-6.49884E-03
 -1      3250 1.44707E-03-6.14563E-04-6.37304E-03
 -1      3251 4.06586E-04 5.15717E-04 6.90987E-03
 -1      3252-1.69979E-03-6.29115E-05 2.18025E-03
 -1      3253 4.29440E-03 1.34287E-04-6.67406E-04
 -1      3254 7.62233E-04-4.51960E-04 7.19292E-03
 -1      3255 3.82394E-03 2.05747E-04-1.13079E-03
 -1      3256 8.12635E-04 5.39256E-04-6.23308E-03
 -1      3257 2.41319E-03-6.82324E-04-3.94060E-03
 -1      3258 1.62724E-03-4.59661E-04-6.80827E-03
 -1      3259 1.31579E-03-5.22033E-04-4.43026E-03
 -1      3260 1.69417E-04-8.34984E-05-1.70091E-03
 -1      3261 3.50327E-03 3.18634E-04 1.46414E-03
 -1      3262 1.86441E-03-6.74069E-04-4.36870E-03
 -1      3263 3.89464E-04-2.62062E-04 7.53264E-03
 -1      3264 6.69282E-04-3.08802E-04 7.52802E-03
 -1      3265 2.11675E-03 1.00334E-03 6.65141E-03
 -1      3266 3.47428E-05 1.08869E-04 4.25608E-03
 -1      3267 1.35226E-03-3.48653E-04-6.94806E-03
 -1      3268 1.67379E-03-6.70378E-04-7.60732E-03
 -1      3269 1.37067E-03-8.21785E-05-1.05431E-03
 -1      3270 2.10278E-03 7.69960E-04 4.14175E-03
 -1      3271 1.36607E-03 8.15682E-05-7.88856E-03
 -1      3272 1.55924E-03-4.19416E-06 8.42156E-03
 -1      3273 2.24061E-03-2.41838E-04 1.19887E-03
 -1      3274 1.16147E-03 3.00106E-04 2.13844E-03
 -1      3275 2.06326E-03-1.06665E-03 6.76024E-03
 -1      3276 6.90173E-04 4.47906E-04 7.44823E-03
 -1      3277 3.49267E-03-1.57210E-04-1.00453E-03
 -1      3278 2.41429E-03 7.26290E-04-3.60985E-03
 -1      3279 1.19803E-04 3.06205E-04-6.25098E-03
 -1      3280 2.53896E-03-4.81274E-04 2.16188E-03
 -1      3281 2.27889E-05 2.50890E-04-5.21956E-03
 -1      3282 8.96475E-04-4.08334E-05 7.35717E-04
 -1      3283 3.53846E-04 2.94226E-04 3.81726E-03
 -1      3284 1.96444E-04-2.94908E-04 8.17244E-03
 -1      3285 7.35693E-04 4.33424E-04 4.52906E-03
 -1      3286 1.51124E-03-7.05775E-04 6.85801E-03
 -1      3287 2.00415E-03-8.08717E-04 4.98183E-03
 -1      3288 1.09746E-03-5.72586E-04 6.14574E-03
 -1      3289 1.26680E-03-2.76537E-04 2.15716E-03
 -1      3290 3.66882E-04 3.58416E-05 8.25389E-03
 -1      3291 8.39339E-05-2.15599E-04 7.44049E-03
 -1      3292 1.30537E-04-1.49205E-04 7.74252E-03
 -1      3293 1.49346E-03-8.01987E-04-6.34677E-03
 -1      3294 4.14276E-03-1.01071E-03 3.34834E-03
 -1      3295 2.66341E-03-7.67577E-04 3.58421E-03
 -1      3296 1.92605E-04 3.61338E-05-7.73567E-03
 -1      3297 2.56788E-03-8.53719E-04-4.57434E-03
 -1      3298 4.62892E-05-4.51150E-05 8.14555E-03
 -1      3299 8.50701E-05-2.64263E-04 6.67904E-03
 -1      3300 1.19267E-03-5.41901E-04 7.19334E-03
 -1      3301 1.69921E-03-7.50878E-04 4.93734E-03
 -1      3302-1.24588E-04-3.74195E-04 9.49663E-03
 -1      3303 2.66389E-05-2.56153E-05 4.86900E-03
 -1      3304 2.26595E-03 8.20782E-04 7.75083E-03
 -1      3305 7.18623E-04-4.50045E-04 4.89836E-03
 -1      3306 2.43108E-03-7.97954E-04 3.95765E-03
 -1      3307 2.44045E-03-9.11243E-04-5.45389E-03
 -1      3308 1.16721E-03-4.73957E-04-4.46411E-03
 -1      3309-1.96718E-05 2.52561E-04 4.99765E-03
 -1      3310 1.63093E-03 6.41107E-04-4.48635E-03
 -1      3311-6.92210E-05-8.80730E-05-7.00271E-03
 -1      3312 9.30617E-05-1.86314E-04-7.53596E-03
 -1      3313 1.24653E-03-5.76343E-04-6.29596E-03
 -1      3314 2.48789E-03-1.08964E-03 6.08963E-03
 -1      3315 2.92698E-04-2.80590E-04 4.64243E-03
 -1      3316 9.98803E-04 5.94637E-04-6.24756E-03
 -1      3317 1.68992E-03 2.35413E-04 7.62368E-03
 -1      3318 1.87316E-03-6.75335E-04 4.43675E-03
 -1      3319 2.01433E-03-3.15715E-05-7.42057E-03
 -1      3320 5.15916E-04-1.96080E-04-7.04960E-03
 -1      3321-2.05689E-04-4.40970E-05 7.63708E-03
 -1      3322 2.09918E-03 6.51116E-04-3.57177E-03
 -1      3323 3.08493E-05-2.69383E-05-2.87495E-03
 -1      3324 4.15447E-04 3.74849E-04 7.17645E-03
 -1      3325 2.10240E-03-3.86908E-04 2.06929E-03
 -1      3326 2.12016E-03-1.69010E-04 1.34129E-03
 -1      3327 4.76178E-04-4.24094E-04 6.26161E-03
 -1      3328 1.31680E-03 5.94229E-04-4.30360E-03
 -1      3329 1.28120E-03 8.28963E-04 6.83927E-03
 -1      3330 5.70086E-04-2.89645E-04 3.84992E-03
 -1      3331 1.56069E-04 2.88147E-04 8.11822E-03
 -1      3332 2.37403E-03 1.68626E-04 8.13629E-04
 -1      3333 9.66815E-04-5.16021E-04-5.66557E-03
 -1      3334 1.46472E-03 1.15470E-04-7.74723E-03
 -1      3335 1.45496E-03-1.34201E-04 1.41322E-03
 -1      3336 1.11674E-03-5.60848E-04 4.68781E-03
 -1      3337-1.78106E-03 1.66768E-05-9.91780E-04
 -1      3338 1.62400E-03 1.28261E-04-7.85149E-04
 -1      3339-6.68687E-05-1.01657E-04 7.70433E-03
 -1      3340 2.27501E-03 6.50408E-05-3.63567E-04
 -1      3341 1.48633E-03-6.30568E-04-5.67997E-03
 -1      3342 2.62910E-03 2.74848E-04 1.14958E-03
 -1      3343 9.44410E-05 7.59009E-05 1.16263E-03
 -1      3344 1.18596E-03 1.68976E-04 1.25893E-03
 -1      3345 5.85065E-04-3.73427E-04-5.51384E-03
 -1      3346 1.53210E-03 5.24599E-04-3.47934E-03
 -1      3347 1.52551E-03 3.35260E-04 7.64208E-03
 -1      3348-1.20137E-04-6.89515E-05 5.98556E-03
 -1      3349 1.66984E-03-8.07421E-04 6.17460E-03
 -1      3350 1.54577E-03 7.14474E-04 7.00373E-03
 -1      3351 2.49951E-03-9.70337E-04 4.80307E-03
 -1      3352 3.23276E-03-1.35005E-03 6.07509E-03
 -1      3353 1.96052E-03 4.03982E-04-1.90980E-03
 -1      3354 1.44891E-03 5.30093E-04-4.02842E-03
 -1      3355 3.89673E-04-3.49438E-04-5.71653E-03
 -1      3356 8.97507E-04-4.52297E-04-6.26432E-03
 -1      3357 1.40697E-03-1.56951E-04 1.22923E-03
 -1      3358 6.09310E-04 4.44958E-04-7.55932E-03
 -1      3359-1.57660E-04-4.35390E-05 6.84172E-03
 -1      3360 1.08443E-03 5.93300E-04 7.18911E-03
 -1      3361 1.48383E-03-5.77449E-04 4.02978E-03
 -1      3362 1.39652E-04-2.36471E-04-6.29885E-03
 -1      3363 7.24544E-04-3.12130E-04-3.57336E-03
 -1      3364 4.61655E-04-3.77931E-04 6.82583E-03
 -1      3365 1.43766E-03 7.21080E-04-6.22496E-03
 -1      3366 1.80062E-03-7.28245E-04-6.23656E-03
 -1      3367 2.71677E-03 2.52740E-04 1.44734E-03
 -1      3368 1.61070E-03-8.24519E-05-7.08065E-03
 -1      3369 7.70785E-04-1.73639E-04-1.86091E-03
 -1      3370 1.97919E-04 2.51343E-04-6.97432E-03
 -1      3371 4.04150E-03-8.30796E-04-2.86421E-03
 -1      3372 1.34154E-03-6.11086E-04 4.84507E-03
 -1      3373 1.89299E-03 8.09378E-04-6.63180E-03
 -1      3374 1.39432E-03 1.34325E-04 8.13801E-03
 -1      3375 2.31615E-03 8.60762E-04-4.31072E-03
 -1      3376 2.01995E-03 8.79337E-04 7.07716E-03
 -1      3377 3.04503E-03-4.52807E-04-1.76322E-03
 -1      3378 3.90978E-03 1.11991E-03 3.97321E-03
 -1      3379 1.02139E-03 5.19856E-04-4.33220E-03
 -1      3380 7.90429E-04 5.88954E-04 6.86625E-03
 -1      3381 4.37138E-03-3.58322E-05-3.13591E-04
 -1      3382 2.27470E-03 9.50976E-04 4.82717E-03
 -1      3383 2.67955E-03 1.05817E-03 5.14113E-03
 -1      3384 2.06345E-04 1.31134E-04-7.23221E-03
 -1      3385 2.38215E-03-7.99815E-04-4.36374E-03
 -1      3386 3.64908E-03-6.14928E-04 2.14669E-03
 -1      3387 3.23039E-03-1.87874E-04 8.76411E-04
 -1      3388 1.91206E-03-2.82623E-05-4.39701E-04
 -1      3389 1.99260E-03 3.72656E-04-1.77184E-03
 -1      3390 1.69774E-03-6.20307E-04-6.85913E-03
 -1      3391 3.21429E-03-5.61237E-04 2.11309E-03
 -1      3392 2.01846E-03-3.65094E-04-2.16090E-03
 -1      3393 7.98256E-04-3.77111E-04-4.32555E-03
 -1      3394 1.40774E-03-7.88947E-04 6.71891E-03
 -1      3395 3.05521E-03-1.15122E-03-5.73555E-03
 -1      3396 3.65837E-03 3.48971E-04 1.17039E-03
 -1      3397-5.94682E-05-6.76576E-05-4.13609E-03
 -1      3398 1.36787E-03 2.71116E-04-7.14371E-03
 -1      3399 1.51311E-03-6.77912E-04 4.72522E-03
 -1      3400-2.54484E-03-8.43431E-05 1.90125E-03
 -1      3401 1.72980E-03-2.74026E-04-1.80511E-03
 -1      3402-1.28073E-04 6.83313E-05-1.16161E-02
 -1      3403 2.55019E-04-4.49544E-05-7.21873E-03
 -1      3404 7.02601E-04 3.38522E-04-3.59294E-03
 -1      3405 1.98594E-03 2.52710E-04-7.42099E-03
 -1      3406 1.49889E-04 2.72943E-04 7.09003E-03
 -1      3407 7.52831E-04-3.79025E-04 4.04311E-03
 -1      3408 2.11476E-04-2.17281E-04 3.72976E-03
 -1      3409 2.25887E-03 3.57000E-04-1.70162E-03
 -1      3410 1.96498E-03-9.12451E-05-8.35699E-04
 -1      3411 6.80195E-04-1.89900E-04 2.18224E-03
 -1      3412 1.00672E-04-2.10553E-04 5.97918E-03
 -1      3413 1.78086E-03 6.95950E-04-4.29930E-03
 -1      3414 5.55995E-04 5.79925E-05-7.88033E-04
 -1      3415 9.42270E-04-1.99691E-04 2.02048E-03
 -1      3416 1.51818E-04 3.14834E-06-7.99705E-04
 -1      3417 1.46377E-03-4.91437E-04 7.40509E-03
 -1      3418 1.05104E-03 4.03184E-04-3.56317E-03
 -1      3419 2.26445E-03-3.48178E-04-1.71174E-03
 -1      3420 1.50657E-03 5.11024E-04-6.89896E-03
 -1      3421 8.94923E-04-5.03164E-04 4.66398E-03
 -1      3422 4.32383E-04-3.14545E-04 4.94774E-03
 -1      3423 1.78906E-03 8.90796E-04 6.21304E-03
 -1      3424 3.19998E-03 1.23001E-03-5.56926E-03
 -1      3425 1.47618E-03 8.41466E-04-6.27851E-03
 -1      3426 1.68019E-03 5.43748E-04 7.47613E-03
 -1      3427 1.64983E-03 3.12954E-04-1.79963E-03
 -1      3428 1.51871E-04 1.64283E-04 2.26069E-03
 -1      3429 3.87363E-03-1.07347E-03 3.89735E-03
 -1      3430-1.71145E-05 2.44336E-04-5.61364E-03
 -1      3431 2.30960E-03-9.04712E-04 4.70764E-03
 -1      3432 6.64351E-05 2.61036E-05-4.83502E-05
 -1      3433 1.85442E-03 7.53179E-04 8.10486E-03
 -1      3434 2.35813E-03 9.75808E-04-7.29894E-03
 -1      3435 1.09876E-03-5.68947E-04-5.76999E-03
 -1      3436 7.31942E-04-4.11989E-04-5.74963E-03
 -1      3437 1.65630E-04 1.91209E-04-3.25069E-03
 -1      3438 1.11103E-03-1.66220E-04-7.16111E-03
 -1      3439 1.03958E-03-3.45398E-04-3.55163E-03
 -1      3440-1.42028E-04 2.21842E-04-6.38812E-03
 -1      3441 4.62158E-04-3.78404E-04 8.09207E-03
 -1      3442 2.65926E-05-4.43728E-06 5.86473E-03
 -1      3443 3.39369E-03 1.12225E-03 4.49897E-03
 -1      3444-1.42850E-04 7.56657E-05 7.77191E-03
 -1      3445 4.14115E-04 1.36376E-04-1.67641E-03
 -1      3446 3.49679E-04-2.62184E-04 4.01002E-03
 -1      3447 2.30199E-03 1.20565E-03 6.93087E-03
 -1      3448 1.00112E-03 3.10003E-04-7.17011E-03
 -1      3449 1.36292E-03-5.29364E-04-6.63551E-03
 -1      3450 1.96878E-03-7.38044E-04 4.41048E-03
 -1      3451 9.02798E-04 5.62147E-04-5.77848E-03
 -1      3452-1.17052E-04-1.57349E-04-6.31886E-03
 -1      3453 4.57198E-04 4.15376E-04 8.18459E-03
 -1      3454 1.66322E-03 3.98888E-04 2.42140E-03
 -1      3455 1.43339E-03-5.73126E-04 4.41356E-03
 -1      3456 1.00078E-03-5.33295E-04 6.98251E-03
 -1      3457 2.53993E-03 8.75087E-04-4.39426E-03
 -1      3458 2.42679E-03-1.59629E-04-7.90233E-04
 -1      3459 1.09287E-03 1.58968E-04-7.69978E-03
 -1      3460 9.22121E-04 5.16806E-04-6.84988E-03
 -1      3461 2.08912E-03 7.16898E-04-4.00683E-03
 -1      3462 3.35941E-03-6.14661E-04 2.04841E-03
 -1      3463 7.53680E-04 9.74812E-04 1.00933E-02
 -1      3464 1.41636E-03 1.79279E-04 1.45583E-03
 -1      3465 1.72766E-03-2.55805E-04-1.60413E-03
 -1      3466 1.02324E-03-1.92694E-04-1.67515E-03
 -1      3467 1.97075E-03-8.27017E-04 4.74316E-03
 -1      3468 7.33045E-04 4.63256E-04 8.11362E-03
 -1      3469 2.78662E-04-3.11036E-04 7.12265E-03
 -1      3470 9.59568E-04 4.37001E-04-4.03259E-03
 -1      3471 9.97493E-04-1.60469E-04-1.49450E-03
 -1      3472-2.15886E-04 3.22828E-06-6.27090E-03
 -1      3473 1.48889E-03-3.69780E-04-6.94815E-03
 -1      3474 2.09502E-03 9.92776E-04 6.21591E-03
 -1      3475 1.61554E-03-6.99549E-04-6.19220E-03
 -1      3476 4.92674E-04-1.24275E-04-1.65327E-03
 -1      3477 1.78467E-04-1.59224E-05 1.17017E-03
 -1      3478 7.87154E-04 2.02948E-04-7.20818E-03
 -1      3479 1.64085E-05-1.36503E-05-1.03846E-03
 -1      3480 1.28034E-05-8.83909E-06 1.48107E-03
 -1      3481 9.60894E-04-1.11077E-04 1.18742E-03
 -1      3482 1.84042E-03-8.07499E-04 6.73370E-03
 -1      3483 4.10717E-03-8.45661E-04 2.66039E-03
 -1      3484 5.27667E-05-2.39234E-05-2.31031E-03
 -1      3485 2.72852E-03-4.84383E-04 1.99022E-03
 -1      3486 1.70708E-03 7.88112E-04-7.64949E-03
 -1      3487 1.43623E-03 2.59885E-04-1.65163E-03
 -1      3488 2.14346E-03-2.26440E-04 1.49680E-03
 -1      3489 1.32037E-03 2.75462E-04-1.71215E-03
 -1      3490 3.97473E-04-1.40543E-04 2.08922E-03
 -1      3491 1.48188E-03 3.68933E-04-7.09841E-03
 -1      3492 1.70329E-03 5.14060E-04-6.92225E-03
 -1      3493 4.17370E-04 1.82914E-04 7.79843E-03
 -1      3494-5.35414E-05-1.75497E-05-5.40663E-03
 -1      3495 2.66466E-03-1.83306E-04-8.67434E-04
 -1      3496 7.88846E-04-2.06605E-04 1.96810E-03
 -1      3497 2.24715E-03-6.57302E-04-7.15930E-03
 -1      3498 7.72910E-04-6.37813E-05 1.47486E-03
 -1      3499 1.00367E-03-2.99276E-04-7.00107E-03
 -1      3500 3.00412E-03-2.82902E-04 1.22941E-03
 -1      3501 3.71349E-03-5.89425E-04 1.89809E-03
 -1      3502 1.28859E-03 6.57772E-04-7.63018E-03
 -1      3503 3.26062E-03-1.07689E-03-4.63548E-03
 -1      3504 2.06691E-03 1.90396E-04 7.81710E-03
 -1      3505-2.38173E-03-1.04083E-05-1.27124E-03
 -1      3506-2.88353E-03 5.60050E-05 1.47662E-04
 -1      3507 6.30458E-05 6.49195E-05-4.37769E-03
 -1      3508 2.44322E-03-1.06913E-03-6.23960E-03
 -1      3509 5.29988E-04-3.90634E-04 6.99553E-03
 -1      3510 3.40843E-03 1.05227E-03 3.89023E-03
 -1      3511 1.50193E-03-5.69155E-04-4.38391E-03
 -1      3512 1.51011E-03 7.20514E-04 7.17315E-03
 -1      3513 2.41481E-03-7.82095E-04-6.89403E-03
 -1      3514 2.09330E-03-3.07702E-04-1.69642E-03
 -1      3515 2.65806E-03-8.95334E-04-4.25776E-03
 -1      3516 3.09127E-03-5.21966E-04 1.92678E-03
 -1      3517 8.75066E-04 4.53131E-04-4.54589E-03
 -1      3518 1.54241E-03-5.82469E-04-4.25337E-03
 -1      3519 1.28061E-03 4.85756E-04-3.59027E-03
 -1      3520 2.93538E-04 1.85242E-04-7.21703E-03
 -1      3521 1.07020E-03-3.85805E-04-3.95827E-03
 -1      3522 2.77981E-03-1.36101E-04-1.00791E-03
 -1      3523-1.00250E-04-1.72757E-04 6.63702E-03
 -1      3524 2.14712E-03 4.66830E-04 2.23973E-03
 -1      3525-3.22275E-06-1.69197E-04-4.33109E-03
 -1      3526 3.05085E-03 3.61164E-04 1.54647E-03
 -1      3527-2.30633E-03 2.26044E-04 4.33737E-03
 -1      3528 4.03230E-03-6.88366E-04-2.19162E-03
 -1      3529 6.95041E-05 8.37199E-05-7.56756E-03
 -1      3530 1.04846E-03-4.56305E-04-4.38226E-03
 -1      3531 2.39306E-03 9.60682E-04-5.42935E-03
 -1      3532 1.17254E-03-3.09967E-04-7.00991E-03
 -1      3533 6.38546E-04-8.23402E-04-9.54369E-03
 -1      3534 6.65382E-04 5.76942E-04 6.80301E-03
 -1      3535 7.01347E-04 4.54431E-04-6.55172E-03
 -1      3536-1.65772E-03 4.38825E-05 2.03527E-03
 -1      3537 1.90293E-03 7.91177E-04-5.45339E-03
 -1      3538 1.34053E-03 6.55461E-04-5.53320E-03
 -1      3539 1.43011E-03-2.85697E-04-2.07709E-03
 -1      3540 2.23188E-03 2.41077E-04 1.50079E-03
 -1      3541 2.05857E-03 1.99644E-04 1.14120E-03
 -1      3542 1.44553E-03 2.04536E-04 1.35313E-03
 -1      3543 1.80724E-03 2.14340E-04 1.47334E-03
 -1      3544 2.89888E-05-5.87944E-05-3.28663E-03
 -1      3545 2.20898E-05 3.29539E-05 8.56945E-04
 -1      3546 9.92327E-04-1.63603E-04-1.62105E-03
 -1      3547-1.28128E-04 7.92824E-05-5.85157E-03
 -1      3548 7.42464E-04 4.85334E-04-5.69986E-03
 -1      3549 3.29516E-03-1.24164E-03 5.42035E-03
 -1      3550 2.29030E-03 8.62891E-04-7.08681E-03
 -1      3551 1.79743E-03-4.58130E-04-6.82739E-03
 -1      3552 1.70682E-04 3.15772E-04-5.46388E-03
 -1      3553 2.66125E-03-1.00061E-03 4.96255E-03
 -1      3554 1.31565E-03 4.38264E-04 7.50996E-03
 -1      3555 1.91174E-03-5.98212E-04-3.93527E-03
 -1      3556 2.90834E-03 2.77068E-04 1.10305E-03
 -1      3557 1.54611E-04-2.64393E-04 6.22864E-03
 -1      3558-1.67229E-04-5.53141E-05 6.57990E-03
 -1      3559 2.17461E-03-7.57404E-04-4.24511E-03
 -1      3560 2.01773E-03 8.13347E-04-6.29575E-03
 -1      3561 2.06207E-03-8.26992E-04-5.52078E-03
 -1      3562 2.13811E-03 8.59905E-04-5.44447E-03
 -1      3563 1.44346E-03-7.30134E-04 6.23313E-03
 -1      3564 1.67189E-05-5.42324E-05 4.48754E-03
 -1      3565 1.82336E-03 8.39921E-04-6.15813E-03
 -1      3566 1.78973E-03-7.66768E-04-5.71239E-03
 -1      3567 7.42798E-04 2.31596E-04 2.04625E-03
 -1      3568 8.27062E-04 1.55745E-04 1.50698E-03
 -1      3569-3.92849E-05 8.94955E-05-4.19761E-03
 -1      3570 2.76844E-05-2.10367E-04-6.19897E-03
 -1      3571 1.61469E-03 7.70636E-04-6.18166E-03
 -1      3572 6.56431E-04-4.57170E-04 6.76240E-03
 -1      3573 2.67090E-03 8.23257E-04-3.99240E-03
 -1      3574 2.16139E-03-8.58116E-04-5.68668E-03
 -1      3575 1.25478E-04-2.56472E-04-5.77661E-03
 -1      3576 2.40837E-03-9.61232E-04 7.72451E-03
 -1      3577 2.33107E-03 1.27957E-04-1.01275E-03
 -1      3578 1.43757E-03-4.81991E-04-3.97019E-03
 -1      3579-1.64757E-05-7.36610E-05 4.00012E-03
 -1      3580 1.32758E-03-5.85603E-05-7.53972E-03
 -1      3581 2.27612E-03 9.13742E-04-6.10435E-03
 -1      3582 8.71360E-05 1.21838E-05 1.51658E-04
 -1      3583 2.11080E-04 2.12934E-04-3.61110E-03
 -1      3584 1.38446E-03-7.00115E-04 6.72033E-03
 -1      3585-2.08792E-05 1.14517E-04 5.46891E-03
 -1      3586-1.21583E-04 9.77138E-05 6.12918E-03
 -1      3587 1.66159E-03-7.98049E-04 6.67896E-03
 -1      3588 4.47499E-04 2.18421E-04 2.31326E-03
 -1      3589 2.58357E-03 1.07465E-03 5.77764E-03
 -1      3590 1.61762E-03 8.44943E-04 6.78518E-03
 -1      3591 1.78138E-03 1.00045E-03 6.85099E-03
 -1      3592 2.71748E-03-3.84728E-04-1.60952E-03
 -1      3593 2.83700E-03 5.50678E-04 2.01355E-03
 -1      3594-2.21494E-04 7.33253E-05-7.15437E-03
 -1      3595-5.57321E-05-7.02003E-05 5.49366E-03
 -1      3596 9.88150E-05 3.13448E-04-5.76256E-03
 -1      3597 3.15968E-03-1.29071E-03 6.04512E-03
 -1      3598-2.28052E-04-6.82622E-05 7.01009E-03
 -1      3599 2.72352E-03-2.64714E-04 1.19095E-03
 -1      3600 1.93638E-03-9.10159E-04-6.23947E-03
 -1      3601 4.04877E-03 8.71411E-04-3.02824E-03
 -1      3602 2.46928E-03-9.45110E-04 7.17919E-03
 -1      3603-1.81351E-04-9.90003E-05 7.41566E-03
 -1      3604 9.74618E-04-4.84139E-04 8.04596E-03
 -1      3605 1.33073E-03-4.93242E-04-7.49005E-03
 -1      3606 7.96587E-04 2.46453E-04 2.20846E-03
 -1      3607 1.08030E-03-5.29613E-04-6.23911E-03
 -1      3608 1.92287E-03 8.38821E-04-5.66507E-03
 -1      3609 2.49826E-03-1.24242E-03 6.70432E-03
 -1      3610 1.51318E-03-2.08589E-04-7.07938E-03
 -1      3611 3.21502E-03 6.11634E-04 1.96946E-03
 -1      3612 1.22550E-03-4.27952E-04 7.50712E-03
 -1      3613 2.23533E-03-1.00704E-03 6.14712E-03
 -1      3614 1.58354E-05-1.56115E-04 3.83650E-03
 -1      3615-1.01473E-04 2.19925E-04-6.18141E-03
 -1      3616 3.03148E-03 9.86892E-04-4.21976E-03
 -1      3617 2.34441E-03-8.90026E-04 4.82359E-03
 -1      3618 4.45058E-04 3.33535E-04 4.12718E-03
 -1      3619 2.46947E-03 9.57950E-04 7.28030E-03
 -1      3620 3.09472E-03 1.33277E-03 6.23734E-03
 -1      3621 7.90785E-04 9.86863E-04-9.86081E-03
 -1      3622 2.32970E-03 2.86368E-04 1.25770E-03
 -1      3623 2.79300E-03-9.25074E-04-4.63790E-03
 -1      3624-7.57980E-06 1.01561E-04 3.70253E-03
 -1      3625 2.14100E-03 8.95325E-04-5.65868E-03
 -1      3626 3.48502E-03 4.07541E-04 1.59425E-03
 -1      3627 6.65156E-05 4.96332E-05-1.04275E-03
 -1      3628 2.06605E-03-7.55939E-04-6.30110E-03
 -1      3629-1.79877E-03-1.07949E-04-6.39544E-03
 -1      3630 1.91478E-03-1.67897E-04 1.22449E-03
 -1      3631 2.46239E-03 1.11009E-03 6.10938E-03
 -1      3632 2.11013E-03-9.55079E-04 6.04559E-03
 -1      3633 5.31982E-04-2.84911E-04-4.37600E-03
 -1      3634 1.03498E-03-4.41266E-04-6.63891E-03
 -1      3635-1.09051E-04 5.19410E-05 6.72848E-03
 -1      3636-1.52602E-05 9.42715E-05 3.17623E-03
 -1      3637-1.86191E-04 6.38233E-05-6.37644E-03
 -1      3638 1.67175E-03-6.88036E-04 7.07542E-03
 -1      3639 4.26639E-03-2.78558E-04 1.08470E-03
 -1      3640 3.57253E-03 5.49786E-04-1.81094E-03
 -1      3641 8.03668E-04 9.29144E-04-7.26382E-03
 -1      3642-1.92073E-04 3.81625E-05-6.53963E-03
 -1      3643 3.06170E-04-9.33813E-05 2.24886E-03
 -1      3644-1.80037E-04 1.08465E-04 7.55240E-03
 -1      3645 2.14910E-03 3.38636E-04-1.64460E-03
 -1      3646 9.88538E-04 7.09751E-04 6.78597E-03
 -1      3647 1.68065E-03 3.58053E-04-7.06209E-03
 -1      3648 2.26570E-03 1.51548E-04-8.39772E-04
 -1      3649 1.84852E-03 5.95092E-04 7.44730E-03
 -1      3650 3.26433E-03-1.02091E-03 4.42277E-03
 -1      3651 2.73829E-03 1.99042E-04-1.12247E-03
 -1      3652 3.73383E-03 2.08528E-04-7.96267E-04
 -1      3653 5.97092E-06 9.46256E-05-2.63515E-03
 -1      3654 1.65988E-03 7.61362E-04-5.70226E-03
 -1      3655 2.70741E-03-8.60970E-04-4.33795E-03
 -1      3656 9.74153E-04 6.51743E-04 6.87829E-03
 -1      3657 2.93876E-03-9.75373E-04-4.33270E-03
 -1      3658 6.28259E-04 8.31105E-04-9.63363E-03
 -1      3659 2.85571E-03-9.53198E-04 4.41721E-03
 -1      3660 2.76786E-03-2.53724E-04 1.38081E-03
 -1      3661-1.76974E-04 1.85105E-04 6.82138E-03
 -1      3662 3.80780E-03-9.19412E-04-3.46521E-03
 -1      3663 1.93911E-03-1.07345E-04-1.03549E-03
 -1      3664 3.26673E-03-7.30986E-04-3.04562E-03
 -1      3665 2.49382E-03-9.71857E-04-5.60741E-03
 -1      3666 2.03503E-03 8.30449E-04-6.33127E-03
 -1      3667 2.10738E-03-8.37714E-04 7.00799E-03
 -1      3668 2.26495E-05-3.70259E-05 2.49035E-03
 -1      3669 2.37989E-03-1.50697E-04-1.10065E-03
 -1      3670-7.17343E-05 1.16386E-04 3.74977E-03
 -1      3671 3.04625E-03-1.08101E-03 4.73199E-03
 -1      3672 3.24301E-03-8.53148E-04-3.44393E-03
 -1      3673 1.44362E-03 6.31262E-04-7.45402E-03
 -1      3674 3.95360E-03 9.19003E-04-3.21860E-03
 -1      3675 1.30421E-03 2.37375E-04-7.50766E-03
 -1      3676 4.25909E-06 1.32089E-05 7.41965E-04
 -1      3677 2.06127E-03-7.40883E-04-6.50405E-03
 -1      3678-1.48492E-04 3.57388E-04-9.04099E-03
 -1      3679 3.00541E-03 1.17033E-03-5.78568E-03
 -1      3680 3.30854E-03-9.96013E-04 3.80608E-03
 -1      3681 2.07589E-03-8.33631E-04-6.13555E-03
 -1      3682-1.66525E-03 5.74455E-05-1.04129E-03
 -1      3683 2.38678E-05-1.76045E-04 4.74162E-03
 -1      3684-6.85262E-05-6.07816E-05-4.98109E-03
 -1      3685 1.63839E-03 7.37632E-04 4.95506E-03
 -1      3686 6.63450E-04 8.00841E-04-6.99773E-03
 -1      3687 8.30328E-04 1.76260E-04-7.61753E-03
 -1      3688-1.55160E-04-8.71782E-05-4.88632E-03
 -1      3689-3.35123E-04-1.14064E-04-1.07016E-02
 -1      3690-1.47061E-03 2.22807E-04 6.54917E-03
 -1      3691 1.11599E-03-2.86669E-04 7.68255E-03
 -1      3692 2.03998E-03 8.69142E-04-6.14316E-03
 -1      3693 1.62379E-03-1.74975E-04 7.65635E-03
 -1      3694 2.80721E-03-8.61496E-04 3.89635E-03
 -1      3695 1.67292E-04-3.23880E-04 6.33042E-03
 -1      3696-1.41480E-04-3.55573E-05-5.66935E-03
 -1      3697-1.68985E-03-5.69934E-06-1.93033E-03
 -1      3698 1.24171E-04 3.74156E-04 6.37794E-03
 -1      3699 3.05084E-03 1.13011E-03 4.84380E-03
 -1      3700 8.44993E-04 3.66244E-04-7.02155E-03
 -1      3701 4.76598E-04-2.64587E-05-8.65477E-04
 -1      3702-1.57039E-03-2.07581E-04 6.86591E-03
 -1      3703-1.29844E-04 2.41767E-04 6.19904E-03
 -1      3704-1.35035E-04-3.06142E-04-9.00021E-03
 -1      3705-6.12911E-05 9.55466E-05-3.59403E-03
 -1      3706 2.51458E-03 1.25254E-03 6.77796E-03
 -1      3707 1.38951E-03-2.63236E-04 7.67539E-03
 -1      3708 1.64681E-03-5.55512E-05 8.20545E-03
 -1      3709-1.96731E-03-3.05568E-05-8.23895E-03
 -1      3710-1.00531E-04-5.37142E-06 1.23368E-02
 -1      3711 2.25976E-03-7.69168E-04 7.68228E-03
 -1      3712-1.73648E-04-6.17317E-05-5.55702E-03
 -1      3713-9.48851E-05 1.00995E-04-3.23387E-03
 -1      3714 8.51627E-04-4.21166E-05-1.11546E-03
 -1      3715 2.10258E-05-1.18843E-04-3.40240E-03
 -1      3716 1.56343E-04-1.07415E-04 2.28610E-03
 -1      3717 9.71528E-04-5.85933E-04-6.27960E-03
 -1      3718 1.74329E-03-7.37365E-05 1.85089E-03
 -1      3719 1.04727E-03-9.43169E-05 1.50165E-03
 -1      3720 1.76192E-03-3.24340E-04 7.59098E-03
 -1      3721 1.57430E-03-4.54058E-04 7.43908E-03
 -1      3722 1.43158E-03-7.01136E-05 1.90734E-03
 -1      3723 1.90053E-03 6.16802E-04-6.86293E-03
 -1      3724 2.55912E-03 1.02476E-03-5.54095E-03
 -1      3725 1.37576E-03-2.24697E-04-1.65463E-03
 -1      3726 1.55719E-03-2.93385E-04 7.63904E-03
 -1      3727 1.42644E-03 6.79525E-04-6.62303E-03
 -1      3728 1.89713E-03-5.75244E-04 7.35519E-03
 -1      3729-1.40709E-05-3.39552E-05 2.18263E-03
 -1      3730-3.71182E-04 1.68537E-04 1.13183E-02
 -1      3731-1.48281E-05-4.79849E-05 3.30849E-03
 -1      3732 7.89610E-04-9.80540E-04 9.97320E-03
 -1      3733 2.08764E-03 1.00919E-03-6.17468E-03
 -1      3734-9.60893E-05 1.31800E-05 6.63939E-03
 -1      3735 3.86951E-03-2.66422E-04 1.02568E-03
 -1      3736-6.64632E-05 1.22857E-04 4.45469E-03
 -1      3737-2.04081E-04 3.07586E-05 7.02264E-03
 -1      3738 1.34040E-04 3.42162E-04-6.05376E-03
 -1      3739 1.82979E-03 2.91313E-04 7.57511E-03
 -1      3740 1.60846E-03 1.42437E-05-1.68606E-03
 -1      3741 3.16369E-04-1.31284E-04-1.92912E-03
 -1      3742 2.01989E-03 1.19312E-04-6.46492E-04
 -1      3743-1.04112E-04 1.09183E-04-5.27605E-03
 -1      3744-8.17190E-05-1.88808E-04-5.62086E-03
 -1      3745 2.47257E-03-8.37644E-04-6.47799E-03
 -1      3746-9.01310E-04-4.92950E-05 1.25576E-02
 -1      3747-1.66864E-04-2.11199E-05 1.26162E-02
 -1      3748-1.41626E-04-1.02671E-04 6.09574E-03
 -1      3749 8.27011E-04-8.40388E-04-6.88221E-03
 -1      3750-6.53567E-05-1.51163E-04 6.04717E-03
 -1      3751-1.66682E-04 1.09153E-04-5.88480E-03
 -1      3752-1.29481E-04 1.45653E-04-4.89070E-03
 -1      3753 2.24084E-03-8.70032E-04-6.14201E-03
 -1      3754 1.73321E-03 5.35205E-06-1.77497E-03
 -1      3755-1.76523E-04 2.93677E-05 1.23124E-02
 -1      3756-1.28178E-04 2.68925E-05-1.17195E-02
 -1      3757-1.21863E-03-1.40568E-05-1.12744E-02
 -1      3758-9.88160E-04 1.46165E-05 1.24342E-02
 -1      3759 8.18324E-04 9.03042E-04 7.25962E-03
 -1      3760 1.59989E-03 1.06676E-04 2.02089E-03
 -1      3761 8.55201E-04-1.01501E-03 7.38831E-03
 -1      3762-1.90717E-04 1.15602E-04-5.79866E-03
 -1      3763 1.44096E-03 3.67001E-05-1.79851E-03
 -1      3764-1.40844E-03 1.16942E-05-1.09079E-02
 -1      3765-5.38419E-04-2.21072E-05-1.22865E-02
 -1      3766-1.71061E-03-1.21578E-06 4.37373E-04
 -1      3767-1.22990E-03 1.48130E-05-6.22974E-04
 -1      3768 7.21220E-04-8.68159E-04 7.15713E-03
 -1      3769-8.49096E-04-6.46234E-06-1.20812E-02
 -1      3770-1.15816E-03-3.81622E-05 7.76408E-04
 -1      3771-1.81121E-03-1.03516E-05-7.84842E-05
 -1      3772-6.81300E-04-3.41756E-06-1.20873E-02
 -1      3773-1.72650E-03 1.62449E-05-2.79110E-04
 -1      3774-1.15274E-03-1.89847E-06 1.82366E-06
 -1      3775-1.07879E-03-6.13668E-05 6.55568E-04
 -1      3776-1.48903E-03-8.52846E-06-5.01484E-05
 -1      3777-1.33081E-03 9.17796E-05-5.60282E-03
 -1      3778-1.22801E-03 4.12925E-05 5.59957E-03
 -1      3779-1.27838E-03 9.39189E-06 6.15650E-03
 -1      3780-1.45190E-03 6.28018E-05 2.43529E-03
 -1      3781-6.17082E-04-7.45954E-05-9.79867E-03
 -1      3782-5.52884E-04-3.60680E-05 2.99863E-03
 -1      3783-1.26130E-03 1.55705E-05 7.82340E-03
 -1      3784-6.72806E-04-4.02203E-05 1.21680E-02
 -1      3785-1.27489E-03-3.47145E-05 2.49474E-03
 -1      3786-1.27676E-03-9.53767E-08-7.00717E-03
 -1      3787-1.08636E-03-4.73127E-06 3.83905E-03
 -1      3788-1.30085E-03 2.85830E-06 6.74661E-04
 -1      3789-1.40876E-03 4.02661E-05-3.29412E-03
 -1      3790-1.40879E-03 9.01744E-06-2.06616E-03
 -1      3791-1.41971E-03 6.02061E-05-1.77092E-03
 -1      3792-5.96572E-04-8.01230E-05-6.46960E-03
 -1      3793-7.81474E-04-9.55708E-05 9.80651E-03
 -1      3794-6.94983E-04-2.75313E-05 4.99881E-03
 -1      3795-6.39326E-04 8.77384E-05-7.50222E-03
 -1      3796-1.34654E-03 6.87293E-05 6.93881E-03
 -1      3797-9.01492E-04-4.39249E-06 1.16655E-02
 -1      3798 4.21046E-04 4.60597E-04 6.03509E-03
 -1      3799-1.19460E-03 5.05574E-06 5.38986E-03
 -1      3800-4.75315E-05 1.98352E-04 3.71263E-03
 -1      3801 2.25165E-04 8.95056E-07 8.48703E-03
 -1      3802-8.01841E-04 2.10011E-05 1.33773E-03
 -1      3803-1.12728E-03 7.54941E-06-3.38578E-03
 -1      3804 1.41371E-03-1.47137E-05 2.74415E-04
 -1      3805 2.62790E-03 7.26131E-04 3.06933E-03
 -1      3806-1.23452E-03 2.73605E-05-4.94508E-03
 -1      3807-1.16214E-03 2.65933E-05-7.33233E-03
 -1      3808-6.67438E-04 4.26389E-05 2.11091E-03
 -1      3809-1.10992E-03 4.47000E-05-4.62241E-03
 -1      3810-9.00103E-04 2.79109E-05-8.84926E-04
 -1      3811 2.06813E-04 4.92761E-05-7.76417E-03
 -1      3812 1.05766E-03-9.52170E-06 8.24586E-03
 -1      3813-6.23673E-04 7.97703E-05 4.15206E-03
 -1      3814 4.50582E-04 4.08649E-04-7.32769E-03
 -1      3815 2.89055E-04-1.55041E-04-3.06729E-03
 -1      3816-7.67417E-04 4.75680E-05-7.10950E-03
 -1      3817-8.41464E-04-4.54288E-05-9.37818E-03
 -1      3818-3.27626E-04-8.05548E-06 8.50951E-03
 -1      3819-7.52409E-04 2.03161E-05 2.04987E-03
 -1      3820-4.84556E-04-4.52060E-05 2.37841E-03
 -1      3821-1.14779E-03 3.47869E-05 7.45449E-03
 -1      3822-6.17299E-04 1.32048E-04 6.34214E-03
 -1      3823-3.01944E-04 5.57554E-05-8.02561E-03
 -1      3824-5.68832E-04 1.82975E-04-9.80610E-03
 -1      3825 2.01353E-03-4.70138E-04 2.53486E-03
 -1      3826 1.09914E-03-5.35312E-04-5.44765E-03
 -1      3827-9.78116E-04 2.67607E-05-4.27965E-03
 -1      3828-2.83067E-04-1.11398E-04-7.20889E-03
 -1      3829-9.08348E-04 3.84239E-05-1.11052E-02
 -1      3830-1.08954E-03 1.98229E-05 7.88439E-03
 -1      3831 3.83325E-04-3.62950E-04 7.83826E-03
 -1      3832-8.13750E-04-2.85340E-05-6.17339E-03
 -1      3833-5.74331E-04 8.75422E-05-2.68302E-03
 -1      3834 3.64617E-04-2.87655E-04-7.31754E-03
 -1      3835-6.13145E-04 1.34236E-04 1.02790E-02
 -1      3836-1.00655E-03-1.10212E-05 6.86633E-03
 -1      3837-5.43215E-04 8.24747E-05-4.28435E-03
 -1      3838-6.79523E-04 3.02240E-05 7.81916E-03
 -1      3839 1.47295E-03-5.89301E-04 7.76246E-03
 -1      3840-1.40805E-03 6.44833E-06 6.29293E-03
 -1      3841-3.85998E-04 3.49527E-05 1.35184E-03
 -1      3842 2.48423E-03 3.09128E-05-9.62630E-05
 -1      3843-1.37062E-03 5.12112E-05-6.79439E-03
 -1      3844 2.94587E-03 7.06226E-04-3.27255E-03
 -1      3845-5.54666E-04 1.60373E-04-5.79758E-03
 -1      3846 8.12703E-04 7.31084E-05-7.94842E-03
 -1      3847-1.39219E-03-1.36864E-06-6.24963E-03
 -1      3848 1.31005E-03 3.88876E-04 2.66238E-03
 -1      3849-7.86040E-04 1.05585E-05 7.76023E-03
 -1      3850-5.71008E-04-1.26647E-04 1.02134E-02
 -1      3851 6.09986E-04 3.19888E-04 3.66765E-03
 -1      3852 3.66609E-04 5.25067E-05 3.78809E-04
 -1      3853-4.68686E-04 4.80948E-05 1.77189E-03
 -1      3854 8.51883E-04-4.91947E-04 5.57996E-03
 -1      3855-7.10738E-04 1.10381E-05-1.62615E-03
 -1      3856-7.44182E-05 2.46890E-04 5.67010E-03
 -1      3857 1.52598E-03-5.95190E-04-7.30388E-03
 -1      3858-1.39117E-03-1.22890E-05 7.68667E-03
 -1      3859-9.78154E-04 5.53180E-06 8.11444E-03
 -1      3860 3.55622E-03-1.97461E-04 9.74770E-04
 -1      3861 3.92896E-04-2.59324E-04-7.29801E-03
 -1      3862-7.51978E-04 3.34219E-05-1.69477E-03
 -1      3863-4.34508E-04-5.33215E-05-2.13795E-03
 -1      3864 3.09765E-03-2.87922E-05 7.76566E-05
 -1      3865-9.96976E-04 2.91339E-05 6.30538E-03
 -1      3866-6.81167E-04 4.53647E-05 2.43063E-03
 -1      3867 1.38716E-03 6.31185E-04-4.84118E-03
 -1      3868-4.69905E-04-9.36594E-07-8.66772E-04
 -1      3869 1.98402E-03 5.54592E-04-3.28974E-03
 -1      3870-7.82487E-04 5.62412E-05-6.25560E-03
 -1      3871 1.60776E-03-6.61562E-05 7.41190E-04
 -1      3872 1.34540E-03-3.53245E-04-3.19619E-03
 -1      3873 1.37806E-03-3.61066E-04 2.79451E-03
 -1      3874 1.50190E-03 7.17103E-04 7.83181E-03
 -1      3875 1.01910E-03-3.88618E-04-7.28546E-03
 -1      3876 1.96167E-03-7.79446E-04-5.28189E-03
 -1      3877-9.59793E-04 1.33298E-05-7.08181E-03
 -1      3878 1.97891E-04 3.33332E-04-5.41165E-03
 -1      3879 1.27376E-03 5.96126E-04 7.83054E-03
 -1      3880 1.94431E-04-2.68233E-04-5.70519E-03
 -1      3881-2.61844E-04 1.67089E-04 7.77979E-03
 -1      3882-8.69159E-04 5.71611E-05 9.90565E-03
 -1      3883 1.03421E-03 3.35236E-05-7.62778E-03
 -1      3884 2.12399E-03-4.59481E-04-2.73454E-03
 -1      3885 1.90067E-03 1.09610E-05-2.49096E-04
 -1      3886 2.31764E-03 9.91775E-04 5.39270E-03
 -1      3887-4.11532E-04-6.37193E-05 4.68415E-03
 -1      3888 1.89647E-04 2.68059E-04-7.27309E-03
 -1      3889-1.41058E-03 8.42064E-05 3.80357E-03
 -1      3890 1.06449E-03 6.45672E-05 8.19637E-03
 -1      3891 7.84800E-04 4.84848E-04 7.43317E-03
 -1      3892 9.02013E-04-5.48164E-04 6.21839E-03
 -1      3893 1.21313E-03 1.66344E-05-1.90423E-04
 -1      3894-7.20947E-04 1.97667E-05 1.61463E-03
 -1      3895 2.36464E-04-4.83589E-05 8.12482E-03
 -1      3896-8.43000E-04-4.25871E-06-3.78633E-03
 -1      3897-1.02235E-03 4.32814E-05 6.74969E-03
 -1      3898-6.39325E-04 6.51232E-05-3.67562E-03
 -1      3899-1.05524E-03 3.48852E-05-6.27956E-03
 -1      3900 1.50309E-03 1.13915E-04-7.68258E-03
 -1      3901-1.06908E-03 3.69391E-05 8.56403E-03
 -1      3902-9.06358E-04 2.13669E-06 8.68672E-04
 -1      3903-6.29813E-04 3.04109E-06 1.27397E-03
 -1      3904 2.24855E-03-3.76354E-04-2.02362E-03
 -1      3905 1.70467E-04 3.88527E-05 6.80590E-04
 -1      3906 1.30139E-03-6.29118E-04-5.81521E-03
 -1      3907 5.18258E-04-3.60339E-04-5.72276E-03
 -1      3908-8.85399E-04 6.57325E-06 7.61909E-03
 -1      3909-7.17327E-04 3.22936E-05-7.26637E-03
 -1      3910-7.22737E-04-1.85123E-05 6.70801E-03
 -1      3911 7.08784E-04 5.15452E-04 5.48369E-03
 -1      3912 9.39042E-04 5.76195E-04-5.62218E-03
 -1      3913 4.94334E-04 4.00561E-04-6.72901E-03
 -1      3914 1.68808E-03-6.33245E-04-6.75861E-03
 -1      3915 1.05862E-06 7.70417E-06 8.19187E-03
 -1      3916-5.93713E-04 8.88840E-05 4.65357E-03
 -1      3917-6.12830E-04 7.72612E-07-3.23363E-04
 -1      3918 3.54607E-04 2.13557E-04-3.06456E-03
 -1      3919 2.71042E-03-7.27477E-04 3.45588E-03
 -1      3920-6.44766E-04 3.21095E-05-9.39565E-04
 -1      3921-1.25304E-03-9.06703E-06-5.35714E-03
 -1      3922-4.88042E-04 4.17205E-06-1.30902E-03
 -1      3923-9.46350E-04 1.56698E-05-7.64512E-03
 -1      3924 2.18561E-03 8.33711E-04-4.84167E-03
 -1      3925-7.02612E-04 9.55584E-05 6.43718E-03
 -1      3926 2.02785E-03-9.10183E-04 6.14290E-03
 -1      3927-6.60055E-04 8.20046E-05 6.74730E-03
 -1      3928-8.39893E-04 1.08829E-04-9.42302E-03
 -1      3929-8.67132E-05-1.85269E-04 5.76565E-03
 -1      3930-7.73502E-04 8.08534E-06-7.16014E-03
 -1      3931-1.05820E-03 1.59492E-05 1.95827E-03
 -1      3932-6.44162E-04-1.59123E-05 7.63162E-03
 -1      3933 5.26609E-04 4.52113E-04-5.78519E-03
 -1      3934-1.42674E-03 4.10061E-05-6.23316E-03
 -1      3935 1.52835E-03-6.94619E-04 5.38481E-03
 -1      3936 3.57628E-04 7.49141E-05-7.71222E-03
 -1      3937 1.41983E-03 6.95579E-04-5.70370E-03
 -1      3938-4.82509E-04-2.76489E-05-3.73871E-03
 -1      3939-5.29533E-04 1.58171E-04-6.59070E-03
 -1      3940 1.83814E-03 5.32774E-04 2.98262E-03
 -1      3941 8.48076E-04-2.71620E-04-3.37206E-03
 -1      3942-4.30550E-04 3.81741E-07 1.85323E-03
 -1      3943 7.59182E-04 3.11070E-04-3.36017E-03
 -1      3944 2.76495E-03 8.52376E-04 3.87316E-03
 -1      3945-5.43055E-04-1.20197E-05 7.71704E-03
 -1      3946 3.64052E-03-7.14344E-05-4.83918E-04
 -1      3947-4.93977E-04 4.36817E-05-1.36534E-03
 -1      3948 1.83921E-03-5.79711E-04-7.21070E-03
 -1      3949 1.72024E-03-5.63799E-04 3.82748E-03
 -1      3950 9.47920E-04 5.43197E-04-6.79491E-03
 -1      3951 1.79130E-03 7.70586E-04 7.32636E-03
 -1      3952-6.48928E-04-3.75660E-05 4.19262E-03
 -1      3953 5.18695E-04-3.03975E-04-6.82542E-03
 -1      3954 2.58755E-03 1.03655E-03-5.59590E-03
 -1      3955 2.85303E-03-6.31130E-04-3.27932E-03
 -1      3956 5.44113E-04 4.64056E-05 8.17932E-03
 -1      3957-5.13470E-04 1.16473E-04 6.48893E-03
 -1      3958-3.66320E-04-1.42215E-04 7.72217E-03
 -1      3959-8.04668E-04 9.49160E-05-6.29209E-03
 -1      3960-5.50050E-04-2.89932E-05-4.13553E-03
 -1      3961-7.85203E-04 1.97657E-05-1.14144E-03
 -1      3962-7.34128E-04-3.33602E-05-2.00505E-03
 -1      3963-6.07552E-04 4.72967E-05-7.17842E-03
 -1      3964 9.05664E-04 5.16572E-04-7.25458E-03
 -1      3965 2.95046E-03 1.82836E-04 8.81994E-04
 -1      3966 2.13707E-03-8.74462E-04-5.72091E-03
 -1      3967 1.63599E-03 4.90221E-05 8.07966E-03
 -1      3968-6.04413E-04-4.47367E-06-7.06581E-03
 -1      3969-7.33249E-04 2.09496E-05-1.14103E-03
 -1      3970 9.05469E-04 5.20730E-04 7.75097E-03
 -1      3971-6.67159E-04 8.68350E-05-5.93241E-03
 -1      3972-1.02887E-03 6.98278E-05-6.65291E-03
 -1      3973-5.43209E-04 9.32173E-05-6.14046E-03
 -1      3974-1.36797E-03 3.38935E-05 1.28866E-03
 -1      3975-1.06033E-03 4.66351E-05-5.21324E-03
 -1      3976-1.36897E-04 1.63146E-04 7.33590E-03
 -1      3977-6.17550E-04-1.63052E-05-6.24409E-03
 -1      3978-5.29571E-05 2.50167E-04-7.17139E-03
 -1      3979 4.29916E-04 3.80561E-04 7.80845E-03
 -1      3980 9.52790E-04-5.19554E-04 7.69921E-03
 -1      3981-1.29635E-04 3.44080E-05-1.68392E-04
 -1      3982 1.58951E-03 1.03601E-05-7.53528E-03
 -1      3983-6.32233E-04-3.37284E-05-5.92640E-03
 -1      3984-5.48876E-04-2.91282E-05 6.26286E-03
 -1      3985-5.25976E-04-5.13797E-05 6.51716E-03
 -1      3986-7.75343E-04 6.55249E-05 5.97876E-03
 -1      3987-8.88737E-04 4.75312E-05 1.19346E-02
 -1      3988 2.78991E-04-1.82741E-04 3.39030E-03
 -1      3989-5.88102E-04 1.02196E-04-2.26247E-03
 -1      3990 6.20199E-05-1.56230E-04-6.70033E-03
 -1      3991-6.91897E-04-1.96211E-05-1.15452E-02
 -1      3992 1.70276E-03 7.39946E-04-7.19192E-03
 -1      3993-7.25592E-04 1.76235E-05 5.91481E-03
 -1      3994-5.33978E-04 1.53074E-04 6.83693E-03
 -1      3995-1.28044E-03 4.50794E-05-1.33982E-03
 -1      3996 5.60844E-04 2.08855E-04-2.10734E-03
 -1      3997 2.48464E-03-1.06577E-03 6.14969E-03
 -1      3998-7.18830E-04 3.58999E-05 7.66069E-03
 -1      3999-1.27006E-03 3.87413E-05-4.62503E-03
 -1      4000-6.55838E-04-1.45168E-05 2.32510E-03
 -1      4001-9.57473E-04 1.68593E-05 3.51224E-03
 -1      4002-5.67283E-04 6.00783E-05 2.50891E-03
 -1      4003-1.06892E-03 2.29000E-05-7.99192E-03
 -1      4004-5.77362E-04-5.74734E-05 6.72040E-03
 -1      4005-1.12749E-03 2.47743E-05-3.15319E-03
 -1      4006 9.44727E-05-1.14281E-04-3.14868E-03
 -1      4007 1.71011E-03 4.24417E-04-2.39976E-03
 -1      4008 1.38073E-03-5.95186E-04 7.35167E-03
 -1      4009-5.83990E-04 4.37436E-05 7.73506E-03
 -1      4010 6.88554E-04 4.31935E-04-4.79868E-03
 -1      4011-1.32389E-03 2.41640E-05-5.90622E-03
 -1      4012 1.39331E-03-2.94321E-04-2.34983E-03
 -1      4013-8.68174E-04-8.24245E-06-1.11241E-02
 -1      4014-6.99282E-04-5.66410E-05 6.47628E-03
 -1      4015 3.02574E-03-7.39865E-05-5.82034E-04
 -1      4016-6.56074E-04 1.11180E-04-2.14866E-03
 -1      4017 1.17792E-03-4.76386E-04-6.70489E-03
 -1      4018-4.50886E-04-3.93352E-05-3.78640E-03
 -1      4019 1.23989E-03 7.43255E-04 6.19207E-03
 -1      4020 2.91154E-03-1.59271E-04 8.42515E-04
 -1      4021-7.65416E-04-2.14421E-05-7.15229E-03
 -1      4022 1.72743E-03 7.50930E-04-6.64348E-03
 -1      4023-8.01925E-04-5.92174E-05 6.54340E-03
 -1      4024-7.40699E-04 1.25540E-04 6.54755E-03
 -1      4025-4.17611E-05 2.63480E-04 6.13890E-03
 -1      4026-8.36720E-04 2.56292E-05 7.09982E-03
 -1      4027-1.35177E-03 1.53597E-05 4.74042E-03
 -1      4028 2.28955E-03 3.01943E-05-2.86669E-04
 -1      4029 2.28989E-04 1.37212E-05 1.59985E-04
 -1      4030-4.38213E-04 7.88089E-06-1.23030E-02
 -3
    1PSTEP                         2           1           1          
  100CL  101 1.000000000        4030                     0    1           1
 -4  STRESS      6    1
 -5  SXX         1    4    1    1
 -5  SYY         1    4    2    2
 -5  SZZ         1    4    3    3
 -5  SXY         1    4    1    2
 -5  SYZ         1    4    2    3
 -5  SZX         1    4    3    1
 -1         1-1.24915E+00-1.12059E+00-9.88700E-01 2.17170E-02 4.64911E-02-5.15917E-01
 -1         2-2.75512E-01-1.64672E+00-7.10437E-02-3.36537E-01-2.25028E-02 5.96014E-02
 -1         3 6.28532E-01 1.89470E-01-4.72797E-02-1.66211E-01 2.30618E-02-8.50189E-02
 -1         4 7.36267E-01 2.84485E-01-3.75441E-02-2.15472E-01-8.04062E-02 1.40980E-01
 -1         5 3.39298E-01-2.11301E-02-1.65694E-01 5.16557E-02-7.58156E-02-3.71596E-02
 -1         6 1.54548E-01 2.11298E-01-1.96766E-01-2.21082E-01-1.62860E-01 1.31032E-02
 -1         7 1.64163E-01 3.78289E-02-8.03608E-02-8.90858E-02-2.47334E-02-4.56161E-03
 -1         8 4.68761E-01 2.78567E-01-9.20539E-02-2.55783E-01-3.97129E-02 3.88726E-02
 -1         9 7.61796E-01 1.73334E-01-1.32428E-02-4.44320E-02 9.66806E-03-1.06641E-01
 -1        10 6.44403E-01 1.40437E-01-1.21689E-02 7.70106E-02-1.88921E-02-1.06208E-01
 -1        11 2.59953E-01 1.22203E+00-4.37113E-02-2.78220E-01 1.54033E-01-3.51680E-02
 -1        12 3.17606E-01 1.87301E+00 1.20317E-01 3.55594E-01-2.64069E-02 7.23593E-03
 -1        13 5.66174E-01 2.08661E-01-9.26718E-05-2.09555E-01 4.38680E-02-8.34905E-02
 -1        14 3.35819E-03 2.25173E-04 1.16505E-01-4.44799E-02-3.72697E-02 2.11391E-02
 -1        15-7.08939E-02-1.83001E-02-1.21378E-01-6.22033E-02 5.36151E-02 1.11407E-01
 -1        16-2.12015E-01-2.31023E-01-9.78684E-03-1.38986E-01-3.87814E-02-3.37033E-02
 -1        17-1.98067E-01-2.00135E-01 1.70588E-02-1.44569E-01-1.27177E-02-6.54691E-03
 -1        18-9.42101E-01-5.41064E-02 2.31518E-02 2.79757E-01 2.04265E-01-2.40649E-01
 -1        19-3.79059E-01 5.26041E-02 2.40764E-03-1.49760E-01 3.18212E-02-2.62995E-01
 -1        20-9.71654E-01-7.23908E-02-5.08445E-02 2.83125E-01 1.09980E-01-2.17219E-01
 -1        21-7.51010E-01-8.32699E-01-1.13101E-01 6.44929E-01 1.13643E-01-3.59327E-02
 -1        22-3.66591E-01-2.72242E-01 1.99930E-02-1.98962E-01-5.47123E-02-5.87786E-02
 -1        23-2.71495E-01-1.63383E+00-5.76398E-02 3.46370E-01 6.93210E-02-1.98654E-02
 -1        24-2.07529E-01-1.64707E+00 7.37401E-04 3.38535E-01 8.11887E-02-2.22226E-02
 -1        25-2.57975E-01-1.52541E+00-1.24373E-01-3.43436E-01-3.56998E-02-1.42795E-02
 -1        26-1.78169E-01-1.50575E-02 3.79407E-01 9.00047E-02-1.17523E-01-1.04472E-02
 -1        27-7.41596E-01-1.71978E-01 8.75339E-03 2.25502E-02 5.63732E-03-1.11656E-01
 -1        28-7.06855E-01-1.75739E-01-8.08513E-03-9.41883E-02-1.71961E-02-1.01331E-01
 -1        29-1.74071E-01-7.10527E-02-3.01867E-01-2.32845E-02 3.06627E-02 2.29230E-01
 -1        30-8.80704E-01-1.89236E-01 8.11304E-02 1.77753E-02-1.74056E-02 9.71357E-02
 -1        31-1.38399E-01-1.57368E-01 3.91537E-02 1.45171E-01-5.72026E-02 6.67327E-03
 -1        32-4.61420E-01-2.67412E-01 4.48421E-02-2.17826E-01 5.26397E-02 7.35042E-02
 -1        33-1.53465E-01-9.06893E-02-2.79998E-01-2.43116E-02 7.52847E-02 1.98959E-01
 -1        34-6.35501E-01-1.80971E-01 4.24315E-02-1.48723E-01-1.31602E-02-7.71703E-02
 -1        35-2.62838E-01 2.59144E-03 2.25271E-01 5.62391E-02-5.90512E-02 1.07429E-02
 -1        36-8.30044E-02-6.93131E-02 2.07784E-01-9.29736E-02-6.89916E-02 1.88578E-02
 -1        37-3.68605E-01-1.52033E-01 7.73873E-02-1.62663E-01-1.50209E-02-3.36059E-02
 -1        38-3.30529E-01-4.54143E-03 7.97839E-02-7.84893E-02 2.70416E-02-2.96941E-02
 -1        39-9.66764E-03-1.62129E-01 1.03004E-01-8.43268E-02-1.25394E-01 1.74722E-02
 -1        40-1.33414E-01-2.76591E-02 9.70911E-02 7.58704E-02-2.32632E-02-1.85248E-02
 -1        41-6.78932E-02 1.11320E-02-9.42814E-02 5.07168E-02-7.13524E-03 1.22530E-01
 -1        42-1.80786E-01-1.95434E-01 1.36109E-02 1.41280E-01 2.92281E-02-2.27039E-02
 -1        43-1.93267E-01-1.84155E-01 4.34071E-02 1.88823E-01-1.17322E-02 2.17575E-02
 -1        44-1.10770E-01-1.86722E-01 5.33160E-04 1.17198E-01 5.91815E-02-3.01215E-02
 -1        45 2.16598E-02-1.35272E-02 1.16347E-03 9.15689E-02 1.61339E-02-8.01831E-03
 -1        46-3.40322E-01 2.33884E-01 2.32602E-02 2.15129E-01 1.14583E-03-3.11497E-01
 -1        47 3.59006E-01-2.08100E-02-6.90081E-02 2.28530E-01 1.68561E-02-2.87604E-01
 -1        48 1.20567E-02-3.16790E-02-4.01404E-02 6.49229E-02 6.20627E-02 2.47957E-03
 -1        49-6.63327E-01-1.68925E-01 6.40492E-02 1.67481E-01 2.40127E-02-8.87734E-02
 -1        50-5.96332E-01-2.00866E-01 4.25156E-03 2.11252E-01 5.16188E-02-8.79179E-02
 -1        51-8.40330E-01-9.31687E-01-1.19941E-01-5.59120E-01-1.76890E-01-2.25688E-01
 -1        52-5.31158E-01-5.36019E-01 2.11015E-01-5.09011E-01-2.22753E-01-1.41283E-01
 -1        53-7.57072E-01-2.83317E-01 1.70656E-02 1.98836E-01-7.67809E-02 1.40820E-01
 -1        54-6.61605E-01-1.53465E-01 4.49477E-02 1.27144E-01-3.61952E-02 7.94442E-02
 -1        55-3.79462E-01-3.11626E-01-2.29280E-02 2.01855E-01 6.23756E-02-6.32049E-02
 -1        56-7.51242E-01-2.22066E-01-9.06481E-02-2.14122E-01-1.10935E-01-2.38047E-01
 -1        57-4.35326E-01-2.04898E-01 7.83250E-03 1.83826E-01 2.92493E-02-4.15471E-02
 -1        58-4.91087E-01-2.60052E-01 5.12608E-02 2.42396E-01-4.49220E-02 4.68958E-02
 -1        59-7.52230E-02-9.84755E-02 1.50101E-01 4.43091E-02-8.02574E-02 1.39398E-03
 -1        60-3.06813E-01-2.38603E-01 6.91401E-02 2.25450E-01-9.71930E-02 4.85292E-02
 -1        61-1.46638E-01-5.02942E-02-2.67639E-01 5.58675E-02-9.88545E-02 1.88567E-01
 -1        62 1.41837E-02-7.33725E-02 4.07839E-02 1.10279E-02 6.17496E-02 2.90505E-02
 -1        63 1.68240E-02-4.01150E-03 3.48095E-02 1.15275E-01 1.79742E-02-1.04563E-02
 -1        64 1.25544E-01 2.63145E-02-1.17829E-01 8.23689E-02 3.93329E-02 9.16691E-03
 -1        65 1.80751E-02 2.12577E-02 1.12464E-02-9.12277E-02-1.18826E-03-4.28807E-03
 -1        66-4.05134E-02-3.50184E-02-1.19812E-02-7.64754E-02-2.77013E-02-5.30466E-03
 -1        67 2.13819E-02-1.81207E-03-3.14241E-03-6.17102E-02 2.38626E-03 8.12646E-02
 -1        68-1.33359E-02-6.67374E-03-4.41579E-03-1.23031E-01 1.20786E-02-1.35232E-02
 -1        69-3.28062E-01 2.51436E-02-1.08234E-03-9.39386E-02 7.27707E-02-3.33217E-01
 -1        70 1.70028E-01 1.83633E-01-1.37765E-02-1.53146E-01 5.64437E-02-2.26379E-02
 -1        71 6.35675E-02-2.34406E-02 9.06264E-02-6.06410E-02 3.46096E-03 1.34598E-01
 -1        72 9.42888E-02 6.41991E-02 1.78649E-01-6.59759E-02-9.00348E-02 1.10356E-01
 -1        73-1.61230E-02-6.30715E-03 3.64472E-02-3.40821E-02 4.52268E-02 2.05575E-02
 -1        74 4.08773E-02 6.16257E-02 2.67282E-02-9.65916E-02 4.60382E-02-1.93045E-02
 -1        75 3.38532E-02 3.63190E-02 5.60774E-03 6.49094E-02-3.32401E-02-1.34296E-02
 -1        76 6.22566E-01 8.86504E-01 8.25854E-02-6.29395E-01 1.77407E-01-1.01789E-01
 -1        77 3.56522E-01 3.05788E-01-2.41148E-03 1.99857E-01-4.85620E-02-4.80716E-02
 -1        78 3.50126E-01 3.07117E-01-1.56085E-06-2.20366E-01 7.34762E-02-6.34545E-02
 -1        79 4.45433E-01 2.61847E-01-5.22186E-02 2.38425E-01 5.18956E-02 6.06405E-02
 -1        80 3.37675E-01 1.64365E-01-4.73129E-02 1.59885E-01-1.47200E-02-3.13833E-02
 -1        81 8.35420E-03 2.06491E-01-1.00673E-01 8.44973E-02-1.04315E-01 2.07312E-02
 -1        82 2.76875E-01 2.50030E-01-7.86685E-02 1.93309E-01 7.39228E-02 3.50952E-02
 -1        83 6.21751E-01 2.63035E-01-3.79188E-02 1.97903E-01-4.68263E-02-6.15175E-02
 -1        84 5.89854E-01 1.43437E-01-6.61348E-02 1.31310E-01-1.15456E-02-5.24509E-02
 -1        85 3.36462E-01-1.70187E-02-1.60486E-01-5.95320E-02 6.96314E-02-1.67458E-02
 -1        86 7.22432E-01 2.11073E-01-7.59360E-02 1.46075E-01 3.26002E-02 7.70818E-02
 -1        87 6.47766E-01 2.43971E-01-8.39173E-02 2.25822E-01 6.34560E-02 1.15457E-01
 -1        88 1.55201E-01 1.23951E-03 3.15429E-01-6.96370E-02-8.53448E-02 2.23915E-01
 -1        89 1.53938E-01 4.55579E-03 3.10592E-01-6.22524E-02-9.81616E-02 2.20086E-01
 -1        90 3.29697E-01 2.82833E-01-5.18859E-02-2.13678E-01-7.84535E-02 3.90642E-02
 -1        91 7.38505E-02 4.53256E-02 2.38376E-01-7.78717E-02-1.14718E-01 1.41279E-01
 -1        92 7.95458E-01 1.56617E-01-6.34774E-02 3.72728E-02 1.68482E-02 8.32434E-02
 -1        93 1.15799E-01 4.71638E-02 2.56158E-01 6.62317E-02 1.05591E-01 1.69502E-01
 -1        94 1.63698E-01 1.04585E-01 3.03487E-01 2.82371E-02 8.70638E-02 2.13387E-01
 -1        95 8.54195E-02-7.79361E-02-4.22471E-02 1.37228E-03 1.04145E-02-5.71821E-02
 -1        96 1.51180E-01 9.67505E-03 8.82494E-03-8.95238E-03 5.88415E-03 2.86584E-02
 -1        97-1.71726E-01-1.40842E-02-2.42752E-01-2.58532E-02 1.95904E-02 1.99608E-01
 -1        98 1.62654E-01-6.11825E-02-1.27751E-03 5.58184E-04-8.82063E-03-4.85638E-02
 -1        99-7.05362E-01-1.37233E-01 1.05478E-01-8.26930E-02 1.90555E-02 6.62365E-02
 -1       100-3.95843E-01-5.60175E-01-3.00867E-01-4.53230E-02-8.43357E-02-5.39760E-02
 -1       101-2.94028E-01-8.05842E-02 1.22557E-01 1.80253E-01 8.10917E-02-3.20976E-02
 -1       102-3.15252E-01-8.69053E-02 1.88918E-01-2.03888E-01 1.00438E-01 1.26087E-02
 -1       103-1.00089E-01-2.00132E-01-1.53866E-01 4.03807E-02-8.90620E-03-1.83249E-02
 -1       104-3.41463E-01-9.14036E-02 9.43948E-02-1.99158E-01-8.47360E-02-5.81611E-02
 -1       105-5.32938E-01-8.17568E-01 7.49534E-02 5.75145E-01 1.69650E-01-3.34542E-02
 -1       106-1.31795E+00-1.02693E+00-1.08236E+00-3.48487E-02 5.78987E-02-5.49995E-01
 -1       107-1.27457E-01-5.44163E-02-2.66977E-01-5.16676E-02 5.89801E-02 1.82171E-01
 -1       108-9.01338E-02-9.49236E-02-1.75648E-01 1.49094E-02 1.38615E-01 2.47554E-01
 -1       109-6.70745E-01-1.48934E-01 5.97236E-02-1.33274E-01 1.56485E-02 5.90050E-02
 -1       110-5.18677E-01-1.76403E-01 4.46292E-02-2.02385E-01-3.53229E-02-5.87994E-02
 -1       111 6.10355E-02-4.96831E-02-3.06185E-02 3.72681E-02 3.57710E-02 1.28512E-02
 -1       112-6.92283E-01-2.44374E-01 6.88806E-02-1.97943E-01 6.10884E-02 9.66131E-02
 -1       113-2.34268E-01-5.71624E-01-2.66473E-01 4.35623E-02 5.47683E-02-2.78468E-02
 -1       114 6.80612E-02-9.94616E-02-1.35513E-02 5.86296E-02 6.45539E-03-6.00415E-02
 -1       115-3.55677E-01 2.01320E-02 1.68578E-01 5.70468E-02 7.59768E-02-3.19424E-02
 -1       116-2.82487E-01-3.29547E-01-2.27303E-01 1.23145E-01 2.79846E-02-1.10327E-01
 -1       117 1.47814E-01-4.05560E-02-2.05369E-02 6.69975E-02 6.88119E-03-7.74467E-02
 -1       118-1.15633E-01-1.85986E-01 2.33931E-01-1.90170E-01 1.34279E-01-2.41884E-02
 -1       119-8.80864E-01-5.62444E-01-4.54651E-01-2.02968E-01-4.43114E-02-4.64293E-01
 -1       120 6.65305E-03 1.94464E-02 5.67906E-02 3.57189E-02 5.44406E-02-4.18393E-02
 -1       121-1.21567E-01-7.44358E-02-2.42575E-01-4.18791E-02 1.08309E-01 1.52196E-01
 -1       122-2.78493E-02-6.00976E-02 1.07799E-02 5.77702E-02-1.82323E-03-3.68061E-02
 -1       123-8.62133E-02-7.39964E-02-2.71270E-01-4.62192E-02 9.17828E-02 1.52342E-01
 -1       124-2.78352E-01-2.43638E-01 4.36513E-02-1.59892E-01 7.88238E-02 5.93792E-02
 -1       125 6.86646E-02-1.18466E-04-2.61214E-02 4.62683E-02-1.41671E-03-7.40756E-02
 -1       126-7.32807E-02-1.17505E-01-6.44955E-02 5.67861E-02 5.84870E-02 2.33909E-02
 -1       127-3.00544E-03-1.79073E-01 1.01828E-01-6.88962E-02 7.98702E-02-2.61070E-02
 -1       128-3.69259E-01 6.81581E-04 1.31565E-01-9.14321E-02-4.59407E-02 4.22393E-02
 -1       129-4.11483E-01-1.77133E-01-2.26144E-01-2.07198E-01-3.63623E-02-4.90759E-01
 -1       130-2.23536E-01-1.13217E-01-1.53073E-01-1.63469E-02 1.35516E-01 5.35711E-02
 -1       131-1.86846E-02-3.21138E-02 4.07894E-03-6.36088E-02 2.34284E-02 9.40687E-02
 -1       132-2.41422E-01-2.27867E-01 2.73981E-02-2.28459E-01 1.17328E-02 2.10551E-02
 -1       133 1.22236E-02-2.87397E-02-6.55234E-02 4.83028E-02-2.30213E-02-1.06494E-01
 -1       134-1.57807E-01-4.60246E-02-2.13772E-02-7.68156E-02 3.56204E-02-4.41096E-01
 -1       135 3.86559E-02 1.98570E-02-3.20316E-02 5.44494E-02 2.86300E-02-4.33623E-02
 -1       136-3.15805E-02-2.57213E-02 5.85839E-02 3.60816E-02 2.55244E-02-6.58374E-02
 -1       137-1.79530E-01-7.71178E-02 5.54933E-02-1.27556E-01 1.71350E-02-1.48458E-02
 -1       138-1.27780E-01-1.35516E-01-1.04997E-02-1.46816E-01 6.90747E-02 9.56184E-03
 -1       139 1.61454E-02-2.33065E-02 2.72002E-02-2.68085E-02 7.60067E-02-2.62540E-02
 -1       140 1.13409E-02 1.79717E-02 4.87665E-02 3.22790E-02-3.26622E-02-3.50398E-02
 -1       141-7.97304E-02-6.21784E-02-1.21461E-01 2.88529E-02 1.46707E-02-3.33450E-04
 -1       142-2.47266E-01-9.93691E-02 7.45309E-02-1.70238E-01-3.01438E-02 9.29930E-03
 -1       143-2.04659E-01-1.27359E-01-1.96666E-01-7.36792E-02-1.40534E-02-2.21321E-01
 -1       144 2.79889E-01-1.15096E-01-1.09105E-01-3.03882E-01-9.21712E-02-2.87988E-01
 -1       145 2.98826E-02-1.35781E-02 9.86305E-02-3.35548E-02-1.65573E-02 7.48565E-02
 -1       146 2.26265E-03-1.06644E-02 7.70796E-02 4.30295E-02 8.13834E-03-7.29278E-02
 -1       147 2.17775E-02-4.24240E-03-5.39810E-02 4.41662E-02-2.20240E-02-6.48237E-02
 -1       148 1.02260E-02 4.18623E-02 6.75846E-02 5.99873E-02 2.73643E-02-6.81127E-02
 -1       149-2.76659E-03 2.12064E-02 4.66830E-02-7.06240E-02 4.96714E-02 2.52195E-03
 -1       150-8.79743E-02-1.32150E-01-1.26499E-01-2.37507E-02-1.06042E-03 8.53649E-04
 -1       151-1.22258E-02-1.89847E-02-8.81314E-02 3.29158E-02 2.62322E-02-7.41411E-02
 -1       152 6.42336E-02 5.97364E-02 1.09371E-02-6.61577E-02-5.41061E-02 4.13755E-02
 -1       153 8.93729E-03 1.38536E-02-7.07178E-02-1.71272E-02 3.25300E-02-4.46604E-02
 -1       154 4.93282E-02 6.40086E-02 7.47213E-04-5.82095E-02 3.19491E-02-2.16495E-02
 -1       155 8.18862E-01 2.12956E-01 4.28137E-02 3.26695E-01-1.17383E-01-1.78758E-01
 -1       156 1.24742E-01 9.50543E-02 1.12146E-01-2.75433E-02-1.35276E-01 3.99311E-02
 -1       157 1.20617E-01 1.30543E-01 3.25671E-03-1.39329E-01-6.79514E-02 8.41709E-03
 -1       158 7.49564E-01 9.93047E-02 1.98277E-02 2.75174E-01-2.46441E-02-2.04514E-01
 -1       159 3.31824E-01-1.25757E-01-1.26973E-01-3.00314E-01-6.00017E-02-2.01908E-01
 -1       160-6.69595E-03-2.89226E-02-3.58226E-02-9.46260E-03-1.10645E-02-5.85922E-02
 -1       161 2.18949E-01 1.72831E-01-2.15647E-02-1.58398E-01 1.05285E-02 3.80826E-03
 -1       162 1.99962E-01 6.22333E-02 1.88069E-02 7.99835E-02-1.35176E-01-1.24328E-01
 -1       163 2.01075E-01 1.94638E-01-3.40411E-02-2.18069E-01-2.92144E-02 3.09917E-02
 -1       164-1.72013E-02 1.98974E-02-3.90975E-02-2.46742E-02-6.92131E-02-2.98290E-02
 -1       165 2.27876E-01 1.00916E-01-6.09448E-02-1.62481E-01 1.63227E-02 2.00290E-02
 -1       166-2.41417E-02 3.92237E-02-8.37785E-02-2.10198E-02 6.96073E-02 4.83708E-02
 -1       167 2.64361E-01 1.72977E-01 3.01557E-01 2.13619E-02-2.15001E-01 1.96045E-01
 -1       168 5.36495E-01 8.30047E-01 1.57924E-01 5.43646E-01-2.42742E-02-9.57443E-02
 -1       169-5.00440E-03 4.83803E-02 6.85422E-02 5.46201E-02 1.43810E-02-1.20138E-01
 -1       170 4.07802E-01 3.78754E-01 3.64378E-01-5.04460E-02-1.09927E-01-3.77774E-01
 -1       171 7.17463E-02 5.53037E-02 2.00836E-01-6.75406E-02-1.05508E-01 1.26648E-01
 -1       172 3.58972E-01 2.03445E-01 2.50517E-01 3.96454E-02-8.28693E-02-1.94586E-01
 -1       173 5.32989E-03 1.95061E-02 1.58069E-02 7.15573E-02-2.30850E-03-5.29431E-02
 -1       174 4.11409E-01 1.98519E-01-2.12525E-02-1.98151E-01 3.26419E-02-4.23772E-02
 -1       175 3.43641E-01 1.06770E-02-6.90265E-02-9.05264E-02-1.80345E-02-5.24527E-02
 -1       176-1.36610E-03 5.46136E-03-4.09060E-02 2.33785E-02-2.71125E-02-2.74263E-02
 -1       177 3.55476E-01-1.31197E-02-1.94168E-01-8.57232E-02 7.32553E-02 3.51094E-02
 -1       178 1.06960E-02 2.38912E-01-8.14498E-02-8.53858E-02 9.07576E-02 1.54983E-02
 -1       179 4.91059E-03 2.05275E-01-1.15221E-01-8.19918E-02-9.88471E-02-2.78434E-02
 -1       180 1.01271E+00 8.56379E-01 7.50377E-01-1.30422E-02-5.08043E-02-4.12807E-01
 -1       181 6.00707E-01 8.95279E-01 9.20319E-02 5.88459E-01-6.93160E-02-1.28223E-01
 -1       182 2.03862E-01 1.74783E+00-5.17366E-02 2.73117E-01-2.45396E-02 2.56434E-02
 -1       183 9.63050E-01 9.35481E-01 8.70964E-01 2.18812E-02 4.50798E-03-3.40547E-01
 -1       184-2.94322E-02 4.09432E-02-1.01177E-01 2.15579E-02-5.54663E-02 4.20414E-02
 -1       185-2.22121E-02 9.50324E-02 3.93679E-03 8.30550E-02-1.14849E-02-8.77365E-02
 -1       186 6.74559E-01 6.42754E-01 6.32072E-01 4.72119E-02-9.20528E-02-3.66605E-01
 -1       187-1.41247E-01 2.85081E-02 2.74831E-02 5.34986E-02-1.91213E-02-6.54683E-02
 -1       188 1.35886E-01 1.93201E-01-9.47166E-02-1.82956E-01 1.09584E-01-2.72100E-02
 -1       189 4.84596E-01 6.53181E-01 3.50633E-01 9.20115E-02-2.17561E-02-9.08058E-02
 -1       190-1.15716E-01-1.73720E-02-1.25822E-01 3.78976E-02-2.15322E-02-4.59061E-02
 -1       191 2.61947E-01 1.95290E-02-2.15361E-01 5.49709E-02 4.24965E-02 1.83583E-02
 -1       192 6.66348E-01 1.58230E-01-7.12128E-02-1.40856E-01-2.69359E-02 8.57449E-02
 -1       193 4.54786E-02 1.10021E-01-9.52077E-04 8.27719E-03-3.79617E-02-4.32410E-02
 -1       194 1.98542E-01 4.93710E-03 3.44303E-01-1.72677E-02-2.27393E-02 2.61455E-01
 -1       195 2.01180E-01-1.18342E-02 3.05551E-01-1.14174E-02-2.71809E-02 2.53211E-01
 -1       196 3.04348E-01 2.03591E-01 3.57167E-01 1.29678E-02 3.48422E-02 3.51804E-01
 -1       197 2.71768E-01 1.49626E+00 1.02879E-01-3.26522E-01 1.20640E-01-1.55894E-01
 -1       198-8.75002E-02 7.91652E-02-3.98029E-04-9.99352E-03 1.34444E-02-7.28574E-02
 -1       199 4.07421E-01 5.49122E-01 2.61514E-01 4.01528E-02-9.58782E-02-1.05354E-01
 -1       200-1.94106E-01 3.51386E-02-4.51547E-02-1.49715E-02-2.81286E-02-7.87165E-02
 -1       201 3.18346E-01 8.41580E-02-8.03962E-02 1.83526E-01-7.82314E-02-5.86342E-02
 -1       202 2.82818E-01 5.14773E-01 2.79330E-01-8.15766E-02 7.91467E-02-5.32542E-02
 -1       203 2.86277E-01 8.20104E-02-2.12560E-01 1.94773E-01 9.80205E-02-8.30723E-03
 -1       204-3.78747E-02 4.15343E-02-4.33245E-02-1.88841E-02 2.12604E-02 2.59940E-02
 -1       205 7.70460E-01 1.53110E-01-4.29108E-02-6.81837E-02-9.18283E-03 7.71380E-02
 -1       206 3.11213E-01 7.79308E-02-1.57809E-01-1.90266E-01 1.00231E-01-3.50464E-02
 -1       207 1.45713E-01 2.23875E-01 1.13114E-01 2.21755E-02 1.76576E-02-5.52370E-02
 -1       208 3.25289E-01 8.39407E-02-1.50435E-01-1.98152E-01-9.86786E-02 3.81089E-02
 -1       209 1.42877E+00 1.19958E+00 1.08002E+00 4.06526E-02-1.14567E-04-5.04599E-01
 -1       210 1.40428E-01 6.79013E-02 2.93126E-01 5.87364E-02 6.43665E-02 1.99906E-01
 -1       211 1.53363E-01 2.16479E-01 2.73059E-01 4.38044E-02 1.35528E-01 3.01793E-01
 -1       212 5.74401E-01 7.99249E-01 1.02935E-01-5.85575E-01 9.81786E-02-9.78959E-02
 -1       213-6.49098E-02 8.83200E-02 2.77587E-02-8.36070E-02 8.34249E-03-6.96814E-02
 -1       214 6.21673E-01 6.48284E-01 5.38267E-01-2.21530E-02 9.75409E-03-3.12505E-01
 -1       215 1.72771E-01 4.71629E-01 1.80107E-01-6.38125E-02 6.15335E-02-1.88448E-02
 -1       216 2.33742E-01 2.65136E-01 1.87829E-01-4.01307E-02-5.66667E-02 5.28393E-02
 -1       217-2.13948E-01-8.70445E-02-1.25378E-01-4.27108E-02 3.71659E-03 7.45327E-03
 -1       218 3.74782E-01-2.92758E-02-2.10640E-01-5.39770E-02-9.66351E-02 4.85123E-02
 -1       219 1.43405E-01 2.30543E-01-1.72178E-01 2.14846E-01 1.23659E-01-1.16622E-03
 -1       220 9.95288E-02 1.47632E-01 7.61440E-02-3.99615E-02 9.84555E-03-8.84789E-02
 -1       221 1.36144E-01 1.87118E-01-1.59776E-01 1.92672E-01-1.37845E-01-1.43963E-02
 -1       222 8.85935E-02 4.80929E-02 2.86588E-01 6.07279E-02 1.10500E-01 1.59266E-01
 -1       223 2.90188E-01 2.36720E-01 3.44469E-01 2.40534E-02 2.27775E-01 1.50223E-01
 -1       224 7.91677E-02 8.98230E-02 1.07906E-01-1.83246E-02-9.97580E-04-1.14886E-01
 -1       225-6.29449E-04 1.92478E-01-1.32530E-01 7.42690E-02 8.63695E-02-3.75003E-02
 -1       226-1.94658E-02 4.71276E-02 4.38727E-02-4.21502E-02 4.25105E-02-2.83852E-02
 -1       227 3.41773E-01-2.23788E-03-1.49072E-01 9.22664E-02-5.01086E-02 5.75716E-02
 -1       228 2.93015E-01 5.07454E-03-7.46811E-02 7.38850E-02 2.35217E-02-3.67327E-02
 -1       229 1.59328E-01 9.17369E-02 2.33159E-02-7.89696E-03 1.52767E-02-5.03620E-02
 -1       230 6.42817E-01 1.49020E-01 1.29505E-01-1.74689E-01 1.10070E-01-1.76885E-01
 -1       231 6.25891E-01 4.50365E-01 4.84118E-01 7.01567E-02-7.37761E-02-4.90160E-01
 -1       232 6.98054E-02 1.74641E-02 1.20831E-01 6.29913E-02 5.29952E-02 1.11817E-01
 -1       233 1.85108E-02 3.10143E-02-5.55190E-03 6.26233E-02 2.20967E-02 9.25599E-02
 -1       234 2.77794E-01 2.04076E-01 2.41604E-01 1.24242E-01 4.98512E-02-4.74238E-01
 -1       235 1.69507E-01 2.21548E-01 1.59428E-02 1.37255E-01-7.07948E-02-4.64301E-02
 -1       236 9.08900E-01 2.66507E-01 2.35571E-01-1.94042E-01 5.01785E-02-2.14101E-01
 -1       237 1.85884E-01 1.66542E-01-6.02298E-02 1.42407E-01-1.35904E-02-9.38030E-03
 -1       238 1.08228E-01 1.57145E-01-1.75932E-02 1.41412E-01 6.34410E-02 6.82237E-03
 -1       239-2.79807E-02-2.03562E-02 8.71318E-03-6.61273E-02 1.37140E-02-6.04562E-02
 -1       240-1.74063E-02 8.11992E-02-3.38140E-02 2.14267E-02-9.06524E-02 3.18785E-02
 -1       241 3.59408E-02 4.64190E-02 9.59046E-02-2.71002E-02 6.39739E-02-8.51218E-04
 -1       242-1.62447E-02 5.34385E-02-4.66447E-02 1.56770E-02 6.34731E-02-3.18144E-02
 -1       243 2.42464E-01 2.30364E-01-2.36904E-02 1.95704E-01 1.88661E-02 5.17771E-03
 -1       244 2.11062E-01 7.77725E-02-7.75761E-02 1.42535E-01-3.63561E-02 2.24689E-03
 -1       245-2.12346E-01-1.22476E-01-2.54610E-02 1.45794E-01-5.76496E-02-5.34150E-01
 -1       246-5.02836E-01 6.63641E-02-7.60224E-02 2.38333E-01-4.67943E-02-3.53876E-01
 -1       247 4.12165E-01-3.79443E-02-5.61057E-03 2.37816E-01 2.78399E-02-3.37787E-01
 -1       248 3.82128E-01 3.10413E-01 2.85948E-01 2.72171E-01-3.81859E-03-5.23933E-01
 -1       249-1.31073E-02-5.86282E-03-1.01670E-02 4.96472E-02-7.72059E-03 6.53791E-02
 -1       250-1.78622E-01-2.03490E-01-9.10205E-02 7.86758E-02-4.52382E-02-4.74649E-01
 -1       251 5.00472E-02 4.73416E-02 7.55765E-02 3.48523E-02 3.66725E-02-1.68299E-02
 -1       252-1.00165E-02-7.07210E-03-4.77510E-03-1.79932E-02 8.87124E-03-3.13511E-02
 -1       253 2.10418E-03-2.05857E-02 5.22375E-02 3.17121E-02 5.43801E-03 4.39204E-02
 -1       254-5.52347E-02-4.73837E-02-1.82361E-02 5.39890E-02-4.60210E-02 3.95449E-02
 -1       255-4.29232E-03 4.71660E-02 4.38610E-02-6.83413E-03-3.25779E-02-5.48042E-02
 -1       256-6.19298E-03-2.35852E-02 1.14246E-02-1.31976E-02 1.42363E-02-8.28086E-03
 -1       257-4.54728E-02-4.15335E-02 1.92207E-02 5.13861E-02 4.86784E-02-2.30671E-02
 -1       258 4.07464E-02 2.73641E-02 1.44918E-02 1.09003E-01-4.13109E-02-2.06953E-02
 -1       259 7.49364E-02 8.89632E-02-3.63908E-02-4.30206E-02-5.09388E-02-7.23717E-02
 -1       260-8.18311E-02 5.91388E-03-6.65699E-02-6.45204E-03-4.81610E-02-3.60929E-02
 -1       261 1.10543E-01-3.83009E-02-7.57320E-02 8.30796E-02 8.21319E-02-1.44359E-01
 -1       262 3.55786E-02 1.83090E-02-1.62597E-02 3.56966E-02 4.82340E-02 2.42136E-02
 -1       263-1.30627E-01 7.84326E-02 5.44471E-02 1.01974E-01-1.00753E-01-1.59119E-01
 -1       264-7.69662E-01-5.29077E-01-5.56829E-01 9.65337E-02 3.49194E-02-4.29110E-01
 -1       265-8.49670E-02-5.28343E-02-1.60038E-01 6.23277E-02-8.15391E-02 1.01986E-01
 -1       266-4.48571E-01-3.12484E-01-3.09482E-01 2.95597E-02-2.25286E-02-3.51842E-01
 -1       267 8.92869E-03-1.79115E-02-6.84940E-02-3.88449E-02 2.31235E-02-8.13529E-02
 -1       268-2.02648E-01-7.47439E-02 7.95875E-02 1.37813E-01 3.60788E-02 4.12567E-03
 -1       269-5.67182E-02-5.79475E-02-3.18016E-02-3.54864E-02-3.85235E-02-4.01714E-02
 -1       270 2.74209E-02-2.82924E-03 8.52893E-02 3.22581E-02-7.94062E-02-5.09324E-02
 -1       271-2.69577E-01-1.71175E-01-2.55676E-01-1.35876E-02-2.36044E-02-4.47850E-02
 -1       272 2.61163E-02 9.58252E-02 1.18118E-01-7.69329E-03 2.55435E-02-2.80298E-02
 -1       273-5.71680E-01-7.00089E-02 5.43864E-02-1.66222E-01-1.51714E-01-2.14885E-01
 -1       274-1.04156E-01-6.65906E-02-3.29856E-01 6.03807E-02-1.13725E-01 1.84980E-01
 -1       275 9.66856E-02 3.96834E-03-4.59289E-03-3.52981E-02-3.98388E-02-3.82477E-03
 -1       276-6.18556E-02-5.64824E-02 2.72207E-02-4.86243E-02 1.33319E-02-3.61304E-02
 -1       277-1.20618E-02-2.28262E-01 7.41346E-02 8.46063E-02 9.40320E-02 1.18176E-02
 -1       278 4.96577E-02-5.76077E-03 3.47625E-02-5.91859E-02 1.69524E-02-6.25303E-02
 -1       279-3.63610E-01-1.45323E-02 5.26578E-02 9.51639E-02-1.09575E-02-5.39941E-02
 -1       280-3.65707E-01 6.48869E-03 1.49312E-01 8.41554E-02 5.64595E-02 2.63618E-02
 -1       281-3.89494E-01-1.99768E-01-2.42369E-01 7.55613E-03-3.00609E-02-2.06051E-01
 -1       282-3.50782E-01-3.68489E-01-2.28484E-01-1.56312E-01-4.42154E-02-6.93736E-02
 -1       283-1.50408E-01-1.31397E-01-1.73170E-01-4.61039E-02-8.50296E-03-1.83238E-02
 -1       284-1.21353E+00-8.85007E-01-7.84320E-01 6.49177E-02 8.99101E-03-5.29280E-01
 -1       285-1.46856E-01-1.33852E-02-3.01841E-01 6.61127E-02-8.71786E-02 2.11986E-01
 -1       286-1.45260E-01-1.04629E-02-2.89392E-01 6.21760E-02-9.54148E-02 2.06155E-01
 -1       287 1.94372E-01 4.74080E-02 1.17445E-01-6.38363E-03-6.41670E-02 2.79512E-02
 -1       288 2.14833E-02-2.44850E-02 7.58627E-03-2.97447E-02-2.05835E-02-1.07883E-02
 -1       289-3.74393E-01 1.78593E-02 1.65238E-01-6.32045E-02-7.34204E-02-2.59868E-02
 -1       290 9.97067E-02-4.03360E-02 2.17888E-03-7.63635E-02 2.91296E-03-4.91860E-02
 -1       291-4.26769E-01 7.63013E-03 1.07322E-01-6.92344E-02 5.15516E-02 3.64409E-02
 -1       292-1.36215E-01-1.84927E-01 1.09382E-01 1.83035E-01 1.21109E-01-2.77757E-02
 -1       293-1.50269E-01-1.93480E-01 1.99912E-01 2.12478E-01-1.69696E-01 1.61490E-02
 -1       294 3.30125E-01 3.61970E-01 3.07994E-01-2.48507E-01-1.82389E-01 8.66532E-01
 -1       295-1.36810E+00-9.04015E-01-9.08846E-01-1.55726E-02-3.30373E-02 1.05258E+00
 -1       296 7.36580E-02 6.24078E-02 8.71874E-02-1.41718E-02 1.47407E-01 9.54269E-03
 -1       297 2.86383E-01 4.16634E-01 2.81207E-01 3.23099E-02 3.59693E-01 1.34997E-01
 -1       298 5.20899E-02 9.56579E-02 1.27465E-03-1.85989E-02 1.62110E-01 1.16668E-02
 -1       299 2.76863E-01-3.28425E-02 1.04377E-01-3.54236E-02 4.03869E-01 6.41871E-01
 -1       300-8.05957E-01-8.30514E-01-6.54589E-01-1.63695E-01 4.98982E-01 5.00882E-01
 -1       301-7.33990E-02-1.80694E-01-1.29401E-01 2.65866E-02-3.08999E-01 1.53729E-01
 -1       302-1.30558E+00-1.21058E+00-1.00647E+00 2.52524E-01-4.28976E-01 6.40183E-01
 -1       303-1.44313E+00-9.75367E-01-9.67398E-01-6.76278E-02 1.77928E-01 8.85404E-01
 -1       304 4.27069E-01 3.43623E-01 4.15617E-01-2.05376E-02-1.21582E-01 6.60381E-01
 -1       305 1.35142E+00 9.01207E-01 9.01050E-01 3.55923E-02 2.22207E-03 9.92345E-01
 -1       306-1.45219E-01-1.04144E-02-8.44430E-02 6.73871E-02-4.10443E-01 2.85821E-01
 -1       307 1.72220E-01 1.58663E-01 1.40494E-01-7.78574E-02-3.37590E-01 1.68939E-01
 -1       308-9.39431E-02-1.38609E-01-8.33170E-02-4.06128E-02-1.69762E-01 2.52687E-02
 -1       309 1.33471E-01 4.31481E-01 2.30738E-01 4.65709E-02-4.03661E-01 2.54272E-01
 -1       310-1.43742E-01-1.68837E-01-1.69552E-01 1.37389E-02-2.91754E-01 1.48840E-01
 -1       311 1.01904E-01 3.99479E-02 5.55299E-02 1.51643E-02-1.64151E-02 8.81790E-03
 -1       312 1.31518E-01 1.14518E-01 1.18272E-01 1.42370E-02 3.35595E-01 2.52452E-01
 -1       313 1.20736E-01 2.25569E-01 4.42911E-01 2.17825E-02-1.61151E-02 7.24764E-01
 -1       314-4.61830E-01-2.38153E-01-2.69314E-01-2.00906E-02 3.25858E-01 7.42469E-01
 -1       315-1.71281E-01-5.93093E-01-3.40169E-01-1.54241E-01 4.08383E-01 5.97055E-01
 -1       316-5.24794E-02-1.52585E-01-3.45299E-03-1.87748E-02 4.55309E-01 2.69745E-01
 -1       317-3.48379E-01-4.95126E-01-3.37402E-01 4.60216E-02-3.65868E-01 1.52369E-01
 -1       318 6.79013E-02 5.82288E-02 3.80766E-02 2.38472E-02-1.60563E-01 5.63389E-02
 -1       319 1.19493E-01 4.56210E-03 4.67720E-02 1.19682E-02-1.34753E-02 1.17837E-02
 -1       320-4.69592E-03-1.24039E-02-5.28699E-03-2.55119E-03 1.37722E-01 3.53189E-02
 -1       321-5.54297E-02-8.32764E-02-5.54824E-02 1.59828E-02 5.02647E-02 8.27889E-05
 -1       322-3.28583E-02-4.86980E-02-8.94355E-03-6.37264E-02-1.56991E-01 2.65054E-02
 -1       323 8.33718E-01 8.69207E-01 6.81170E-01 1.70360E-01 5.08445E-01 5.10353E-01
 -1       324 2.54093E-01 2.26329E-01 2.13080E-01-8.20756E-02-4.78387E-01 4.80838E-01
 -1       325-4.68251E-01-4.42557E-01-5.01599E-01-5.08537E-02 3.30057E-01 5.65384E-01
 -1       326-2.07893E-02-5.83656E-02-2.26122E-01-4.37602E-02-2.22474E-01 4.37400E-01
 -1       327 1.27862E+00 9.30887E-01 8.83803E-01-1.38479E-01-3.54596E-01 8.60467E-01
 -1       328-4.16007E-01-3.59153E-01-4.52564E-01-2.36207E-02 2.48628E-01 6.49884E-01
 -1       329 1.11868E-01 1.17438E-01 1.53813E-01 4.55472E-03 2.34871E-01 1.16523E-01
 -1       330 1.03821E-01 1.70887E-01 1.09883E-01-9.40279E-03 1.71154E-01 3.36768E-02
 -1       331-7.45278E-02 1.53165E-01 3.69002E-02-5.56737E-02 4.14087E-02-2.69492E-02
 -1       332 2.51789E-01 2.64275E-01 1.17743E-01-1.46969E-01 6.37184E-02-8.45107E-02
 -1       333-5.76807E-02 8.23670E-03-8.70373E-03-5.78877E-02 2.17848E-02-6.26684E-02
 -1       334 3.73181E-01 4.36447E-01 2.81819E-01-1.53490E-01 5.83745E-02-1.25516E-01
 -1       335 6.81642E-01 5.50235E-01 5.15243E-01 3.97018E-02 8.91566E-02-3.29488E-01
 -1       336 1.44295E-01 1.85797E-01 2.36241E-01-3.62212E-02 2.31544E-02-6.60027E-02
 -1       337 2.70506E-01 7.04370E-02 1.48492E-01-4.39073E-02 1.06469E-01-1.26935E-01
 -1       338 3.56215E-01 1.55490E-01 2.68140E-01 1.36453E-02 5.73421E-02-1.71955E-01
 -1       339 5.13159E-01 4.07215E-01 4.47946E-01 2.28873E-02-2.30257E-02-4.70406E-01
 -1       340-1.72861E-02 3.81577E-03 5.67982E-02-2.68063E-02 6.18691E-02-2.13226E-02
 -1       341 2.62803E-01 1.28109E-01 1.81480E-01 4.63954E-02 1.61121E-01 8.46228E-02
 -1       342 2.04898E-02-3.12824E-03 2.32765E-02 6.20722E-03-5.71422E-02-6.02287E-02
 -1       343 5.63616E-02 8.39342E-02 1.03349E-01-1.47416E-02-5.91859E-02 9.75197E-03
 -1       344 1.66761E-02-1.57007E-02-1.43048E-02 4.70072E-02 1.98009E-02-5.69784E-02
 -1       345-7.43937E-02-6.14116E-02-6.23496E-02 7.88878E-02-4.96780E-02-6.31639E-02
 -1       346-2.80622E-02-1.27232E-02-7.59810E-02-5.02993E-02 7.79474E-02-7.43627E-02
 -1       347 2.78408E-03 3.72569E-02 7.54209E-02-3.63466E-02-2.10019E-02-9.86321E-02
 -1       348-1.80050E-01-9.68866E-02-1.41244E-01 8.85823E-02-2.15439E-02-1.82595E-01
 -1       349-3.40467E-02-5.27166E-02-1.05910E-01-3.75241E-02 1.43518E-02-1.02608E-01
 -1       350-2.82875E-01-9.85588E-02-9.47375E-02-3.99868E-02-8.92429E-02-1.44040E-01
 -1       351-6.51696E-04 2.23615E-02 3.14153E-02-6.86551E-02-3.21353E-02-7.85667E-02
 -1       352-7.66154E-01-5.88741E-01-4.08200E-01 3.96019E-02-9.66007E-03-3.82141E-01
 -1       353 5.37257E-02-1.27571E-01-6.57029E-02-4.82928E-02-1.20725E-04-6.67123E-02
 -1       354-8.34527E-01-6.69316E-01-4.44118E-01 2.22337E-02 1.17197E-02-3.60129E-01
 -1       355-4.35596E-01-6.18447E-01-3.27592E-01-9.25098E-02 2.73728E-03-2.07530E-02
 -1       356-3.95550E-01-4.64507E-01-3.19814E-01-1.31689E-01-4.37997E-02-1.07461E-01
 -1       357-2.18262E-01-8.80485E-02-1.94760E-01 3.92159E-03 9.82076E-02 2.75786E-01
 -1       358 1.66206E-02 9.29449E-02-1.10423E-01 5.90464E-02 3.26459E-01 3.26107E-01
 -1       359 3.39249E-01 4.80112E-01 3.27744E-01 4.53122E-02 2.91445E-01 1.19816E-01
 -1       360-1.61157E-01-1.72072E-01-2.40047E-01-1.51806E-02 1.66156E-01 1.43165E-01
 -1       361 2.39730E-02 6.08450E-02 2.45943E-02 2.52090E-02 1.03717E-01 9.63378E-03
 -1       362 3.37576E-02 7.21725E-02 7.11273E-02 4.99954E-02-4.05670E-02-2.30191E-02
 -1       363-2.94285E-02-1.51130E-02-1.49893E-02-1.99274E-02 2.59444E-02 2.95026E-02
 -1       364 8.21630E-02 3.51578E-02 1.38725E-01-4.11036E-02-2.59504E-03-1.97857E-02
 -1       365 1.82179E-02-9.25384E-02-4.81106E-02-9.56591E-04 1.34866E-02-4.02371E-02
 -1       366 6.50201E-02 9.87382E-02 5.39224E-02-2.26498E-02-4.54810E-02-4.22042E-03
 -1       367-8.34261E-02-6.45691E-02 6.72399E-03-5.80539E-03-1.22352E-01 1.38656E-02
 -1       368 2.87973E-02 2.87780E-02 1.28177E-02-2.05571E-02-2.01837E-01 1.39654E-01
 -1       369-2.28783E-01-3.08230E-01-2.20487E-01 1.55293E-02-4.29699E-01 4.41540E-01
 -1       370 9.08113E-02 6.81626E-02-1.54750E-02 3.37481E-02 3.21931E-01 2.08833E-01
 -1       371-1.37797E-01-1.62991E-01-1.46191E-01 3.91688E-02-3.30225E-02-6.13514E-02
 -1       372-1.25160E-02-1.11297E-01-7.35698E-02 4.92254E-02 3.33463E-02-2.58240E-02
 -1       373-3.10071E-01-1.94418E-01-2.35442E-01 9.30608E-03 1.64034E-01 2.22279E-01
 -1       374 3.77572E-02-7.86403E-02-1.95628E-01 3.25117E-02 1.38604E-01 5.73498E-01
 -1       375-2.84814E-01-1.85691E-01-2.64834E-01-3.28180E-02 2.00236E-02 3.05133E-01
 -1       376 8.12512E-02 2.30668E-01 1.41981E-01 1.05839E-01 3.29937E-01 7.08761E-01
 -1       377-2.29224E-02-7.68714E-02-2.04031E-01 2.15323E-02-5.65000E-02 6.73775E-01
 -1       378-2.82614E-01-1.63236E-01-2.38138E-01 1.35750E-02-6.96651E-02 3.04326E-01
 -1       379-1.03592E-01-2.24855E-01-1.43871E-01 8.45222E-02-2.84099E-02-1.45010E-02
 -1       380-2.27353E-01-1.84771E-01-2.78889E-01-3.18004E-02-1.37212E-01 3.08773E-01
 -1       381 5.86795E-02-8.68589E-02-1.09368E-01-3.56823E-02 5.75244E-02-3.36221E-02
 -1       382-7.58834E-02-1.24007E-01 4.84960E-04-1.33570E-02-4.86046E-02-6.08822E-02
 -1       383-1.41565E-01-1.55677E-01-2.00897E-01 2.31123E-02-1.93039E-01 2.60786E-01
 -1       384-1.43491E-01-1.59180E-01-2.20971E-02-8.45456E-02-1.09845E-02-2.04386E-02
 -1       385-1.42314E-01-1.03860E-01-1.43236E-01 1.64764E-02-1.33464E-01 1.47746E-01
 -1       386-2.67851E-01-1.89629E-01-2.06403E-01 4.07305E-02-1.28349E-01 8.46592E-02
 -1       387-6.35623E-02-6.73457E-02-8.40749E-02 1.52438E-02-1.61987E-01 8.17959E-02
 -1       388 1.22678E-02-5.51605E-03-2.47948E-02-5.43337E-02 2.50670E-02-3.38598E-02
 -1       389-1.05732E-01-7.67588E-02-1.35605E-01-1.20511E-02-3.05732E-01 2.14888E-01
 -1       390 6.50261E-03 3.74460E-02-5.30408E-03 3.41960E-03-9.18610E-02-3.49091E-03
 -1       391 4.24186E-02 3.24219E-02 1.04848E-01-4.94709E-02 7.09245E-03-5.20847E-02
 -1       392 3.38432E-03-8.40510E-03-8.62634E-03 2.79070E-02-6.84336E-02-1.78053E-02
 -1       393 2.36874E-01 3.75107E-01 2.44792E-01 6.71568E-03-2.11976E-01 4.24596E-02
 -1       394 3.29616E-02-2.08047E-02-5.89011E-02 4.23850E-03-4.42538E-02-2.49030E-02
 -1       395 2.41965E-01 1.56836E-01 1.40469E-01 1.47623E-01 1.49108E-02-2.18425E-01
 -1       396 3.62404E-02 2.20780E-02-1.59160E-02-4.67591E-03 1.30285E-02-3.72919E-02
 -1       397 1.10521E-02-4.33102E-02-3.00511E-03 3.83125E-02 8.86584E-02-8.73436E-03
 -1       398-1.53307E-01-9.28092E-02-7.88635E-02-7.87181E-02 5.07555E-02-7.42518E-02
 -1       399-6.94608E-02-1.61934E-01-3.94774E-02 5.03796E-02 2.67811E-01 1.42758E-01
 -1       400-3.03227E-01-5.60061E-01-3.30299E-01 7.72772E-02 6.17654E-02-6.30882E-02
 -1       401-3.72888E-02-1.51775E-01-1.41537E-01 6.33682E-02 2.18927E-02-2.79919E-02
 -1       402-6.73499E-01-5.98991E-01-4.82810E-01-7.18014E-02 4.77534E-02-2.80809E-01
 -1       403-9.92791E-02-1.57721E-01-1.51006E-01 1.65656E-02 4.84541E-03-3.09664E-02
 -1       404-9.60238E-02-7.24459E-02-9.54494E-02 1.85019E-02-1.44036E-02-4.65046E-02
 -1       405-2.81478E-01-1.84925E-01-2.08654E-01-6.66194E-04 5.93352E-02-1.95630E-01
 -1       406-6.61174E-01-6.08301E-01-4.41026E-01 1.64418E-02 4.60510E-02-3.65663E-01
 -1       407-2.50250E-01-2.93700E-01-1.39821E-01 1.38937E-01 5.82934E-02-7.01380E-02
 -1       408-1.94211E-01-9.52319E-02-5.51767E-02 4.44047E-02 1.06458E-01-1.58835E-01
 -1       409-5.74415E-01-3.97889E-01-3.34655E-01-7.21829E-02 5.22419E-02-4.59674E-01
 -1       410-1.20195E-01 7.23733E-02 3.24640E-02-6.84472E-02 5.88982E-02-1.82794E-01
 -1       411 6.78339E-02-7.33219E-02-9.95653E-02-5.26330E-02-6.31169E-02-1.62641E-01
 -1       412 3.24002E-01 2.40486E-01 2.58018E-01-8.91853E-02 3.71723E-04-5.01830E-01
 -1       413 1.10043E-01 6.48073E-02 8.22492E-02-4.25714E-02 2.35108E-02-1.70516E-01
 -1       414-3.69548E-02 1.97153E-03 5.63031E-02 6.02731E-02 9.22737E-03-6.90205E-02
 -1       415-1.03601E-03 1.27413E-01 1.16236E-02-7.60636E-02 3.73180E-02-4.72958E-02
 -1       416 2.37898E-01 1.80902E-01 2.59587E-01 5.63738E-03 1.95392E-01 1.87373E-01
 -1       417 1.08829E-01 8.46495E-02 2.23304E-01-2.23075E-02 3.38501E-01 3.93186E-01
 -1       418 1.32908E-01 1.63956E-01 2.47265E-01-2.41826E-02 1.05157E-01 3.05764E-01
 -1       419-5.93804E-02 7.06177E-02 3.55748E-02 5.63070E-02-3.20875E-02-6.60933E-03
 -1       420 7.89149E-02 1.63753E-01 9.04381E-02 3.94492E-02 5.45679E-03-6.96370E-02
 -1       421 3.50080E-01 3.01585E-01 2.31572E-01 1.51712E-01-6.08954E-02-7.15770E-02
 -1       422 3.53592E-01 2.80637E-01 2.29474E-01 4.05783E-02 2.47863E-02 2.48209E-02
 -1       423 3.88840E-01 4.05022E-01 3.18979E-01 1.20296E-01-5.59483E-02-9.82943E-02
 -1       424-4.43200E-02 5.72635E-02-1.35826E-02-5.56665E-04 2.44019E-02-3.91039E-02
 -1       425 1.80619E-01 1.33618E-01 2.62789E-01-1.66768E-03-8.56922E-02 2.83979E-01
 -1       426 2.46201E-01 2.56699E-01 3.04957E-01-3.26330E-02-1.26408E-01 2.26226E-01
 -1       427 7.43219E-01 7.47347E-01 6.08536E-01 1.82677E-02-2.02673E-02-2.47594E-01
 -1       428 3.71697E-02 2.15019E-01 1.14687E-01-4.70063E-02-1.76682E-02 1.92188E-02
 -1       429 3.59977E-01 2.27457E-01 2.25834E-01-6.45897E-02-2.94530E-02 3.65417E-01
 -1       430-1.53822E+00-1.27964E+00-1.11205E+00-9.11805E-02-3.25933E-03-4.98507E-01
 -1       431 4.02847E-01 2.50248E-01 2.67025E-01-2.25056E-01 7.30317E-02-4.20692E-01
 -1       432 1.02833E+00 8.77363E-01 8.50240E-01-2.38545E-01 4.72380E-02-4.79779E-01
 -1       433 9.70211E-01 6.41640E-01 6.45319E-01 5.32238E-02-1.65952E-02-4.23848E-01
 -1       434 1.66008E-01 2.03284E-01 4.52119E-01 5.21957E-02-2.54848E-01 6.13755E-01
 -1       435 1.74181E+00 1.20467E+00 1.17859E+00-1.21624E-01-1.83995E-01 9.30204E-01
 -1       436-3.00825E-01-3.07144E-01-4.22733E-01 2.36878E-02-3.67981E-01 3.76469E-01
 -1       437-3.08183E-01-2.72877E-01-3.46682E-01 2.02649E-02-3.37029E-01 5.51513E-01
 -1       438-5.51874E-01-6.75405E-01-4.90911E-01 1.00645E-01-5.12525E-01 2.70157E-01
 -1       439-7.92821E-01-8.29788E-01-6.49044E-01 1.80757E-01-4.92925E-01 4.76542E-01
 -1       440 5.52317E-01 6.73296E-01 4.90245E-01 1.07705E-01 4.69989E-01 3.16150E-01
 -1       441-1.67581E+00-1.15659E+00-1.13296E+00-1.13476E-01 1.85927E-01 9.46636E-01
 -1       442-1.05155E-01-1.73922E-01-3.67237E-01 3.51882E-02 1.07255E-01 6.93372E-01
 -1       443-1.43785E+00-1.09363E+00-1.01259E+00-1.86034E-01 3.34099E-01 8.17201E-01
 -1       444-1.22254E+00-1.12158E+00-9.37646E-01-2.33039E-01 4.43847E-01 6.67737E-01
 -1       445-4.61740E-01-2.48085E-01-2.75371E-01 2.58948E-02-3.20340E-01 7.90139E-01
 -1       446-1.08157E+00-9.54131E-01-8.14280E-01 1.93923E-01-4.51365E-01 6.74331E-01
 -1       447-4.49255E-01-1.11948E-01-2.32844E-01-3.43344E-01-1.30034E-01 8.26952E-01
 -1       448 1.43604E-01 3.05007E-01 2.67770E-01-9.69491E-02-3.20298E-01 7.37023E-01
 -1       449-2.15204E-01-1.05526E+00-4.00618E-01 1.47898E-01 1.87149E-01-6.02217E-02
 -1       450-2.04890E-01-1.01030E+00-4.05320E-01-1.34705E-01-1.42119E-01-7.04295E-02
 -1       451 4.70628E-01 1.23305E-01 2.60394E-02-1.28057E-01 8.12995E-03-5.36760E-02
 -1       452 3.76986E-01 1.11270E-01 2.37370E-02-1.56311E-01 2.10209E-02-1.04192E-02
 -1       453 1.05670E-01 1.37773E-01 1.94003E-02 1.11158E-01-8.44382E-04 2.42765E-04
 -1       454 1.21533E-01 1.55473E-01 1.50700E-02-8.68332E-02 5.68366E-03 3.75371E-03
 -1       455 2.08083E-01 1.88457E-01 4.89495E-03-1.61593E-01-1.93771E-03-7.99390E-03
 -1       456 2.10416E-01 1.05358E-01 1.37862E-03-1.65519E-01-7.20874E-03 5.22480E-02
 -1       457 5.75253E-01 7.74373E-02-4.04636E-02-2.71113E-02-1.09093E-03-1.30418E-01
 -1       458 5.71890E-01 1.34665E-02-4.51488E-02-4.32192E-02-1.02142E-02-1.33480E-01
 -1       459 4.61332E-01 1.19729E-01-4.58830E-02 1.66294E-01-4.46611E-02-1.20701E-01
 -1       460 4.29570E-01 9.49427E-02-3.42620E-02 1.82663E-01-5.03821E-02-1.00631E-01
 -1       461 1.65196E-01 2.06597E-01 6.34449E-02 1.27916E-01-1.40826E-02-1.14164E-02
 -1       462 4.66973E-01 1.19886E-01-3.64700E-02-1.65038E-01 2.62272E-02-1.07762E-01
 -1       463 4.43744E-01 1.06538E-01-3.01038E-02-1.69714E-01 4.19310E-02-1.02589E-01
 -1       464 1.27617E-01 1.51009E-01 2.24348E-02-8.96648E-02 1.57049E-02-2.57468E-02
 -1       465-1.41688E-01-1.44118E-01-2.55566E-02-8.86116E-02-1.81422E-02-3.06210E-02
 -1       466-8.57586E-02-1.09738E-01 2.71742E-02-1.18976E-01 9.97179E-02 6.58061E-02
 -1       467-9.46562E-02-9.93870E-02 1.05141E-02-1.21590E-01 7.72497E-02 1.02115E-01
 -1       468-8.41289E-02-7.44597E-02 4.87925E-02-1.24587E-01-2.11814E-02-2.21440E-02
 -1       469-1.17656E-01-1.69803E-01 1.12382E-02-1.32763E-01-4.34429E-02-4.17130E-02
 -1       470-1.37301E-01-1.62323E-01-2.46243E-02-8.86587E-02-9.29170E-03 8.94854E-04
 -1       471-2.94995E-01-1.69854E-01 2.46019E-02-1.77119E-01-3.98286E-02-4.97718E-02
 -1       472-3.23950E-01-1.87625E-01 2.99260E-02-2.38104E-01-7.25722E-02-5.00974E-02
 -1       473-4.11000E-01-8.19739E-02 2.04181E-03-1.38601E-01-4.79694E-02-9.41745E-02
 -1       474-4.53709E-01-8.08272E-02 3.70298E-02-1.67246E-01-5.07006E-02-1.18073E-01
 -1       475-6.07905E-01-5.80158E-02-4.85515E-03 1.88927E-02 3.47485E-03-9.64077E-02
 -1       476-5.77956E-01-5.13847E-02 3.88185E-02 9.04289E-03 1.50059E-03-1.23628E-01
 -1       477-5.26522E-01-6.77128E-02-2.20553E-02-2.29827E-02-3.19041E-03 8.43594E-03
 -1       478-5.69804E-01-5.67773E-02-4.59774E-02 5.08642E-02-3.70672E-02 2.86671E-02
 -1       479-3.84368E-01-7.86597E-02 3.86148E-02-7.63275E-03 1.36900E-03 3.26563E-01
 -1       480-3.76714E-01 9.35208E-03 4.54407E-02-1.29430E-02 9.73169E-03 3.32774E-01
 -1       481-1.31931E-01-1.43332E-01 1.83399E-02 1.10230E-01-1.17853E-02 2.77572E-03
 -1       482-1.86551E-01-1.19367E-01 2.97740E-02-1.01927E-01 1.41590E-01 1.76130E-01
 -1       483-1.06286E-01-9.13155E-02 7.62928E-02-1.14482E-01 1.15990E-01 1.36681E-01
 -1       484-3.37816E-01-7.50139E-02 2.04569E-02-8.31521E-02 9.86352E-02 3.27338E-01
 -1       485-3.64480E-01-5.93115E-02 6.82590E-02-1.05605E-01 8.50298E-02 2.46727E-01
 -1       486-4.61601E-01-1.56446E-01 4.57582E-02-1.33999E-01 7.48116E-04 4.18713E-03
 -1       487-3.99077E-01-1.13895E-01 8.36740E-02-1.23278E-01-6.80204E-03-4.72439E-02
 -1       488-3.02263E-01-1.97302E-01-1.34485E-02-1.71422E-01 2.60374E-03 1.95608E-02
 -1       489-2.75979E-01-1.77631E-01-3.73454E-03-1.71356E-01 5.24590E-03 7.53220E-03
 -1       490-3.89037E-02-8.20020E-02 2.65866E-02 8.89581E-02-1.28586E-01 6.45457E-02
 -1       491-5.80097E-02-8.91920E-02-8.01537E-03 9.70465E-02-7.73415E-02 9.24800E-02
 -1       492-1.29174E-01-5.58668E-02 3.24676E-02 9.37214E-02 8.40052E-03-3.99543E-02
 -1       493-8.34037E-02-1.70202E-01-1.81814E-02 1.52815E-01 4.37590E-02-5.04663E-02
 -1       494 1.52521E-03 6.59629E-02 2.76927E-02 6.63771E-02-9.31600E-03-1.41280E-02
 -1       495-4.81650E-02-5.68942E-02 7.35290E-03 6.12817E-02-1.12114E-02-1.94615E-02
 -1       496-8.38411E-04 2.27573E-03 1.28675E-02 7.47789E-02-6.86871E-03 3.51505E-02
 -1       497-1.11859E-03 1.67909E-02 3.81688E-02 5.99662E-02 6.27273E-02 1.76770E-02
 -1       498-4.38222E-01-9.88807E-02 4.49629E-02 1.50248E-01 3.26983E-02-1.20640E-01
 -1       499-5.44750E-01-1.11207E-01-9.53197E-04 1.86429E-01 1.63602E-02-1.31443E-01
 -1       500-3.74914E-01-9.70646E-02-2.13200E-02 1.62345E-01 1.54224E-02-2.93046E-03
 -1       501-4.79296E-01-1.18296E-01-2.84850E-02 1.28477E-01 7.91670E-03-5.42833E-02
 -1       502-3.66261E-01-7.67671E-02 3.50445E-02 6.38923E-02-8.74768E-02 3.27005E-01
 -1       503-4.02991E-01-6.55932E-02 8.23678E-02 8.82567E-02-8.01480E-02 2.38362E-01
 -1       504-2.58910E-01-1.72879E-01 3.61277E-02 2.12050E-01 5.00549E-02-4.65799E-02
 -1       505-3.62507E-01-2.39893E-01-7.84667E-03 2.34579E-01 6.31519E-02-8.50864E-02
 -1       506-2.69143E-01-1.82904E-01-5.87027E-03 1.67225E-01-2.52740E-03-6.43487E-03
 -1       507-3.29778E-01-2.27907E-01-6.32116E-02 2.17318E-01-4.82377E-04-4.83371E-02
 -1       508-2.24778E-01-1.19369E-01 5.24349E-02 1.23261E-01-1.43174E-01 1.81876E-01
 -1       509-1.66463E-01-7.57713E-02 9.57322E-02 1.19761E-01-1.18654E-01 1.38602E-01
 -1       510-1.47642E-01-1.69140E-01 4.83245E-03 1.13993E-01 1.43800E-02-2.36413E-02
 -1       511-7.21882E-03-3.17023E-03-6.14157E-03 5.71470E-02-4.29425E-04 1.24666E-03
 -1       512 1.04549E-01 2.09706E-01 1.74165E-02 1.50308E-01-6.57402E-02-1.86387E-02
 -1       513 1.10378E-01 1.04289E-01-3.32785E-02 1.04288E-01-2.19790E-02-4.03939E-02
 -1       514 6.78063E-02 6.76335E-02-2.87481E-02 8.76518E-02 8.48714E-02 9.06696E-02
 -1       515 9.59032E-02 1.16384E-01 7.19108E-03 1.21625E-01 1.27401E-01 5.25372E-02
 -1       516 1.77608E-02 1.66989E-02-1.94524E-04-4.78380E-02-5.04433E-03-5.98654E-03
 -1       517 5.82537E-03 1.31239E-02 2.28591E-03-8.72349E-02-7.31943E-03 3.36224E-02
 -1       518 9.59004E-04 2.12579E-02 1.53608E-02-7.99936E-02 2.03488E-02-1.86921E-02
 -1       519-1.14811E-02-1.43048E-01-3.80044E-02-7.17397E-02-1.57190E-02-4.95351E-03
 -1       520 4.96919E-03 8.04644E-02 5.98949E-02-6.36939E-02-7.80548E-02 1.62453E-02
 -1       521 1.02136E-01 1.65711E-01 2.70000E-02-7.56592E-02 6.60370E-02-7.50522E-02
 -1       522 8.32116E-02 9.08522E-02-2.75110E-02-6.81352E-02 3.69032E-02-8.34479E-02
 -1       523 8.51340E-02 5.00474E-02-2.03019E-02-1.25794E-01-8.53594E-02 8.83992E-02
 -1       524 1.18412E-01 1.12125E-01 1.28023E-02-1.27197E-01-1.21422E-01 5.55174E-02
 -1       525 1.26251E-02 3.90198E-02 3.99972E-02-5.53166E-02 3.26344E-02-3.48117E-03
 -1       526 9.61721E-03 3.07180E-02 4.23103E-03 5.15206E-02-6.25969E-02-4.01160E-03
 -1       527 2.90625E-01 2.24019E-01-2.17268E-02 2.10395E-01-4.21573E-02-7.74504E-02
 -1       528 2.40987E-01 1.21834E-01-6.17697E-02 1.75581E-01-4.67174E-02-7.39135E-02
 -1       529 3.07512E-01 2.12093E-01 2.16438E-02-2.07972E-01 4.71171E-02-8.05236E-02
 -1       530 2.47162E-01 1.62825E-01-1.95374E-02-1.49150E-01 3.57783E-02-8.46437E-02
 -1       531 2.70567E-01 1.90883E-01 9.37684E-04 1.71067E-01 2.68313E-03-1.31416E-02
 -1       532 2.75903E-01 1.95647E-01-3.52580E-02 1.76066E-01 2.24232E-02 3.33009E-02
 -1       533 4.51776E-01 1.19086E-01 4.02135E-02 1.14850E-01-1.79552E-03-4.42452E-02
 -1       534 3.57187E-01 1.27752E-01 4.04764E-02 1.45775E-01-1.89558E-02-2.94140E-03
 -1       535 3.85150E-01 5.04255E-02-6.55486E-02 5.56457E-03 7.45466E-03 2.99393E-01
 -1       536 4.14293E-01-2.49904E-02-3.53781E-02 2.82666E-02-6.69478E-03 2.74202E-01
 -1       537 3.72280E-01 8.12696E-02-8.13455E-02-9.57407E-02-1.02862E-01 2.42570E-01
 -1       538 3.58749E-01 7.08733E-02-3.26408E-04-9.45389E-02-1.02228E-01 3.17592E-01
 -1       539 2.57379E-01 1.12893E-01-2.20124E-02-1.26336E-01-1.54704E-01 2.06192E-01
 -1       540 2.19305E-01 1.04942E-01 3.72581E-02-1.79616E-01-2.03391E-01 2.11563E-01
 -1       541 5.61436E-01 9.59833E-02 1.05685E-02-5.51152E-04-1.70345E-02 1.54894E-02
 -1       542 5.32542E-01 7.33098E-02-3.32671E-02-7.23620E-04 4.53667E-03 4.73563E-02
 -1       543 2.17546E-01 1.22224E-01-3.59379E-02 1.32133E-01 1.47343E-01 1.81391E-01
 -1       544 1.60029E-01 1.14800E-01-2.25777E-02 1.47882E-01 2.11249E-01 2.18237E-01
 -1       545 3.80132E-01 1.06574E-01-5.14218E-02 1.05720E-01 9.47840E-02 2.74340E-01
 -1       546 3.15157E-01 6.94900E-02 1.87089E-03 1.09435E-01 1.13732E-01 3.03003E-01
 -1       547-3.24749E-01-2.05342E-01-3.68833E-01-1.36047E-02 3.70737E-02 3.88129E-01
 -1       548-4.38273E-01-3.42337E-01-5.97889E-01-2.21489E-02 3.95792E-02 3.93114E-01
 -1       549-9.61352E-02-6.99445E-02-3.28135E-02 1.88585E-02-5.74550E-03 1.08051E-01
 -1       550-3.55443E-01-6.71543E-02 1.00599E-01 1.16479E-02-7.70030E-03 6.37923E-02
 -1       551-3.62426E-01-6.55342E-02 4.91571E-02-1.73395E-02-1.20530E-03-1.23702E-01
 -1       552-3.48696E-02-1.44623E-01-8.65117E-02 4.65793E-03-1.20233E-03-1.12852E-01
 -1       553-3.03476E-01-1.28216E+00-5.61855E-01 2.16710E-01 1.82018E-01-1.17741E-01
 -1       554-2.74890E-01-1.17990E+00-5.37865E-01-1.51086E-01-1.49276E-01-1.37986E-01
 -1       555-1.51935E-01-2.55074E-01-1.59623E-01-3.70874E-02 5.09825E-03-1.44511E-01
 -1       556-2.68220E-01-7.89692E-02 5.34263E-02 2.26729E-02-1.83186E-02-1.30521E-01
 -1       557-4.08625E-01-4.70201E-02 6.87528E-02-1.36663E-02-1.76829E-02 5.05369E-02
 -1       558-1.39183E-01-7.28318E-02 2.76600E-03 2.68302E-02-7.22630E-03 1.32613E-01
 -1       559-1.78465E-01-1.31751E-01 4.34155E-02 8.03197E-02-2.68335E-02-6.07421E-02
 -1       560-1.98360E-01-1.44066E-01 3.36045E-02-9.86997E-02 2.29205E-03-8.08339E-02
 -1       561-2.02912E-01-5.20150E-02 1.28808E-01-8.76277E-02 1.99105E-02-1.75346E-03
 -1       562-1.95658E-01-2.49238E-02 1.85163E-01 3.40664E-02-1.43681E-02 4.79615E-03
 -1       563 2.18122E-01 1.32496E-02 4.24283E-02-2.79169E-02 3.71023E-03-1.85510E-02
 -1       564-5.99421E-02-2.02936E-01-1.86457E-01 4.08531E-02-1.22412E-02-4.18955E-02
 -1       565-3.36402E-01-7.01205E-01-2.18078E-01 3.61196E-01 2.52060E-01-2.24056E-01
 -1       566-2.80608E-01-1.82277E-01-3.08658E-01-2.80965E-02 1.13690E-01 3.31144E-01
 -1       567-4.46627E-01-3.57629E-01-5.93692E-01-3.22384E-02 1.13771E-01 3.53572E-01
 -1       568-1.76834E-01-5.14977E-02 1.64725E-02-2.99775E-02 6.28903E-02 9.86051E-02
 -1       569-3.53899E-01-8.85912E-02 8.27328E-02-6.91263E-02 2.58595E-02 5.09229E-02
 -1       570-2.63099E-01-1.09777E-01 9.41285E-03-6.88599E-02-2.59117E-02-1.06477E-01
 -1       571 1.01286E-01-3.42311E-02-3.40278E-03 3.17803E-02 1.91015E-02-1.25726E-01
 -1       572-3.19198E-01-6.18096E-01-1.74552E-01 3.77805E-01 1.73951E-01-2.41392E-01
 -1       573 5.31359E-03-1.97094E-01-7.09298E-02 3.05404E-02 8.78290E-05-8.97766E-02
 -1       574-2.48978E-01-9.21924E-02 2.76024E-02-4.10726E-02-5.13419E-02-8.30919E-02
 -1       575-2.53556E-01-7.96151E-02 1.28225E-01-8.75769E-02 5.52114E-03 7.17816E-02
 -1       576-1.29606E-01-2.86444E-02 1.73958E-02-2.21758E-02 5.45986E-02 8.95427E-02
 -1       577-1.86594E-01 1.07930E-03 8.83493E-02 2.82996E-02-1.88724E-02-2.13675E-02
 -1       578-1.40679E-01-7.48409E-02-2.86204E-02-5.28140E-02-3.18761E-02-9.51448E-02
 -1       579-1.51486E-01-1.49499E-01 1.15470E-01-8.81264E-02-5.40373E-03 8.80722E-03
 -1       580-1.39024E-01 1.94004E-02 1.24333E-01 5.70219E-03-5.44281E-03-1.85064E-04
 -1       581 9.75435E-02-4.01580E-02 5.74866E-02 3.53647E-02 6.72449E-03-2.48871E-02
 -1       582-1.62321E-02-8.78745E-02-3.12570E-02 3.32711E-02-4.87625E-04-6.54421E-02
 -1       583-3.95369E-01-1.04614E-01-8.25443E-02 1.33226E-01 3.12495E-01-5.19618E-01
 -1       584-1.42533E-01-1.01624E-01-1.82134E-01-5.45344E-02 1.55929E-01 2.09567E-01
 -1       585-3.52667E-01-3.11735E-01-5.21829E-01-2.65951E-02 1.69149E-01 2.82324E-01
 -1       586-1.54239E-01-1.33207E-01-5.05487E-02-4.64477E-02 9.83352E-02 7.26511E-02
 -1       587-2.22234E-01-1.25946E-01 7.56192E-02-1.13339E-01 3.77247E-02 3.74565E-02
 -1       588-1.53844E-01-1.26963E-01 2.03709E-02-8.37069E-02-6.04234E-02-7.17109E-02
 -1       589-1.87541E-02-1.67583E-01-1.16256E-01 3.89476E-02 1.28641E-02-1.11339E-01
 -1       590-6.39739E-01-2.69431E-01-2.43495E-01 2.18395E-01 3.28087E-01-5.91966E-01
 -1       591-2.12254E-01-1.05931E-01 3.06672E-02-1.04462E-01-3.87676E-02-3.80009E-02
 -1       592 1.16027E-01-6.36526E-02 5.32156E-02 2.89934E-02 6.67552E-03-9.09876E-02
 -1       593-1.84093E-01-1.35888E-01 8.57648E-02-8.98334E-02 6.07901E-02 9.07294E-02
 -1       594-2.17008E-02-1.94753E-02-6.73178E-02 3.29377E-02 8.34026E-02 1.88822E-02
 -1       595-2.35052E-01-6.40516E-02 2.27981E-02-2.37514E-02-2.02886E-02 1.85866E-02
 -1       596-6.21221E-02-1.34115E-01 1.19259E-02-2.53296E-02-7.03240E-02-7.58812E-02
 -1       597-5.96398E-02-1.48946E-01 6.52281E-02-2.33676E-02 2.80064E-02 4.63823E-02
 -1       598-1.37804E-01 8.98020E-03 1.50652E-01-5.07878E-02-3.04445E-02-4.26665E-02
 -1       599 1.33983E-01 4.37619E-02 3.64645E-02 6.86588E-02-1.17542E-02-5.00927E-02
 -1       600 9.84890E-03-1.25052E-02-1.95022E-02 3.77969E-02-5.25633E-03-5.35100E-02
 -1       601-2.47169E-01-2.80170E-02-1.26244E-01-5.44172E-02 1.43818E-01-6.27893E-01
 -1       602-2.04706E-01-1.80414E-01-2.68876E-01-4.39329E-02 1.47953E-01 1.75717E-01
 -1       603-1.10968E-01-3.81861E-02-1.47590E-01-3.70642E-02 5.85561E-02 1.90292E-01
 -1       604 8.95936E-03-1.67421E-02 6.18000E-02-6.19764E-03 5.09294E-02-3.40320E-02
 -1       605-1.02610E-01-1.15767E-01 5.21200E-02-1.13489E-01-2.86585E-02-9.22385E-03
 -1       606-6.05331E-02-8.44533E-02-6.05872E-04-4.87075E-02-5.25195E-02-6.76103E-02
 -1       607-4.24121E-02-1.16737E-01-7.20631E-02 5.15218E-02-2.06818E-02-1.25152E-01
 -1       608-2.40339E-01-1.38869E-03-1.89536E-02-2.82019E-02 1.40536E-01-5.86264E-01
 -1       609-8.27741E-02-8.33908E-02 2.48302E-02-5.12534E-02-2.07942E-02-1.76271E-02
 -1       610-3.77156E-02-8.60144E-02-5.57678E-03 8.22653E-02 3.55125E-02-1.06192E-01
 -1       611-9.24153E-02-1.06987E-01 1.25496E-02-8.83904E-02 3.52195E-02 1.85103E-02
 -1       612-6.69288E-02-3.15217E-02-1.95907E-02-1.79455E-02 3.98696E-02-4.76570E-02
 -1       613-5.88862E-02-3.12835E-02 9.53104E-02-3.87866E-02 2.63208E-02-3.03924E-03
 -1       614-6.78347E-02-9.95820E-02-1.08086E-01-1.92200E-02-6.80043E-02-6.45859E-02
 -1       615-3.59154E-02-4.03037E-02-2.45081E-02-2.88117E-03 6.73095E-02 4.09261E-02
 -1       616-7.33779E-02 7.85907E-03 1.39897E-01-8.52769E-02-6.70900E-02-9.76726E-03
 -1       617-3.69872E-02-2.43332E-02-6.90686E-02 3.96776E-02-2.03690E-03-4.10735E-02
 -1       618-3.56887E-02-1.95967E-02 5.42397E-03 1.03972E-02 3.90835E-03-6.36078E-02
 -1       619 2.19135E-01-3.54857E-02-2.31387E-02-9.07811E-02-9.95154E-02-7.54441E-01
 -1       620-7.70729E-02-1.27208E-01-1.31587E-01-4.82497E-02 3.84548E-02 1.14432E-01
 -1       621 4.95899E-02 6.44825E-02 1.03927E-01-5.00575E-02-3.44558E-02 1.56512E-01
 -1       622 2.95042E-02 1.57332E-02-8.96534E-03-3.01488E-02 2.58924E-02-5.54150E-02
 -1       623 1.10453E-02-6.34522E-03 1.14510E-02-5.31644E-02-1.71838E-02-7.65487E-03
 -1       624 1.68585E-02-2.74325E-03-1.09443E-02-2.96216E-02-2.30598E-02-8.41271E-03
 -1       625 1.36884E-03-2.54147E-02-5.66553E-02 5.15565E-02 8.49879E-03-1.07574E-01
 -1       626 1.99808E-01-5.20255E-02 2.02182E-03-6.93424E-02-1.06574E-01-7.32970E-01
 -1       627 1.34696E-02 3.52090E-02 6.10025E-02-2.59146E-02 5.03269E-02-1.81265E-02
 -1       628 3.46251E-02 5.68524E-02 8.81924E-02 6.47682E-02 4.39489E-02-1.20690E-01
 -1       629-4.54876E-03 6.31600E-03-2.35697E-02-4.74744E-02 4.19090E-02-1.59677E-02
 -1       630-8.69986E-02-8.06619E-02-6.56901E-02 3.22449E-03 1.61498E-02-7.67976E-02
 -1       631 9.85884E-03 2.65326E-02 1.00407E-01-1.49776E-02 7.48357E-02-5.87286E-03
 -1       632 8.52697E-03 5.00836E-03-7.10218E-02-3.90142E-02-8.04387E-02 6.18014E-03
 -1       633 4.46583E-03 1.64971E-02-6.58523E-02-2.19901E-02 5.91537E-02 8.96939E-03
 -1       634 6.66030E-02 5.14634E-02 1.21362E-01-3.03380E-02-7.94863E-02 3.10415E-02
 -1       635-6.78181E-02-2.91404E-02-5.32125E-02-4.40025E-03 5.76644E-02-4.63794E-02
 -1       636 2.21418E-02 9.69618E-03 5.31168E-02 3.61425E-02 1.65872E-02-6.58792E-02
 -1       637 3.24245E-01 4.50901E-02 1.10311E-01 8.58952E-02-2.92250E-01-5.47457E-01
 -1       638 8.20453E-02 3.48369E-02 1.13213E-01-4.86675E-02-4.75808E-02 2.09570E-01
 -1       639 1.56059E-01 1.44457E-01 2.13313E-01-4.82696E-02-1.08615E-01 1.61496E-01
 -1       640 2.44515E-03 4.76544E-02-2.13771E-02-3.02481E-02-6.48156E-02-3.92064E-02
 -1       641 9.14920E-02 1.05035E-01-2.65000E-02-1.04233E-01-5.33877E-02 2.43743E-02
 -1       642 6.62508E-02 6.56209E-02-4.40525E-02-5.10434E-02 3.37539E-03-5.01683E-03
 -1       643-5.74759E-02 1.66359E-02-7.39298E-03 6.46225E-02-2.41631E-02-1.30577E-01
 -1       644 5.96254E-01 1.88279E-01 2.92557E-01 1.77666E-01-3.15977E-01-6.17710E-01
 -1       645 3.92302E-02 8.13107E-02 3.94308E-03-4.69615E-02 6.42282E-02-6.48739E-02
 -1       646 2.70468E-02 7.81082E-02 5.90990E-02 6.87399E-02 1.99804E-05-1.55606E-01
 -1       647 1.32354E-01 1.35323E-01-1.89490E-02-1.19074E-01-2.85215E-03 1.21666E-02
 -1       648 5.27968E-02 9.90279E-03-2.29309E-02-3.57724E-02-9.63291E-02-2.03728E-02
 -1       649 4.56101E-02 1.35599E-01 7.45682E-02-1.58059E-02 8.11736E-02-2.96173E-02
 -1       650-5.98614E-02-5.52832E-02-1.79076E-01-5.81118E-03-4.13409E-02 2.13749E-02
 -1       651 1.04371E-01 1.19362E-02-9.85338E-02-1.10903E-01 3.92542E-02-4.76747E-03
 -1       652 5.53568E-02 5.94545E-02 2.01490E-02-2.04251E-02-8.13546E-02 4.85540E-02
 -1       653 1.91777E-02 4.80890E-02 8.22668E-03-6.26660E-03 2.10506E-02-5.97460E-02
 -1       654-5.43009E-03-2.30569E-03-2.95460E-02 3.07948E-02-1.62213E-02-3.32388E-02
 -1       655 4.32231E-01 4.07986E-01 1.87149E-01 2.86096E-01-2.26358E-01-2.83470E-01
 -1       656 2.77159E-01 2.12506E-01 3.85291E-01-6.66800E-02-1.82505E-01 2.85170E-01
 -1       657 2.35934E-01 1.93773E-01 5.35232E-01-1.19828E-01-2.20385E-01 2.97293E-01
 -1       658 2.69834E-01 1.60833E-01 5.88916E-02-8.02392E-02-1.31936E-01 6.89841E-02
 -1       659 1.82732E-01 1.31742E-01-8.09369E-02-1.15818E-01-2.19933E-02 3.00526E-02
 -1       660 1.93709E-01 1.09639E-01-1.92666E-02-1.09353E-01 6.77837E-02-8.80647E-02
 -1       661 4.16118E-02 1.47689E-01 4.44667E-02 5.21785E-02 9.64677E-03-8.93983E-02
 -1       662 5.39717E-01 6.55966E-01 3.93284E-01 3.92245E-01-2.45680E-01-2.90383E-01
 -1       663 1.09167E-01 1.28245E-01-1.80113E-02-8.67387E-02 7.44956E-02-1.05828E-01
 -1       664 1.01609E-01 1.45310E-01 1.82747E-01 3.99734E-02 1.55323E-03-1.47566E-01
 -1       665 2.02936E-01 1.00067E-01-1.00416E-01-1.15996E-01-6.38193E-03-2.61500E-02
 -1       666 2.30157E-01 1.54830E-01 8.39845E-02 1.09266E-02-7.26044E-02 3.43485E-02
 -1       667 7.46144E-02 1.67389E-01 3.09858E-02-1.42268E-02 5.09192E-02-7.48273E-02
 -1       668 2.58696E-01 4.57458E-02-1.09071E-02-3.21672E-02 2.53538E-02-3.21195E-02
 -1       669 1.51833E-01 1.50517E-03-1.81127E-01-6.95549E-02 4.12051E-02-4.51919E-02
 -1       670 1.47170E-01 2.37226E-01 3.74530E-02-3.95539E-02 4.87096E-03 7.35937E-02
 -1       671 1.27715E-01 6.63310E-02-1.51723E-02 2.17137E-02-1.54462E-02-4.35354E-02
 -1       672-7.40718E-02-4.85294E-03 1.85556E-02 3.75734E-02-3.97101E-03 2.77786E-03
 -1       673 1.18179E-01 9.40457E-01 2.75998E-01 1.03411E-01-6.40700E-02-6.88312E-02
 -1       674 4.16312E-01 2.56303E-01 5.33458E-01-5.08710E-02-1.25795E-01 4.18003E-01
 -1       675 3.03269E-01 1.13813E-01 5.08960E-01-8.24732E-02-1.23280E-01 3.37711E-01
 -1       676 2.77091E-02 2.15548E-02 1.11041E-02 1.34107E-03-6.10248E-02 9.11395E-02
 -1       677 2.64612E-01 9.74148E-02-1.21762E-01-1.16145E-01-3.31486E-02 1.11100E-01
 -1       678 2.51295E-01 6.08005E-02-5.44614E-02-5.18707E-02 6.52895E-02-8.00976E-02
 -1       679-1.58879E-02 1.48851E-01 5.38339E-02 2.25277E-02-1.17880E-02-1.01993E-01
 -1       680 4.79438E-01 1.37642E+00 5.98368E-01 1.74846E-01-9.38640E-02-1.13874E-01
 -1       681-1.50940E-01 1.97072E-02-2.86596E-03 3.73830E-02-5.69927E-02-8.56839E-02
 -1       682 2.21519E-01 7.62778E-02-6.43574E-02-7.91246E-02 2.05251E-02-9.36413E-02
 -1       683 3.58426E-01 9.71622E-02-8.91151E-02-8.68858E-02-4.06517E-02 8.85340E-02
 -1       684 1.80492E-01 9.06433E-02 1.66740E-02 1.23914E-02-5.21295E-02 6.01137E-02
 -1       685 1.15052E-01 1.05300E-01-3.07913E-02-7.71389E-02-9.97999E-04-7.09529E-02
 -1       686 2.22678E-01 5.67337E-02-3.09487E-02 2.94496E-02 3.44914E-02-3.02793E-04
 -1       687 1.13027E-01 3.59634E-02-1.61786E-01-1.00850E-02-1.61339E-02-5.27729E-02
 -1       688 1.33501E-01 1.76378E-01-1.04725E-01-9.25215E-02-3.31703E-02 6.04307E-02
 -1       689-9.52696E-04 5.53989E-02 2.03158E-02 4.57146E-02-6.29833E-03-8.82830E-02
 -1       690-5.09182E-02 4.90417E-02-2.55707E-03 3.76051E-02 2.29849E-02-5.54141E-02
 -1       691 2.46740E-01 9.15976E-01 3.98188E-01-1.90366E-01 2.24991E-01-8.49707E-02
 -1       692 5.02670E-01 2.97900E-01 5.88319E-01 4.64869E-03-9.06685E-03 4.97687E-01
 -1       693 3.20809E-01 8.53078E-02 4.70420E-01-2.04112E-03-2.99595E-02 3.83355E-01
 -1       694 3.37017E-02 4.36540E-02 4.48150E-02-1.76987E-02 6.87729E-03 9.43680E-02
 -1       695 4.49714E-01 7.07392E-02-7.31109E-02-1.09990E-02 9.54806E-03 7.49324E-02
 -1       696 4.29126E-01 7.73502E-02-4.61468E-02 1.42634E-02 5.31696E-03-1.33691E-01
 -1       697 7.02370E-02 2.15278E-01 1.01900E-01-6.25911E-03-3.51930E-03-1.41539E-01
 -1       698 3.97825E-01 1.32059E+00 5.96613E-01-2.52959E-01 1.79555E-01-1.41518E-01
 -1       699-3.06710E-02 7.31648E-02 5.19956E-02 5.34833E-03-2.64895E-02-1.27534E-01
 -1       700 3.20497E-01 1.05035E-01-3.61951E-02-2.35604E-02-2.32616E-02-1.18207E-01
 -1       701 3.04208E-01 7.22017E-02-1.27099E-01 3.49871E-02-1.68357E-02 3.30053E-02
 -1       702 1.87800E-01 2.24179E-01 2.12821E-01 3.39630E-03 3.22108E-02 7.11797E-02
 -1       703 2.33335E-01 9.54794E-02-7.46299E-02-1.12744E-01 9.74605E-04-6.50077E-02
 -1       704 2.16828E-01 1.35804E-01-3.06836E-02 9.61639E-02 1.21843E-02-7.23253E-02
 -1       705 2.21804E-01 6.27480E-02-1.80378E-01 1.23725E-01 1.44212E-02-1.66900E-02
 -1       706 2.29283E-01 9.55711E-02-8.08358E-02-8.88462E-02 7.33522E-03 1.62493E-02
 -1       707-5.07087E-02 1.02406E-01 1.34792E-02 2.41601E-02-2.47543E-02-3.37269E-02
 -1       708 6.63163E-02 1.19969E-01 5.66025E-02-4.26490E-02-1.39282E-02-4.31876E-02
 -1       709 4.85458E-01 7.01554E-01 4.39224E-01-3.71133E-01 3.08587E-01-2.79059E-01
 -1       710 4.22942E-01 3.90405E-01 6.40773E-01 3.39308E-02 1.27738E-01 3.87719E-01
 -1       711 2.76220E-01 1.92635E-01 3.15379E-01 3.87155E-02 1.41603E-01 3.41944E-01
 -1       712 2.26551E-02 3.65576E-02-3.00171E-02 8.22493E-03 7.27729E-02 5.04420E-02
 -1       713 2.86243E-01 7.51081E-02-1.32378E-01 5.68176E-02 3.35877E-02 2.19946E-02
 -1       714 1.89639E-01 7.50171E-02-5.31513E-02 6.91228E-02-1.33580E-02-8.49347E-02
 -1       715 2.53373E-02 1.27246E-01 4.57260E-02-1.84885E-02 1.75429E-02-1.28537E-01
 -1       716 6.98301E-01 1.01878E+00 6.65050E-01-4.85123E-01 3.22085E-01-3.25361E-01
 -1       717 3.87208E-03 2.12937E-01 4.28586E-02-2.34481E-02 4.19629E-03-8.34752E-02
 -1       718 2.38455E-01 1.07142E-01-3.98415E-02 4.98928E-02-5.45862E-02-6.89036E-02
 -1       719 4.19189E-01 1.38559E-01-8.17721E-02 1.34214E-01 1.91577E-02 1.32884E-01
 -1       720 1.42227E-01 1.09757E-01 5.13470E-02 4.31667E-02 8.05897E-02 1.09157E-01
 -1       721 1.68010E-01-5.32068E-03-9.36043E-02-1.01444E-02-1.40548E-02-5.01649E-04
 -1       722 1.05384E-01 1.19387E-01-1.44684E-02 6.63027E-02-5.03156E-03-6.86071E-02
 -1       723 1.92984E-01 1.84898E-01-7.00405E-02 1.53830E-01 1.97987E-02 6.56422E-02
 -1       724 2.73065E-01 3.76097E-03-1.69491E-01-2.63960E-02-2.04224E-02-1.96821E-04
 -1       725 4.52345E-02 1.39785E-01 1.33199E-02-1.39434E-02-2.88329E-02-4.09340E-02
 -1       726 1.18125E-01 1.11041E-01 2.20202E-02-2.54138E-02-4.20641E-03-6.44854E-02
 -1       727 3.95056E-01 1.66970E-01 2.14591E-01-1.55224E-01 2.37233E-01-4.51396E-01
 -1       728 2.82021E-01 2.21418E-01 3.91172E-01 7.51029E-02 1.80530E-01 2.89241E-01
 -1       729 1.52395E-01 1.25462E-01 2.55564E-01 8.19149E-02 1.69713E-01 2.55513E-01
 -1       730 1.79096E-01 1.01334E-01-8.51323E-02 1.04399E-01 3.69870E-02 2.32628E-02
 -1       731 1.77861E-01 1.59271E-01 5.08933E-02 4.02401E-02 1.02940E-01 4.96090E-02
 -1       732 3.29150E-01 1.03333E-01 1.22705E-01-1.95728E-01 2.14863E-01-4.39950E-01
 -1       733 1.45826E-01 1.37673E-01-2.69522E-02 9.39972E-02-5.38832E-02-7.80960E-02
 -1       734-1.23058E-02 7.59923E-02 4.76848E-02-3.36276E-02 9.16974E-03-1.35689E-01
 -1       735-3.69909E-02 9.34832E-02 1.79006E-02-6.75728E-02 2.11979E-02-1.07248E-01
 -1       736 2.05095E-01 1.35779E-01-5.30594E-03 9.52568E-02-3.27733E-02-2.86078E-02
 -1       737 1.62209E-01 1.38668E-01-4.67776E-02 1.29673E-01 4.45930E-02 5.20291E-02
 -1       738 1.06383E-01 1.09517E-01 3.10195E-02 3.06078E-02 1.23990E-01 5.86798E-02
 -1       739 1.99235E-01 2.23479E-02-4.41681E-02 4.69012E-02-1.34080E-02-9.78136E-03
 -1       740 8.31387E-02 1.63246E-01-3.32156E-03 3.66623E-02-5.64554E-02-7.41588E-02
 -1       741 4.75118E-02 1.40574E-01-1.83810E-02 3.93961E-02 2.35420E-02 3.58861E-02
 -1       742 2.31716E-01 1.38095E-02-1.16430E-01 6.05546E-02-2.06650E-02-2.11040E-03
 -1       743 2.63434E-02 4.48010E-02 1.14736E-02-2.39605E-02-5.99963E-03-5.65780E-02
 -1       744-6.87715E-02-8.35386E-02-6.15158E-02-6.03760E-02 2.62873E-03-7.08473E-02
 -1       745 1.92371E-01-5.61481E-02-1.27976E-03 9.82029E-02 1.59920E-01-6.85099E-01
 -1       746 2.21276E-01 1.68420E-01 2.51841E-01 6.67504E-02 1.37414E-01 1.84987E-01
 -1       747 1.53731E-01 5.95898E-02 1.42868E-01 5.83854E-02 5.65410E-02 2.04027E-01
 -1       748 8.10220E-02 7.99974E-02-8.77317E-02 8.40665E-02-2.27467E-02-2.53327E-02
 -1       749 3.81093E-03-1.94110E-02-4.22408E-02-1.83021E-02 3.97130E-02 4.80666E-03
 -1       750 1.34108E-01-1.03647E-01-1.64416E-01 6.59495E-02 1.78512E-01-6.38709E-01
 -1       751 2.24638E-02 8.07227E-02 2.27889E-03 3.71384E-02-7.30998E-02-6.26230E-02
 -1       752 5.80928E-03 8.15381E-02 8.04017E-02-5.76783E-02-7.91374E-03-1.25437E-01
 -1       753 1.12701E-02 3.15284E-02-1.55760E-02-5.62360E-02 2.04951E-02-1.20944E-01
 -1       754 7.29388E-02 8.57853E-02-1.81052E-02 5.43760E-02-2.62541E-02-2.04008E-02
 -1       755 9.71571E-02 1.05766E-01-1.23767E-02 8.19703E-02 5.00977E-02 2.28462E-02
 -1       756 3.88108E-02 5.70870E-02 5.63779E-02 2.53878E-02 8.60540E-02-1.91173E-02
 -1       757 3.19886E-02 2.24851E-02-4.05604E-02 2.62983E-03 2.89550E-02 2.76584E-02
 -1       758 3.10027E-02 8.73944E-02 5.42044E-02 2.34064E-02-7.75950E-02-4.36211E-02
 -1       759 9.51270E-03 6.39410E-02 5.08382E-03 1.66564E-02 7.30748E-02 2.40961E-02
 -1       760 9.48207E-02 5.09097E-02-1.18003E-01 9.49817E-02-6.23858E-02-1.66146E-02
 -1       761 5.81560E-02 1.62638E-02 2.26287E-02-2.75711E-02 1.05498E-02-3.22642E-02
 -1       762 4.58729E-02 3.04178E-02 1.40609E-02-4.00316E-03-2.08771E-02-4.70464E-02
 -1       763-2.83047E-01 4.85945E-02-6.32512E-02 6.66196E-02-1.21610E-01-6.98237E-01
 -1       764 4.26285E-02 5.36370E-02 5.41086E-02 6.00028E-02 2.01410E-02 9.82470E-02
 -1       765-7.48370E-02-7.54315E-02-1.43192E-01 7.10988E-02-2.83304E-02 1.65028E-01
 -1       766 1.77503E-02 5.77655E-03 9.34269E-03 5.19351E-02-1.93288E-03-1.20703E-02
 -1       767-1.70777E-02 1.09668E-02-3.96339E-02 4.21157E-03 6.74097E-03-4.29115E-02
 -1       768-3.28274E-01-4.10605E-02-1.63039E-01 4.87273E-02-7.09656E-02-6.47601E-01
 -1       769 1.78477E-02 1.10306E-02 1.65801E-02 3.40698E-02-6.21316E-03-1.46320E-02
 -1       770 1.17906E-02 9.01164E-03 1.80263E-02-7.44491E-02-1.09570E-02-1.19975E-01
 -1       771-9.54859E-02-1.16241E-01-1.17136E-01-3.81408E-02 1.53336E-02-1.08054E-01
 -1       772 1.00220E-02-2.87828E-02-3.41579E-02 2.54818E-02 8.01505E-02-9.47597E-03
 -1       773-2.95826E-03-3.45884E-02 1.71140E-02 4.53108E-02 5.61424E-02-1.03911E-02
 -1       774 1.21875E-02 4.85896E-02-1.98777E-02 2.66810E-03 2.43991E-02-5.50660E-02
 -1       775 3.73985E-03-9.67642E-03-5.75539E-02 8.57582E-03 7.01508E-02 1.94778E-02
 -1       776-2.13062E-02 4.78486E-04 3.45530E-02 3.69590E-02-7.38173E-02 1.31883E-02
 -1       777 1.97546E-02-7.54721E-03 7.03737E-02 3.01821E-02 6.87285E-02 1.01512E-02
 -1       778 1.74230E-03 2.81103E-02-3.15978E-02 6.74387E-03-3.96425E-02 2.34756E-03
 -1       779-1.81440E-02-2.36124E-02 5.06016E-02-3.77928E-02-1.11857E-02-2.75784E-02
 -1       780 1.35236E-02 2.33079E-02-1.88304E-02-3.55283E-02-2.61112E-02-4.13298E-02
 -1       781-4.44485E-01-2.07546E-01-2.23318E-01-2.44385E-01-3.10999E-01-4.57123E-01
 -1       782-1.50712E-01-7.12369E-02-1.32244E-01 5.62747E-02-5.37194E-02 1.95340E-01
 -1       783-1.72468E-01-1.47687E-01-2.05636E-01 6.03845E-02-1.05104E-01 1.51481E-01
 -1       784-6.23102E-02-7.66253E-02 3.22397E-02 6.40916E-02-3.60505E-02 1.96173E-02
 -1       785-6.97166E-02-2.85810E-02-2.97450E-02-1.48932E-03-9.59338E-02-4.07781E-02
 -1       786-3.90794E-01-1.70761E-01-2.14850E-01-2.57166E-01-2.60404E-01-4.39083E-01
 -1       787-5.17093E-02-4.00880E-02 5.45548E-02 3.74757E-02 1.07687E-02-1.96692E-02
 -1       788-2.44292E-02-6.88480E-02-2.99915E-02-5.23227E-02-3.63615E-02-1.13698E-01
 -1       789-1.27368E-02-8.01432E-02-3.51574E-02-5.05840E-02-6.94769E-03-1.28272E-01
 -1       790-5.87902E-02-1.00814E-01-3.84397E-03 5.91991E-02 6.42565E-02-4.93181E-02
 -1       791-9.67640E-02-1.18758E-01 5.64306E-02 9.84545E-02-5.37549E-03 1.62460E-02
 -1       792 5.96558E-03-4.79525E-02-1.56025E-03 1.79061E-02-6.92829E-02-3.14903E-03
 -1       793-2.89856E-02-8.23888E-02-5.16617E-02 1.47396E-02 6.56545E-02-4.40704E-02
 -1       794 1.34888E-02 3.50978E-02 1.21824E-01 1.49241E-02-2.79951E-02 1.50261E-02
 -1       795-1.21362E-01-3.16821E-02 1.10879E-01 9.23933E-02 5.71137E-02-1.04979E-02
 -1       796-7.30353E-02-5.75295E-02-6.23228E-03 1.75737E-02-5.79897E-02 2.87479E-02
 -1       797-2.48787E-03 2.55677E-03 1.80659E-02-1.30138E-02 2.44569E-02-7.33594E-02
 -1       798-2.07011E-02 1.57695E-02-3.96769E-03-3.62205E-02-2.04157E-02-4.05267E-02
 -1       799-3.30401E-01-3.88576E-01-2.18657E-01-2.90592E-01-2.34864E-01-2.56902E-01
 -1       800-2.81706E-01-1.91059E-01-3.45765E-01 7.38225E-02-1.59548E-01 2.78879E-01
 -1       801-3.96738E-01-2.67513E-01-4.58233E-01 5.17281E-02-1.57869E-01 3.29778E-01
 -1       802-2.01175E-01-1.32163E-01 6.83376E-02 1.25691E-01-5.29033E-02 4.75336E-02
 -1       803-3.62792E-02-3.47731E-02-3.33853E-04 1.83340E-02-8.09398E-02 1.00110E-02
 -1       804-3.25324E-01-4.37188E-01-2.50172E-01-3.03573E-01-1.99821E-01-2.61584E-01
 -1       805-1.91039E-01-1.13104E-01 3.72212E-02 1.03365E-01 5.96071E-02-6.59368E-02
 -1       806 9.38373E-02-8.11205E-02 2.82367E-03-6.66689E-02 4.98284E-03-9.91952E-02
 -1       807-1.55285E-02-1.05970E-01-1.18995E-01-2.80864E-02 1.27423E-02-1.30294E-01
 -1       808-1.57202E-01-1.46825E-01-5.99917E-03 8.57742E-02 7.75627E-02-1.24848E-01
 -1       809-2.12636E-01-1.00520E-01 9.23596E-02 1.00351E-01-1.15683E-02-1.16712E-02
 -1       810-4.41958E-02-5.72215E-02 2.24372E-02 2.55634E-02-6.37978E-02 1.11326E-02
 -1       811-4.76056E-02-1.91430E-01 7.05016E-03 5.66674E-02 8.47156E-02-5.77812E-02
 -1       812-2.37085E-01-5.57500E-02 4.08041E-02 2.65662E-02 2.83015E-02-1.55084E-02
 -1       813-1.94712E-01-1.00175E-02 1.67271E-01 4.34159E-02 4.25609E-02-3.36937E-02
 -1       814-9.16851E-02-7.57771E-02-6.67489E-03 8.98304E-03-3.95451E-02 9.66095E-02
 -1       815 1.86569E-02-1.91445E-03 1.96348E-02-5.51820E-02-1.96672E-02-6.71970E-02
 -1       816 1.61858E-01 7.30907E-02 5.70528E-02-3.41016E-02-1.26830E-03-2.54070E-02
 -1       817-2.81410E-01-1.01671E-01-4.71394E-01 6.46603E-02-1.23102E-01 3.24207E-01
 -1       818-4.17461E-01-2.54149E-01-5.11894E-01 3.69539E-02-1.30153E-01 4.08401E-01
 -1       819-1.61571E-01-9.25978E-02-3.78716E-02-2.44782E-03-5.73029E-02 1.10800E-01
 -1       820-2.63000E-01-9.10323E-02 1.09111E-01 1.09922E-01-3.93952E-02 1.17022E-01
 -1       821-2.64692E-01-5.40948E-02 6.12398E-02 6.05477E-02 5.68015E-02-7.33703E-02
 -1       822 1.41209E-02-1.09734E-01-4.97510E-02-1.60510E-02 1.11884E-02-8.91191E-02
 -1       823 1.17177E-02-1.63277E-01-9.31021E-02-5.62007E-02-3.87057E-02-1.03302E-01
 -1       824-2.34042E-01-7.28482E-02 6.19906E-02 8.59450E-02 2.30513E-02-9.18937E-02
 -1       825-3.53755E-01-8.67017E-02 7.21558E-02 8.60116E-02-4.33934E-02 9.24156E-02
 -1       826-5.67992E-02 8.89665E-03 5.19330E-02-2.36021E-02-5.36164E-02 9.96888E-02
 -1       827-1.19030E-01-1.20855E-01 2.72037E-02 7.93735E-02 1.32903E-02-7.32104E-02
 -1       828-2.27398E-01-5.04220E-02 3.86904E-02-3.19401E-02 4.04499E-02 2.68419E-02
 -1       829-2.43508E-01-4.90010E-02 8.56203E-02-4.04226E-02-2.14198E-02-1.06033E-02
 -1       830-1.28431E-01-1.64496E-01 9.40828E-02 8.85094E-02-4.65993E-02 7.30975E-02
 -1       831-8.43952E-03-6.35901E-02 3.00696E-02-4.61693E-02 5.22274E-03-8.03419E-02
 -1       832 3.17971E-02-4.21843E-02 1.22672E-02-3.95930E-02-9.24462E-03-2.54342E-02
 -1       833 7.44327E-01 8.74466E-01 6.47517E-01 1.52107E-01 5.32841E-01 4.37281E-01
 -1       834-1.74841E-02-3.91054E-02 1.10431E-01-4.23834E-02 3.25122E-01 3.27999E-01
 -1       835 4.15312E-01 1.80619E-01 2.43498E-01 1.61638E-01-8.68181E-02 8.97001E-01
 -1       836-1.20404E-01-2.37519E-01-1.34054E-01 2.95689E-01-7.68711E-02 8.19764E-01
 -1       837-2.33290E-01-3.13071E-01-2.18545E-01-3.86422E-02 2.48846E-01 7.54876E-02
 -1       838-4.07379E-02-8.11066E-03-8.15855E-02-1.29891E-03 1.80070E-01 5.48661E-02
 -1       839 6.56052E-01-1.76453E-02 2.70546E-01 5.03973E-02 4.71901E-01 5.56530E-01
 -1       840 1.27159E-01-6.88444E-01-2.99852E-01-5.91659E-02 3.79990E-01 4.40189E-01
 -1       841-2.33213E-01-3.96186E-01-2.46445E-01-1.05820E-01-2.44126E-01 7.50643E-02
 -1       842-2.04932E-01-3.70956E-01-2.22195E-01-1.66215E-01-2.26888E-01 7.06273E-02
 -1       843 1.23266E+00 1.04140E+00 9.09625E-01-2.09599E-01-4.35769E-01 8.15235E-01
 -1       844-8.23788E-02-5.20980E-02 7.07146E-02 4.88396E-02-2.77967E-01 6.30903E-01
 -1       845 1.11365E-01 3.81167E-01 1.67972E-01 1.64230E-01 2.71559E-01 6.32354E-01
 -1       846-7.52356E-01-4.79755E-02-2.97215E-01 8.59336E-02 3.28347E-01 6.70986E-01
 -1       847 5.38310E-01 3.49676E-01 3.71847E-01 6.47380E-03 2.69847E-01 8.92550E-01
 -1       848-6.14976E-01-4.76784E-01-3.94847E-01-1.19377E-01 2.43275E-01 7.88799E-01
 -1       849 1.15708E+00 9.36800E-01 8.37552E-01 1.78236E-01 4.09611E-01 7.66299E-01
 -1       850-2.15819E-01-1.17252E-01 5.36074E-02-7.58521E-02 2.36001E-01 4.20336E-01
 -1       851 1.87728E-01 3.21487E-01 1.81320E-01-1.06464E-02 4.00152E-01 2.08308E-01
 -1       852 3.47239E-03 1.37496E-01 1.69464E-02-6.65994E-02 3.63478E-01 1.88475E-01
 -1       853-8.91844E-02-6.77567E-02-4.42225E-02 1.68535E-02 9.75965E-02 6.55650E-03
 -1       854-1.63351E-01-1.53303E-01-9.62409E-02 3.53801E-02 9.72685E-02 6.30439E-03
 -1       855 1.50817E-01 1.53270E-01 1.06074E-01-2.12426E-01-1.02990E-01 9.27632E-01
 -1       856-7.08568E-01-3.87687E-01-4.57142E-01-3.13366E-01-1.05030E-01 8.93845E-01
 -1       857 1.92277E-01 1.64886E-02-1.67348E-02-4.93673E-02-3.82246E-01 4.57371E-01
 -1       858-3.46633E-01-6.68234E-01-3.94661E-01 1.09880E-01-4.16472E-01 5.13037E-01
 -1       859-1.23495E-02 3.66919E-02 5.43173E-02 6.01103E-02-3.37360E-01 1.66520E-01
 -1       860 1.97078E-01 4.32539E-01 2.20846E-01 4.22531E-02-3.58453E-01 1.81138E-01
 -1       861-1.69472E-01-1.52304E-01-1.10133E-01-4.62755E-02-9.68617E-02 5.39662E-03
 -1       862-1.87476E-01-1.19967E-01-9.14279E-02-4.88683E-02-8.22899E-02 4.20067E-03
 -1       863 3.05454E-01 2.68426E-01 2.43166E-01-5.82299E-02-3.97176E-01 3.57007E-01
 -1       864 8.33566E-01 8.86382E-01 6.87979E-01-1.70112E-01-5.07869E-01 4.16788E-01
 -1       865 1.55778E+00 1.04072E+00 1.03940E+00 3.22347E-02 1.01339E-01 1.02899E+00
 -1       866-7.08669E-02 4.60863E-02 1.94723E-01-1.84136E-02 8.13849E-02 6.63276E-01
 -1       867 1.29768E-01 2.08547E-01 1.35326E-01 2.65989E-02-8.81467E-02-1.44237E-02
 -1       868 8.79904E-03-5.70883E-03 2.21354E-02 3.73235E-03-5.40970E-02-5.28592E-03
 -1       869 4.01698E-01 6.01563E-01 4.01304E-01-3.10238E-02-3.06141E-01 9.28682E-02
 -1       870 4.36235E-02 4.90551E-02 5.52928E-02-3.24650E-03-1.63104E-01 9.65538E-02
 -1       871 1.31460E-02-3.51822E-02-3.12763E-02-5.54993E-02-3.26564E-01 2.06486E-01
 -1       872-6.06219E-01-7.68740E-01-5.49984E-01 1.11069E-01-4.38302E-01 2.34286E-01
 -1       873-4.31080E-02-4.34435E-02-8.26254E-03 1.45791E-02 1.08682E-01 6.86316E-03
 -1       874-2.78159E-02-2.11267E-03 2.03823E-02 1.77202E-02 9.91566E-02 1.89519E-03
 -1       875-1.93073E-01-2.59000E-02-1.24962E-01-6.10025E-02 4.41364E-01 3.59373E-01
 -1       876 2.75016E-01 5.55496E-01 3.72086E-01 9.86914E-03 3.89185E-01 3.04927E-01
 -1       877 1.54273E-01 6.64215E-02-2.04109E-02 9.85344E-02 3.23278E-02 8.11542E-01
 -1       878-7.59777E-01-4.41959E-01-4.55615E-01 1.11265E-01 7.52473E-02 8.84194E-01
 -1       879-3.40430E-01-2.66291E-01-1.97556E-01 6.96890E-02-2.26362E-01 7.75555E-01
 -1       880-2.39916E-01 3.11283E-01 3.46591E-02-2.02585E-01-3.95615E-01 7.54162E-01
 -1       881-2.21819E-01-8.85892E-02-4.36623E-02 5.15852E-02-3.97005E-01 4.31553E-01
 -1       882-3.73974E-02-3.25418E-01-1.36402E-01-4.59004E-02-4.62210E-01 3.88884E-01
 -1       883 5.66978E-02 2.42441E-02 9.31640E-02 1.33318E-02 1.99181E-01 5.07104E-02
 -1       884-1.29171E-01-2.31551E-01-1.18038E-01-1.82015E-02 3.74294E-01 2.38246E-01
 -1       885 3.04377E-02 5.55364E-01 2.77703E-01 2.25784E-02 3.74543E-01 5.06988E-01
 -1       886 7.87578E-02 3.13649E-01 9.67798E-02 1.87595E-01 2.20019E-01 7.55095E-01
 -1       887 1.86380E-01 2.94923E-02-5.52793E-02 7.16020E-03-2.82949E-01 7.88069E-01
 -1       888 3.44709E-01 5.01411E-01 3.38448E-01 3.79354E-02 2.83338E-01 7.25656E-02
 -1       889 3.07870E-02-5.10102E-02 1.60381E-02 5.57325E-02-2.36226E-01 8.59925E-01
 -1       890 2.24705E-01 9.42876E-01 4.76296E-01-3.95102E-01-3.67883E-01 7.09261E-01
 -1       891 2.12639E-01 4.30011E-01 1.58671E-01-1.06669E-01-4.47088E-01 4.91460E-01
 -1       892 3.33339E-01-5.24045E-02 1.24326E-01-1.48709E-01-4.35766E-01 3.69661E-01
 -1       893-4.52843E-01-6.74697E-01-4.51016E-01-6.14911E-02 4.76627E-01 2.54772E-01
 -1       894-4.21798E-01-3.67030E-01-2.23085E-01 1.48063E-01-2.74721E-01 8.28196E-01
 -1       895-7.12887E-01 2.35710E-01-1.84110E-01-1.08105E-01 3.94227E-01 5.26734E-01
 -1       896-1.04015E+00-1.11266E-01-4.48560E-01 2.26722E-01 2.60206E-01 8.68073E-01
 -1       897 3.39282E-02 8.14788E-02-3.99997E-02 7.09486E-02 3.64798E-02 8.91713E-03
 -1       898 2.67907E-01 1.79017E-01-1.00514E-01-1.81960E-01 9.86541E-03-2.73911E-02
 -1       899 6.69308E-01 1.55341E-01 8.26746E-02-2.31793E-02-3.44993E-03-1.49182E-01
 -1       900 5.12626E-01 1.68098E-01-5.45751E-02-3.66633E-02-4.75081E-03-8.15035E-02
 -1       901 5.29418E-01 1.35678E-01 4.55905E-02 1.88195E-01-5.28129E-02-1.20467E-01
 -1       902 9.70251E-02 1.50276E-01-1.87538E-02 9.40847E-02-4.74956E-02-2.94513E-02
 -1       903 1.54149E-01 1.54200E-01-1.55039E-02-1.36282E-01-8.80896E-03 8.32083E-03
 -1       904-1.86386E-01-1.91749E-01 1.35686E-02-1.83687E-01 6.41032E-02 3.35646E-02
 -1       905-5.73138E-02-6.62248E-02 2.49362E-02-6.27773E-02 5.81404E-02 1.57426E-02
 -1       906-3.68255E-01-2.46342E-01-6.83204E-02-1.82093E-01-7.66442E-02-9.49293E-02
 -1       907-4.01242E-01-1.94553E-01 2.46268E-02-1.49686E-01-5.70607E-02-8.60351E-02
 -1       908-5.01736E-01-9.42589E-02 4.93000E-02-1.40596E-01-2.53610E-02-1.42734E-01
 -1       909-6.42397E-01-1.30352E-01-6.33704E-02 7.65703E-03-1.18647E-02-1.51416E-01
 -1       910-4.71723E-01-7.33006E-02 5.60174E-02-5.16761E-02-5.91058E-03-7.35623E-02
 -1       911-7.50464E-01-1.92000E-01 8.78650E-03-2.28276E-02-3.66478E-03 2.08918E-01
 -1       912-2.50390E-01-6.22458E-02-1.44722E-01-1.53855E-02 2.20973E-02 3.11873E-01
 -1       913-1.10089E-01-9.62950E-02 3.85994E-02 9.02724E-02-1.02927E-02-4.48703E-03
 -1       914-1.82382E-01-6.32261E-02-1.33936E-01-3.28754E-02 8.68431E-02 2.74428E-01
 -1       915-3.86782E-01-4.81065E-02 8.21526E-02-4.60874E-02-1.15960E-02-1.35063E-02
 -1       916-3.37513E-01-1.11801E-01 4.91954E-02-1.14451E-01-1.40012E-02-2.48053E-02
 -1       917-1.88594E-01-1.72376E-01 4.81295E-02-1.30005E-01-5.92953E-02-3.12130E-02
 -1       918-9.79220E-02-2.14203E-01-2.62094E-02 1.43778E-01 1.09076E-01-3.09028E-02
 -1       919-3.55247E-02 2.93670E-01 1.47811E-03 9.02411E-02-8.17351E-02-4.63374E-02
 -1       920-8.38871E-03 1.72451E-02-9.47061E-03 7.28108E-02-1.10168E-02 6.42747E-02
 -1       921-6.52029E-01-1.95936E-01-7.07297E-02 2.05955E-01 6.35580E-02-1.67675E-01
 -1       922-7.11079E-01-2.49339E-01-4.18697E-02 1.39734E-01-6.78415E-02 1.79993E-01
 -1       923-3.01552E-01-7.70072E-02-1.17359E-01 6.38099E-02-9.05501E-02 3.03412E-01
 -1       924-3.16297E-02-1.87958E-02 7.42660E-02-7.07420E-02 1.77986E-02-7.17848E-02
 -1       925-3.18415E-01-2.31064E-01-5.81634E-02 1.88486E-01 7.16960E-02-8.73509E-02
 -1       926-4.59658E-01-2.56478E-01 1.45923E-02 2.20523E-01-1.15673E-01 1.22118E-01
 -1       927-1.75465E-01-6.23455E-02-9.16864E-02 9.19695E-02-1.38997E-01 2.28187E-01
 -1       928-9.36947E-02-1.37286E-01-2.72717E-03 8.34904E-02 2.98977E-02-2.23298E-02
 -1       929-1.55059E-01-1.64984E-01 1.37386E-02 1.25324E-01 1.75117E-02-4.40564E-03
 -1       930 5.78155E-03-6.96418E-03 2.16352E-02 5.94943E-02 3.94978E-02-2.40673E-03
 -1       931-1.76578E-02 1.86185E-02-1.85065E-02-8.71863E-02-1.60390E-03-1.17820E-02
 -1       932-4.07471E-02-2.75931E-01-5.70043E-02-9.44723E-02-5.09941E-02-3.81797E-02
 -1       933 2.41240E-01 1.97052E-01-4.00983E-02 1.67867E-01 1.89809E-02 7.66012E-03
 -1       934 3.07971E-01 7.59943E-02 1.36780E-01-6.46671E-02-9.52803E-02 3.18033E-01
 -1       935 7.26613E-01 2.58998E-01 5.19192E-02-1.58946E-01-8.30331E-02 1.99308E-01
 -1       936 1.71528E-01 6.98788E-02 7.03531E-02-6.38743E-02-1.27504E-01 1.92810E-01
 -1       937 5.14124E-01 9.41608E-02-7.95624E-02 6.62050E-02-2.03722E-03 3.59238E-03
 -1       938 4.35663E-01 2.64221E-01 3.80929E-03 2.36125E-01 7.67965E-02 7.03338E-02
 -1       939 1.54776E-01 5.98258E-02 8.35039E-02 1.13392E-01 1.33330E-01 2.02754E-01
 -1       940 1.87510E-01 7.02095E-02 1.34840E-01 4.42169E-02 1.06906E-01 2.85636E-01
 -1       941 2.17111E-02-5.30661E-02-7.55481E-02 3.46198E-04-2.16509E-02 4.02021E-02
 -1       942-5.35580E-02-1.82414E-01-1.68765E-01-5.53478E-03 5.38355E-02-1.21256E-01
 -1       943 1.06259E-01-2.19783E-02 2.88949E-02-2.48487E-02-3.58170E-04-1.28241E-01
 -1       944-3.22281E-01-1.86835E-01-1.89044E-01 3.34595E-02-7.62428E-03 2.32089E-01
 -1       945-1.29426E-01-1.87572E-01-9.92654E-02-6.00556E-02-3.26085E-03 1.22787E-03
 -1       946-2.08107E-02-1.35486E-01-7.26284E-02 4.91482E-02-1.11083E-02-4.30993E-02
 -1       947 9.56928E-02-7.75086E-02-5.90878E-02 3.35358E-02 6.52710E-04-3.79206E-02
 -1       948-1.70723E-01-9.47828E-02-4.81757E-02-8.11690E-03 3.99641E-02 8.54595E-02
 -1       949-1.24180E-01-2.17427E-01-1.31271E-01 2.94992E-02 1.06852E-01-1.22641E-01
 -1       950 1.07731E-01-7.45494E-02-3.66600E-03 3.22640E-02 3.36616E-03-5.88632E-02
 -1       951-3.92446E-01-2.69943E-01-2.44119E-01-3.18789E-02 8.22550E-02 2.34534E-01
 -1       952-6.57400E-02-2.22550E-01-5.44125E-02 3.77778E-02 3.85681E-03-3.56866E-02
 -1       953-6.90008E-02-1.21173E-01-1.44587E-03-1.69148E-03 1.85466E-03-3.19073E-02
 -1       954-1.56278E-01-1.36384E-01-7.29383E-02 2.60726E-02-4.56249E-03-4.03389E-02
 -1       955-4.25606E-02-9.90057E-02-3.63337E-02 7.60275E-03 2.72966E-02-6.91581E-02
 -1       956-1.48780E-01-9.52018E-02-2.72583E-02-4.54619E-02 8.72787E-02 3.76215E-02
 -1       957-6.50414E-02-1.63451E-01-1.33897E-01 1.81250E-02 1.11293E-01-1.98058E-01
 -1       958 3.93439E-02-6.51584E-02 3.13181E-02 2.99780E-02-3.79136E-02-9.14390E-02
 -1       959-1.93052E-01-1.75603E-01-2.01586E-01-5.00399E-02 1.25970E-01 1.34652E-01
 -1       960-5.36021E-02-1.17454E-01-5.70245E-02 2.11570E-02 8.17574E-03-2.15825E-03
 -1       961-5.55257E-02-4.51827E-02-6.33184E-03 1.92549E-02 2.58690E-04-6.53972E-02
 -1       962-9.84097E-02-8.13702E-02-7.62577E-02 3.05716E-02-3.07039E-03-3.78871E-02
 -1       963-9.23793E-02-1.08862E-01 1.69651E-02-6.52470E-02 2.01486E-02-9.66891E-03
 -1       964-6.09476E-02-1.24853E-01-4.53300E-02 5.04968E-02 2.64218E-02-2.39547E-01
 -1       965-9.22628E-03-3.33010E-02-1.59819E-02 6.39755E-02-9.36796E-03-8.35360E-02
 -1       966-1.57958E-01-9.53781E-02-5.41231E-02-4.78424E-02 1.10553E-01 3.69639E-02
 -1       967-4.67116E-02-1.18573E-02 3.16629E-02 2.76379E-02 2.24926E-02-5.25297E-02
 -1       968-1.11163E-03-1.61845E-02-1.00351E-01 5.62629E-02 3.42376E-02-9.67749E-03
 -1       969-1.78762E-02-8.39715E-03 1.52832E-02 2.14597E-02 2.52484E-03-1.35890E-02
 -1       970-5.19270E-02-7.70489E-02-7.05433E-02-1.36684E-02-8.83973E-03-8.13809E-02
 -1       971 6.10850E-02-3.26446E-03 4.93699E-02-1.31991E-02-7.33066E-03-4.85031E-02
 -1       972 8.01698E-02 6.10207E-02-4.86873E-04 2.62217E-02-5.07560E-02-2.80886E-01
 -1       973 1.56125E-02 1.94029E-02 2.33246E-02 4.62141E-02 1.56412E-02-7.56621E-02
 -1       974-6.30892E-02-6.32230E-02-6.26278E-02-5.22823E-02 3.35265E-02-3.55417E-02
 -1       975 2.94890E-02 4.00908E-02 6.98378E-02 4.75210E-03 3.77726E-02-8.11931E-02
 -1       976-3.81158E-02-4.45885E-02-8.50724E-02 2.55924E-02 3.62475E-02-4.94898E-02
 -1       977-1.10284E-03-2.10192E-02 8.74519E-02 8.66075E-03-9.98060E-04-4.25765E-02
 -1       978 6.15858E-02 5.79372E-02-1.76498E-02 4.82633E-03-3.01224E-02-6.15043E-02
 -1       979 9.25430E-02 5.57257E-02 4.26121E-02-3.97191E-02-1.09422E-01 5.78772E-03
 -1       980 7.71837E-02 5.92483E-02 4.39166E-02-2.34309E-02-6.40473E-02-5.93886E-03
 -1       981 1.04419E-01 1.20391E-01 5.69924E-02 3.46553E-02-9.49309E-02-2.07040E-01
 -1       982 1.10465E-01 1.33229E-01 4.78566E-02-2.07261E-02 4.53733E-02-1.10127E-01
 -1       983 4.83760E-02 1.87400E-02 5.71296E-02-2.60189E-02-7.64194E-02 3.21047E-02
 -1       984-8.58448E-03 1.63599E-02 3.68184E-02 1.83418E-02 1.46885E-02-6.66434E-02
 -1       985 3.11337E-02 4.90116E-03-5.59107E-03-3.08760E-03 3.13238E-04-2.64339E-02
 -1       986-1.12938E-03 1.95134E-02 4.82071E-02 3.82943E-02-3.22276E-02-2.06289E-02
 -1       987 1.21968E-01 2.10654E-02-3.84709E-02 2.29197E-02-5.25517E-02-7.62893E-02
 -1       988 1.99412E-01 1.37516E-01 1.87641E-01-1.98407E-02-1.63736E-01 1.30063E-01
 -1       989 1.05814E-01 5.59226E-02-2.14690E-03-4.34971E-02-1.09294E-01 4.14679E-02
 -1       990 1.59314E-01 2.11838E-01 2.24462E-02 4.56821E-02-9.46011E-02-1.27570E-01
 -1       991-2.87696E-02 6.90495E-02 3.98871E-02 4.43238E-02 7.94617E-03-1.06510E-01
 -1       992 2.90102E-01 2.09909E-01 2.03696E-01-3.50385E-03-1.11351E-01 1.35661E-01
 -1       993-8.38989E-02-4.64617E-02-9.99249E-03 9.09932E-02-2.65525E-02-1.05303E-01
 -1       994 9.42867E-02 1.52599E-02-7.08854E-02 1.91044E-02 2.71081E-02-5.58831E-02
 -1       995 2.75729E-02 1.05819E-01 2.04244E-02 3.60510E-02 4.44620E-03-1.36878E-02
 -1       996 9.94186E-02 5.33413E-02 3.47839E-02 3.28363E-02 1.19968E-02-5.20400E-02
 -1       997 3.13365E-01 2.24873E-01 3.23088E-01-3.02779E-02-7.23011E-02 2.42822E-01
 -1       998 4.17061E-01 1.83102E-01 1.51362E-02-5.14206E-02-7.56496E-02 1.05273E-01
 -1       999 2.28905E-01 2.95620E-01 1.34176E-01 2.03674E-02-3.63439E-02-9.94115E-02
 -1      1000 9.37491E-02 1.69331E-01 4.91735E-02 2.82115E-02 7.70474E-03-1.33922E-01
 -1      1001 2.31772E-01 1.39212E-01 1.75869E-01-3.64368E-02-7.51690E-02 1.66462E-01
 -1      1002 9.29533E-02 1.31933E-01 4.86525E-02 3.36295E-02-2.43087E-02-7.61423E-02
 -1      1003 1.58673E-01 1.68760E-01 3.51828E-02 1.83223E-03-8.68544E-03-1.05561E-01
 -1      1004 6.71330E-02 1.27436E-01 3.74886E-02 3.41857E-03-9.57657E-03-3.25874E-02
 -1      1005 5.70116E-02 1.30764E-01 5.48261E-02 7.80835E-02 6.28927E-03-2.97958E-02
 -1      1006 3.05530E-01 1.69634E-01 2.18911E-01 2.32166E-02 2.04417E-02 2.41737E-01
 -1      1007 4.08509E-01 1.61552E-01 5.49145E-02-2.13355E-02 2.32652E-02 1.27729E-01
 -1      1008 2.22728E-01 2.72598E-01 1.77060E-01-2.68759E-02 2.04665E-02-8.21197E-02
 -1      1009 1.26859E-01 1.56537E-01-5.00361E-03 1.49127E-02-1.04262E-02-1.50818E-01
 -1      1010 3.05810E-01 2.60182E-01 3.13083E-01-1.74697E-03-4.97041E-03 1.89951E-01
 -1      1011-7.72050E-02 9.30115E-02 2.45663E-02-1.10040E-02-4.60299E-02-3.34869E-02
 -1      1012 8.55324E-02 1.34464E-01 1.48120E-02 2.70620E-02-3.63522E-03-4.27914E-02
 -1      1013-1.54208E-03 9.17499E-02 1.11527E-02-4.83922E-02-1.72918E-02-1.70142E-02
 -1      1014 5.55679E-02 1.64466E-01 3.14100E-02-2.77261E-02 1.67132E-02-7.70956E-02
 -1      1015 2.20837E-01 1.48385E-01 9.38930E-02 4.85144E-02 1.05926E-01 1.55829E-01
 -1      1016 2.42006E-01 1.27048E-01-1.51736E-02 4.19747E-02 5.49801E-02 8.29838E-02
 -1      1017 2.32610E-01 2.73500E-01 1.68241E-01 7.30699E-03 8.10695E-02-1.49673E-01
 -1      1018 5.37879E-02 2.81418E-01 4.96634E-02-3.29239E-03-2.50570E-02-8.96524E-02
 -1      1019 2.87501E-01 2.31364E-01 3.42978E-01 8.03449E-03 9.27208E-02 1.94928E-01
 -1      1020-1.67574E-02 1.49495E-01 4.84783E-02-5.91997E-02 2.51035E-02-2.40806E-02
 -1      1021 6.96656E-02 1.18339E-01-1.98616E-02-6.31491E-03-2.47599E-02-1.70371E-02
 -1      1022 8.33327E-02 1.19274E-01 3.31616E-02-3.96974E-02 2.00504E-02-6.73067E-02
 -1      1023-1.31159E-02 8.68562E-02 1.79018E-02-6.24053E-02 1.90189E-02-5.28163E-02
 -1      1024 1.39346E-01 9.22746E-02 1.04082E-01 5.26271E-02 1.40544E-01 1.00444E-01
 -1      1025 6.33303E-02 7.55466E-02-2.13014E-02 1.16408E-02 4.86473E-02-1.00526E-02
 -1      1026 6.40483E-02 1.58076E-01 7.04034E-02-6.87761E-03 8.60180E-02-2.15838E-01
 -1      1027 1.30283E-02 7.18247E-02 2.13528E-03-2.65686E-02-1.68054E-02-1.27585E-01
 -1      1028 2.41584E-01 1.79303E-01 1.90692E-01 4.35845E-02 1.41087E-01 1.50348E-01
 -1      1029 2.38905E-02 5.97756E-02 3.96209E-02-3.12355E-02 7.92580E-03-5.30109E-02
 -1      1030-3.21483E-02 5.16061E-02 6.91996E-02-2.55665E-02 1.55565E-02-1.06221E-02
 -1      1031 7.22123E-02 1.52598E-02-4.88629E-02-3.35689E-02 1.55930E-02-5.58423E-02
 -1      1032 1.14769E-01 5.69424E-02 8.68506E-02-2.17423E-02-4.22164E-03-1.03912E-01
 -1      1033 4.60579E-02 3.50553E-02-2.54876E-02 4.21678E-02 5.84119E-02-1.49483E-02
 -1      1034 6.04647E-02 1.30049E-01 1.12621E-01-3.46541E-02 1.74915E-02-2.48631E-01
 -1      1035-3.07299E-03 3.00163E-02 4.54161E-02-5.66359E-02 2.24017E-04-9.00048E-02
 -1      1036 1.21133E-01 1.03639E-01 7.16104E-02 3.20509E-02 1.03995E-01 2.51823E-02
 -1      1037-2.03561E-02-1.33981E-03 2.19595E-02-3.43615E-02 3.43758E-02-1.14894E-02
 -1      1038 4.51446E-02 3.10647E-02-4.81854E-02 1.92765E-02-1.87181E-02-3.49803E-02
 -1      1039 1.66518E-02 2.70833E-02 6.96881E-02 6.49108E-04-2.85473E-02-7.40842E-02
 -1      1040-1.93623E-02-2.06897E-02-6.68549E-02 2.44283E-02-7.56099E-03-5.35134E-02
 -1      1041 7.85729E-02 9.72146E-02 1.30078E-01-5.84761E-02-8.46948E-02-2.53131E-01
 -1      1042-3.49611E-02-3.43416E-02-2.02065E-02-3.60011E-02 5.70330E-03-6.52901E-02
 -1      1043 4.43574E-02 1.86291E-02 4.62393E-02 6.20655E-02 2.57218E-02-1.11861E-02
 -1      1044-4.98378E-02-6.00023E-02-3.35027E-02-4.27675E-03 2.95497E-02-5.07781E-02
 -1      1045 2.29699E-02-1.46106E-02 4.83425E-02 1.68991E-02 2.48846E-02-1.06125E-02
 -1      1046 2.26896E-02 1.63452E-02-5.02198E-03-3.11732E-02-8.69512E-03-4.43531E-02
 -1      1047-2.58985E-03 5.71663E-02 3.08518E-02 2.59784E-03-6.07519E-02-5.88776E-02
 -1      1048-7.55453E-02-5.51592E-02-4.63835E-02 3.57309E-02-1.16136E-01 5.06802E-02
 -1      1049-3.50319E-02-4.56117E-02-1.02086E-02-2.31674E-03-8.80206E-02-3.11492E-02
 -1      1050-5.25330E-02-8.65048E-02-3.33411E-02-5.14496E-02-8.96758E-02-1.60859E-01
 -1      1051 2.51935E-02-2.97462E-02-2.87902E-02-5.52041E-02 2.33116E-02-9.37869E-02
 -1      1052-6.70230E-02-2.71231E-02-4.67379E-02 2.78639E-02-4.54163E-02 3.03815E-02
 -1      1053-1.85007E-02-2.35946E-02-5.20572E-02-5.16878E-03 8.89854E-03-8.39250E-02
 -1      1054-6.78953E-02-1.29034E-02 9.53776E-02 2.26871E-02 2.51149E-02-2.16672E-02
 -1      1055-9.40916E-02-5.23358E-02-6.67029E-02-9.54326E-03-3.31756E-02-5.93836E-03
 -1      1056-8.52800E-02-1.28255E-02 2.72966E-03-4.16210E-02-3.33208E-02-6.29302E-02
 -1      1057-2.79304E-01-1.95290E-01-9.06877E-02 1.01175E-01-1.22135E-01 1.57330E-01
 -1      1058-1.62031E-01-1.62146E-01-7.32413E-02 3.43633E-02-6.81676E-02 2.79956E-02
 -1      1059-1.00410E-01-2.15105E-01-4.63789E-02-2.92037E-02-1.09531E-01-1.01083E-01
 -1      1060-6.74468E-02-8.78073E-02-4.42830E-02-2.19744E-02 3.50444E-02-1.10726E-01
 -1      1061-2.42403E-01-1.99916E-01-1.02764E-01 8.73645E-02-1.53482E-01 1.78370E-01
 -1      1062-6.16686E-02-5.45589E-02-1.17691E-01-4.77679E-02-1.21823E-02-1.03278E-01
 -1      1063-8.51230E-02-3.40819E-02 5.59370E-02-2.58436E-03 7.23954E-03-2.35397E-02
 -1      1064-6.66983E-02-9.70397E-02-9.72477E-02-3.14924E-02-2.30715E-02-1.82630E-02
 -1      1065-4.63714E-02-4.20157E-02 2.50722E-02-2.58109E-02 2.12769E-02-4.34732E-02
 -1      1066-4.08061E-01-1.80890E-01-1.83380E-03 4.00676E-02-4.04915E-02 8.41141E-02
 -1      1067-1.68375E-01-1.96535E-01-5.14362E-02-1.61053E-02 8.54173E-03-1.44025E-01
 -1      1068-3.44934E-02-1.31008E-01-5.51053E-02-4.63268E-02 2.52956E-02-1.17098E-01
 -1      1069-2.52983E-01-1.43268E-01-7.48494E-02 2.84141E-02-8.21371E-02 1.95562E-01
 -1      1070-1.22243E-01-1.13291E-01-4.02698E-02-3.88815E-02-1.18543E-02-5.70094E-02
 -1      1071 3.10195E-02-5.41269E-02-2.11228E-02-1.62028E-02-2.35740E-02-1.99348E-02
 -1      1072-1.35480E-01-1.82628E-01-6.33525E-02-6.57782E-02 2.13063E-02-1.97475E-02
 -1      1073 4.87904E-02-2.18530E-02 1.60652E-02 1.94166E-02 4.67815E-01 3.92300E-01
 -1      1074-4.06550E-02-1.14242E-01 3.65846E-02-4.38713E-02 3.81484E-01 3.71170E-01
 -1      1075-9.76784E-02-5.88138E-02 2.76453E-02-6.70399E-02 3.92699E-01 3.18112E-01
 -1      1076 1.37826E-01 2.58118E-01 1.88468E-01-2.58642E-02 2.69916E-01 3.29970E-02
 -1      1077 2.48387E-01 5.02640E-01 3.29200E-01 1.14687E-01 3.87499E-01 4.72427E-01
 -1      1078-6.55942E-02-1.01845E-01-6.94143E-02 2.18587E-02-1.79351E-01 2.67160E-02
 -1      1079-5.49775E-02-1.10291E-01-2.33869E-01 4.95029E-03 2.26193E-01 5.45394E-01
 -1      1080 1.54182E-01-7.94089E-03 6.30874E-03-1.17266E-01 2.28271E-01 8.10249E-01
 -1      1081 2.22977E-01 2.06914E-02-8.96565E-03 1.53444E-02 3.23910E-01 5.54811E-01
 -1      1082-2.64820E-01-9.66785E-02-1.69995E-01 1.51408E-02 3.55533E-01 6.56995E-01
 -1      1083 8.40420E-02 9.61903E-02 5.84328E-02 5.44692E-02 2.99511E-01 1.26261E-01
 -1      1084 5.39403E-01 6.72633E-01 4.84814E-01 1.01259E-01 4.50169E-01 2.40629E-01
 -1      1085-2.47466E-01-4.05237E-01-2.02452E-01-2.48632E-02 3.12837E-01 1.49461E-01
 -1      1086-2.09023E-01-2.24577E-01-3.67034E-01-1.71951E-02-3.19534E-01 4.12611E-01
 -1      1087 1.91670E-01 1.55802E-01 1.34115E-01-2.90701E-02-3.61264E-01 4.63111E-01
 -1      1088-6.96451E-02-2.88094E-01-6.89770E-02-2.87880E-02-3.93165E-01 1.90218E-01
 -1      1089-4.43278E-01-6.09829E-01-4.21243E-01 7.10143E-02-3.91297E-01 2.09161E-01
 -1      1090 1.58107E-01 1.00581E-01 1.19954E-01-6.51027E-02-3.90103E-01 1.84276E-01
 -1      1091 1.69587E-02 1.14640E-02 3.45168E-02-1.50222E-02-1.30187E-02-6.47023E-03
 -1      1092 1.26110E-01 1.22868E-01 1.14666E-01 7.68459E-03-1.21501E-01 6.14704E-03
 -1      1093 7.57761E-03 1.86971E-02-4.37834E-03 4.32005E-02-3.96359E-01 3.05997E-01
 -1      1094-4.62689E-01-4.91394E-01-3.86211E-01 9.27190E-02-3.65861E-01 2.95896E-01
 -1      1095 7.30824E-01 7.44867E-01 5.90277E-01-1.29772E-01-5.62871E-01 4.20348E-01
 -1      1096 4.89390E-03-2.83959E-02-1.10177E-01 9.89497E-02 1.17700E-01 8.35884E-01
 -1      1097 1.96739E-01 7.59005E-02 4.81223E-02-7.72944E-02 1.29247E-01 7.73011E-01
 -1      1098-1.51641E-01-2.91293E-02 6.96961E-02 4.30907E-02 1.53379E-01 7.35039E-01
 -1      1099 6.54923E-02 1.10456E-01 7.03792E-02 2.28369E-02-2.95057E-02 2.90585E-03
 -1      1100 2.66375E-01 4.47613E-01 2.85596E-01-2.96345E-03-2.54539E-01 4.67585E-02
 -1      1101-6.21596E-02-1.13225E-01-5.61637E-02-8.43196E-03-2.56925E-01 8.91981E-02
 -1      1102 2.49192E-01 4.60039E-01 2.43769E-01 1.56019E-02-3.19300E-01 1.64693E-01
 -1      1103-6.06219E-01-7.68740E-01-5.49984E-01 1.11069E-01-4.38302E-01 2.34286E-01
 -1      1104-9.42161E-02-1.46629E-01-9.63382E-02 8.29695E-03 1.34053E-01 1.32021E-02
 -1      1105-2.12058E-02-1.34967E-02-1.38810E-02-2.67171E-02 4.61142E-02-2.25619E-02
 -1      1106 5.40675E-02 6.44134E-03 1.22742E-01-7.40511E-03 3.53953E-01 2.86911E-01
 -1      1107-2.37734E-01-1.43116E-01-1.26030E-01 1.12787E-02-2.21546E-01 7.42915E-01
 -1      1108-1.08774E+00-8.98524E-01-7.94508E-01 1.91969E-01-4.46924E-01 7.48745E-01
 -1      1109-9.42335E-01-8.97731E-01-7.36027E-01 1.83176E-01-4.48829E-01 5.46912E-01
 -1      1110-7.82109E-01-8.74685E-01-6.62718E-01 1.59718E-01-5.33440E-01 4.37772E-01
 -1      1111-2.05014E-01-1.47587E-01-1.38251E-01 9.24046E-02-3.80172E-01 3.23215E-01
 -1      1112-8.27939E-02-8.46525E-02-7.16105E-02-8.57968E-03 1.80348E-01 3.80333E-02
 -1      1113-1.04321E-02-7.69432E-02 5.67029E-02-1.30914E-02 2.28150E-01 8.65761E-02
 -1      1114 1.42545E-01 1.16206E-01 1.40699E-01 1.23629E-01 3.21547E-01 1.58921E-01
 -1      1115 2.56556E-01 3.51905E-01 2.67721E-01 1.46915E-02 3.82302E-01 2.34770E-01
 -1      1116 3.12041E-01 8.18415E-02 2.17631E-01 5.71580E-02 3.82831E-01 4.95451E-01
 -1      1117 4.39881E-01 2.90220E-01 1.15941E-01 1.01534E-01 3.72465E-01 4.47724E-01
 -1      1118 1.30170E-01 3.16346E-02-1.26718E-01 5.38417E-02 1.34829E-01 6.39341E-01
 -1      1119 2.11721E-01 4.22463E-02-6.79760E-02 6.75251E-03 2.25318E-01 7.60387E-01
 -1      1120 1.32800E+00 9.46522E-01 9.09811E-01-1.23940E-01-2.76479E-01 9.11414E-01
 -1      1121 3.52574E-01 5.06200E-01 3.43509E-01 3.96165E-02 3.11191E-01 9.44001E-02
 -1      1122 9.33932E-01 5.19397E-01 6.40568E-01 3.96681E-02-2.56835E-01 7.31015E-01
 -1      1123 4.10851E-01 2.25834E-01 2.22118E-01-1.73259E-02-3.40189E-01 6.16155E-01
 -1      1124 5.66745E-01 4.45965E-01 2.87349E-01-1.13655E-01-4.19596E-01 4.85476E-01
 -1      1125-9.21780E-02-4.67225E-02-1.47668E-01-2.69398E-02-3.72660E-01 3.00908E-01
 -1      1126-7.88690E-02-1.89603E-01-1.17856E-01 8.65480E-02 3.91681E-01 1.71227E-01
 -1      1127-9.00004E-01-5.23062E-01-4.63022E-01 4.31447E-02-2.04784E-01 6.90337E-01
 -1      1128-1.98107E-01-3.41292E-01-1.47714E-01-5.67374E-02 3.86101E-01 5.12661E-01
 -1      1129-1.51812E+00-1.12106E+00-1.05567E+00-1.77913E-01 2.69578E-01 8.88665E-01
 -1      1130 3.99883E-01 7.71691E-02-7.27763E-02-5.87098E-02-8.82093E-03-4.33580E-03
 -1      1131 3.94366E-01 1.18507E-01-1.31694E-02-1.39522E-01 1.85484E-02-5.34124E-02
 -1      1132 4.04941E-01 9.01359E-02-7.50642E-02-1.33395E-01 8.86436E-03-1.74464E-02
 -1      1133 4.63582E-01 1.69012E-01-6.56500E-02-1.61905E-01-3.78983E-02 4.44214E-02
 -1      1134 1.04937E-01 1.03525E-01-3.95876E-02 9.00370E-02 1.88336E-02 1.17424E-02
 -1      1135 9.44462E-02 1.04852E-01-4.75856E-02-8.03507E-02-2.67851E-03 3.50447E-03
 -1      1136 6.52461E-02 7.95079E-02-2.36077E-02-6.39100E-02-5.33330E-02 1.12221E-02
 -1      1137 1.92005E-01 1.85099E-01-4.66309E-02-1.31392E-01 4.41463E-02-4.73217E-02
 -1      1138 2.98425E-01 1.53567E-01-3.05589E-02-1.61530E-01 2.21164E-02-1.49034E-02
 -1      1139 2.44937E-01 1.99622E-01-1.62609E-02-1.71811E-01-1.72827E-02 2.09239E-02
 -1      1140 4.76228E-01 6.41324E-02-1.47738E-01 1.03197E-02-6.16988E-03-1.46498E-01
 -1      1141 7.55660E-01 1.19749E-01 9.64924E-02-2.24953E-02 4.69193E-03-1.50888E-01
 -1      1142 5.94546E-01 1.79511E-01 3.21595E-03 1.45276E-01-1.24201E-02-1.27192E-01
 -1      1143 6.15950E-01 2.30960E-01 8.30594E-02 1.71160E-01-5.48053E-02-1.39128E-01
 -1      1144 2.94059E-01 1.42680E-01-4.08517E-02 1.30272E-01-5.40298E-02-7.19796E-02
 -1      1145 1.18113E-01 1.37380E-01-3.38202E-02 1.18703E-01-9.11797E-03-5.29756E-03
 -1      1146 3.39708E-01 1.69216E-01-1.79951E-02-1.29219E-01 6.84953E-02-7.18475E-02
 -1      1147 6.31944E-01 2.29473E-01 9.02093E-02-1.99015E-01 6.09265E-02-1.43254E-01
 -1      1148 4.94594E-01 1.47643E-01-2.30846E-02-1.58816E-01 2.17519E-02-7.40771E-02
 -1      1149 4.56148E-01 1.28402E-01 1.48600E-02-1.53587E-01 5.71241E-02-1.19881E-01
 -1      1150 9.98756E-02 1.43633E-01-2.15873E-02-9.56022E-02 3.61163E-02-1.22813E-02
 -1      1151-1.11700E-01-1.29320E-01 2.07719E-02-9.20681E-02-3.30148E-02-2.04519E-02
 -1      1152-1.61201E-01-1.49500E-01 1.64501E-02-1.33074E-01 1.52055E-03 3.09784E-03
 -1      1153-9.44185E-02-1.09799E-01-1.09155E-01-1.05254E-01 1.50378E-01 1.08617E-01
 -1      1154-1.53024E-01-1.60432E-01 2.88039E-02-2.12863E-01 1.07353E-01 4.83199E-02
 -1      1155-7.16651E-02-3.33032E-02-3.48426E-02-7.17857E-02 8.29489E-02 1.34532E-01
 -1      1156-1.27249E-01-2.19711E-01-1.78713E-02-1.72921E-01-6.10897E-02-5.87785E-02
 -1      1157-2.09113E-01-2.04831E-01-1.89100E-02-1.39447E-01-3.78140E-02-2.61651E-02
 -1      1158-4.05411E-02 1.66836E-01 6.26674E-02-3.28678E-02 1.59932E-02-3.91028E-02
 -1      1159-1.64592E-01-1.96815E-01 6.95741E-03-1.41693E-01-6.35735E-02-6.07249E-02
 -1      1160-1.04473E-01-1.27700E-01 3.98467E-02-8.88271E-02-2.58289E-04 2.65210E-04
 -1      1161-1.35292E-01-7.33038E-02 1.13093E-01-7.62789E-02-1.18403E-02-8.96833E-02
 -1      1162-3.33770E-01-2.16526E-01-7.80784E-02-2.19916E-01-7.71499E-02-9.55557E-02
 -1      1163-5.13464E-01-1.27817E-01-4.63429E-02-1.85713E-01-4.36522E-02-9.19231E-02
 -1      1164-2.29590E-01-7.66263E-02 1.00836E-01-1.04119E-01-2.66220E-02-5.36952E-02
 -1      1165-5.63158E-01-1.82612E-01-6.01323E-02-1.70845E-01-5.35288E-02-1.23968E-01
 -1      1166-3.86479E-01-5.25585E-02 3.02533E-02 4.26665E-02 1.43657E-02-1.42406E-01
 -1      1167-7.86256E-01-1.21707E-01-1.06208E-01-4.35280E-04 1.75670E-03-1.56344E-01
 -1      1168-3.33050E-01-1.92372E-02 1.45870E-01-6.86224E-04 1.96948E-03-1.32131E-01
 -1      1169-4.23622E-01-3.81065E-02 1.50751E-01 1.87090E-02-3.16720E-02 3.76553E-03
 -1      1170-5.96192E-01-9.13534E-02 5.98634E-02-1.94939E-02-7.23381E-03 7.84059E-03
 -1      1171-4.80730E-01-9.55942E-02 5.09987E-02 3.88962E-02-5.75758E-03-5.03574E-02
 -1      1172-2.56103E-01-2.33392E-02-1.40053E-01-1.46944E-02 1.36973E-02 3.30896E-01
 -1      1173-8.33884E-01-1.63002E-01-1.73863E-02-1.52975E-02 3.76960E-03 2.17701E-01
 -1      1174-7.22878E-02-7.41369E-02 3.20093E-02 7.58809E-02-4.81430E-02 9.87929E-03
 -1      1175-1.04974E-01-5.72805E-02-1.49240E-01-6.02520E-02 1.27903E-01 1.71168E-01
 -1      1176-4.67914E-01-2.89159E-01-2.82521E-02-2.10821E-01 1.07544E-01 1.35809E-01
 -1      1177-3.63846E-01-2.53370E-01 6.22582E-03-2.46778E-01 6.76157E-02 1.12084E-01
 -1      1178-1.76547E-01-8.90081E-02-9.08022E-02-9.89128E-02 1.40765E-01 1.87576E-01
 -1      1179-6.88172E-01-2.29413E-01-9.53090E-03-1.45097E-01 6.40818E-02 1.78912E-01
 -1      1180-7.27041E-01-1.65777E-01-1.34222E-02-1.99238E-01 7.16209E-02 1.67968E-01
 -1      1181-2.70450E-01-7.67447E-02-1.05931E-01-5.80614E-02 1.05614E-01 2.83737E-01
 -1      1182-4.27122E-01-1.42330E-01 7.73832E-02-1.39900E-01 1.51843E-02 1.06876E-02
 -1      1183-4.46068E-01-7.50008E-02 6.78467E-02-9.43295E-02 2.45996E-03-1.08368E-02
 -1      1184-2.97578E-01-1.74785E-01 3.04169E-02-1.51184E-01 3.97909E-04-1.99650E-03
 -1      1185-2.50511E-01-2.11095E-01 5.05774E-02-1.43550E-01 3.19269E-02 3.42411E-02
 -1      1186-2.50026E-01-1.13932E-01 6.18263E-02-1.34781E-01-1.47119E-02-1.62795E-02
 -1      1187-1.42914E-01-1.79295E-01 1.44061E-02 2.07805E-01-1.10746E-01 4.09613E-02
 -1      1188-7.30259E-02-8.36789E-02-1.02082E-01 1.00283E-01-1.34169E-01 8.82310E-02
 -1      1189-6.03555E-02-2.39968E-02-4.25222E-02 6.98874E-02-6.90973E-02 1.19993E-01
 -1      1190-1.67581E-01-2.20376E-01-5.55871E-03 1.86272E-01-5.76379E-02 4.06516E-02
 -1      1191 1.00387E-03 2.60130E-01 9.20554E-02 5.07103E-02-1.84876E-03-6.86689E-02
 -1      1192-1.52768E-01-1.81058E-01-3.30051E-02 1.29845E-01 5.79065E-02-2.67503E-02
 -1      1193-2.38980E-01-3.82080E-01-8.38179E-02 2.38464E-01 6.45144E-02-1.32899E-01
 -1      1194 1.91542E-02 3.39934E-02-3.10016E-02 7.20759E-02-1.56097E-02-4.15960E-02
 -1      1195 1.82574E-02-1.60317E-02 2.38226E-02 1.32207E-01-3.97442E-02-7.85840E-03
 -1      1196 2.94098E-02-1.44484E-02-2.36803E-02 9.14201E-02 3.34250E-02-1.02112E-02
 -1      1197-8.41512E-03-1.49244E-01-1.59456E-02 9.08876E-02 2.72675E-02 5.93372E-03
 -1      1198-3.92385E-02-2.70970E-04-7.80186E-02 5.90900E-02-2.01113E-02 7.92318E-02
 -1      1199 8.54180E-03-1.04403E-02 2.24835E-02 1.22645E-01 2.15297E-03-5.80083E-03
 -1      1200-3.45406E-01-1.00366E-01 7.33013E-02 1.17661E-01 2.50000E-02-6.99383E-02
 -1      1201-5.26040E-01-1.43493E-01-5.75045E-02 1.63388E-01 4.58410E-02-1.21473E-01
 -1      1202-6.33013E-01-1.77641E-01 3.43909E-02 9.17410E-02 1.33921E-02-1.48630E-01
 -1      1203-4.17762E-01-7.58379E-02 8.48389E-02 1.35956E-01 8.73970E-03-6.87959E-03
 -1      1204-4.55509E-01-1.51956E-01 7.00233E-02 1.54283E-01-4.18632E-02 4.83169E-02
 -1      1205-4.66911E-01-8.87324E-02 4.48071E-02 6.58609E-02-1.90411E-02-6.38717E-03
 -1      1206-4.11584E-01-1.19607E-01 9.30285E-03 1.41684E-01 2.12731E-02-5.22661E-02
 -1      1207-1.60495E-01 2.01884E-02-1.69820E-01 8.67013E-02-9.90598E-02 2.39421E-01
 -1      1208-6.87963E-01-1.57903E-01-2.55485E-03 1.76925E-01-6.47930E-02 1.73316E-01
 -1      1209-3.66128E-01-2.70623E-01-9.03428E-02 2.14395E-01 6.74572E-02-5.56492E-02
 -1      1210-3.28095E-01-2.26544E-01-5.32627E-03 1.95460E-01 6.89500E-02-1.11465E-01
 -1      1211-2.57896E-01-1.24260E-01 7.07136E-02 1.34616E-01 2.79593E-02-2.82427E-02
 -1      1212-2.17523E-01-1.50214E-01 4.61153E-02 1.49404E-01-5.16506E-02 3.24848E-02
 -1      1213-3.38609E-01-1.76448E-01 2.33992E-02 1.70347E-01-4.40823E-03-1.60785E-02
 -1      1214-1.91975E-01-1.89951E-01 4.09191E-02 1.41313E-01 4.47454E-02-4.88442E-02
 -1      1215-1.63816E-01-8.55419E-02-1.97247E-01 1.00503E-01-1.39545E-01 2.26233E-01
 -1      1216-4.54151E-01-2.64176E-01 4.78322E-02 2.20639E-01-9.02938E-02 7.28799E-02
 -1      1217 1.01400E-02-4.13408E-03-1.36591E-02 4.99114E-02 3.08142E-02-4.15010E-03
 -1      1218 1.58825E-01 1.88153E-01 4.03037E-02 1.33345E-01-5.56142E-02-3.59614E-02
 -1      1219 1.82398E-01 2.52344E-01 3.12904E-02 1.85241E-01-6.38985E-02-7.98471E-02
 -1      1220 1.01182E-01 2.24305E-01 3.33518E-02 1.48265E-01-8.86062E-02-3.69505E-02
 -1      1221 1.12913E-01-1.16408E-01-6.97114E-02 4.78049E-02 3.58513E-02-2.68269E-02
 -1      1222 8.80186E-02 1.02377E-01 1.14477E-01 1.14343E-01 1.56571E-01 8.87564E-02
 -1      1223 1.95943E-01 1.76651E-01-4.89669E-02 1.70701E-01 4.94354E-02 7.80904E-03
 -1      1224 6.87120E-02 2.60855E-02 2.45252E-02 7.89216E-02 7.13422E-02 1.30586E-01
 -1      1225 2.03721E-01 1.64620E-01-2.26311E-02 1.73361E-01 1.00303E-01 4.14227E-02
 -1      1226 1.37056E-02-9.27485E-03-2.84528E-02-5.37062E-02-4.94156E-02 1.33848E-02
 -1      1227-5.74472E-03-1.53191E-02-1.15406E-02-5.47485E-02-2.24318E-02-6.12595E-03
 -1      1228-6.10940E-03-9.22832E-02-1.05373E-01-6.46197E-02 5.00035E-02 6.16331E-02
 -1      1229 3.70990E-02 7.04074E-03 1.46612E-02-1.36311E-01 1.44241E-02-1.43453E-02
 -1      1230 7.66543E-03 2.75762E-01 6.87227E-02-1.07654E-01 5.60297E-02-3.31809E-02
 -1      1231 2.27063E-03-2.20061E-02-5.62464E-02-7.80471E-02-3.69896E-02-1.12914E-02
 -1      1232-1.06694E-02-5.46045E-02-9.45566E-03-1.11840E-01-4.81086E-02 3.00602E-02
 -1      1233 2.04363E-02-4.92218E-03 4.65234E-05-7.39233E-02 9.21430E-03 8.93830E-02
 -1      1234-3.42665E-03 1.20102E-02-6.81355E-03-5.59619E-02 1.89190E-02-8.70414E-03
 -1      1235 1.26350E-01 1.69999E-01 3.33897E-02-1.67280E-01 1.22794E-01-8.61744E-02
 -1      1236 2.65744E-01 3.37769E-01 8.70369E-02-1.88143E-01 7.51465E-02-8.79727E-02
 -1      1237 9.56320E-02-2.82985E-02-6.74839E-02-2.52279E-02-3.21751E-03-5.20190E-02
 -1      1238 1.87727E-01 1.83966E-01 3.57193E-02-1.59045E-01 7.02820E-02-5.13145E-02
 -1      1239 5.52390E-02 1.43470E-02 2.58963E-02-7.70289E-02-5.92586E-02 1.34893E-01
 -1      1240 1.91512E-01 1.72884E-01-6.63046E-03-1.73432E-01-7.31414E-02 3.80092E-02
 -1      1241 1.56509E-01 1.61921E-01-1.55238E-02-2.17846E-01-1.21647E-01 5.67555E-02
 -1      1242 7.52839E-02 1.05267E-01 1.07661E-01-1.07019E-01-1.36290E-01 9.84007E-02
 -1      1243-2.71498E-03-7.67664E-03 3.84688E-03-4.65183E-02 3.27996E-02 7.10390E-04
 -1      1244 2.54546E-01 1.33466E-01-4.48950E-02 1.45701E-01-1.14004E-02-1.71608E-02
 -1      1245-5.27644E-04 6.71196E-03 8.52725E-03 5.55404E-02-3.90502E-02 1.51974E-02
 -1      1246 1.00959E-02 1.43661E-02-1.31671E-02 5.84967E-02-1.89106E-02-8.62005E-03
 -1      1247 1.98043E-01 1.25223E-01-3.96441E-02-1.05705E-01 3.84288E-02-7.59538E-02
 -1      1248 3.49448E-01 2.71508E-01 4.80510E-02 2.02253E-01-6.48233E-02-7.52862E-02
 -1      1249 3.87911E-01 2.31761E-01-1.80865E-02 2.48335E-01-5.21032E-02-1.78718E-01
 -1      1250 3.07564E-01 2.45874E-01 1.27925E-02 2.31991E-01-7.97362E-02-9.79446E-02
 -1      1251-1.05602E-02-1.22269E-01-1.39327E-01-2.71456E-02-4.85564E-02-8.01711E-02
 -1      1252 3.27462E-01 2.62675E-01 6.66018E-02-2.41480E-01 1.16782E-01-1.01633E-01
 -1      1253 3.91028E-01 2.32362E-01-3.18313E-02-2.28089E-01 2.86426E-02-1.37665E-01
 -1      1254 3.41942E-01 2.37943E-01 6.41334E-02-2.14884E-01 6.69209E-02-6.73442E-02
 -1      1255 1.84203E-01 1.84908E-01-2.39039E-02 1.25956E-01-4.74133E-02-4.28688E-02
 -1      1256 3.19939E-01 1.43872E-01-4.81513E-02 1.57202E-01-8.92308E-03 4.26269E-03
 -1      1257 4.08877E-01 1.17017E-01-3.80118E-02 1.33458E-01-1.93945E-02-4.07276E-02
 -1      1258 4.22884E-01 6.19633E-02-1.09493E-01 6.48002E-02-4.58552E-03 3.03217E-03
 -1      1259 4.60946E-01 1.67681E-01-5.77168E-02 1.58455E-01 2.86415E-02 1.96873E-02
 -1      1260 3.85789E-01 9.75247E-02-8.35492E-02 1.22809E-01-3.26439E-03-2.42467E-03
 -1      1261 3.06269E-01 4.77132E-02 9.95296E-02 8.27207E-03 4.18123E-03 3.75079E-01
 -1      1262 7.67709E-01 1.88823E-01 1.95071E-02-2.95215E-03 6.18395E-03 1.92336E-01
 -1      1263 8.53710E-01 1.23058E-01 6.38647E-02 1.98380E-02 6.37817E-03 1.72371E-01
 -1      1264 2.73843E-01-2.35825E-02 1.74548E-01-8.09308E-03-2.19606E-02 3.16452E-01
 -1      1265 6.91812E-01 1.61846E-01 3.84811E-03-2.00438E-01-8.11416E-02 2.02327E-01
 -1      1266 1.71758E-01-2.34232E-02 1.96714E-01-9.13213E-02-9.57887E-02 2.55481E-01
 -1      1267 4.82653E-01 2.86966E-01-2.60846E-02-2.38737E-01-1.13442E-01 9.54226E-02
 -1      1268 4.41673E-01 2.47533E-01-2.25965E-02-2.79210E-01-1.27844E-01 1.22001E-01
 -1      1269 1.06864E-01 5.45749E-02 1.35997E-01-1.17569E-01-1.56134E-01 1.77225E-01
 -1      1270 4.35850E-01 6.88238E-02-7.72499E-02-4.91954E-02-2.18227E-03-5.39144E-02
 -1      1271 5.00892E-01 8.25227E-02-4.32482E-02 5.57093E-02-3.40992E-03-5.78310E-02
 -1      1272 5.46508E-01 8.61158E-02-3.65136E-02-2.15575E-02-4.36919E-03 2.94956E-02
 -1      1273 1.21076E-01 4.94109E-02 7.84793E-02 1.15138E-01 1.14389E-01 2.01517E-01
 -1      1274 4.41232E-01 2.79174E-01 1.82781E-02 2.62404E-01 1.25897E-01 1.13911E-01
 -1      1275 7.79740E-01 2.21153E-01-1.00056E-02 2.03759E-01 9.48449E-02 2.03676E-01
 -1      1276 2.89478E-01 9.42190E-02 1.18848E-01 7.33807E-02 1.31016E-01 2.82882E-01
 -1      1277 7.06682E-01 2.37338E-01 3.40751E-02 1.80554E-01 5.99084E-02 2.37057E-01
 -1      1278-3.62464E-01-2.10614E-01-1.49998E-01-2.32596E-02 4.98116E-03 1.98871E-01
 -1      1279 8.49606E-02-9.58795E-02-5.22953E-02 1.71829E-02-6.60188E-03-7.42491E-02
 -1      1280-2.34739E-01-3.25162E-01-1.94918E-01-4.21201E-03-1.80429E-02-1.20585E-01
 -1      1281-2.44281E-01-1.36328E-01-7.25593E-02-2.66046E-02 4.66706E-04 1.12184E-01
 -1      1282 5.81885E-02-1.20055E-01-2.15631E-02 5.32251E-03-5.65571E-04-3.38813E-02
 -1      1283-3.16674E-01-1.38098E-01-3.33415E-02-5.44983E-02 1.13765E-01 2.63402E-01
 -1      1284-8.48941E-02-1.14378E-01-5.42433E-03 2.75044E-02-1.29272E-02-1.45720E-01
 -1      1285-1.72756E-01-2.56501E-01-1.41438E-01 1.86743E-02 4.44483E-02-1.02321E-01
 -1      1286-2.01757E-01-1.20315E-01-7.78187E-02-1.20443E-02 6.66357E-02 4.04881E-02
 -1      1287-1.30112E-01-1.04607E-01-5.79287E-02-8.06651E-02 1.02364E-01 9.86465E-02
 -1      1288 1.07498E-02-7.89951E-02-6.63009E-02 5.79246E-02-2.11918E-02-9.85022E-02
 -1      1289-1.45375E-01-2.32558E-01-8.05507E-02 5.11484E-02 8.07801E-02-1.02568E-01
 -1      1290-2.49648E-01-1.42019E-01-4.74612E-02-3.50774E-02 1.03665E-01 1.79764E-02
 -1      1291-1.02486E-01-1.40383E-01-7.44490E-02 6.30384E-02 2.12181E-02-1.64587E-02
 -1      1292-4.95632E-02-1.95655E-02-2.31524E-02-2.82346E-03 7.95534E-02 2.10378E-02
 -1      1293 2.82556E-02-1.45424E-02-2.49505E-02 5.22916E-02-1.84623E-02-1.23863E-01
 -1      1294-6.98759E-02-9.60836E-02 5.39527E-02 5.51317E-02 1.51656E-01-2.03201E-01
 -1      1295-1.13834E-01-9.84799E-02-4.64366E-02-5.20521E-02 5.72264E-02-1.40484E-02
 -1      1296 4.67243E-02 5.91828E-02 1.39517E-02-5.67222E-02-1.84555E-02 1.17696E-02
 -1      1297-9.87526E-04-2.55492E-02-7.50859E-02 5.54077E-02-2.69273E-02-9.39155E-02
 -1      1298 1.51809E-01 1.59154E-01 2.76991E-01 4.63167E-02 6.70141E-02-2.06160E-01
 -1      1299 3.64047E-02 5.87442E-03 1.82120E-02-7.32110E-03 1.99237E-02-5.60638E-02
 -1      1300 1.53570E-02 6.77052E-02 1.49026E-02 1.47416E-02-4.48402E-03-8.36691E-02
 -1      1301 1.26450E-01 1.68535E-01 2.30205E-01 2.40133E-02-7.83757E-03-2.98678E-01
 -1      1302 5.13842E-02 5.26167E-02-1.51004E-02-2.16003E-02-3.22886E-02-1.82738E-02
 -1      1303-7.44453E-02 4.70026E-02-3.75134E-03 6.50867E-02 2.17179E-02-6.99420E-02
 -1      1304 1.78984E-01 2.29555E-01 2.11406E-01 2.38390E-02-5.00891E-02-2.34408E-01
 -1      1305 1.67063E-01 8.58844E-02 1.23909E-02-4.69170E-02-9.96787E-02 2.67368E-02
 -1      1306 1.02196E-01 1.97664E-01 5.38191E-02 1.36110E-02 5.04297E-03-1.17619E-01
 -1      1307 2.03540E-01 2.36546E-01 1.64782E-01-7.42409E-03-8.85177E-02-1.45904E-01
 -1      1308 3.65142E-01 1.65664E-01-3.88148E-02-3.73365E-02-6.51948E-02 5.05141E-02
 -1      1309 7.15424E-02 1.99674E-01 2.08496E-02-1.61829E-02-7.19663E-04-9.88557E-02
 -1      1310 2.20271E-01 2.90381E-01 1.86540E-01-7.79360E-03-4.05318E-02-1.13534E-01
 -1      1311 2.97220E-01 1.98717E-01 1.00764E-01-3.11685E-03 4.55953E-02 1.00119E-01
 -1      1312-1.99655E-02 1.03501E-01 1.54529E-02-4.66135E-02-7.01543E-03-1.42066E-01
 -1      1313 2.24261E-01 3.33413E-01 6.68351E-02-2.75044E-03-3.63557E-03-1.32264E-01
 -1      1314 2.93883E-01 1.80622E-01 2.61466E-02 6.54529E-02 1.33506E-02 1.10523E-01
 -1      1315-2.18899E-02 7.49545E-02 1.45587E-01-5.82553E-02 1.62043E-02-1.27898E-01
 -1      1316 9.31340E-02 1.81044E-01-6.24974E-02-1.58628E-02 4.48646E-02-1.26893E-01
 -1      1317 1.49289E-01 1.16203E-01 3.50784E-02 6.87088E-02 7.81038E-02 3.16643E-02
 -1      1318 8.22973E-02 5.45828E-02 8.12722E-02 1.29799E-02 6.08944E-02 3.67329E-02
 -1      1319 2.91017E-04 3.86443E-02 5.46398E-02-3.22999E-02-1.20866E-02-1.11593E-01
 -1      1320 3.57605E-02 7.04157E-02-4.40292E-02-4.97680E-02 1.09370E-01-2.15122E-01
 -1      1321-1.18312E-02 2.88835E-03 3.08899E-02-1.53530E-04 6.64846E-02-4.33991E-02
 -1      1322 6.67397E-02 2.85867E-02 2.98693E-02-2.97404E-02 4.83007E-03-3.82717E-02
 -1      1323-5.73270E-02-7.43276E-02-4.63613E-02 7.89632E-02-1.20171E-02 6.21194E-02
 -1      1324 6.99895E-03 1.82382E-02 1.80468E-02-6.34278E-02-3.06614E-02-9.35140E-02
 -1      1325-5.84492E-02-5.84939E-02-9.33505E-02-4.67276E-02 4.90701E-02-2.23778E-01
 -1      1326-1.49171E-02 1.22907E-02-1.87369E-02 3.96966E-02 1.54133E-02-2.18891E-02
 -1      1327 1.31745E-02 5.10529E-03 2.90235E-02-5.29991E-02 1.22228E-02-7.53299E-02
 -1      1328-1.14766E-01-1.66083E-01-2.26578E-01-4.22642E-02-3.77296E-02-2.50162E-01
 -1      1329-2.07026E-02-6.40683E-02-1.94329E-03 2.48570E-02-5.44596E-02-1.65170E-02
 -1      1330 2.91563E-02-9.22173E-02 2.28274E-02-5.94170E-02 1.38780E-02-7.27857E-02
 -1      1331-1.54563E-01-1.91351E-01-1.45792E-01-1.16027E-02-3.66984E-02-1.91454E-01
 -1      1332-1.38125E-01-1.15668E-01 1.11167E-02 6.44343E-02-6.61186E-02 3.14017E-02
 -1      1333-2.39842E-01-1.63481E-01-2.59772E-01-2.73066E-03-8.57808E-02 2.19914E-01
 -1      1334 2.39963E-02-1.43301E-01-4.48567E-02-2.77562E-02 1.67158E-02-9.89954E-02
 -1      1335-2.25211E-01-2.81112E-01-2.19228E-01 2.74753E-03-8.76527E-02-1.56644E-01
 -1      1336-1.00445E-01-6.65391E-02 2.64133E-02 2.90910E-02-3.83555E-02 4.71831E-02
 -1      1337-8.86305E-02-1.45374E-01-2.47448E-02-2.95079E-02-1.13251E-02-7.62403E-02
 -1      1338-3.18335E-02 1.39638E-01 2.87601E-02-1.73776E-02 3.37708E-01 3.37779E-01
 -1      1339 1.74564E+00 1.25184E+00 1.19899E+00-5.82505E-02-9.95732E-02 9.92697E-01
 -1      1340-1.12581E-01-1.56032E-01-1.96841E-01-3.69864E-02-1.01860E-01 7.19267E-01
 -1      1341-1.48392E+00-9.87101E-01-9.88410E-01 1.77536E-02-9.88876E-02 1.00409E+00
 -1      1342 2.61941E-01 2.56613E-01 2.09069E-01-1.88368E-02-4.74225E-02 6.85783E-01
 -1      1343 1.47674E-02-4.47444E-02 6.08903E-02 9.97775E-03 1.97374E-01 3.60131E-02
 -1      1344-5.26307E-04 2.37762E-02-1.74830E-02 8.22091E-03 1.92272E-01 2.43455E-02
 -1      1345 2.20395E-01 4.21887E-01 2.36231E-01-2.83638E-02 2.88140E-01 4.61144E-02
 -1      1346 4.97772E-02 1.88201E-01-4.01587E-03 5.22145E-02 3.78214E-01 4.86111E-01
 -1      1347-9.42701E-02 7.50098E-02-8.54015E-02 7.85148E-03 4.23037E-01 5.09797E-01
 -1      1348-4.32132E-01-2.05854E-01-2.90497E-01-4.03408E-02 4.64757E-01 5.53097E-01
 -1      1349-3.43237E-01-5.12476E-01-3.42285E-01 3.18059E-03-3.52944E-01 5.81520E-02
 -1      1350-1.66467E-02-1.85163E-02-2.86486E-02 1.32344E-02-2.43236E-01 5.49389E-02
 -1      1351 1.02692E-01 1.47227E-01 1.12236E-01 9.65447E-03-2.03336E-01 3.70724E-02
 -1      1352 1.20270E+00 9.00394E-01 8.41237E-01-2.09320E-01-4.59933E-01 8.67015E-01
 -1      1353 1.92111E-01 2.32487E-01 4.48898E-02-8.12515E-02-2.71147E-01 5.67556E-01
 -1      1354-1.36467E-01 1.45488E-02 4.39387E-02 4.42389E-02-3.68385E-01 6.15987E-01
 -1      1355 2.63965E-01 2.40257E-01 3.61792E-01-1.03751E-02-3.12961E-01 5.97765E-01
 -1      1356 6.82897E-01 4.14047E-01 2.34543E-01 1.08309E-01 3.10011E-01 5.31785E-01
 -1      1357-1.67879E-01-2.02015E-01-1.28028E-01-7.63818E-02 3.10601E-01 6.22375E-01
 -1      1358-1.27550E+00-1.08191E+00-9.42963E-01-2.41932E-01 4.29929E-01 7.56233E-01
 -1      1359 1.35318E+00 9.79527E-01 9.33084E-01 1.40269E-01 2.96106E-01 9.76115E-01
 -1      1360 2.13225E-01 1.81895E-01 1.92308E-01 3.00564E-02 2.39515E-01 7.76777E-01
 -1      1361-4.72749E-02-8.93198E-02-3.80311E-02-1.20838E-01 1.87108E-01 7.24851E-01
 -1      1362 3.67790E-01 4.54286E-01 3.35142E-01 1.29232E-01 3.11179E-01 5.84133E-01
 -1      1363 2.95570E-02-1.13515E-01 1.17294E-02-7.14703E-02 3.76334E-01 6.77169E-01
 -1      1364 8.99520E-02 2.27131E-02 1.44573E-01-2.10820E-02 2.97242E-01 1.53010E-01
 -1      1365 1.26726E-01 1.38167E-01 1.25271E-01-2.87995E-02 1.26032E-01 4.15660E-03
 -1      1366 2.91176E-02 1.38359E-02-1.60907E-02-1.26253E-02 6.40815E-02 5.02374E-03
 -1      1367 6.14160E-02 3.32073E-02 5.87896E-02-4.30684E-03 6.33246E-02 4.91360E-03
 -1      1368-3.63397E-02-9.27098E-02-8.36598E-02-1.63927E-02 1.28551E-01 6.85264E-03
 -1      1369 1.63144E+00 1.06379E+00 1.07810E+00 3.04216E-02-6.52390E-02 1.03565E+00
 -1      1370 8.75132E-01 4.58975E-01 5.33945E-01 7.30349E-02-1.01423E-01 7.25781E-01
 -1      1371-9.17540E-01-6.47833E-01-5.17646E-01 1.30994E-01-5.37365E-02 7.28210E-01
 -1      1372 2.97607E-01 2.68203E-01 3.56002E-01 4.91572E-02-8.98494E-02 7.64483E-01
 -1      1373 8.82910E-01 8.47554E-01 6.92185E-01-1.72921E-01-4.87690E-01 5.94266E-01
 -1      1374-1.11699E+00-1.10909E+00-8.90434E-01 2.17457E-01-4.97228E-01 6.04363E-01
 -1      1375-1.13050E-01-1.35875E-01-1.21045E-01 1.13244E-02-2.95896E-01 1.73637E-01
 -1      1376 9.29682E-02 9.64137E-03 4.31183E-02 6.26122E-03-1.18373E-01-1.27671E-02
 -1      1377 1.26306E-02 3.13903E-02 1.76083E-02 1.80999E-02-3.99528E-02-2.63057E-02
 -1      1378 1.93268E-01 2.97227E-01 2.20019E-01-3.20769E-02-4.43007E-01 3.42442E-01
 -1      1379-2.39499E-01-1.02933E-01 2.00265E-03-6.77162E-02 9.17123E-02 7.95449E-01
 -1      1380 3.95952E-02 6.38360E-02 3.56672E-02 1.15684E-02-1.36422E-01 4.98307E-03
 -1      1381-6.67792E-02-6.98540E-02-3.65776E-02-3.30003E-02-1.19337E-01 1.51895E-02
 -1      1382 9.70046E-03 2.14983E-02 8.67944E-03 8.09922E-03-1.20673E-02 2.02891E-02
 -1      1383 3.42022E-02 1.22871E-01-4.17848E-02-3.90423E-02-2.68279E-01 6.23951E-02
 -1      1384 2.70608E-02 3.51843E-02 4.26126E-02 1.12132E-02-1.75830E-01 5.20387E-02
 -1      1385-1.04771E-02 4.31079E-02-2.39440E-02 1.26394E-03-2.51957E-01 1.78075E-01
 -1      1386-2.46379E-02-8.11382E-02-7.12977E-02-6.27771E-03-3.12612E-01 1.61603E-01
 -1      1387 8.06731E-03 8.63989E-03 7.11305E-03 1.51245E-02 5.20997E-02 4.94712E-04
 -1      1388-3.52763E-02-3.59813E-02-4.48769E-02-4.52324E-04 1.13739E-01 1.19501E-02
 -1      1389-1.29757E-01-4.82477E-01-2.00056E-01 3.15533E-02 4.10524E-01 3.22692E-01
 -1      1390 1.04320E-01-9.62819E-02 3.30130E-02 6.00619E-02 4.25134E-01 3.39367E-01
 -1      1391 6.98022E-01 7.97743E-01 5.98306E-01 1.52632E-01 5.39342E-01 4.32625E-01
 -1      1392-3.04487E-01-2.88370E-01-4.59020E-01-5.92882E-03 3.11328E-02 7.44409E-01
 -1      1393 1.39596E+00 9.42420E-01 9.35352E-01 5.85672E-02 9.99526E-02 1.01491E+00
 -1      1394 2.84622E-01 2.90480E-01 3.90226E-01 5.74809E-03 1.03382E-01 7.67886E-01
 -1      1395-1.59066E+00-1.03393E+00-1.04983E+00-6.04064E-02 1.18034E-01 1.02049E+00
 -1      1396-4.79995E-01-4.82215E-01-3.54060E-01 1.96817E-01-2.67821E-01 8.29881E-01
 -1      1397-3.96751E-01-4.36869E-01-3.13668E-01 1.44167E-01-3.66292E-01 6.38643E-01
 -1      1398-3.52950E-01-4.82193E-01-3.28215E-01 1.02422E-01-4.49469E-01 5.42429E-01
 -1      1399 5.39091E-01 3.81065E-01 1.98856E-01-1.59475E-01-1.59264E-01 7.79617E-01
 -1      1400 7.89925E-02 1.70435E-01 1.00302E-01-3.19968E-03 2.09456E-01 2.85272E-02
 -1      1401 1.16221E+00 8.50137E-01 8.04939E-01-1.28687E-01-2.99447E-01 9.87129E-01
 -1      1402-2.00185E-02-8.95396E-02-1.15725E-01-1.13683E-02-2.99882E-01 5.50520E-01
 -1      1403-2.32012E-01-2.52344E-01-3.91807E-01-2.43887E-02-2.95535E-01 4.00852E-01
 -1      1404 3.09744E-01 5.24888E-01 2.87745E-01-2.64388E-02-4.24076E-01 3.68175E-01
 -1      1405-1.85122E-01-2.52445E-01-1.83504E-01-5.59080E-02 4.14428E-01 2.38499E-01
 -1      1406 3.53038E-01 3.47490E-01 4.86375E-01 7.37923E-03-1.86782E-01 7.00786E-01
 -1      1407-1.73514E-01-3.17994E-01-1.89775E-01-7.20064E-02 3.81516E-01 5.02921E-01
 -1      1408-8.72864E-02-1.07559E-01-7.00967E-02-9.74345E-02 1.68000E-01 7.90450E-01
 -1      1409 4.35379E-01 1.64902E+00 3.99992E-01 2.69299E-01 3.79467E-02-8.59777E-02
 -1      1410 1.88526E-01 1.13613E+00 1.49117E-01 1.66244E-01 5.12012E-03-7.18573E-02
 -1      1411-2.02907E-01-3.69178E-02-4.98511E-02-4.20251E-02 8.89660E-02-6.84923E-01
 -1      1412-7.38422E-02 5.53869E-02 4.90038E-02-3.56627E-02 1.87434E-01-6.27498E-01
 -1      1413 4.40914E-01 6.03708E-01 4.22115E-01 3.02178E-01-2.84100E-01-3.80179E-01
 -1      1414 2.28807E-01 3.21513E-01 2.04679E-01 2.04526E-01-2.85441E-01-3.10028E-01
 -1      1415 6.02745E-01 1.90919E-01 1.35086E-01 2.44843E-01-1.60508E-01-3.76831E-01
 -1      1416 6.01534E-01 1.28653E-01 2.23517E-02 2.44704E-01-2.02491E-01-3.86742E-01
 -1      1417-3.61167E-01-1.55622E-01-2.77946E-01-1.44258E-01-2.01569E-01-4.12097E-01
 -1      1418-3.21861E-01-1.41872E-01-2.93711E-01-1.68941E-01-2.98997E-01-4.12274E-01
 -1      1419 1.47369E-01 8.68034E-01 5.85206E-01-1.76029E-01 1.22735E-01-2.13772E-01
 -1      1420 1.62994E-01 8.16260E-01 5.27529E-01-1.82045E-01 2.04493E-01-1.30035E-01
 -1      1421 4.66276E-01 7.56423E-01 2.43744E-01-5.11781E-01 2.72825E-01-2.32103E-01
 -1      1422 4.27684E-01 6.06953E-01 1.59312E-01-4.56769E-01 2.89384E-01-2.14390E-01
 -1      1423 2.33915E-01 4.52748E-03-3.48643E-02-3.58338E-02-1.42879E-01-7.46774E-01
 -1      1424 2.29125E-01-1.42728E-02-2.18699E-02-1.23296E-02-1.24471E-01-7.52965E-01
 -1      1425 2.90280E-01 5.66334E-02 2.56353E-01 3.00880E-02 1.11446E-01-6.46891E-01
 -1      1426 2.06337E-01-3.07192E-03 1.56286E-01 5.15501E-02 1.09384E-01-6.18966E-01
 -1      1427 2.97769E-01 1.26279E+00 3.08402E-01-3.08599E-01 1.49742E-01-1.24796E-01
 -1      1428 2.46634E-01 1.00092E+00 1.22494E-01-2.90100E-01 1.55958E-01-8.28286E-02
 -1      1429 1.95669E-01-8.65421E-02-4.06449E-02 1.19019E-01 1.22911E-01-5.76455E-01
 -1      1430 1.91937E-02-4.59058E-02-1.00239E-01 1.52335E-01 9.17549E-02-6.17900E-01
 -1      1431 4.05772E-01 6.57172E-01 4.63064E-01-3.19046E-01 3.16451E-01-3.52940E-01
 -1      1432 2.89982E-01 4.48519E-01 3.23482E-01-2.76352E-01 3.30278E-01-3.05116E-01
 -1      1433 4.09333E-01 1.10150E-01 4.12533E-02-5.97414E-02 9.94743E-03-1.77752E-01
 -1      1434 6.64850E-02 5.59855E-02 1.04216E-01 9.40165E-02 2.33893E-02-4.01651E-01
 -1      1435 9.85902E-01 8.30899E-01 7.64587E-01-1.53707E-03 1.41941E-02-2.90602E-01
 -1      1436 4.06382E-01 2.14010E-01 4.18574E-01 1.21327E-01-2.10154E-01-5.21661E-01
 -1      1437 3.15757E-01 1.61149E-01 3.44716E-01 1.32655E-01-2.41832E-01-5.39215E-01
 -1      1438 3.67016E-01 1.08208E+00 9.87201E-02 3.70413E-01 7.97873E-05-1.65234E-01
 -1      1439-7.37465E-01-2.20459E-01-3.14519E-01 2.30659E-01 2.65194E-01-4.71244E-01
 -1      1440-5.20756E-01-6.56253E-02-1.28855E-01 1.83086E-01 3.05077E-01-4.52430E-01
 -1      1441 4.61300E-01 4.04292E-01 3.57936E-01-4.05271E-02-8.06231E-02-3.22945E-01
 -1      1442 2.80766E-01 2.29374E-01 1.28414E-01-9.10424E-02-4.78135E-02-3.94812E-01
 -1      1443 6.41407E-01 1.38147E-01 5.88657E-02-1.19792E-01 2.30087E-01-4.26384E-01
 -1      1444 8.58169E-01 2.45844E-01 2.21486E-01-2.64061E-01 2.72867E-01-4.87787E-01
 -1      1445-2.25200E-01 1.14086E-01-5.42515E-02-1.45422E-01 1.27781E-01-5.71982E-01
 -1      1446-2.28018E-02 7.52596E-02 1.53480E-02-1.65705E-01 1.21839E-01-6.03672E-01
 -1      1447-4.90350E-01-7.33068E-01-2.54030E-01 4.45257E-01 1.90731E-01-2.08622E-01
 -1      1448-5.12765E-01-7.21406E-01-1.89880E-01 4.54080E-01 2.24796E-01-2.13190E-01
 -1      1449-2.95314E-01-2.32939E-01-2.13993E-01 3.09328E-02-6.16348E-02-3.74244E-01
 -1      1450-4.42031E-01-4.33891E-02-1.22890E-01 2.08770E-01-1.13894E-01-6.69957E-01
 -1      1451-2.82890E-01 3.08669E-02-6.48541E-03 1.59904E-01-1.33869E-01-6.10141E-01
 -1      1452-2.33343E-01-8.95277E-01-5.05236E-01-1.98793E-01-7.90813E-02-1.46978E-01
 -1      1453-1.42816E-01-7.88156E-01-4.06689E-01-1.81965E-01-8.55436E-02-8.69740E-02
 -1      1454-3.14035E-01-4.53609E-01-4.99931E-01 2.59008E-01 1.86119E-01-3.35113E-01
 -1      1455-2.76884E-01-4.02447E-01-3.82497E-01 3.10327E-01 2.35961E-01-2.96262E-01
 -1      1456-2.12557E-01-3.77468E-01-2.70846E-01-2.75184E-01-2.18288E-01-3.33100E-01
 -1      1457-2.03806E-01-4.02218E-01-3.18184E-01-2.93213E-01-3.18689E-01-3.12909E-01
 -1      1458 1.72396E-01 1.14167E+00 3.94480E-01 1.96732E-01-1.47459E-01-1.36986E-01
 -1      1459 1.61412E-01 1.15804E+00 2.82242E-01 2.15912E-01-1.77307E-01-8.82670E-02
 -1      1460-4.31787E-01-1.90436E-01-4.12889E-01 1.96123E-01 2.82929E-01-5.62871E-01
 -1      1461-3.59635E-01-1.34934E-01-3.44205E-01 1.69186E-01 3.25805E-01-5.30119E-01
 -1      1462-3.05048E-01-1.48464E+00-2.64366E-01 3.08234E-01 1.12278E-01-1.52621E-01
 -1      1463-1.95621E-01-1.05319E+00-7.59369E-02 2.02472E-01 1.04978E-01-4.75746E-02
 -1      1464-2.59111E-01-1.30686E+00-3.35792E-01-2.11380E-01-6.16250E-02-7.10665E-02
 -1      1465-1.67293E-01-9.46465E-01-1.36788E-01-1.35931E-01-6.35588E-02-4.05642E-02
 -1      1466 2.42211E-01 1.19408E+00 4.83446E-01-2.66285E-01 1.32037E-01-1.54316E-01
 -1      1467 1.96490E-01 8.75530E-01 2.94437E-01-2.21256E-01 9.20770E-02-1.08337E-01
 -1      1468-5.61556E-01-7.11616E-01-2.31188E-01-4.22078E-01-2.11824E-01-2.20889E-01
 -1      1469-4.20057E-01-5.38013E-01-1.88036E-02-3.63618E-01-2.14951E-01-2.06372E-01
 -1      1470 5.41448E-01 8.43937E-01 2.28517E-01 4.95806E-01-1.58470E-01-2.02851E-01
 -1      1471 3.35664E-01 7.48818E-01 5.99080E-02 3.86964E-01-1.88675E-01-1.63488E-01
 -1      1472-1.95042E-01-1.11073E+00-8.53309E-02 4.52754E-02 3.38333E-02-1.18225E-01
 -1      1473-2.87416E-01-1.15629E+00-3.93027E-01-1.69217E-01-4.02015E-02-1.62760E-01
 -1      1474-1.50277E-01-8.38700E-01-1.87049E-01-1.45034E-01-4.87674E-02-1.40381E-01
 -1      1475 3.70857E-01 1.45849E-01 8.08634E-02 1.24188E-01-2.10821E-02-1.78781E-01
 -1      1476 5.96954E-01 5.75347E-01 1.59722E-01-4.01576E-01 6.11381E-02-2.11343E-01
 -1      1477-8.07072E-01-3.06129E-01-4.09367E-01-1.81169E-01-1.50432E-01-4.48989E-01
 -1      1478-5.29485E-01-1.02586E-01-1.06023E-01-1.21050E-01-1.51234E-01-3.60327E-01
 -1      1479-3.25099E-01-8.34368E-02-2.07965E-01 5.75310E-02-7.52682E-02-7.15420E-01
 -1      1480-2.60093E-01 2.16053E-04-1.31529E-01 8.67805E-02-1.07437E-01-7.33876E-01
 -1      1481 2.50440E-01-4.97750E-02 6.63705E-02-1.83797E-01-8.93391E-02-5.96282E-01
 -1      1482 1.85593E-01-1.06435E-01 1.56478E-02-1.93385E-01-1.00882E-01-6.09892E-01
 -1      1483-7.09693E-01-5.38460E-01-4.67223E-01-4.88524E-02 5.01220E-02-4.10437E-01
 -1      1484-1.98012E-01 8.54530E-03-1.77988E-01-7.67367E-02-1.63947E-01-4.01320E-01
 -1      1485-4.49309E-01-1.60787E-01-2.88266E-01-9.84675E-02-1.10267E-01-4.56186E-01
 -1      1486-1.43877E-01 5.24540E-02-1.07866E-01 9.90745E-03 1.90280E-02-2.09848E-01
 -1      1487-1.06348E-01 2.03149E-01-1.46869E-01-1.01039E-01 2.47804E-02-4.38233E-02
 -1      1488-1.74309E-01-7.45125E-01-6.09727E-01 1.53709E-01 1.54675E-01-2.22077E-01
 -1      1489-8.92974E-02-5.48593E-01-4.85439E-01 1.77690E-01 1.58719E-01-1.40529E-01
 -1      1490 3.17914E-02 4.10211E-02 7.42163E-02 2.87298E-02-3.23691E-02-2.05532E-01
 -1      1491-9.43392E-01-7.59865E-01-6.69370E-01-3.46096E-02 3.48000E-02-2.74744E-01
 -1      1492-4.39869E-01-1.61123E-01-9.00285E-02 6.82811E-02-7.28833E-02-1.42112E-01
 -1      1493 8.67400E-02 1.25293E+00 1.02453E-02 5.27277E-02 8.72388E-02-1.00577E-01
 -1      1494 4.03830E-01 2.12797E-01 4.54212E-01-9.75777E-02 8.10161E-02-5.10364E-01
 -1      1495 2.35298E-01 9.57284E-02 2.88799E-01-8.57270E-02 1.32536E-01-4.62940E-01
 -1      1496 5.23261E-01 5.15098E-01 2.36658E-02 3.65530E-01 6.90298E-03-1.21224E-01
 -1      1497-8.85867E-01-7.60111E-01-7.01687E-01 6.62581E-02-4.00546E-02-3.23331E-01
 -1      1498 3.16152E-01 6.64982E-02 2.28254E-01-1.90567E-02-2.06555E-01-7.89173E-01
 -1      1499 2.64216E-01 1.04722E-02 2.08542E-01-2.25043E-02-1.85219E-01-7.83635E-01
 -1      1500-6.03483E-01-1.43610E-01-1.87311E-01 2.25179E-01 3.42280E-01-4.87761E-01
 -1      1501-4.77241E-01-1.45001E-01-1.81926E-01 1.61235E-01 3.27901E-01-4.40828E-01
 -1      1502-6.27166E-01-5.65666E-01-1.76506E-01-3.51072E-01-3.29028E-02-1.77495E-01
 -1      1503 3.57136E-01 4.55462E-02 2.96882E-01 1.26997E-01-2.10241E-01-5.08982E-01
 -1      1504 4.51444E-01 2.70973E-01 4.18584E-01 1.14183E-01-1.31854E-01-5.18052E-01
 -1      1505 8.40312E-02 7.06045E-01 4.27803E-01 8.02251E-02-1.23793E-01-1.17595E-01
 -1      1506 2.05551E-01 8.85406E-01 5.55639E-01 1.17817E-01-1.31550E-01-1.97207E-01
 -1      1507-1.82401E-01-1.09449E+00-4.05212E-01 2.21319E-01 8.54516E-02-9.10918E-02
 -1      1508-1.56659E-01-1.04289E+00-3.16285E-01 2.04815E-01 1.26277E-01-5.69905E-02
 -1      1509 7.18031E-01 2.61921E-01 4.91386E-02 1.75540E-01-7.72617E-02-2.36287E-01
 -1      1510-2.28432E-01-8.63899E-01-4.34212E-01-2.11626E-01-9.99561E-02-2.08815E-01
 -1      1511-1.33526E-01-7.29883E-01-3.41823E-01-1.86320E-01-9.29423E-02-1.69103E-01
 -1      1512-8.64157E-01-7.27828E-01-6.33317E-01-1.42000E-02 5.30923E-02-2.55305E-01
 -1      1513-4.03287E-01-1.24570E-01-2.22588E-01-1.81586E-01-2.27949E-01-4.56425E-01
 -1      1514-4.29464E-01-1.44867E-01-2.56629E-01-1.88602E-01-2.71177E-01-4.59843E-01
 -1      1515-3.88950E-01-4.46904E-01-3.22322E-01-3.09832E-01-2.59376E-01-3.38184E-01
 -1      1516-3.40381E-01-3.91416E-01-2.78804E-01-2.81577E-01-2.90902E-01-3.30155E-01
 -1      1517 4.16247E-01 1.80811E-01 3.63696E-01-1.12312E-01 1.85607E-01-5.00217E-01
 -1      1518 2.30376E-01 6.88093E-02 2.08556E-01-3.56346E-02 1.42367E-01-4.61229E-01
 -1      1519-2.69782E-01-1.04457E-01-2.48626E-01-1.33543E-02 6.50385E-02-6.07921E-01
 -1      1520-6.27118E-02-2.55068E-02-1.27673E-01-2.03593E-02 4.58977E-02-6.32356E-01
 -1      1521-6.78371E-01-5.02875E-01-4.39975E-01 8.51740E-02-8.80440E-02-3.04042E-01
 -1      1522 2.42862E-01-1.10144E-01 1.87859E-03-7.82807E-02-1.36447E-01-6.82082E-01
 -1      1523 1.21517E-01-1.44966E-02-9.64511E-02-5.69659E-02-1.99404E-01-6.60889E-01
 -1      1524 5.83773E-01 5.45827E-01 4.38701E-01 3.95054E-03-5.33881E-02-2.43091E-01
 -1      1525 3.14527E-01 1.05440E+00 6.12102E-01-2.13429E-01 1.85798E-01-2.12160E-01
 -1      1526 1.74316E-01 8.29613E-01 4.84754E-01-2.06939E-01 1.86264E-01-1.80607E-01
 -1      1527-1.57493E-01 1.89400E-01-8.05585E-02 1.65648E-01 2.41525E-02-7.86078E-02
 -1      1528-2.98097E-01 5.74684E-04-2.23555E-01 2.82787E-02-1.14379E-01-6.24225E-01
 -1      1529-3.20084E-01 6.48712E-02-2.68395E-01-1.68229E-02-1.60098E-01-6.99480E-01
 -1      1530-2.91014E-01-5.28982E-01-6.48495E-01 2.91797E-01 2.78538E-01-3.49193E-01
 -1      1531-2.17507E-01-4.26590E-01-5.02494E-01 2.21530E-01 1.73057E-01-3.17136E-01
 -1      1532 2.84498E-01 1.41847E-01 8.39520E-02-1.17453E-01 6.49719E-02-2.44542E-01
 -1      1533-1.39281E-01-7.83711E-01-6.04318E-01-2.13112E-01-1.32621E-01-3.14736E-01
 -1      1534-1.23219E-01-7.22562E-01-6.35755E-01-2.03991E-01-1.44019E-01-2.07828E-01
 -1      1535-4.88857E-01-1.25107E-01-5.38651E-02-1.23794E-01-6.18653E-03-1.27517E-01
 -1      1536 2.90261E-01 1.19962E+00 4.38441E-01-2.28220E-01 8.95599E-02-1.79367E-01
 -1      1537 1.43668E-01 1.00273E+00 2.96048E-01-2.07387E-01 1.28795E-01-1.22371E-01
 -1      1538-1.83192E-01-8.35911E-01-4.00287E-01 1.41893E-01 5.46556E-02-1.74189E-01
 -1      1539-6.74973E-02-6.57545E-01-3.03086E-01 1.43708E-01 6.63662E-02-1.53693E-01
 -1      1540 3.87210E-01 5.90445E-01 3.41456E-01 3.47114E-01-2.65935E-01-2.97093E-01
 -1      1541 3.07419E-01 3.92023E-01 2.48735E-01 2.89107E-01-2.99147E-01-2.92389E-01
 -1      1542 2.89796E-01 2.49980E-01 1.72797E-01 6.42878E-02 5.43102E-02-3.78782E-01
 -1      1543-2.98556E-01 7.85339E-02 8.30318E-02 1.48519E-01-1.24296E-01-6.43254E-01
 -1      1544-1.82289E-01 1.04578E-01 1.13075E-01 1.53385E-01-1.67726E-01-6.08008E-01
 -1      1545 2.62368E-01 2.00796E-01 1.74677E-01 1.42873E-01 9.23193E-03-4.93662E-01
 -1      1546-6.07724E-01-2.52104E-01-3.83781E-01 2.00621E-01 3.23386E-01-6.21477E-01
 -1      1547-3.95509E-01-6.96390E-02-2.35918E-01 1.49575E-01 3.70236E-01-5.88594E-01
 -1      1548 7.46515E-01 6.47607E-01 5.66666E-01 8.60378E-02 5.34159E-02-3.50343E-01
 -1      1549-3.32848E-01 2.37210E-02 4.20641E-02-1.31476E-01 8.41541E-02-4.31346E-01
 -1      1550-1.76386E-01 5.48695E-03 2.71029E-02-1.26877E-01 9.07626E-02-5.10628E-01
 -1      1551-6.12414E-01-1.46161E-01-1.05965E-01-2.51366E-01-1.36032E-01-2.93050E-01
 -1      1552-4.76656E-01-4.52005E-02 2.26610E-02-1.28671E-01-1.55148E-01-2.42593E-01
 -1      1553 2.65984E-01 1.17263E+00 4.15129E-01-3.00315E-01 1.09292E-01-1.83961E-01
 -1      1554 2.00728E-01 8.05593E-01 1.51021E-01-3.30274E-01 5.44662E-02-1.81433E-01
 -1      1555-3.96409E-01-3.48974E-02 3.83115E-02-6.99615E-02 1.39173E-03-2.78537E-01
 -1      1556 4.84314E-01 6.87813E-01 5.06660E-01-3.46682E-01 3.31116E-01-3.73578E-01
 -1      1557 4.06621E-01 4.26409E-01 3.31295E-01-3.62393E-01 3.65786E-01-3.33313E-01
 -1      1558-4.54645E-01-5.94845E-01-2.34790E-01-3.15259E-01-1.26207E-01-1.76064E-01
 -1      1559 5.70804E-01 1.98457E-01 2.57389E-01-1.62939E-01 1.70100E-01-5.13417E-01
 -1      1560 4.35945E-01 9.80927E-02 1.05662E-01-8.62859E-02 1.51869E-01-4.91733E-01
 -1      1561-4.04603E-01 1.55628E-01-2.42417E-02 1.03133E-01-7.28464E-02-3.07696E-01
 -1      1562 6.01526E-01 2.21974E-01 1.28673E-01 2.57517E-01-2.52740E-01-4.65471E-01
 -1      1563 4.51136E-01 1.79619E-01 1.31873E-01 2.20059E-01-2.79866E-01-4.45940E-01
 -1      1564 1.46242E-01 3.08999E-01 4.11889E-01 2.10909E-01-1.97740E-01-3.75026E-01
 -1      1565 1.84102E-01 3.50864E-01 5.43677E-01 2.46098E-01-2.15741E-01-3.86982E-01
 -1      1566-7.03518E-01-5.98820E-02 5.14296E-03-2.40796E-01-7.14692E-02-1.30774E-01
 -1      1567-9.25643E-01-7.14887E-01-5.81629E-01 7.17038E-02-7.65294E-04-4.02260E-01
 -1      1568 5.65349E-01 4.57838E-01 3.39873E-01-8.79499E-02-1.11033E-01-4.11735E-01
 -1      1569-3.36774E-01-1.15328E-01-2.04928E-01 1.24953E-01 1.90516E-01-4.87485E-01
 -1      1570-2.44866E-01 3.32826E-03-1.46847E-01 8.72567E-02 2.69372E-01-4.91809E-01
 -1      1571 6.62004E-01 7.94613E-01 3.60644E-01 4.50672E-01-2.53017E-01-2.53103E-01
 -1      1572 4.16454E-01 4.68813E-01 1.21674E-01 3.33714E-01-2.45257E-01-2.19648E-01
 -1      1573 7.60604E-01 6.22060E-01 5.66632E-01-3.30361E-02-5.38465E-02-3.38244E-01
 -1      1574-3.49217E-01-4.99045E-01-3.82631E-01 2.85309E-01 1.95526E-01-3.17164E-01
 -1      1575-2.82406E-01-4.94487E-01-3.36851E-01 2.59687E-01 2.38977E-01-2.70047E-01
 -1      1576 9.34457E-01 8.11381E-01 7.77616E-01-3.22628E-02-7.49204E-02-3.49345E-01
 -1      1577 3.09284E-01 2.46255E-01 2.52581E-01-1.49730E-01-1.71175E-02-4.36929E-01
 -1      1578 2.11341E-01-1.11438E-02 1.32070E-01-5.22695E-03 1.06176E-01-6.93409E-01
 -1      1579 2.40200E-01 1.55824E-02 1.60705E-01-1.84850E-02 1.27678E-01-7.61048E-01
 -1      1580-3.57868E-01-2.97999E-01-2.39483E-01-1.58263E-01 2.54907E-02-3.78536E-01
 -1      1581-5.53044E-01 2.90947E-02-1.05422E-01 1.96948E-01-9.21785E-02-4.62477E-01
 -1      1582-5.45564E-01-3.99440E-04-1.85778E-01 1.26275E-01-9.60974E-02-4.64372E-01
 -1      1583-2.59768E-01-7.29946E-01-7.73649E-01 1.81486E-01 1.90351E-01-3.25379E-01
 -1      1584-1.24191E-01-5.54996E-01-6.73784E-01 1.86960E-01 1.87201E-01-2.12110E-01
 -1      1585-6.77272E-02-7.35168E-02-1.16723E-02-1.07981E-01 1.81545E-02-4.23397E-01
 -1      1586-4.48250E-01-5.81550E-01-2.39632E-01-3.43198E-01-1.73347E-01-2.17664E-01
 -1      1587-3.44019E-01-3.49628E-01-1.04610E-01-3.06913E-01-1.58277E-01-2.40186E-01
 -1      1588-5.90457E-01-1.82194E-01-8.21085E-02-2.27516E-01-1.80860E-01-3.82086E-01
 -1      1589-4.96751E-01-1.56336E-01-9.23548E-02-1.96586E-01-2.09766E-01-3.62460E-01
 -1      1590 3.89344E-01 1.34023E-02 9.72113E-02-2.25284E-01-5.57120E-02-4.55454E-01
 -1      1591 2.38557E-01-3.02615E-02-1.34440E-02-1.68191E-01-8.17034E-02-4.64169E-01
 -1      1592 1.59986E-01-3.87327E-02 4.55093E-03-7.50633E-02-8.70681E-02-6.77503E-01
 -1      1593 1.89063E-01-8.24433E-02 1.04413E-01-7.15061E-02-1.31442E-01-6.98443E-01
 -1      1594-1.17666E-01-2.22485E-02-5.79245E-03 6.13361E-02-1.06604E-01-6.24341E-01
 -1      1595-1.58243E-01 4.90118E-02-4.52644E-02 5.08786E-02-2.04182E-01-7.05732E-01
 -1      1596 3.41869E-01 6.94122E-01 2.86059E-01-4.12497E-01 2.51477E-01-2.44832E-01
 -1      1597 2.14856E-01 6.67430E-01 1.83153E-01-3.30569E-01 2.81106E-01-2.00864E-01
 -1      1598 3.52424E-01 1.41375E-01 2.97231E-01 1.06594E-01-2.51458E-01-5.25048E-01
 -1      1599 2.88671E-01 1.02106E-01 2.45971E-01 8.84879E-02-2.44815E-01-5.15993E-01
 -1      1600-3.46465E-01-7.24256E-01-2.54152E-01 4.09684E-01 2.18791E-01-1.90834E-01
 -1      1601-2.26631E-01-7.43307E-01-2.43263E-01 3.43811E-01 2.59960E-01-1.73470E-01
 -1      1602-4.85264E-01-5.04131E-01-1.17878E-01 3.24123E-01 1.51699E-02-1.59139E-01
 -1      1603 8.72072E-01 2.44320E-01 4.09260E-02 3.10491E-01-1.71637E-01-2.68058E-01
 -1      1604 6.67498E-01 1.80791E-01-4.84598E-02 3.12036E-01-1.72793E-01-2.44720E-01
 -1      1605 3.25016E-01 2.00016E-01 2.17488E-01-1.76886E-01 7.23813E-02-4.92808E-01
 -1      1606-6.40781E-01-2.61998E-01-2.66098E-01 2.05809E-01 3.13668E-01-5.72379E-01
 -1      1607-4.15779E-01-1.02636E-01-6.08206E-02 1.36781E-01 3.01108E-01-5.01546E-01
 -1      1608-1.07432E+00-8.66166E-01-8.04477E-01 6.93946E-02-2.13529E-02-3.98190E-01
 -1      1609 4.37354E-01-1.81486E-03 5.10883E-02 1.47105E-01 9.11367E-02-3.94301E-01
 -1      1610 2.50576E-01-3.16894E-02-7.05109E-02 1.40771E-01 6.46057E-02-4.18057E-01
 -1      1611-2.40942E-01-1.18925E+00-4.43519E-01 2.20777E-01 1.10933E-01-1.20702E-01
 -1      1612-1.40996E-01-1.03646E+00-3.60810E-01 1.72994E-01 1.01740E-01-6.62523E-02
 -1      1613 2.95794E-01 9.72822E-01 7.88102E-01-1.77527E-01 4.13105E-02-3.20230E-01
 -1      1614 1.16788E-01 7.28568E-01 6.97748E-01-1.40518E-01 7.39063E-02-2.84348E-01
 -1      1615 1.58452E-01-1.78508E-03 6.42800E-02 3.50634E-02 1.24200E-01-6.37972E-01
 -1      1616 2.20373E-01 8.73781E-03 1.16132E-01 2.97449E-02 1.44797E-01-7.40154E-01
 -1      1617 2.22428E-01-6.16143E-02 9.71255E-02 1.21367E-01-6.12293E-03-2.56848E-01
 -1      1618 1.20828E+00 1.03010E+00 9.94128E-01 3.30635E-02-5.32117E-02-3.70237E-01
 -1      1619-8.82512E-01-8.25900E-01-7.03634E-01-2.52578E-02 6.74743E-02-3.08861E-01
 -1      1620 8.46879E-01 6.90364E-01 5.80624E-01 4.02446E-02 3.06329E-02-2.88752E-01
 -1      1621 5.42019E-01 4.64808E-01 3.79333E-01-8.50904E-02 8.66920E-03-3.95320E-01
 -1      1622 2.29822E-01 1.27905E+00 4.16189E-01 2.15671E-01-1.01833E-01-1.21008E-01
 -1      1623 1.88154E-01 1.15524E+00 3.10920E-01 1.86116E-01-1.12388E-01-1.30950E-01
 -1      1624-3.40610E-01-1.29124E+00-5.25082E-01 1.98810E-01 1.19999E-01-1.59719E-01
 -1      1625-1.65792E-01-8.58931E-01-2.52782E-01 1.16940E-01 7.67678E-02-1.41986E-01
 -1      1626 4.38700E-01 1.15345E+00 1.95822E-01-3.97569E-01-2.10754E-02-2.19740E-01
 -1      1627-1.14845E+00-9.34506E-01-8.08155E-01-1.83364E-02 2.91853E-02-4.61650E-01
 -1      1628 2.80646E-01 5.90616E-01-3.29723E-04-2.10910E-01 6.42756E-02-1.44748E-01
 -1      1629 7.65396E-01 1.06958E+00 1.18846E+00-6.09442E-02 5.74258E-03-5.22867E-01
 -1      1630 1.77245E-01 5.71065E-01 4.54702E-01-1.00924E-01 3.91316E-02-3.41977E-01
 -1      1631-4.35423E-01-1.02515E+00-1.23706E-01-3.17049E-01 1.92186E-02-1.08518E-01
 -1      1632-4.13252E-01-4.93710E-01-2.84820E-01-3.20830E-01-2.40972E-01-2.53129E-01
 -1      1633-4.08906E-01-4.29905E-01-2.36630E-01-3.31674E-01-2.62311E-01-2.53770E-01
 -1      1634 2.12007E-01 6.74176E-02 9.47998E-02-7.22743E-02-2.26258E-02-6.27329E-01
 -1      1635 2.85346E-01 6.38043E-02 1.36300E-01-1.18456E-01-2.17200E-02-7.15077E-01
 -1      1636 3.68965E-01 6.92779E-01 4.59039E-01-3.53048E-01 3.60237E-01-3.39701E-01
 -1      1637 2.95939E-01 5.18477E-01 3.24796E-01-3.31114E-01 3.75966E-01-2.84795E-01
 -1      1638 5.03430E-01 1.66154E-01 8.77828E-03 2.49239E-01-2.72412E-01-3.99155E-01
 -1      1639 5.94381E-01 2.34433E-01 1.41406E-01 2.87929E-01-2.30308E-01-4.05714E-01
 -1      1640 3.03473E-01 1.67784E+00 2.81015E-01 3.57912E-01-5.68320E-02-1.32706E-01
 -1      1641 2.33116E-01 1.44575E+00 1.27136E-01 2.81302E-01-5.42607E-02-3.21678E-02
 -1      1642-3.20408E-01-4.51548E-01-4.28293E-01 2.77890E-01 1.82500E-01-2.83429E-01
 -1      1643-3.21490E-01-4.46671E-01-4.66880E-01 3.05986E-01 2.33110E-01-2.99944E-01
 -1      1644 1.24200E+00 6.59317E-01 1.30272E-01-4.40652E-01 4.35915E-02-2.87401E-01
 -1      1645 1.97262E-01 1.10388E+00 3.60076E-01 1.69363E-01-7.30980E-02-1.06596E-01
 -1      1646 1.08668E-01 1.03330E+00 3.11381E-01 1.66693E-01-1.04942E-01-7.03649E-02
 -1      1647 3.51675E-01 6.08555E-01 2.11450E-01-2.43978E-01 6.97952E-02-2.14610E-01
 -1      1648-2.89082E-01-3.83231E-01-2.66591E-01-2.85726E-01-2.32735E-01-3.01265E-01
 -1      1649-3.21545E-01-3.92101E-01-2.96731E-01-3.14319E-01-3.09584E-01-3.01316E-01
 -1      1650 8.44940E-01 1.07136E-01 1.24839E-01 3.38674E-01-1.21138E-01-2.48264E-01
 -1      1651-7.29702E-01-5.87549E-01-5.15193E-01 1.13351E-01-3.34348E-02-3.60723E-01
 -1      1652-2.01991E-01-2.54445E-01-2.61777E-01 9.52834E-02-4.92257E-02-4.14822E-01
 -1      1653-2.86037E-01 3.90624E-02-9.77191E-02 1.08811E-01-1.25285E-01-7.11724E-01
 -1      1654-4.68107E-01-2.09993E-01-3.19240E-01 9.77396E-02-8.02972E-02-7.10521E-01
 -1      1655-7.99755E-01-2.79525E-01-3.69417E-01 2.22882E-01 2.98004E-01-5.49405E-01
 -1      1656-4.75796E-01-9.51773E-02-1.38114E-01 1.49542E-01 3.43853E-01-4.75513E-01
 -1      1657-8.86628E-01-1.81862E-01-1.20066E-01 2.84794E-01 1.82112E-01-3.78600E-01
 -1      1658-6.75116E-01-5.49995E-02-4.75325E-02 2.31559E-01 2.61627E-01-3.90250E-01
 -1      1659-2.79684E-01-5.13550E-02-2.57334E-01-6.32496E-03 1.27685E-01-6.41302E-01
 -1      1660-1.99006E-01-7.45766E-02-2.90929E-01-1.89538E-02 1.33337E-01-6.24762E-01
 -1      1661-1.20940E-01-4.64735E-02 3.02014E-02-1.16060E-01 1.00542E-02-4.45212E-01
 -1      1662 7.79106E-01 4.23480E-01 4.75874E-02 3.66473E-01-1.25263E-02-2.23217E-01
 -1      1663-3.70296E-01 9.97597E-02-1.92236E-01-1.19450E-01-5.65887E-03-2.84352E-01
 -1      1664 3.75801E-01 6.36214E-02 4.67120E-02 1.34993E-01 9.94778E-03-2.84485E-01
 -1      1665 2.21604E-01 3.54866E-04 8.92212E-02 6.12832E-02 1.10249E-01-6.22592E-01
 -1      1666 9.27027E-02-1.11142E-02-4.69271E-02 7.48235E-02 1.08385E-01-6.56419E-01
 -1      1667-3.12719E-01-1.26035E-01-2.34410E-01-9.18394E-02 4.52449E-02-6.18450E-01
 -1      1668-1.88493E-01 4.65045E-02-9.72678E-02-1.18505E-01-1.99715E-02-6.59146E-01
 -1      1669 2.95224E-01 1.23783E-01 3.19757E-01-1.15675E-01 1.41721E-01-5.10742E-01
 -1      1670 3.37735E-01 6.64093E-02 3.88098E-01-1.42443E-01 2.24227E-01-4.88340E-01
 -1      1671 2.73651E-01 8.46750E-01 7.70192E-01 1.50466E-01-6.14716E-02-2.74699E-01
 -1      1672 7.01915E-02 6.90847E-01 6.95266E-01 1.14473E-01-9.34411E-02-1.73466E-01
 -1      1673 3.99854E-01-1.01326E-01-4.66905E-02 1.72048E-01 7.28063E-02-3.17449E-01
 -1      1674 3.76973E-01-1.95010E-02-2.90421E-03 1.65899E-01 3.10265E-02-3.57610E-01
 -1      1675-3.24478E-01-1.16862E-01-5.35057E-02 1.78406E-02 4.71916E-02-2.60685E-01
 -1      1676-1.94071E-01-1.24848E+00-2.97950E-01 2.80712E-01 1.03511E-01-1.75207E-01
 -1      1677-1.46382E-01-1.03932E+00-1.30903E-01 2.24272E-01 1.12637E-01-1.46948E-01
 -1      1678 2.60619E-01-1.82237E-01-9.66070E-02-1.42353E-01-9.31840E-02-2.75983E-01
 -1      1679-5.97683E-01 9.07033E-02-1.20039E-01 2.40814E-01-1.64688E-01-5.33125E-01
 -1      1680-4.69607E-01 3.76019E-02-9.92911E-02 2.07266E-01-1.41815E-01-4.94903E-01
 -1      1681 3.02134E-01 1.02483E+00 6.34160E-01-1.80608E-01 1.86286E-01-1.68348E-01
 -1      1682 1.92995E-01 9.17863E-01 5.18642E-01-1.74532E-01 2.31924E-01-1.59413E-01
 -1      1683-3.55229E-01-5.23713E-02-2.90577E-01-4.93977E-02 5.15679E-02-6.25699E-01
 -1      1684-2.41912E-01-1.56022E-02-1.65481E-01-4.44118E-02 8.09658E-02-6.08173E-01
 -1      1685 3.83531E-01 3.70507E-02 1.38643E-01 1.53322E-01 3.50761E-02-5.55120E-01
 -1      1686 2.34216E-01-7.30409E-03 2.58618E-02 1.73574E-01 6.45222E-02-5.16621E-01
 -1      1687 9.33311E-01 2.53724E-01 1.31903E-01-2.74798E-01 1.20636E-01-2.98314E-01
 -1      1688 5.85179E-01 1.48566E-01-8.50713E-02-2.27885E-01 1.86704E-01-2.64996E-01
 -1      1689-4.42997E-01-1.66128E-01-2.00506E-01-2.20754E-01-2.41216E-01-4.32567E-01
 -1      1690-3.68508E-01-1.84569E-01-1.67827E-01-2.16259E-01-3.16367E-01-4.31776E-01
 -1      1691-2.60249E-01-1.07303E+00-8.60406E-02 3.61480E-01 7.15133E-02-1.08122E-01
 -1      1692-6.05102E-01-1.13807E-01-1.41705E-02 2.69001E-02 1.97794E-02-2.78917E-01
 -1      1693-5.97376E-01-4.21582E-01-3.74648E-01-1.78409E-01 4.15037E-02-4.58070E-01
 -1      1694 1.99288E-01 1.01722E+00 4.98175E-01 1.08462E-01-3.39287E-02-1.57806E-01
 -1      1695 8.97754E-02 7.68748E-01 3.28794E-01 6.00233E-02-8.43524E-02-8.43820E-02
 -1      1696 1.80486E-01 3.79352E-01 5.62481E-01 2.09424E-01-1.27387E-01-4.48598E-01
 -1      1697 8.35479E-01 8.76648E-01 1.14536E+00 1.97358E-01-8.30318E-02-6.04850E-01
 -1      1698 3.09366E-01 9.91687E-02 1.88136E-01 6.70106E-02 5.53412E-02-6.63360E-01
 -1      1699 2.41846E-01 2.25475E-02 8.37338E-02 5.05487E-02 7.98495E-02-6.83061E-01
 -1      1700 9.61734E-02 3.58452E-01 2.25950E-01 2.53159E-01 1.12572E-01-6.29370E-02
 -1      1701-8.14085E-01-7.91527E-01-7.02570E-01-4.67527E-02 5.05049E-02-2.75065E-01
 -1      1702-2.25917E-01-1.25310E+00-2.00108E-01-2.46776E-01-1.67486E-02-7.19218E-02
 -1      1703-1.10891E-01-1.04942E+00-1.03923E-01-1.28345E-01-4.37143E-02-2.99036E-02
 -1      1704-4.30108E-01-1.76366E-01-3.07485E-01-1.67903E-01-2.30151E-01-4.49689E-01
 -1      1705-3.86176E-01-1.58454E-01-2.69811E-01-1.87389E-01-2.93566E-01-4.44721E-01
 -1      1706 3.20912E-01 1.51458E+00 1.56028E-01 4.98237E-01 2.71127E-02-2.00866E-01
 -1      1707 2.35623E-01 1.11375E+00 4.72693E-01 1.61426E-01-8.45393E-02-1.37265E-01
 -1      1708 1.13906E-01 8.92986E-01 3.15915E-01 8.89169E-02-8.26989E-02-8.32209E-02
 -1      1709-1.03515E-01 1.60034E+00 4.35463E-02 1.53204E-01-8.64777E-02-8.92308E-02
 -1      1710-8.05799E-02-7.51102E-01-1.82643E-01-8.24719E-02-1.83220E-01-1.70852E-01
 -1      1711-1.25122E+00-8.73895E-01-7.22501E-01-1.25020E-02 4.77482E-02-3.72412E-01
 -1      1712 8.64606E-01 2.63002E-01 6.30483E-02 3.63066E-01-8.72280E-02-1.94757E-01
 -1      1713 6.64309E-01 2.59250E-01-2.50054E-02 3.48838E-01-1.26229E-01-1.66034E-01
 -1      1714 6.39528E-01 1.43429E-01 2.72677E-01 1.99827E-01-3.46475E-01-5.66306E-01
 -1      1715 4.73866E-01 7.58820E-02 2.00343E-01 1.28028E-01-3.19102E-01-5.05884E-01
 -1      1716 2.33861E-01-1.23568E-01-1.15627E-01 1.58809E-01 1.17963E-02-2.76876E-01
 -1      1717 5.96141E-01 1.17508E+00 1.74324E-01 5.95096E-01-1.27577E-01-2.36316E-01
 -1      1718-1.90328E-01-1.17011E-01-1.29895E-02 1.52557E-01 3.60516E-02-4.07105E-01
 -1      1719-2.75673E-01-9.58643E-01-6.18259E-01-2.06730E-01-1.17316E-01-2.45537E-01
 -1      1720-9.69838E-02-7.57857E-01-4.40860E-01-1.81898E-01-1.23064E-01-1.53933E-01
 -1      1721-5.17896E-01-3.73577E-01-3.33743E-01 2.55916E-02-4.11251E-02-3.79695E-01
 -1      1722 1.56814E-01-2.00768E-01-2.14741E-01-1.44933E-01-1.56264E-01-7.60941E-01
 -1      1723 1.64223E-01-6.53678E-02-8.92478E-02-1.19760E-01-1.46946E-01-6.56817E-01
 -1      1724-2.82499E-01-2.22890E-01-2.09310E-01-1.32654E-01 2.78546E-02-3.51159E-01
 -1      1725 3.80658E-01-2.55184E-02 4.90341E-02-2.06404E-01-1.23730E-01-4.83450E-01
 -1      1726 2.42760E-01-8.22809E-02 6.95534E-03-2.27656E-01-1.09198E-01-4.98583E-01
 -1      1727 8.46229E-01 1.26121E-01 6.04479E-02 3.33498E-01-1.14711E-01-1.76557E-01
 -1      1728 5.47437E-01 8.40781E-01 7.26767E-02 5.20031E-01-1.42684E-01-1.38311E-01
 -1      1729 4.16610E-01 6.37596E-01 4.98434E-03 3.94561E-01-1.15672E-01-1.50101E-01
 -1      1730 1.81270E-01 8.44966E-01 6.22241E-01 1.20249E-01-8.58259E-02-1.88531E-01
 -1      1731 2.80734E-02 6.73439E-01 5.01960E-01 9.39556E-02-1.02074E-01-1.21978E-01
 -1      1732 3.12846E-02 5.64802E-01 1.15092E-01 1.22625E-02-9.43909E-02-1.53186E-01
 -1      1733-1.91891E-01-1.25688E+00-2.14591E-01 3.53466E-01 4.85522E-02-6.83520E-02
 -1      1734-2.30031E-01-1.22314E+00-1.07314E-01 3.56670E-01 7.93481E-02-2.50209E-02
 -1      1735-2.62099E-01-2.63780E-01-8.10881E-02 9.89088E-02 5.04958E-02-5.34498E-02
 -1      1736-3.04338E-01-3.03390E-01-1.85020E-01 8.65901E-02 5.05985E-02-1.14002E-01
 -1      1737-3.93209E-01-1.41044E+00-4.58527E-01-2.14829E-01-8.77415E-02-1.51300E-01
 -1      1738-1.68838E-01-7.97991E-01-1.11214E-01-1.30996E-01-9.86079E-02-1.49976E-01
 -1      1739 4.76741E-01 7.09149E-01 4.86870E-01 3.53000E-01-2.75090E-01-3.40983E-01
 -1      1740 3.15186E-01 4.06094E-01 2.95521E-01 2.29286E-01-2.77106E-01-2.79313E-01
 -1      1741 9.46637E-01 7.44999E-01 8.58185E-01 2.20618E-02 5.49353E-02-4.95536E-01
 -1      1742 3.91671E-01 1.75557E+00 3.11092E-01 3.32106E-01-4.22810E-02-1.42145E-01
 -1      1743 2.35731E-01 1.31956E+00 7.38504E-02 2.11946E-01-7.64647E-02-8.93291E-02
 -1      1744 6.06839E-02-1.90407E-01-7.04764E-02 2.25068E-01-6.99570E-02-8.87189E-02
 -1      1745-6.07899E-01-7.09295E-01-3.11858E-02-6.58042E-01-7.70027E-02-1.36413E-01
 -1      1746 7.61247E-01-3.62647E-02 4.12980E-02-2.67022E-01 9.81762E-02-2.08366E-01
 -1      1747 7.19947E-01 2.33982E-01 1.94195E-02-1.99653E-01 9.73334E-02-2.68874E-01
 -1      1748 4.84815E-01 8.03469E-01 3.41756E-01-4.07157E-01 2.47737E-01-2.59303E-01
 -1      1749 2.90723E-01 6.26919E-01 2.11211E-01-3.34196E-01 2.73602E-01-2.10877E-01
 -1      1750-3.49384E-02-1.52753E+00-4.35060E-02 2.28456E-01 9.60191E-02-6.16298E-02
 -1      1751 1.13287E+00 9.22616E-01 8.44024E-01-7.32597E-03-6.47603E-02-4.29505E-01
 -1      1752-2.98698E-01-4.11643E-01-5.18886E-01-2.30904E-01-1.77441E-01-3.63352E-01
 -1      1753-2.49288E-01-4.11440E-01-5.69667E-01-3.16395E-01-2.33848E-01-3.12791E-01
 -1      1754-6.41106E-02-1.36419E+00-1.02797E-01 4.51739E-01 3.39172E-02-7.02035E-02
 -1      1755 1.08440E+00 1.00696E+00 9.04145E-01-1.97810E-02 8.36546E-03-3.36863E-01
 -1      1756 2.48440E-01 1.15177E-02 1.31041E-02 6.46606E-02 1.18814E-01-7.17655E-01
 -1      1757 1.79718E-01-6.35386E-02-9.59114E-04 5.46937E-02 1.85219E-01-7.10281E-01
 -1      1758-3.90758E-01 9.67840E-02-2.02807E-02-1.35836E-01 5.08903E-02-2.95663E-01
 -1      1759-3.14095E-01 3.93540E-02 3.58678E-02-1.28579E-01 8.13969E-02-3.89397E-01
 -1      1760-1.91338E-01 4.37876E-01-1.18851E-01 8.04037E-02-1.18135E-02-1.82341E-01
 -1      1761 6.41539E-01 1.32815E-01 3.46224E-02 9.92667E-02 2.62747E-02-2.03084E-01
 -1      1762 5.30120E-01 8.12607E-01 1.02620E-01-5.47410E-01 1.29424E-01-1.21927E-01
 -1      1763 5.42229E-01 7.15568E-01 7.28059E-02-5.10765E-01 1.87511E-01-1.24763E-01
 -1      1764 3.62760E-01 1.22250E-01 2.73131E-01 1.29221E-01-1.75007E-01-4.78609E-01
 -1      1765 3.23063E-01 1.19543E-01 4.03363E-01 1.47295E-01-2.44738E-01-4.56446E-01
 -1      1766 4.43115E-01 1.77053E-01 4.21156E-01-1.04954E-01 1.49465E-01-5.48536E-01
 -1      1767 2.61652E-01 4.05940E-02 2.71922E-01-4.41898E-02 1.38727E-01-4.67014E-01
 -1      1768 1.54657E-01 8.45755E-01 4.12467E-01 1.03834E-01-3.08212E-02-1.95567E-01
 -1      1769 8.92867E-02 6.60184E-01 3.37166E-01 4.93596E-02-8.04603E-02-1.34384E-01
 -1      1770 7.03887E-01 1.25949E+00 1.25081E-01-5.60239E-01 6.92776E-02-2.85863E-01
 -1      1771 3.32087E-01 1.89683E-01 2.63473E-01-1.66869E-01 4.55849E-02-4.83066E-01
 -1      1772-1.29758E-01-6.53510E-01-1.32479E-01 6.05879E-02 1.52072E-01-1.17842E-01
 -1      1773 3.50529E-01 5.34042E-01 3.75018E-01 2.21662E-01-2.23115E-01-3.67998E-01
 -1      1774 1.16373E-01 2.44128E-01 2.17684E-01 1.95914E-01-2.59610E-01-3.10874E-01
 -1      1775-8.06452E-02-1.36730E+00-5.55753E-02-1.43866E-01-4.33714E-02-7.63113E-02
 -1      1776 1.11901E-01 4.38503E-01 2.51248E-01-2.65890E-01-1.13879E-01-8.25187E-02
 -1      1777 5.27076E-01 8.10926E-01 1.65341E-01 4.88564E-01-1.77125E-01-1.89319E-01
 -1      1778 3.88148E-01 6.41486E-01 7.56720E-02 3.61672E-01-2.13942E-01-1.65210E-01
 -1      1779 2.46779E-01 1.95432E-01 1.60245E-01 1.23668E-01 5.37129E-02-4.95659E-01
 -1      1780-3.97026E-01-5.20474E-01-1.90926E-01 3.16399E-01 1.66359E-01-2.17635E-01
 -1      1781 6.26546E-01 1.90006E-01 2.07615E-01-1.80741E-01 2.06607E-01-5.00562E-01
 -1      1782 4.17731E-01 1.61213E-02 2.80062E-02-7.00832E-02 2.23200E-01-4.74910E-01
 -1      1783 2.20455E-01 1.23921E-02 1.96098E-01-1.16246E-03 9.53551E-02-6.26576E-01
 -1      1784 2.36537E-01 3.33745E-02 2.14510E-01-9.52808E-03 1.03761E-01-6.68850E-01
 -1      1785-1.01074E-01-6.81841E-01-5.06414E-01 1.14198E-01 1.29063E-01-1.77891E-01
 -1      1786-8.63441E-02-6.31413E-01-4.70206E-01 1.52018E-01 1.67327E-01-1.25720E-01
 -1      1787 3.74371E-01 5.90473E-01 1.36325E-01 2.49728E-01-6.14359E-02-1.99115E-01
 -1      1788 3.64112E-01 1.21124E+00 5.69044E-01-1.70450E-01 2.05871E-01-1.34183E-01
 -1      1789 1.28540E-01 7.64558E-01 2.88686E-01-9.73900E-02 1.69765E-01-1.01764E-01
 -1      1790-7.05468E-01-4.37566E-01-3.92159E-01-8.51349E-02 3.29792E-02-4.26833E-01
 -1      1791 2.40066E-01 9.85659E-01 6.51773E-01-1.60099E-01 4.64454E-02-2.52436E-01
 -1      1792 9.14670E-02 7.70063E-01 4.86061E-01-1.43449E-01 9.42125E-02-1.59055E-01
 -1      1793 2.93459E-01 1.77158E-01 1.57746E-01 7.41787E-02-1.17390E-02-6.78767E-02
 -1      1794 1.85914E-01 2.07554E-01 1.29678E-01 8.26306E-02-6.93271E-02-8.34235E-02
 -1      1795 4.41919E-01 4.76177E-01 7.47925E-01-2.63024E-01 1.82077E-01-4.66050E-01
 -1      1796 3.13387E-01 3.02615E-01 7.01710E-01-2.81571E-01 2.03863E-01-4.05019E-01
 -1      1797-1.23666E+00-9.86450E-01-9.58059E-01 2.96022E-02-2.89707E-02-5.68876E-01
 -1      1798-6.55976E-01-2.04556E-01-2.76944E-01-2.80444E-01-2.33844E-01-4.04120E-01
 -1      1799-6.48523E-01-2.12547E-01-2.27238E-01-2.17815E-01-2.48360E-01-4.02351E-01
 -1      1800-2.09991E-02-6.69553E-01 8.20379E-02-1.60808E-02 2.11147E-02-4.78387E-02
 -1      1801-6.24034E-01-2.57338E-01-3.21696E-01 1.98098E-01 3.03941E-01-6.15367E-01
 -1      1802-5.20334E-01-1.03546E-01-2.63491E-01 1.60921E-01 2.97145E-01-6.08034E-01
 -1      1803-9.44892E-02-3.06795E-01-2.11046E-01-3.35215E-02-4.67297E-02-1.19033E-02
 -1      1804-1.29564E-01-2.63293E-01-1.62385E-01-1.27552E-01 1.53866E-03 1.34557E-02
 -1      1805 1.31836E+00 1.25427E+00 1.19569E+00-1.99856E-02-8.54601E-02-5.28257E-01
 -1      1806 9.93374E-01 9.13907E-01 8.18033E-01-7.54820E-03 6.00804E-02-3.11554E-01
 -1      1807 4.70158E-01 7.37842E-01 4.55137E-01-3.94147E-01 2.99429E-01-2.92574E-01
 -1      1808 3.45929E-01 5.02395E-01 3.39919E-01-3.53776E-01 3.33878E-01-2.75799E-01
 -1      1809 6.18521E-01 7.20197E-01 8.97148E-02-5.92400E-01 8.71879E-02-1.47490E-01
 -1      1810-4.51553E-01-6.65826E-01-3.75180E-01 3.31675E-01 2.15285E-01-2.93500E-01
 -1      1811-3.07696E-01-4.46536E-01-1.67440E-01 3.10431E-01 2.32978E-01-2.52641E-01
 -1      1812 3.61481E-01 6.23052E-01 2.46827E-01-4.17685E-01 2.59724E-01-2.33556E-01
 -1      1813 4.72826E-01 7.52632E-01 4.00453E-01-4.58101E-01 2.44177E-01-2.74504E-01
 -1      1814-3.74207E-01-4.12340E-01 3.18393E-02 3.31289E-01-1.24468E-02-1.72786E-01
 -1      1815 4.36683E-01 2.19569E-01 3.49029E-01 2.19340E-01-7.22693E-02-5.96933E-01
 -1      1816 2.30258E-01 4.50340E-02 1.05865E-01-2.58219E-02-1.47979E-01-7.60266E-01
 -1      1817 2.91963E-01 3.89347E-02 1.49804E-01-2.88279E-03-1.46029E-01-7.74283E-01
 -1      1818 3.74624E-01 2.71158E-01 4.23631E-01 6.74747E-02-1.28869E-01-5.18169E-01
 -1      1819 5.57347E-01 3.48758E-01 6.81802E-01 3.82935E-02-1.38380E-01-6.13584E-01
 -1      1820-8.91673E-01-4.50652E-01-5.40387E-02 2.51838E-01-4.29614E-02-2.82834E-01
 -1      1821 3.52972E-01 2.70921E-01-1.81104E-01 1.46406E-01-1.95940E-02-2.29155E-01
 -1      1822-5.10277E-01-2.05887E-01-1.97765E-01-2.38798E-01-2.42185E-01-4.46288E-01
 -1      1823-5.24419E-01-1.55410E-01-1.13828E-01-1.88479E-01-2.41422E-01-4.08313E-01
 -1      1824-6.98167E-01-8.51239E-01-3.99696E-02 5.99715E-01 1.10990E-01-1.78372E-01
 -1      1825-5.41259E-01-6.32687E-01 8.77148E-02 4.23897E-01 1.74046E-01-1.03037E-01
 -1      1826 8.91581E-01 8.21757E-01 7.18000E-01-6.30070E-02 5.80861E-02-3.62123E-01
 -1      1827-2.11368E-02 5.93412E-01 1.02414E-01-5.93582E-02 1.44090E-01-7.89408E-02
 -1      1828-4.16072E-01-7.31969E-01-2.59391E-01 4.69609E-01 2.04899E-01-2.62601E-01
 -1      1829-4.11231E-01-7.30915E-01-2.55154E-01 4.08618E-01 2.65435E-01-2.43284E-01
 -1      1830 3.26700E-01-3.07373E-02 1.76247E-01-1.16027E-01-9.48455E-02-6.54208E-01
 -1      1831 1.82969E-01-5.49217E-02 7.23358E-02-1.29937E-01-1.48550E-01-6.81988E-01
 -1      1832 3.68570E-01 1.43002E-01 3.66689E-01-1.14704E-01 1.60587E-01-4.78885E-01
 -1      1833 3.36712E-01 5.98217E-02 4.09290E-01-1.24252E-01 2.04163E-01-4.57713E-01
 -1      1834-6.05386E-01-4.99033E-01-2.13447E-02-2.53537E-01 9.07341E-03-1.38307E-01
 -1      1835-4.61302E-01-6.17186E-01 1.73863E-02 6.51082E-01 5.89251E-02-5.31326E-02
 -1      1836-1.01056E-01 5.60259E-01-1.15187E-01-4.20255E-02 9.77959E-02-1.50393E-01
 -1      1837-1.80976E-01-1.33367E+00-2.49069E-01 3.16277E-01 6.70395E-02-1.02850E-01
 -1      1838-2.21873E-01-1.11647E+00-1.64058E-01 2.48915E-01 1.09145E-01-3.27568E-02
 -1      1839 4.78678E-01-2.42332E-02 6.18680E-02 2.33217E-01 1.85922E-02-3.66661E-01
 -1      1840 4.28192E-01 1.73747E-01 2.16038E-01-1.62257E-01 2.36340E-01-4.81966E-01
 -1      1841 2.56042E-01 5.18712E-02 1.13154E-01-6.89416E-02 2.23132E-01-4.66429E-01
 -1      1842-4.23429E-01-6.24795E-01-1.99977E-01 3.87222E-01 2.01242E-01-1.88101E-01
 -1      1843-3.21953E-01-6.32889E-01-1.48927E-01 3.65135E-01 2.43838E-01-1.72045E-01
 -1      1844-8.30151E-01-1.97135E-01-2.16316E-01-1.07391E-01-1.01897E-01-2.60673E-01
 -1      1845 8.94679E-01 8.24765E-01 7.25553E-01 1.67428E-01-3.70662E-04-4.69495E-01
 -1      1846 3.29684E-01 1.53113E-01 1.63491E-01-2.07932E-01 6.96952E-02-4.56204E-01
 -1      1847-2.15264E-01-1.65575E-02-8.57540E-02 3.27518E-02 1.09355E-01-5.09007E-01
 -1      1848-5.58193E-01-2.90862E-01-4.44222E-01-6.22463E-03 8.01115E-02-6.08289E-01
 -1      1849-4.69325E-01-5.29435E-01-3.74770E-01-3.14342E-01-2.23267E-01-3.18824E-01
 -1      1850-2.65063E-01-3.13407E-01-1.85129E-01-2.40708E-01-2.74301E-01-2.94753E-01
 -1      1851 1.05286E+00 8.84479E-01 7.61920E-01 2.70409E-03-1.93479E-02-3.13927E-01
 -1      1852-2.46896E-01-9.58357E-01-1.83087E-01-2.35593E-01-5.06475E-02 4.94425E-02
 -1      1853-3.40465E-01-1.52311E+00-4.60570E-01-3.28766E-01-4.44076E-02 2.16077E-02
 -1      1854-4.93356E-01-7.36459E-01-1.68715E-01-3.95103E-01-1.54667E-01-2.01818E-01
 -1      1855-3.44596E-01-5.01772E-01-3.49853E-02-2.92011E-01-1.55523E-01-2.07095E-01
 -1      1856-6.29425E-01-6.92319E-01-6.92977E-01 5.94282E-03 1.06994E-01-4.18068E-01
 -1      1857-2.30657E-01-6.06621E-01-9.06211E-01 1.87547E-01 2.38758E-01-2.98389E-01
 -1      1858 5.24341E-01 3.44494E-01 3.30605E-01 1.26725E-01-5.39210E-02-3.93962E-01
 -1      1859-3.81190E-01-1.76278E-01-1.96055E-01-1.93488E-01-2.49409E-02-3.61514E-01
 -1      1860-1.72883E-01-1.23595E+00-6.02003E-01-9.51698E-02-1.75134E-01-1.80094E-01
 -1      1861 4.21832E-01 1.44878E-01 2.10924E-01-1.93102E-01 1.92417E-01-4.33295E-01
 -1      1862 4.43657E-01 1.48886E-01 2.34281E-01-1.62048E-01 1.77966E-01-4.37343E-01
 -1      1863 4.16248E-01 5.85210E-01 3.45150E-01 3.46573E-01-2.40204E-01-2.85143E-01
 -1      1864 3.40106E-01 4.37624E-01 2.20064E-01 2.89298E-01-2.87469E-01-2.96440E-01
 -1      1865 9.50316E-01 7.70015E-01 6.85136E-01 7.79189E-02 2.04557E-03-3.91786E-01
 -1      1866 4.18751E-01 1.11730E+00 1.24926E-01 5.00704E-01-1.05390E-01-1.74993E-01
 -1      1867-2.04444E-01 2.58677E-02 3.92635E-02-3.83228E-02 1.54408E-01-6.28553E-01
 -1      1868-3.16917E-02 9.65876E-02 1.17995E-01-5.77702E-02 1.40866E-01-6.41143E-01
 -1      1869 8.92770E-03-1.94801E-01 1.82358E-01 4.01224E-01 7.47356E-02-6.55672E-02
 -1      1870-5.87364E-01-1.00222E-01-2.68739E-01 2.16841E-01-5.92640E-02-6.95676E-01
 -1      1871-4.30193E-01-2.12621E-02-1.41309E-01 1.94793E-01-7.59143E-02-6.18585E-01
 -1      1872-4.25069E-01 9.57721E-02-8.46146E-03 1.97287E-01-3.29539E-02-3.93310E-01
 -1      1873-6.47125E-01-3.78676E-01 7.18702E-02-1.42646E-01 1.69093E-02-1.73042E-01
 -1      1874-3.86336E-01-5.71733E-01-6.55756E-01 2.99016E-01 2.33042E-01-3.94946E-01
 -1      1875-3.46746E-01-5.26690E-01-6.03258E-01 3.44814E-01 3.09850E-01-3.49260E-01
 -1      1876 7.09228E-01 6.02034E-01 6.47021E-01-1.18219E-01-8.66283E-02-5.28123E-01
 -1      1877-2.84765E-01-2.14630E-01-1.46052E-01-7.61271E-02-1.42775E-02-6.18678E-02
 -1      1878-1.80574E-01-2.55874E-01-1.20428E-01-8.23063E-02-5.33168E-02-8.75370E-02
 -1      1879 3.01415E-01 1.69437E+00 4.22651E-02 4.93295E-01 2.05918E-02-1.72343E-02
 -1      1880-3.11400E-01-5.86893E-02-2.69475E-01-6.68943E-02 4.54175E-02-6.40269E-01
 -1      1881-3.10135E-01-2.66616E-02-2.44358E-01-4.66155E-02 8.57372E-02-6.22339E-01
 -1      1882-8.69300E-01-5.42785E-01-5.01375E-01-1.51677E-01-6.96393E-03-5.36571E-01
 -1      1883-5.15210E-01-7.56825E-01-6.98890E-02 5.25304E-01 1.40522E-01-1.88049E-01
 -1      1884-4.37294E-01-6.46839E-01 2.06947E-02 4.51997E-01 1.67069E-01-1.71937E-01
 -1      1885 1.18848E+00 1.12074E+00 1.07695E+00-9.06141E-02 4.29228E-02-4.58199E-01
 -1      1886 4.76270E-01 6.60437E-01 6.85731E-01-3.14329E-01 2.27798E-01-4.59512E-01
 -1      1887 2.82382E-01 3.73738E-01 4.89584E-01-2.63118E-01 2.37540E-01-3.88987E-01
 -1      1888 6.18155E-01 1.57576E-01 1.39847E-01 2.66951E-01-1.40131E-01-2.94293E-01
 -1      1889 5.57262E-01 7.28178E-02-1.72743E-02 2.12126E-01-1.63944E-01-3.26820E-01
 -1      1890-5.51942E-02-3.35879E-01-1.39155E-01-2.38908E-01 1.14563E-01-7.31534E-02
 -1      1891-9.25715E-01-9.10677E-01-9.82091E-01-8.54367E-02 9.86791E-02-4.42735E-01
 -1      1892 7.66212E-01 7.78619E-01 1.26803E-01 6.27628E-01 3.95599E-02-1.69763E-01
 -1      1893 7.57817E-01 3.03053E-01 3.23722E-02 3.87651E-01-7.40644E-02-2.13443E-01
 -1      1894 1.13788E-01-4.70663E-01 9.27695E-02 6.44723E-02 4.87905E-02-1.10666E-01
 -1      1895-2.88634E-01-1.10199E+00-4.75981E-01-2.10733E-01-1.81237E-01-1.76215E-01
 -1      1896-1.38541E-01-7.54366E-01-2.63239E-01-1.88104E-01-1.46991E-01-1.20860E-01
 -1      1897 3.16610E-01-7.57212E-02-2.45204E-02-2.43985E-01-5.56298E-02-3.04771E-01
 -1      1898 2.47673E-01-5.43528E-02-9.21746E-03-2.04771E-01-8.19274E-02-3.95826E-01
 -1      1899-7.25626E-01-4.20621E-01-4.08661E-01-1.07897E-01-2.02388E-02-4.84240E-01
 -1      1900 2.53026E-01 3.15307E-02 1.31414E-01 5.02155E-02 1.15714E-01-7.12537E-01
 -1      1901 2.30761E-01 1.25642E-02 1.63010E-01 5.66486E-02 1.38770E-01-6.70762E-01
 -1      1902-4.89375E-01-1.45471E-04-1.74976E-01-1.37903E-01 4.86270E-03-3.65511E-01
 -1      1903-3.08488E-01 1.82164E-02-1.99258E-01-1.09440E-01 6.74851E-02-6.02032E-01
 -1      1904-7.26331E-02 5.15271E-02-3.89800E-02-1.28514E-01 1.02035E-01-6.23843E-01
 -1      1905 8.17715E-01 6.54236E-01 7.18775E-01-7.43507E-02-3.65922E-02-4.91801E-01
 -1      1906 2.33121E-01 1.82395E+00 2.20723E-01 3.38623E-01 7.65516E-03-9.46508E-02
 -1      1907 2.52595E-01 1.70063E+00 1.10707E-01 2.25410E-01 5.32475E-03-9.25300E-03
 -1      1908-7.10797E-01-9.00256E-01-1.80737E-01 6.20731E-01 1.25868E-01-1.55981E-01
 -1      1909-5.61723E-01-8.72336E-01-3.18211E-02 4.98612E-01 1.92076E-01-8.54056E-02
 -1      1910-7.82484E-01-3.98644E-02-7.54982E-02 2.36247E-01 3.59750E-02-2.40485E-01
 -1      1911-4.98518E-01-1.15615E+00-1.07171E-01 5.95638E-01 7.07556E-02-1.98896E-01
 -1      1912-3.08020E-01-5.50720E-02-5.01025E-01-9.73828E-02-7.83157E-02-5.00674E-01
 -1      1913-4.34791E-01-2.41406E-01-4.56230E-01-5.17234E-02-4.72625E-02-4.84177E-01
 -1      1914 2.13938E-01-1.06584E-01-6.93527E-02-2.64341E-01-3.19908E-02-3.14166E-01
 -1      1915 4.13368E-01 2.84898E-01 3.44244E-01-5.50737E-02 7.22223E-02-4.92085E-01
 -1      1916 5.40586E-01 3.27440E-01 5.80881E-01-4.97912E-02 6.52430E-02-5.59196E-01
 -1      1917-2.19261E-01-8.55423E-01-4.87578E-01-1.87934E-01-4.05738E-02-1.72584E-01
 -1      1918-1.67121E-01-7.92090E-01-4.57838E-01-1.93443E-01-8.14742E-02-1.07886E-01
 -1      1919-1.37203E-01-1.78806E+00-1.06264E-01 2.27367E-01 8.28353E-02-3.75706E-02
 -1      1920-5.96818E-01-8.58974E-01-1.57303E-01-5.43427E-01-1.93925E-01-1.00929E-01
 -1      1921-4.95237E-01-6.77893E-01-1.35256E-02-4.81359E-01-2.55415E-01-8.58374E-02
 -1      1922 3.37395E-01 2.39428E-01 2.97202E-01 8.99076E-02-5.59181E-03-5.87983E-01
 -1      1923 2.78363E-01 1.06666E-01 1.98507E-01 1.23581E-01 4.24774E-02-6.69237E-01
 -1      1924 2.03150E-01-7.82631E-03 4.69347E-02 1.36782E-01 8.96301E-02-6.39677E-01
 -1      1925 2.53553E-02-3.70404E-02-4.54344E-02 1.60251E-01 1.16522E-01-6.65285E-01
 -1      1926 9.43906E-01 7.92635E-02 1.66363E-01-2.30843E-01 1.27806E-01-2.23746E-01
 -1      1927-5.26918E-01-5.91378E-01 8.94669E-02-2.38903E-01-6.82692E-02-1.29809E-01
 -1      1928 3.78412E-02-2.49034E-01 5.56601E-02-2.16859E-01-3.77689E-02-6.80454E-02
 -1      1929 5.73587E-01 6.40043E-01 2.69195E-01 3.80976E-01-2.43979E-01-3.06894E-01
 -1      1930 3.88676E-01 4.18437E-01 1.16961E-01 2.73945E-01-2.30397E-01-2.64306E-01
 -1      1931-9.26330E-01-1.55736E-01-1.08393E-02 2.89324E-01 1.25163E-01-3.08241E-01
 -1      1932-7.27583E-01-7.02580E-01-3.20330E-02 6.82086E-01 1.15565E-01-1.13253E-02
 -1      1933 3.72688E-01 1.22615E-01 2.03097E-01-7.72972E-02-1.03964E-01-7.61049E-01
 -1      1934 2.26523E-01-2.16393E-02 7.34639E-02-6.96384E-02-1.07713E-01-7.06669E-01
 -1      1935-6.02166E-01 5.20908E-02-9.60940E-02 2.10174E-01-4.81849E-02-3.13030E-01
 -1      1936-2.79825E-01-1.44644E+00-1.14868E-01-3.16794E-01 3.04595E-03-6.11889E-02
 -1      1937-2.09176E-01-1.30311E+00 1.35174E-02-2.78745E-01 5.97639E-03-1.33713E-02
 -1      1938-8.97008E-01-4.94499E-01-2.00378E-01-6.91573E-02-5.70469E-02-2.09104E-01
 -1      1939 5.81563E-01 7.84912E-01 4.01578E-02 5.41909E-01-5.69575E-02-7.63791E-02
 -1      1940 4.27606E-01 6.61860E-01-1.22216E-01 4.59978E-01-9.73259E-02-1.45174E-02
 -1      1941-3.34809E-01-4.51719E-01-7.73656E-01-2.95863E-01-2.02503E-01-3.57691E-01
 -1      1942-5.84520E-01-5.45275E-01-6.04204E-01-7.22648E-02-4.24500E-02-4.19208E-01
 -1      1943-3.87357E-01-4.58098E-01-4.79702E-01-2.57276E-01-1.92084E-01-4.26706E-01
 -1      1944-2.47281E-01-3.22218E-01-4.04384E-01-2.85526E-01-2.59313E-01-3.77186E-01
 -1      1945 6.73057E-01 1.14820E+00 2.86067E-01 5.61884E-01-8.62032E-02-1.44847E-01
 -1      1946-6.09616E-01-1.25235E+00-1.43805E-01 6.36104E-01 1.70995E-01-1.16354E-01
 -1      1947-2.33886E-01-1.48433E+00-1.16055E-01 3.18852E-01 6.28330E-02-1.81003E-02
 -1      1948-2.22969E-01-1.48255E+00-1.78043E-01 3.24674E-01 3.50030E-02-5.15635E-02
 -1      1949 6.32343E-02-1.46215E-02-6.14433E-02 5.47233E-02 7.74900E-02-1.07515E-01
 -1      1950 6.28991E-02 1.68957E-02 4.97104E-02 6.54229E-02-4.76223E-03-1.36254E-01
 -1      1951 9.33419E-01 7.58304E-01 7.65126E-01 1.01928E-01-6.33606E-02-5.69758E-01
 -1      1952 1.28305E+00 1.10175E+00 1.03266E+00 6.11866E-03-1.01101E-02-3.92860E-01
 -1      1953 2.84364E-01 1.56129E+00 2.32188E-01-4.71657E-01-1.44151E-02-2.25093E-01
 -1      1954 9.75495E-01 6.48071E-01 7.41589E-01 2.14056E-01-1.68501E-01-5.05006E-01
 -1      1955-8.72994E-01-1.00064E+00-4.46515E-01-5.43028E-01-2.73456E-01-2.05985E-01
 -1      1956-4.76530E-01-5.24393E-01-2.33887E-02-4.08844E-01-2.27969E-01-1.56651E-01
 -1      1957-1.05835E+00-2.10387E-01-3.49093E-02-3.05802E-01-7.79187E-02-1.55629E-01
 -1      1958-4.78739E-01-1.59254E-01-5.57037E-01 2.32177E-01 2.47721E-01-5.99356E-01
 -1      1959-4.97232E-01-1.44989E-01-5.11211E-01 1.55488E-01 2.91459E-01-5.74988E-01
 -1      1960 4.96966E-01 8.28877E-01 6.74294E-02-5.27629E-01 9.54361E-02-1.17867E-01
 -1      1961 4.95035E-01 7.99540E-01-2.35899E-02-5.12392E-01 1.56530E-01-6.85474E-02
 -1      1962-3.09063E-01-1.93719E-01-5.49972E-02 1.33479E-01 1.45867E-02-4.32893E-01
 -1      1963 3.86501E-01-1.06265E-01-7.29109E-02-2.74848E-01-9.22965E-02-2.69146E-01
 -1      1964 8.28504E-01 8.77828E-01 2.11416E-01 6.28039E-01-3.84801E-02-9.97912E-02
 -1      1965 3.62227E-01 3.27446E-01 2.97644E-01 2.86863E-01-5.34276E-03-5.37129E-01
 -1      1966 7.87692E-01 5.71296E-01 6.44010E-01 2.37374E-02 2.81510E-03-4.47540E-01
 -1      1967-2.31660E-01-1.57953E+00-8.46966E-02 4.79604E-01 5.40982E-02-3.71107E-02
 -1      1968 6.80651E-01 1.12442E+00 1.62510E-01-6.25195E-01 1.47634E-01-1.75056E-01
 -1      1969 7.95738E-01 2.88433E-01 1.15040E-01-1.42939E-01 2.44854E-02-2.37754E-01
 -1      1970-1.71787E-01-1.66751E+00-7.24099E-02-2.31298E-01-5.99748E-02-1.38581E-02
 -1      1971-6.62077E-01-4.22720E-01-5.32327E-01 4.02395E-02-1.94420E-02-4.40838E-01
 -1      1972 6.03838E-01 6.53609E-01 1.22556E-01-5.22339E-01 2.60882E-01-2.25987E-01
 -1      1973 6.36282E-01 8.65382E-01 2.38944E-01-5.72683E-01 2.31677E-01-2.59640E-01
 -1      1974-1.35328E+00-1.10322E+00-9.98047E-01 6.15910E-02-4.81437E-03-6.19318E-01
 -1      1975-3.66835E-01-1.86126E-01-2.43639E-01-1.19156E-02-4.00323E-02-1.43315E-01
 -1      1976-2.12591E-01-6.08189E-02-1.96079E-02-4.01896E-02-7.85421E-02-9.66122E-02
 -1      1977-1.16277E+00-8.49510E-01-8.66712E-01-3.92801E-02-2.19739E-02-5.63963E-01
 -1      1978 2.87537E-01 1.27333E-01 2.40713E-01-4.36106E-02-1.11668E-01-7.53827E-01
 -1      1979 2.46420E-01 5.05284E-02 1.84080E-01-4.21348E-02-1.27317E-01-7.52388E-01
 -1      1980-8.41958E-02-9.44021E-01-3.90716E-01 5.25513E-02 2.48373E-01-2.07196E-01
 -1      1981-9.20397E-01-5.52402E-01-2.45726E-01 5.54549E-02 3.21154E-02-2.71623E-01
 -1      1982 2.19393E-01 1.44073E+00 6.43337E-02-3.46575E-01 4.65467E-02-1.17109E-01
 -1      1983 1.78242E-01 1.06690E+00-7.58433E-02-2.30264E-01 4.94635E-02 8.66969E-03
 -1      1984-4.64984E-01 6.41364E-02-4.02598E-02 2.14438E-01-2.90907E-02-3.58765E-01
 -1      1985-4.78701E-01 8.15412E-02-2.07030E-02 1.65359E-01-1.03585E-01-3.80407E-01
 -1      1986-7.60107E-01-6.50269E-01-5.38539E-01-2.03222E-02 4.06624E-02-4.25794E-01
 -1      1987-6.20078E-01-7.68171E-01-7.10882E-01-4.23095E-02-1.94505E-02-4.55546E-01
 -1      1988-1.73702E-01-7.46840E-01-9.16242E-01-1.55639E-01-9.93880E-02-2.96692E-01
 -1      1989 1.78437E-01 1.78801E-01 5.27458E-02-8.38366E-02 4.11112E-02-6.65963E-02
 -1      1990 9.94051E-02 2.20469E-01 9.64675E-02-1.04618E-01 5.20901E-02-8.35111E-02
 -1      1991 1.02094E+00 2.70593E-01 1.12874E-01-2.08793E-01 1.74706E-01-4.50929E-01
 -1      1992 6.88179E-01 4.40653E-02-1.49661E-01-1.16076E-01 1.43714E-01-3.21559E-01
 -1      1993-3.22864E-01-1.49008E+00-1.13049E-01-4.44958E-01 3.91230E-02-1.21441E-01
 -1      1994-1.04092E+00-7.58775E-01-7.01300E-01 8.12674E-02 1.20587E-01-5.05886E-01
 -1      1995-3.01747E-01-4.23460E-01-4.66421E-01 1.82169E-01 9.61701E-02-3.60063E-01
 -1      1996-5.71845E-01-7.10423E-01-8.30626E-01 1.68870E-01 1.15837E-01-4.58127E-01
 -1      1997 1.62803E-02 1.30749E-01 1.23291E-01-5.26488E-02 5.04943E-02-1.26296E-01
 -1      1998-1.08054E-01-7.93740E-02-1.35566E-01-4.65850E-02-1.82766E-02-1.53737E-01
 -1      1999-1.55752E-01-2.25880E-01-1.62391E-01 1.25271E-01-1.97235E-02-4.67566E-01
 -1      2000 8.51204E-01 2.31386E-01 1.96345E-01-2.74563E-01 1.09570E-01-2.40492E-01
 -1      2001 6.38466E-01 1.89209E-01-2.43836E-02-2.18792E-01 1.43916E-01-2.23320E-01
 -1      2002-9.81173E-01-8.25851E-01-7.22172E-01 3.00441E-02 6.55149E-02-4.87736E-01
 -1      2003-9.59829E-01-1.67849E-01-9.05225E-02 2.73813E-01 1.16081E-01-2.96276E-01
 -1      2004-8.25567E-01-1.26150E-01 2.14351E-02 2.66978E-01 1.97801E-01-3.41341E-01
 -1      2005-1.06646E+00-1.27364E-01-7.14541E-02 2.90891E-01 1.35811E-01-2.46903E-01
 -1      2006 8.56713E-01 3.70596E-01 5.42166E-02-2.42052E-01 3.12965E-02-1.89010E-01
 -1      2007-3.76530E-01-1.61287E+00-9.54969E-02-4.74289E-01 4.16927E-02-4.55322E-03
 -1      2008-1.26978E+00-1.06646E+00-9.17597E-01-9.61514E-03 4.08231E-02-5.31949E-01
 -1      2009-2.81523E-01-1.17685E+00-4.91438E-01-1.65521E-01-8.23229E-02-1.29147E-01
 -1      2010-2.37999E-01-1.01701E+00-3.74787E-01-1.42873E-01-7.76425E-02-1.13261E-01
 -1      2011-9.43327E-01-9.37908E-01-8.68995E-01-1.93251E-03 2.50695E-02-3.85753E-01
 -1      2012 9.80963E-02 2.94906E-01 1.18178E-01-1.11255E-02-7.13465E-02-3.38104E-02
 -1      2013 1.59405E-01 2.36393E-01 1.26469E-01 1.37625E-01-2.76136E-02-2.72419E-02
 -1      2014 3.24737E-01 5.14415E-01 2.72552E-01-7.42555E-02 9.65391E-02-6.37191E-02
 -1      2015 1.57598E-01 4.05777E-01 1.40351E-01-5.29121E-02 2.65073E-02-2.54938E-03
 -1      2016 2.45691E-01 2.00822E+00 2.88001E-01-2.14998E-01 1.13247E-01-2.62145E-01
 -1      2017 3.78170E-01 3.62544E-01 4.88293E-01-1.28795E-01 1.38850E-01-4.21177E-01
 -1      2018 5.98363E-01 5.05124E-01 8.39470E-01-1.62599E-01 1.71871E-01-4.50240E-01
 -1      2019-9.00847E-01-8.91733E-01 7.54369E-02-7.90004E-01-5.30865E-02-1.13788E-01
 -1      2020-1.20993E-01-1.17748E-01-1.12003E-01 6.31103E-03 4.94700E-02-1.20013E-01
 -1      2021-1.48804E-01-7.78858E-02 1.05394E-02 2.82285E-02 6.65803E-02-9.90245E-02
 -1      2022 4.39672E-01 1.59899E+00 3.10170E-01-3.17031E-01 8.86906E-02-1.54415E-01
 -1      2023 2.15545E-01 9.84490E-01-6.20306E-02-2.32257E-01 8.09139E-02-1.01155E-01
 -1      2024-3.31492E-02 1.45777E-01 4.14933E-01-1.00382E-01 1.05128E-01-6.40997E-01
 -1      2025 1.02632E-01 2.04449E-01 4.46823E-01-1.13367E-01 1.39029E-01-5.57548E-01
 -1      2026 1.06758E+00 7.40487E-01 6.99811E-01 8.46970E-02-3.92974E-02-4.43613E-01
 -1      2027 3.69967E-01 1.72437E+00 6.63314E-04-5.24125E-01-1.52684E-02-1.61640E-01
 -1      2028 1.71193E-01 2.10826E+00 1.93588E-01 1.57868E-01-6.35251E-02-4.76265E-02
 -1      2029-1.04380E+00-1.48709E-01-2.05974E-01 3.22499E-01 6.11329E-03-3.77349E-01
 -1      2030 9.40321E-02 1.58406E+00-8.25553E-04-1.92372E-01 1.87286E-01-1.52006E-01
 -1      2031-5.59856E-02 1.35000E-01 9.33402E-02 8.76241E-02-1.08147E-01-1.20278E-01
 -1      2032-7.46649E-02-1.90141E-02-7.59293E-02 4.04992E-02-2.15584E-03-1.21843E-01
 -1      2033-3.21246E-01-5.43889E-01-3.04255E-01 6.47877E-02 5.06558E-02-6.16365E-02
 -1      2034-1.47432E-01-4.39230E-01-1.85329E-01 5.20070E-02 2.12843E-02-1.79089E-02
 -1      2035 1.99184E-01 1.40635E-01 1.43438E-01 5.82628E-02-5.15177E-02-1.82717E-01
 -1      2036 1.47588E-01 5.52148E-02-4.04611E-02 6.87798E-02-1.23833E-01-8.97861E-02
 -1      2037 1.13775E-01 6.67038E-02-3.68632E-02-1.97666E-02-4.86267E-02-1.03499E-01
 -1      2038 9.98583E-02 5.21731E-02 7.83864E-02-3.90447E-02 1.28010E-02-1.41728E-01
 -1      2039 3.57784E-01 1.81854E-01 2.36326E-01 1.22132E-02 1.56365E-02-1.68158E-01
 -1      2040 2.08821E-01 8.91398E-02 1.31421E-01-4.18143E-02 3.96298E-02-4.85386E-02
 -1      2041 1.09595E+00 8.61616E-01 7.18802E-01 2.46636E-03 7.81750E-03-3.02511E-01
 -1      2042 3.39155E-01 7.22167E-02 6.99477E-02 5.80641E-02 4.50115E-02-8.54929E-02
 -1      2043-1.85845E-02 2.32477E-02 1.14196E-02 2.83231E-03 1.44406E-01-1.31418E-02
 -1      2044 2.86608E-01 1.80601E-01 1.34738E-01 2.98019E-02 1.02814E-01 1.92211E-01
 -1      2045-6.10806E-01-3.30974E-01-8.02863E-02-6.17695E-03 4.99127E-02-2.72898E-02
 -1      2046-1.65132E-01-9.64904E-02-2.89962E-02 2.06764E-02-1.69177E-01 1.18944E-01
 -1      2047 3.60688E-02 7.88286E-02-2.26638E-02-5.10550E-02-6.12743E-03-2.94571E-02
 -1      2048-2.40267E-01-2.76169E-01 1.11042E-02 1.50328E-02-1.54321E-02 2.19514E-01
 -1      2049 1.03353E-01 2.27075E-01 1.63651E-01 3.55379E-02 1.81788E-01 2.17947E-01
 -1      2050 3.27029E-02 1.56683E-01-3.26084E-02 2.34707E-02 1.49022E-01 1.35728E-01
 -1      2051-4.61728E-02 4.83456E-02 8.55895E-02-3.19738E-02 1.80763E-01 2.25155E-02
 -1      2052-3.26101E-02 7.67880E-03 2.64238E-02-9.13529E-02 1.30700E-01-2.50607E-03
 -1      2053 9.41047E-03 1.72242E-02 2.64868E-02-3.20044E-02-8.37407E-03 8.78262E-03
 -1      2054-2.11977E-02-6.33179E-02-1.82109E-02-4.15272E-02-8.20870E-02 1.25881E-02
 -1      2055-3.82690E-02-1.00478E-01-1.12473E-01-1.80256E-02-1.99037E-01 5.48539E-02
 -1      2056-3.30462E-02-7.78088E-02-7.92205E-02 7.28946E-03-2.30417E-01 1.32529E-01
 -1      2057 1.96585E-01 2.57265E-01 1.50914E-01 4.64730E-02 2.40757E-01 3.67758E-01
 -1      2058-1.35096E-02-1.29532E-02 8.25255E-02 9.46264E-04 2.47549E-01 3.29255E-01
 -1      2059 2.32340E-01 9.96694E-02 3.42950E-02 2.27867E-02-3.49250E-02 4.37455E-01
 -1      2060 1.34689E-01 6.56508E-02 2.05247E-01-9.56433E-03-7.93571E-02 3.72380E-01
 -1      2061 4.17240E-02-6.00872E-02 1.61649E-01-5.43365E-03 1.42268E-01 4.58572E-01
 -1      2062 1.84268E-01 1.59376E-01 5.82503E-02-4.19551E-02-2.52620E-01 3.90723E-01
 -1      2063-4.03258E-02-2.43282E-02 1.28111E-02-3.21350E-02-2.21459E-01 2.84519E-01
 -1      2064-1.26828E-01-5.37587E-02 2.25979E-02-3.64169E-02-1.11167E-01 1.30442E-01
 -1      2065 1.38897E-01 1.98787E-01 7.39594E-02-8.57684E-02-2.31467E-01 2.29463E-01
 -1      2066 1.09005E-01 1.62673E-01 1.32117E-01-3.80166E-02-1.98956E-01 1.69201E-01
 -1      2067 2.58673E-02 1.36598E-01 1.01232E-01 1.84873E-02-1.82611E-01 7.76654E-02
 -1      2068-1.70324E-02 4.72390E-03 3.01400E-02 3.47101E-02-1.13540E-01-3.51572E-03
 -1      2069-2.28708E-04-3.31731E-02-1.54572E-02 4.00403E-02 4.56770E-02-3.81782E-02
 -1      2070 4.87268E-02-2.31782E-02 5.43689E-05 3.75966E-02 9.49054E-02 8.20989E-03
 -1      2071-9.57335E-02-2.41905E-01-1.04996E-01 1.81016E-02 2.18589E-01 6.02592E-02
 -1      2072-1.47542E-02-4.75739E-02-7.37608E-02-3.44837E-02 2.02535E-01 1.40905E-01
 -1      2073-1.00406E-01-1.72297E-01-5.14513E-02-4.95101E-02 2.22703E-01 1.99636E-01
 -1      2074 1.87644E-02 5.32557E-02 8.79624E-02-6.81396E-03 1.12485E-01-7.80365E-03
 -1      2075-1.06768E-01-8.51260E-02-1.97839E-01-5.99990E-02 2.07062E-01 3.20827E-01
 -1      2076-9.11724E-02-9.26770E-02-2.28863E-01 2.70020E-03 1.87582E-01 4.33295E-01
 -1      2077-1.47185E-01-1.68914E-01-1.60560E-01 5.22717E-02-3.22629E-01 2.77699E-01
 -1      2078-1.01710E-01 1.12022E-02-1.00380E-01-1.27515E-02 1.58445E-01 1.16213E-01
 -1      2079-1.81638E-01-2.47183E-01-2.54944E-01 1.09846E-01-1.92752E-01 2.94645E-01
 -1      2080-1.52763E-01-8.23965E-02-1.90118E-02 5.43373E-02-1.66119E-01 3.57877E-01
 -1      2081-2.22308E-01-1.08033E-01-3.32342E-01 1.18478E-02 6.26193E-02 4.82999E-01
 -1      2082-5.44637E-02-2.47577E-02-5.58978E-02 2.00118E-02-5.89828E-02 3.92581E-01
 -1      2083-1.32797E-01-5.71099E-02-8.21317E-02-1.31955E-03 3.84118E-03 4.54858E-01
 -1      2084-5.13145E-01-2.20727E-01-3.49315E-01-1.79373E-03 1.11512E-01 6.11758E-01
 -1      2085-2.06520E-02-1.16534E-02 4.31731E-02-1.66229E-03-8.59562E-03-2.17034E-01
 -1      2086-1.44685E-02-1.86840E-02 6.99971E-03 1.60161E-02 2.21879E-01 4.59469E-02
 -1      2087 1.48883E-01 1.08330E-01 1.05683E-01-3.35268E-02-1.63487E-01 8.43055E-02
 -1      2088 4.30643E-02 4.12253E-02 7.93454E-02 6.10213E-02 1.10252E-01-1.14208E-02
 -1      2089-6.98504E-02-1.23106E-01 6.07772E-02 3.23839E-03 5.12414E-02 1.95243E-01
 -1      2090 7.83398E-02 1.43997E-01 1.56040E-01 1.98424E-02 3.31763E-01 2.37866E-01
 -1      2091-3.23887E-02-1.05834E-01 3.16361E-02 1.65676E-02 7.73225E-02 4.24468E-01
 -1      2092-1.02082E-01-2.10736E-01-1.52822E-01-4.89900E-02-1.75646E-01 2.24856E-02
 -1      2093 8.67616E-02 2.06656E-02 6.01281E-02-6.63063E-03-2.02601E-01 2.94640E-01
 -1      2094-2.91309E-01-2.05030E-01-2.49960E-01-3.02242E-02-6.92490E-02 5.89635E-01
 -1      2095-4.55634E-02-2.46496E-02-1.12295E-01 4.19858E-02-6.25591E-02 3.76535E-01
 -1      2096-7.38902E-03-3.43560E-02 1.02586E-03 5.18465E-02-4.43976E-02-3.16120E-02
 -1      2097-1.17870E-01-5.55028E-02-7.61485E-02 6.13682E-02 2.30904E-02-3.76653E-02
 -1      2098-1.23395E-01-3.62128E-02 1.11526E-02 8.62350E-03-6.93641E-02 1.18609E-02
 -1      2099 2.64793E-02-1.90628E-02 5.36107E-02 2.66740E-02 1.10875E-01 3.89020E-01
 -1      2100-9.18445E-02 8.25637E-03-1.22376E-02-5.82045E-03 9.94427E-02 4.61346E-02
 -1      2101 6.48016E-03-2.05704E-02-2.97180E-02-1.50905E-02-3.82326E-02-4.66274E-02
 -1      2102 3.03842E-02 2.28778E-02-3.50638E-03 2.52761E-02-1.11458E-02-6.07980E-02
 -1      2103 1.85396E-01 8.67262E-02 1.32881E-01-7.77748E-02-7.05477E-02 4.89280E-01
 -1      2104 1.20048E-01 9.76294E-02-1.12895E-02 3.65028E-02-1.53483E-01 2.36270E-01
 -1      2105 8.95455E-02 5.48679E-02 6.40567E-02 1.03557E-01 9.56770E-03-5.36785E-02
 -1      2106 1.50001E-01 7.61939E-03 1.88534E-01-1.26038E-02-1.18897E-01 3.69471E-01
 -1      2107 3.89993E-02 2.00255E-01 5.81782E-02 3.83562E-03-2.95492E-02 2.92024E-01
 -1      2108 6.68917E-02-5.11672E-02-1.52462E-01-6.32891E-02 1.30415E-01 4.11568E-01
 -1      2109 1.68847E-01 1.95182E-01 1.05019E-01-5.87200E-02-3.58343E-01 3.42769E-01
 -1      2110-2.03795E-01-1.77507E-01 1.72895E-02 2.07729E-03 6.88963E-02 8.88442E-02
 -1      2111 2.89454E-02-7.05456E-02 4.48323E-02 2.57078E-02-9.72750E-02 2.17382E-01
 -1      2112 6.40283E-02 2.23682E-03-4.33279E-03 3.30173E-02 1.28686E-01-1.79056E-02
 -1      2113 3.16169E-01 3.25442E-01 2.42913E-01-1.30175E-01-2.83093E-01 5.07043E-01
 -1      2114 6.61259E-02 5.93304E-02 1.02856E-01 2.75536E-02 7.74749E-02-1.61561E-02
 -1      2115-7.86142E-02-1.47320E-01-6.82683E-02 7.09585E-02-1.79390E-01 1.64271E-01
 -1      2116 2.75900E-02-3.44325E-02-4.82212E-02-2.16448E-02-2.28584E-01 1.08174E-01
 -1      2117-4.03663E-02-2.08257E-02-1.31702E-01-1.32263E-02-2.58984E-01 2.06549E-01
 -1      2118 2.64713E-02-2.62839E-02-1.28401E-02 4.57571E-02 2.43698E-01 1.04842E-01
 -1      2119 6.78390E-02 1.50905E-01 1.09583E-01 1.85353E-02-1.89053E-01 4.46762E-02
 -1      2120 5.59026E-02 9.89276E-02 1.16955E-01-1.89112E-02 1.71049E-01 1.22362E-02
 -1      2121-2.45052E-02-6.57350E-02 5.18647E-02 3.12688E-02 1.25720E-01-5.81023E-03
 -1      2122-3.54975E-01-2.98151E-01-1.66770E-01 7.80549E-02-1.78739E-01 3.79974E-01
 -1      2123-2.13407E-01-1.11533E-01 1.08176E-02 2.20327E-02 3.85764E-02 6.15498E-02
 -1      2124 3.26010E-01 2.84669E-01 3.29280E-01 6.39124E-02 3.11052E-01 3.60934E-01
 -1      2125-1.89167E-02 4.65784E-02-6.91105E-02 4.63461E-03-2.87425E-01 5.05944E-01
 -1      2126-1.92693E-01-1.04261E-01-8.06602E-02 5.27844E-02-1.34531E-01-2.83927E-02
 -1      2127 5.56696E-02-2.99519E-03 4.86451E-02-4.50525E-02-2.11452E-02-1.21328E-02
 -1      2128-2.38712E-01-1.66340E-01-3.45817E-02-5.04421E-02-1.34322E-01 1.70158E-01
 -1      2129 1.97466E-01 1.34193E-01 5.86257E-02 5.31369E-02 2.79258E-02-4.80595E-02
 -1      2130-3.70506E-02 2.49271E-02-2.40729E-02-2.48872E-02 4.75451E-02 1.37396E-03
 -1      2131-1.75244E-01-2.84941E-01-1.29881E-01-5.39146E-02 2.87900E-01 2.18923E-01
 -1      2132-1.38995E-02-3.17363E-02-2.36140E-02-1.92648E-02 1.57885E-01 4.19064E-03
 -1      2133-4.47637E-02 3.12422E-02 1.92945E-02 1.80170E-02-4.98971E-02 4.28780E-03
 -1      2134-7.05332E-02 2.65453E-02 2.35968E-02-4.19534E-03-1.38311E-01 8.86799E-02
 -1      2135-4.28882E-02-4.29277E-03 1.06441E-01 1.70668E-02-7.45655E-02 4.15313E-01
 -1      2136-1.77668E-01-1.10495E-01-6.61289E-02-1.84121E-02 1.04568E-01 9.81433E-02
 -1      2137 3.17819E-01 2.19260E-01 1.20952E-01-5.21320E-02-3.30824E-02-5.36450E-02
 -1      2138-1.15427E-02 6.63531E-02 5.08212E-02 2.21746E-02 2.04030E-01 1.17481E-01
 -1      2139-1.76476E-02-1.87371E-02-4.25685E-02 4.06666E-02 1.54578E-01 3.24072E-01
 -1      2140 5.14663E-01 3.25832E-01 2.73558E-01-7.37278E-02-7.91624E-02 6.30772E-01
 -1      2141-7.18414E-02-6.47193E-02-6.23131E-02-4.42140E-02 7.00387E-02 4.84095E-03
 -1      2142 1.20660E-02 1.11198E-01-7.41124E-02-4.22686E-02 8.67424E-02 1.72749E-01
 -1      2143 1.57259E-02-8.12032E-02 4.15008E-02 5.51101E-02-5.01483E-02 3.55917E-02
 -1      2144-1.02118E-01-2.25904E-01-1.09239E-01 1.57898E-02 3.11080E-01 1.87032E-01
 -1      2145 3.20091E-01 1.20092E-01 1.83656E-01 6.54264E-02 3.21040E-01 3.71765E-01
 -1      2146-1.48309E-01-2.16609E-01-2.82266E-01-8.06941E-03-2.98500E-01 3.33592E-01
 -1      2147-3.82248E-01-1.79476E-01-6.82562E-02 1.22366E-01-9.14308E-03-6.75177E-02
 -1      2148 2.10833E-01 1.93435E-01 2.43827E-01 4.11026E-02 2.91638E-01 4.81903E-01
 -1      2149-2.47884E-04-5.90688E-02 7.07094E-03-2.31843E-02-8.51152E-02 1.99160E-02
 -1      2150 3.83799E-01 2.61380E-01 2.96339E-01 4.27795E-02-5.29660E-02 5.74210E-01
 -1      2151 4.58673E-03-4.92184E-02-1.12199E-02 2.85578E-02 6.01797E-02-1.29046E-02
 -1      2152 1.29973E-01 6.38263E-02-3.88895E-02-4.53549E-02 9.96197E-02 1.08453E-01
 -1      2153-2.24971E-01-1.36137E-01-1.94240E-01-1.38260E-04 7.93063E-03 5.59652E-01
 -1      2154 1.31299E-01 1.69699E-01-1.87171E-02 1.27166E-02-2.78873E-02 1.85636E-01
 -1      2155 1.60599E-01 1.08668E-01-3.04172E-03-9.29603E-02-1.81215E-02-6.44707E-02
 -1      2156 4.62373E-02 1.52339E-02-1.33182E-01 4.48159E-02 7.64123E-02 3.80228E-01
 -1      2157 2.77821E-01 1.70853E-01 3.73742E-02 1.18301E-01 1.13780E-02-7.11210E-02
 -1      2158 1.50223E-01 1.16515E-01 2.69390E-01-5.30003E-02-2.23765E-01 4.22478E-01
 -1      2159 9.23987E-02-1.00008E-02-7.67388E-02 2.33430E-02 1.87719E-01 9.66708E-02
 -1      2160 1.13850E-01 7.23538E-02 3.55692E-02 5.97030E-02-1.46262E-01 9.69586E-02
 -1      2161-1.52735E-01-1.30191E-01-6.01378E-02-3.99306E-02-2.91168E-02 5.39672E-03
 -1      2162 3.75168E-01 2.56389E-01 2.92519E-01 6.37027E-02 1.36700E-01 6.24503E-01
 -1      2163-3.75155E-02 6.50224E-03 3.34682E-02-1.20566E-01 2.28536E-02-1.34023E-01
 -1      2164-5.03289E-03 2.59674E-02 3.10928E-02 1.25396E-02-5.69331E-02-2.81505E-02
 -1      2165 1.61709E-01 1.37585E-01 1.34433E-01 2.75635E-02 3.02444E-01 2.25452E-01
 -1      2166-4.52960E-01-2.69072E-01-1.52065E-01 3.30590E-02-2.46443E-03-6.08349E-02
 -1      2167-1.06172E-01-1.98289E-01-8.94645E-02 2.38575E-02 1.20342E-02 5.52654E-03
 -1      2168-1.43109E-01-1.58392E-01-2.31703E-01-1.05953E-02-2.64167E-01 2.62232E-01
 -1      2169 4.16911E-01 2.21120E-01 1.55172E-01 2.69527E-02 3.30670E-02-3.20239E-02
 -1      2170-4.30605E-03 1.81884E-02 1.37678E-04-8.97334E-03 1.54494E-01 2.19221E-02
 -1      2171 1.58521E-01 8.06186E-02 5.18619E-02 8.40440E-02 1.16309E-02-7.66795E-02
 -1      2172-7.24364E-02-5.21998E-02-7.33351E-02 9.89924E-03-1.97963E-02-3.89630E-02
 -1      2173-2.05114E-02 3.15619E-03 1.78685E-01-5.65612E-02 2.34777E-01 3.44643E-01
 -1      2174 2.05797E-02 8.69126E-02-1.53481E-02-2.83182E-02-1.98024E-01 1.48419E-01
 -1      2175-1.28924E-01-1.43161E-01 9.60468E-03-7.02239E-02 1.60135E-01 1.62035E-01
 -1      2176-2.88530E-03 1.10669E-02 1.82530E-02-9.15109E-03 7.16318E-02-1.96588E-02
 -1      2177-1.37583E-01-1.12666E-01-1.00200E-01 1.42958E-02-5.92239E-02-2.25514E-02
 -1      2178 1.78259E-01 2.66687E-01 2.07630E-01 3.00345E-02 3.00987E-01 2.63861E-01
 -1      2179 9.35694E-02 4.56980E-02 3.93184E-02-3.56848E-02 1.69901E-01 8.14727E-02
 -1      2180-4.34239E-01-2.63689E-01-1.23468E-01 1.60872E-02-4.25871E-02 5.28094E-02
 -1      2181 4.99394E-01 2.12251E-01 2.57662E-02 2.96727E-02 3.40110E-02-8.44537E-02
 -1      2182 8.98563E-02 1.16005E-01 3.03841E-02-1.47232E-02-3.53346E-01 2.82032E-01
 -1      2183 1.72831E-01 7.99201E-02 5.53646E-03 3.94610E-02 4.39436E-03-1.26345E-02
 -1      2184 1.76691E-01 1.73364E-01 1.86378E-01 8.00982E-03 4.44720E-02 1.52637E-01
 -1      2185 3.48125E-01 1.75676E-01 8.69417E-02 5.78297E-02 3.22563E-02-4.11141E-02
 -1      2186-2.19578E-01-4.50691E-02-2.43987E-02-1.70341E-02 4.24095E-02 5.37694E-02
 -1      2187-6.18243E-02 2.14470E-03 7.28259E-02-4.86895E-03-2.00499E-01 2.44035E-01
 -1      2188-1.23098E-01-1.36667E-02-4.43724E-02-1.22503E-02 2.67343E-01 4.50576E-01
 -1      2189 3.34143E-01 3.38193E-01 3.08579E-01-8.84611E-02-3.13999E-01 6.00667E-01
 -1      2190-6.92158E-02-6.28618E-02-1.05019E-01 2.42548E-02-2.17481E-02-4.56387E-02
 -1      2191 9.37166E-02 8.98840E-02 3.77333E-02 1.62141E-02 1.26123E-01 6.31641E-02
 -1      2192 9.09110E-02 1.50098E-01 6.37280E-02-1.72243E-02-2.17381E-01 7.98937E-02
 -1      2193-3.22790E-01-2.01942E-01-1.05000E-01 7.29142E-02-1.14702E-04-4.95336E-02
 -1      2194 6.28102E-01 3.95219E-01 1.72011E-01-2.67777E-02-2.68258E-02-5.73346E-02
 -1      2195-6.48992E-02-5.71156E-02-6.80158E-02-6.07349E-02-1.42624E-02-1.49234E-02
 -1      2196-1.51107E-01-1.26325E-01-1.26517E-01 1.72233E-02-1.56309E-01 4.41269E-02
 -1      2197-1.08256E-01-3.88944E-02-4.94118E-02 9.15863E-02 3.77039E-03-6.31732E-02
 -1      2198 2.36342E-01 1.74428E-01 1.20511E-01 3.29594E-02-2.27316E-02-3.24339E-02
 -1      2199 2.21011E-01 1.18794E-01 4.09598E-02-1.19870E-02-1.01611E-01 4.39917E-01
 -1      2200 4.74660E-01 2.62612E-01 9.53423E-02 2.73480E-02-1.87032E-02-2.82022E-03
 -1      2201-1.07761E-01-6.97039E-03 5.14234E-02 9.30344E-03 2.11436E-01 5.85593E-02
 -1      2202-1.11065E-02-6.56008E-02 4.04246E-02 1.44444E-02-1.84980E-01 8.82609E-02
 -1      2203 1.08829E-01 2.00959E-01 1.03653E-01 7.41988E-03-1.04011E-02 1.11297E-02
 -1      2204-1.34449E-02 6.37633E-03-2.75185E-02-1.14298E-02-2.97315E-01 2.10945E-01
 -1      2205 2.13589E-02 7.79435E-02 1.97850E-01 2.63848E-02 2.51642E-01 3.19781E-01
 -1      2206 1.97791E-02-4.42101E-02-4.56680E-02-2.05155E-04-1.61452E-01 5.51018E-02
 -1      2207-2.84648E-01-2.88777E-01-2.10965E-01 1.01976E-01-2.71854E-01 2.27101E-01
 -1      2208 8.09193E-02 1.47228E-01 4.71454E-02-4.64253E-02 1.78805E-01 2.70658E-01
 -1      2209-3.41474E-01-2.39876E-01-3.96982E-01-1.17288E-02 1.89073E-03 6.15097E-01
 -1      2210-3.68139E-01-2.19708E-01-2.50636E-01 5.92018E-02-1.71823E-01 5.88624E-01
 -1      2211-1.51518E-02-6.16707E-02-4.53361E-02 1.65878E-02-1.63484E-01 3.18489E-01
 -1      2212 1.95648E-01 1.54503E-01 1.41268E-01 4.23417E-02 4.96198E-02 8.44899E-02
 -1      2213-4.26765E-01-2.11217E-01-1.09269E-01 3.70538E-02-2.15440E-02-5.73150E-02
 -1      2214 4.31355E-01 2.15654E-01 1.02963E-01 4.01842E-02 1.78392E-02-5.77000E-02
 -1      2215 3.34385E-01 2.22919E-01 3.17324E-01 1.48368E-02 1.32683E-01 6.16374E-01
 -1      2216 3.35518E-02 1.79115E-02 1.89823E-02-1.74984E-02-1.66817E-01 2.42813E-02
 -1      2217-9.96251E-03-4.70184E-03-2.45949E-02 1.22819E-02 5.29117E-02-2.87863E-02
 -1      2218-1.01493E-01-9.05560E-02-4.93162E-02 1.73202E-02 2.33761E-01 1.27648E-01
 -1      2219 7.18180E-02 5.19687E-02 1.80863E-02 4.71774E-02 2.90888E-02-3.31582E-02
 -1      2220 1.42995E-01 4.64176E-03 1.50993E-02 1.40500E-03 1.44691E-01 6.34453E-02
 -1      2221-2.97844E-02-4.60273E-02-6.51113E-02-1.39608E-02 2.59537E-01 1.66535E-01
 -1      2222 9.39532E-03-2.82403E-02-1.64583E-02 3.62887E-02 1.05052E-01-1.42524E-02
 -1      2223 2.25508E-01 2.90536E-01 1.72800E-01-5.29293E-02-2.12497E-01 1.28059E-01
 -1      2224 2.18163E-01 2.61181E-01 1.67983E-01-7.09900E-02-3.08858E-01 2.55279E-01
 -1      2225 4.90041E-01 1.96314E-01 1.01707E-01 5.30126E-02 1.31936E-02-6.19052E-02
 -1      2226 2.52881E-01 2.11521E-02-8.10647E-03-3.94364E-03-7.12036E-03 4.89284E-01
 -1      2227-2.36411E-01-1.43383E-01-1.07193E-01 5.60595E-02-2.73034E-01 2.47748E-01
 -1      2228 2.86745E-01 1.05365E-01 2.01066E-02 1.14573E-01 2.62455E-02-7.88355E-02
 -1      2229 1.51492E-01 9.78906E-02 5.23481E-02-1.54855E-02-2.35271E-01 1.09076E-01
 -1      2230-5.09052E-02-2.94300E-02 1.88161E-03-4.25092E-02 2.37965E-02-2.18532E-02
 -1      2231 3.75630E-02 8.85386E-03 4.41521E-02-3.90352E-03-1.13633E-01 1.06375E-02
 -1      2232 4.01858E-03 4.84164E-02 2.85309E-02 3.73303E-02-1.41435E-01 7.13063E-03
 -1      2233 5.20629E-01 2.66588E-01 1.53400E-01 5.58845E-02 2.56070E-02-5.14026E-02
 -1      2234 1.78627E-03-4.83009E-03-5.34661E-02 8.44304E-03-7.31915E-03-3.72557E-02
 -1      2235-4.05437E-02-1.03758E-01-4.70997E-02 2.73408E-03 1.76529E-01-9.50075E-03
 -1      2236 6.61173E-02-3.94137E-02-2.20255E-02-7.64376E-03-2.35144E-01 3.36610E-01
 -1      2237 5.40272E-01 3.17871E-01 9.97965E-02 9.13974E-03-1.27593E-02-4.37239E-02
 -1      2238-3.91377E-02-8.31170E-02 2.33651E-02 2.05049E-02-1.18259E-01 3.59482E-02
 -1      2239 1.40563E-01 2.09411E-01 9.92403E-02-2.88219E-02 1.69061E-03 4.56331E-02
 -1      2240 3.82851E-01 2.17280E-01 1.05822E-01 7.33914E-02 4.97897E-02-5.02282E-02
 -1      2241-6.28036E-02-4.93361E-02 7.82145E-03-6.53599E-03 1.77170E-01 4.71622E-02
 -1      2242-1.25596E-02-6.88165E-03-4.22826E-02 5.00645E-02-3.66683E-02-4.08269E-02
 -1      2243 2.64843E-02 2.52497E-02 7.07380E-04 4.34461E-03 1.32210E-01 4.24932E-03
 -1      2244-6.58113E-02-8.27627E-02-9.25158E-02 1.23378E-02-2.36892E-01 1.00155E-01
 -1      2245-3.40501E-01-2.24312E-01-9.03888E-02 2.30118E-02 3.59177E-02-7.93760E-03
 -1      2246 4.25970E-02 7.40989E-02-2.36431E-03-3.15225E-02-3.14479E-01 2.70664E-01
 -1      2247 1.17949E-01 3.70291E-02 1.14270E-03-7.52400E-02-1.54197E-01 3.63846E-01
 -1      2248 1.32958E-01 4.68325E-02-6.05866E-02 7.65210E-02-2.11261E-02-6.84646E-02
 -1      2249-1.55786E-01-1.40886E-01-1.21540E-01 5.71989E-02-1.72383E-01 1.50680E-01
 -1      2250 1.10258E-01 1.25408E-01 9.22705E-02 4.75238E-02 4.70226E-02-5.83120E-02
 -1      2251-5.31703E-03-6.73592E-03 6.87889E-02 2.28159E-02-7.22422E-02-3.00784E-02
 -1      2252-2.29888E-01-1.84240E-01-8.39494E-02-1.01633E-01 1.63319E-02-4.73746E-02
 -1      2253 1.37550E-01 1.19034E-01 5.06182E-02 3.28090E-02-8.79381E-03-3.25174E-02
 -1      2254-2.36325E-01-1.42995E-01-8.82026E-02 4.26594E-02-9.21118E-02-1.87176E-02
 -1      2255 1.58158E-01 2.08451E-01 1.66419E-01-2.90366E-02-2.88073E-01 1.91513E-01
 -1      2256-3.28800E-01-2.51511E-01-1.69540E-01 6.12067E-02-1.05246E-02-3.08990E-02
 -1      2257-3.18487E-01-2.00212E-01-1.57174E-01-1.75314E-02 7.45613E-02 2.48447E-01
 -1      2258 1.88228E-01 2.47793E-01 9.20667E-02-6.97105E-02-3.54387E-01 3.94050E-01
 -1      2259 3.64414E-01 2.58410E-01 3.46439E-01-1.44028E-02-2.47258E-01 6.33418E-01
 -1      2260-4.93578E-02 1.64970E-02-4.84297E-02-2.27415E-02 9.11047E-02 1.88806E-02
 -1      2261-3.28913E-01-2.15045E-01-1.76168E-01 1.70908E-02 9.13946E-03-3.20751E-02
 -1      2262-1.77777E-01-1.41496E-01-1.54681E-01-4.41128E-02 2.91534E-01 3.38264E-01
 -1      2263-3.98533E-02 7.86330E-02-1.24729E-01-6.37634E-03 4.73652E-02 3.98501E-01
 -1      2264-1.46952E-01-6.65487E-02-3.19637E-02-2.64630E-02 1.00703E-02-4.49952E-03
 -1      2265 1.04916E-01 6.78415E-02-6.19998E-03-1.05842E-01-1.10380E-02-8.59420E-02
 -1      2266 1.98534E-02 1.52695E-02 5.14825E-02 7.06634E-03-8.18968E-02 2.24535E-03
 -1      2267 5.67101E-02 8.03558E-02 3.69505E-02-7.31975E-03 1.57893E-01-1.00899E-02
 -1      2268-6.18450E-02-1.81438E-02 1.95213E-02-4.47408E-02 3.11802E-02-3.97293E-02
 -1      2269-9.62173E-03-9.80351E-03 3.34624E-02-4.34014E-02 1.65231E-01 2.15612E-01
 -1      2270 1.46674E-01 9.55835E-02-1.49295E-03-8.73929E-03-3.46021E-03-1.94903E-01
 -1      2271 2.38640E-01 9.68538E-02 5.82185E-02 3.50272E-02-8.18695E-02 6.72652E-03
 -1      2272-3.99231E-01-1.90277E-01-4.36241E-02 6.59487E-02 1.60192E-02-6.08166E-03
 -1      2273-2.15062E-01-3.03993E-01-1.56027E-01 4.20622E-02-3.00726E-01 1.47017E-01
 -1      2274 2.37880E-03-4.33567E-02-3.06243E-03-9.57615E-04 6.14304E-04-1.01335E-02
 -1      2275-1.19733E-01-1.64638E-02-1.12937E-01-2.49719E-02-8.00642E-02 4.28334E-01
 -1      2276 1.18172E-01 6.62157E-02 4.52805E-03 1.31774E-02-4.90555E-02 7.34311E-04
 -1      2277 2.56996E-01 1.74788E-01 3.03814E-01-2.80596E-02-1.49438E-01 5.51323E-01
 -1      2278 1.34313E-01 1.78913E-01 1.31226E-01-1.50669E-02 2.76047E-01 1.13828E-01
 -1      2279 1.16153E-01-3.53265E-02 8.54892E-02 7.44545E-02-2.39436E-01 2.75792E-01
 -1      2280-5.86421E-02-1.08636E-01-1.01863E-01-9.50982E-02 3.64255E-02-7.94529E-03
 -1      2281-1.65492E-01 4.52558E-03-1.06892E-01-2.92656E-02 1.74683E-01 1.00521E-01
 -1      2282-2.79114E-01-1.85293E-01-9.99431E-02 7.23173E-02-4.39054E-02-5.14873E-02
 -1      2283 3.01663E-02 7.50002E-02 6.15412E-02 1.61664E-02-9.03437E-02-1.46096E-02
 -1      2284 1.90104E-01 4.63061E-02-1.72548E-02 1.76603E-01-1.35004E-02-9.25386E-02
 -1      2285-2.44850E-02 1.09073E-02 1.02551E-01-1.45434E-02 2.04975E-01 2.99608E-01
 -1      2286-2.41487E-01-1.64527E-01-2.53040E-01 6.36668E-03 1.94256E-01 4.82591E-01
 -1      2287-3.18672E-01-1.36307E-01-1.39368E-01-6.18304E-02 2.80443E-01 4.16232E-01
 -1      2288 6.11185E-02-7.00275E-03 1.74427E-02-1.92384E-03 2.23790E-01 3.23548E-01
 -1      2289-3.48151E-01-2.41959E-01-2.50572E-01 4.34235E-02-7.38265E-02 5.99475E-01
 -1      2290-4.01646E-01-2.18307E-01 1.68591E-02-5.01603E-02 1.20852E-01 3.88462E-01
 -1      2291 2.47763E-01 5.16985E-02 1.08439E-01-1.03242E-02 2.07442E-01 2.36327E-01
 -1      2292-2.49785E-01-1.23560E-01-1.21910E-02 5.88466E-02 2.47519E-02-5.70641E-02
 -1      2293 1.65379E-01 2.09627E-01 1.45270E-01 6.76696E-02 2.31751E-01 1.33219E-01
 -1      2294-8.35153E-02-1.68950E-01-1.39427E-01-1.58397E-02-2.82996E-01 1.56752E-01
 -1      2295 2.81143E-02 4.22451E-02-1.36590E-02 4.81325E-02 5.39033E-03-9.07075E-02
 -1      2296-4.12223E-01-2.92451E-01-2.34189E-01 8.78951E-02-1.75043E-01 5.24513E-01
 -1      2297 4.75450E-01 4.64360E-01 4.04764E-01-1.72465E-01-7.74762E-02 5.77293E-01
 -1      2298-2.43906E-01-1.78711E-01-1.05847E-01 2.85477E-02-8.22489E-02-2.59402E-02
 -1      2299-7.97638E-02-1.40730E-01-2.28897E-02-3.11003E-02 2.63711E-01 9.69046E-02
 -1      2300-1.81340E-01-1.06584E-01 7.95419E-02 2.00118E-01-6.67515E-02-1.32058E-01
 -1      2301-2.39121E-01-1.75085E-01-1.71615E-01-3.94898E-02 8.44636E-02 2.15729E-01
 -1      2302-4.64536E-01-2.60426E-01-1.57288E-01-5.74036E-02-2.75561E-02-1.40718E-02
 -1      2303-3.64447E-01-1.47860E-01-6.44712E-02 2.74192E-02 3.39347E-02-6.39734E-02
 -1      2304 1.27272E-01 5.61699E-02 1.10076E-02 1.65365E-02 2.61299E-02-2.76812E-02
 -1      2305 1.59811E-01 8.56681E-02-3.11816E-02 3.30809E-02 2.41514E-02-1.75806E-01
 -1      2306-3.99594E-02-7.24408E-02 4.19712E-02 4.12359E-02 1.44185E-01 2.03977E-01
 -1      2307-1.43371E-01-2.38583E-01-2.04992E-01 1.11133E-02-3.46247E-01 2.71533E-01
 -1      2308 3.66981E-01 2.14401E-01 2.10911E-01-4.67198E-02-2.02985E-02-5.38681E-02
 -1      2309-1.18084E-01-5.48115E-02-7.42432E-02-4.26303E-02-2.68990E-01 4.89861E-01
 -1      2310 3.67441E-01 1.99086E-01 1.04340E-01 8.30819E-02 3.40872E-02-5.35207E-02
 -1      2311-5.15208E-02 4.98926E-02-6.23966E-02-3.12046E-02-2.45434E-01 1.69648E-01
 -1      2312-1.05723E-02 3.67040E-02-4.59278E-02-4.33216E-02-2.09725E-01 7.44587E-02
 -1      2313 1.84531E-01 1.81520E-01 7.38635E-02 6.20351E-02 1.36258E-01 6.27904E-01
 -1      2314-3.56597E-01-1.54291E-01-5.26381E-02-5.51084E-02 3.36298E-02-8.23816E-02
 -1      2315-1.47003E-02-5.27106E-02-2.80536E-03 5.44046E-02-1.39267E-01 3.54257E-01
 -1      2316-3.59707E-01-1.96717E-01-1.40407E-01-2.27650E-02-1.20116E-01 5.32582E-01
 -1      2317-9.90931E-02-3.74392E-02-3.54958E-02-1.51071E-02 1.78522E-01 3.05128E-01
 -1      2318-1.49677E-01-4.03542E-02-2.09858E-02-1.76737E-02 1.03189E-01 4.06654E-01
 -1      2319 1.99572E-01 1.34298E-01 7.78119E-02-5.04358E-02-1.02421E-03-2.73920E-02
 -1      2320-2.17087E-01-9.73969E-02 1.43197E-02-7.42183E-02-5.75477E-03-4.04329E-02
 -1      2321-2.40151E-01-2.28802E-01-2.82002E-01 4.91415E-02-3.07923E-01 4.30473E-01
 -1      2322 3.94454E-01 2.62972E-01 3.14376E-01 2.88572E-02 2.13834E-02 7.09532E-01
 -1      2323-2.09507E-01-9.45670E-02-6.89120E-02 6.75979E-02-5.30484E-02-4.19979E-02
 -1      2324-1.18274E-01-9.12639E-02 4.57680E-03-9.11918E-02 2.29488E-03-6.63640E-02
 -1      2325 1.93461E-01 1.88511E-01 1.56034E-01-6.39639E-02-1.37604E-01 1.44432E-01
 -1      2326-2.49420E-01-1.47623E-01-1.17937E-01-3.84194E-02 1.14685E-01 8.52878E-02
 -1      2327-4.29200E-02 3.18775E-02-7.00984E-02 4.05126E-02 1.83255E-01 2.43018E-01
 -1      2328-5.46783E-01-3.05360E-01-1.10427E-01 8.98316E-03 4.50572E-02 2.80758E-02
 -1      2329 6.18675E-02-1.84504E-02 2.29949E-02-2.34611E-02 5.34993E-02-3.16348E-02
 -1      2330 3.73189E-01 2.03286E-01 9.27633E-02 3.57278E-02-4.22745E-03-4.64329E-02
 -1      2331-1.80536E-02 8.51118E-02 6.16086E-02-1.34154E-02-2.45928E-01 9.64218E-02
 -1      2332 3.64784E-02-5.42820E-03-4.32196E-03-4.67523E-02-8.84145E-03-1.82978E-02
 -1      2333-4.39920E-02-3.92448E-02-3.74314E-02-2.41340E-02-7.71242E-02-1.12165E-02
 -1      2334 3.33776E-01 1.56741E-01 1.06560E-01-7.06961E-02-6.12701E-03-3.24334E-02
 -1      2335 1.35966E-01 1.30941E-01 2.99672E-02-5.55291E-02-4.95864E-02-3.50853E-02
 -1      2336-1.12603E-01-9.70492E-02-1.28291E-01 5.13310E-02 2.61722E-03-5.11288E-02
 -1      2337 1.47764E-01 1.25487E-01 8.18281E-02-5.29181E-02-9.90960E-02 2.64774E-02
 -1      2338-7.14428E-03 2.25473E-02-2.80985E-03-4.53579E-02 2.06577E-02-6.19934E-02
 -1      2339 4.11751E-01 2.75264E-01 1.55494E-01-4.63284E-02-1.10446E-02 3.43186E-03
 -1      2340-1.69792E-02-1.97223E-02-2.62576E-02 1.14221E-01 1.79724E-03-1.03529E-01
 -1      2341 1.74159E-01 8.76305E-02 1.35241E-01-2.37288E-02-6.40264E-02 1.93578E-02
 -1      2342 5.27290E-04 4.43826E-02 1.06559E-01 4.27448E-02-1.23404E-01-7.00576E-03
 -1      2343-6.76630E-02-1.28599E-01-1.01840E-01-1.65892E-03 1.15242E-01 4.15079E-01
 -1      2344 5.83302E-01 2.39080E-01-5.68163E-02 6.92072E-02-2.11759E-02 4.39986E-01
 -1      2345 2.51051E-01 1.88273E-01 1.66258E-01 5.17822E-03-2.24311E-01 6.55089E-01
 -1      2346 1.30563E-01 1.38307E-01 1.58378E-01-2.85098E-02-1.21785E-02-4.81500E-02
 -1      2347-5.57153E-01-2.82561E-01-1.67191E-01-7.57032E-02 1.67456E-02-2.12903E-02
 -1      2348-3.73285E-01-2.01712E-01-1.73495E-01-4.30755E-02 1.27038E-02-5.44847E-02
 -1      2349-3.48437E-01-2.28340E-01-1.88710E-01-4.25236E-02 2.96759E-02-2.71702E-02
 -1      2350-3.35044E-01-1.43014E-01 3.77582E-03 4.29903E-02 1.26127E-01 3.03908E-01
 -1      2351 9.11454E-02 4.08704E-02 9.90368E-03-5.16900E-02-1.13179E-01-1.42280E-02
 -1      2352 1.70094E-02 1.08508E-02 2.29686E-03-1.94054E-02-7.30290E-03-7.30859E-03
 -1      2353 8.93939E-02 5.36693E-02 4.70661E-03-6.46546E-02-3.14789E-02-4.94952E-02
 -1      2354-7.54748E-02-2.06922E-01-1.04272E-01-3.07593E-02 3.26418E-01 3.89676E-01
 -1      2355 2.32867E-01 1.07452E-01 7.35612E-02-1.04670E-01-5.09291E-02-1.16925E-01
 -1      2356-3.08446E-01-2.51600E-01-2.23027E-01 5.00580E-02-4.34451E-02-3.89546E-02
 -1      2357 9.20436E-03-6.65793E-02 4.59512E-03-1.44634E-02 1.09566E-01-1.32239E-02
 -1      2358-4.11771E-01-2.63046E-01-1.52025E-01-3.46995E-02 1.14915E-02 2.06762E-02
 -1      2359-4.22828E-01-2.69939E-01-7.22085E-02 8.68747E-04 2.43476E-02 3.85021E-02
 -1      2360-2.12323E-01-1.41378E-01-8.19369E-02 2.73159E-02-5.85744E-02 7.75809E-03
 -1      2361-2.99548E-01-2.11570E-01 1.25711E-03-2.30792E-02-3.65540E-02 2.88025E-02
 -1      2362 9.10442E-02 1.35300E-01 1.14439E-01-7.17692E-03-2.68432E-01 1.26919E-01
 -1      2363 1.68657E-02 1.33407E-01 8.35583E-02 5.09833E-02-3.33234E-01 2.78018E-01
 -1      2364 9.42505E-02 8.33263E-02 1.39756E-02 1.02126E-02 4.35201E-02 2.53518E-02
 -1      2365 1.38745E-01 8.91077E-02 5.28156E-02 8.71836E-02 6.48180E-02-5.48010E-02
 -1      2366-4.62620E-03-2.65681E-02 5.96097E-02 5.58283E-02 3.08092E-02-4.37364E-02
 -1      2367 6.74887E-01 3.52291E-01 1.10802E-01 4.55968E-02 3.24246E-02-2.55160E-02
 -1      2368-1.22516E-01-4.90403E-02-3.42962E-02 4.43168E-02-9.94668E-02 6.66481E-02
 -1      2369 4.29272E-01 2.11581E-01 4.68529E-02 2.59034E-02 7.35004E-02-4.04017E-02
 -1      2370 1.22640E-01 4.86525E-02 4.70655E-02 9.10909E-02 7.09894E-02-6.58774E-04
 -1      2371 1.16022E-02 4.89445E-02 3.48432E-02-1.56222E-02-1.27053E-01 7.69733E-03
 -1      2372 2.25598E-02-5.26058E-03-1.54106E-02 8.04042E-02 1.32166E-02-8.43493E-02
 -1      2373 3.62309E-02 6.65595E-02 2.63940E-02-6.46887E-02 5.99780E-03-3.25303E-02
 -1      2374-2.80683E-01-1.67545E-01-8.46863E-02-1.24603E-01 1.78546E-02-6.88078E-02
 -1      2375-2.35326E-01-1.04773E-01-5.25225E-02-4.02489E-02 4.94856E-02-4.93164E-02
 -1      2376-3.62796E-01-2.00384E-01-1.29287E-01-5.39209E-02 2.48031E-02-4.63460E-02
 -1      2377 2.67073E-01 1.51667E-01 9.45935E-02 4.84612E-02-6.63793E-02 1.71050E-01
 -1      2378 2.03489E-02 1.71707E-02 5.00782E-02 7.57729E-03-1.87242E-01 1.45896E-01
 -1      2379 2.59638E-01 1.37280E-01 1.68564E-01 6.92516E-03-1.19921E-01 1.10677E-01
 -1      2380 2.01108E-01 1.10847E-01 1.61963E-01-1.99879E-02 4.57691E-02 1.38826E-01
 -1      2381-2.18412E-01-1.30480E-01-1.22367E-01 3.67103E-03-6.81828E-02 3.08173E-01
 -1      2382 2.83975E-01 1.76411E-01 6.64298E-02 1.03732E-01 8.97777E-03-7.76736E-02
 -1      2383 3.05844E-01 1.98955E-01 3.06863E-01-5.37801E-03-8.12524E-02 5.64367E-01
 -1      2384-2.07578E-01-1.02316E-01-4.84252E-02-8.03466E-02 4.93550E-02-6.94107E-02
 -1      2385 3.05652E-02 9.05571E-02 1.68623E-02 6.04286E-02 2.49650E-01 2.32888E-01
 -1      2386-1.14878E-01-9.96137E-02-9.00974E-02-8.48495E-03 6.37095E-02-1.37870E-02
 -1      2387-3.64327E-01-8.70566E-02-4.81005E-02-1.28818E-02-1.05220E-02-5.01779E-02
 -1      2388-1.82725E-01-4.47351E-02-3.49937E-02 8.77584E-03 2.54888E-01 1.57528E-01
 -1      2389-4.04074E-02 1.46669E-02-3.24963E-02 1.13616E-02-6.22090E-02-2.03996E-02
 -1      2390-9.45076E-02-1.53739E-01-1.03507E-01 2.16905E-02-2.86646E-01 1.43549E-01
 -1      2391 1.91946E-02-5.42274E-03 3.86306E-02 1.04805E-02 7.52548E-02 3.82602E-01
 -1      2392-1.68802E-01-1.94524E-01-7.22122E-02 3.29347E-02 1.82157E-02-2.54898E-02
 -1      2393 2.49799E-02 2.00491E-01 5.01975E-02 1.26519E-02 3.13880E-01 4.00314E-01
 -1      2394 8.69734E-02-2.92749E-02-8.16044E-02 4.84075E-02-2.60418E-01 3.54957E-01
 -1      2395 3.45785E-01 2.94184E-01 1.64279E-01 8.46600E-02 4.82985E-02 6.73685E-02
 -1      2396-9.81674E-02-1.27278E-01-5.07318E-02-7.31954E-02 2.16710E-01 3.17908E-01
 -1      2397-3.71513E-01-1.84852E-01-1.23694E-01-3.00717E-02-1.57763E-02 3.43272E-02
 -1      2398 1.90714E-01 1.99512E-01 1.02503E-01-5.36201E-02 7.69811E-02 6.26851E-02
 -1      2399-3.40572E-01-1.19295E-01-2.89705E-02 5.96570E-02-8.49661E-02-6.61469E-02
 -1      2400 3.58671E-01 1.57200E-01 8.54953E-02-1.28916E-02-4.20338E-02-4.81063E-02
 -1      2401-6.70759E-02-2.83739E-02-8.00743E-02-5.38216E-03 1.72458E-01 7.01450E-02
 -1      2402 1.24182E-01 1.16267E-01 1.15057E-01-4.20589E-02-8.37268E-02 3.72932E-01
 -1      2403-9.86712E-02 3.08751E-02 3.98458E-02 4.92957E-02-1.78429E-01 1.43169E-01
 -1      2404 1.68758E-01 6.80631E-02-1.48212E-02-1.76849E-01-6.15030E-02-2.31775E-01
 -1      2405-2.50400E-01-7.86366E-02-8.60817E-02 1.20962E-01-2.19462E-02-7.23788E-02
 -1      2406-5.76977E-02-1.33258E-01-7.85575E-02-3.18810E-02-1.48200E-01-3.51899E-03
 -1      2407 3.22412E-01 1.49383E-01 2.48454E-02 6.09099E-03 1.19459E-01 3.73580E-02
 -1      2408-2.32877E-02-4.44041E-04 7.57384E-03-1.80951E-02 7.45346E-02 3.28629E-03
 -1      2409-5.14890E-02-7.07431E-02-4.66676E-02 1.55223E-02 1.09969E-01-5.98703E-03
 -1      2410 2.54768E-01 2.83026E-01 1.80149E-01-2.03671E-02 4.29917E-03 6.50525E-02
 -1      2411-1.92116E-01-5.72153E-02 9.79067E-03-1.51885E-01-7.30316E-03-8.56820E-02
 -1      2412 2.48918E-02 6.93278E-03 4.22814E-02 6.71639E-02-2.18312E-03-3.22045E-02
 -1      2413-3.18642E-01-2.23625E-01-1.23184E-01-5.30530E-02 3.88834E-02-1.62535E-02
 -1      2414-2.47820E-01-1.50998E-01-1.75744E-01-3.66866E-02-5.30702E-02 1.85154E-01
 -1      2415 3.33158E-01 1.86165E-01 5.22900E-02-7.39392E-02-1.46008E-02-4.80661E-02
 -1      2416-1.98689E-01-2.58599E-02-1.81225E-02 1.03616E-01-8.27060E-02-1.34426E-01
 -1      2417 3.31286E-01 9.67882E-02 7.99562E-02-5.19326E-02-1.07146E-01-9.64526E-02
 -1      2418 4.20499E-01 1.28874E-01 8.93263E-02-4.42432E-02 1.58177E-03-5.91947E-02
 -1      2419 3.15423E-01 2.48526E-01 1.25679E-01 5.63189E-02 7.59395E-02-2.08409E-02
 -1      2420-2.70941E-01-2.05699E-01-1.71941E-01-4.70279E-02 1.65369E-01 6.25341E-01
 -1      2421-7.07539E-02-5.94094E-02-4.06753E-02-4.34297E-02-8.08034E-03-2.92114E-02
 -1      2422 3.87733E-01 2.51344E-01 8.34562E-02 5.47095E-02 2.60128E-02-2.47244E-02
 -1      2423-1.45051E-01-5.08523E-02-3.78850E-02-5.80676E-02-9.09590E-02 4.19459E-01
 -1      2424-3.65230E-01-1.52472E-01-7.68457E-02-2.33236E-02 2.00928E-02-1.72542E-02
 -1      2425 4.40286E-02-5.49245E-02-1.43420E-01-1.53265E-02 2.24553E-03 4.78525E-01
 -1      2426 5.99304E-01 3.24959E-01 1.80339E-01 1.28967E-02 2.93892E-02 1.20140E-02
 -1      2427 2.38213E-01 2.58196E-01 1.14261E-01 1.21285E-01 2.47667E-01 5.07982E-01
 -1      2428-1.40116E-01-7.90220E-02-4.67928E-02 5.18197E-02-8.05162E-02-7.35135E-02
 -1      2429 1.67443E-01 1.35330E-01 6.76713E-02-3.16607E-02 2.03220E-02-2.72137E-02
 -1      2430 1.93141E-01 1.22251E-01 6.67192E-02 1.29315E-01-2.12384E-02-6.34665E-02
 -1      2431-2.98982E-01-2.87282E-01-4.14590E-01 1.53186E-02-2.80745E-01 4.29410E-01
 -1      2432-3.52838E-01-1.12249E-01-9.59508E-02-6.23416E-02 2.92625E-02-9.51921E-02
 -1      2433-3.74834E-01-1.80422E-01-4.93102E-02 1.39374E-02-4.48307E-02-1.93893E-03
 -1      2434 4.99487E-01 3.82327E-01 2.62602E-01-9.35625E-02-3.78560E-02-4.12294E-03
 -1      2435 4.28525E-02-3.54199E-02-2.96973E-02-1.30754E-01 3.02946E-04-1.12153E-01
 -1      2436 1.68707E-01 6.73462E-02 2.24642E-02-1.22425E-01-5.31130E-02-1.93935E-01
 -1      2437 5.05724E-01 2.97736E-01 1.91648E-01 2.16572E-02 1.42313E-03-5.94663E-02
 -1      2438 4.37371E-01 1.67287E-01-1.20727E-02 8.82814E-02 9.14981E-02-1.37188E-01
 -1      2439-2.35044E-01-1.53579E-01-8.68924E-02-8.59055E-02 5.21571E-02-6.52685E-02
 -1      2440-6.39871E-01-3.77168E-01-2.05405E-01 6.99231E-02-3.14610E-02 3.77962E-01
 -1      2441-4.41535E-01-3.53959E-01-5.01168E-01-5.01887E-02 9.58214E-02 7.02181E-01
 -1      2442 4.40837E-01 3.91015E-01 3.01177E-02-1.66799E-01-1.74022E-01 3.01194E-01
 -1      2443-5.71663E-03-4.87181E-03 1.54465E-03 1.24305E-01 1.35718E-02-9.03918E-02
 -1      2444-4.39456E-01-2.37909E-01-3.54745E-02-7.88035E-02 2.82027E-02-4.33366E-02
 -1      2445-1.28436E-01-7.62991E-02-3.75813E-03-1.03365E-02 1.30805E-01-1.67726E-02
 -1      2446-1.30099E-01-3.29091E-02 3.50661E-02 3.79454E-02-5.81091E-02-3.70941E-02
 -1      2447 3.50374E-01 1.58000E-01 8.38842E-02-7.52898E-03-9.14227E-03-5.44697E-02
 -1      2448-3.26191E-01-1.41019E-01-3.03142E-02-1.04901E-01 1.18079E-01-1.66672E-01
 -1      2449 3.37303E-01 1.06380E-01 5.76270E-02-6.92486E-02-1.05289E-02-6.68484E-02
 -1      2450-1.62075E-01-1.59121E-01-2.04418E-01 1.52131E-02-3.24588E-01 3.58468E-01
 -1      2451-3.04499E-01-1.84587E-01-9.20894E-02 7.19218E-02-1.20195E-02-4.74046E-02
 -1      2452 4.51073E-01 3.76313E-01 1.14813E-01-1.37632E-01-2.37089E-01 3.00893E-01
 -1      2453 1.07514E-02 5.45523E-02-2.68945E-02 5.75415E-03-1.36038E-01 1.77862E-01
 -1      2454-4.08699E-01-2.17139E-01-7.30848E-02-7.90443E-02 1.67375E-02-8.42230E-02
 -1      2455 3.26348E-01 7.77530E-02 3.84756E-02 6.73841E-02 4.80120E-03-5.06334E-02
 -1      2456-3.23487E-02-3.35105E-02-2.29107E-02 1.70306E-02 2.28730E-02-7.73584E-03
 -1      2457-2.79570E-02-1.34678E-02-7.81129E-02-1.01886E-01-1.72815E-02-6.44995E-02
 -1      2458-3.09409E-01-1.61946E-01-8.75646E-02-7.44313E-02 2.94289E-02-6.14211E-02
 -1      2459 1.21842E-01 3.88032E-02 3.92577E-02 1.55299E-01 3.82970E-02-1.76957E-01
 -1      2460-1.44837E-01-2.07742E-02 1.87957E-02-1.71425E-01 7.91801E-02-2.29468E-01
 -1      2461-9.27614E-02-4.86675E-02-4.13680E-02-2.57920E-02-8.60024E-03-1.91155E-01
 -1      2462-1.14493E-01-9.12006E-02-5.78536E-02 1.78731E-02-6.30777E-04-1.88872E-01
 -1      2463 1.52703E-01 7.55803E-02 6.95477E-02 9.13074E-02 1.73984E-02-8.75012E-02
 -1      2464-1.85124E-01-3.90358E-02 3.71619E-02-1.12622E-01 5.21855E-02-9.80175E-02
 -1      2465 9.59052E-02 2.90571E-02 1.40995E-01-2.70873E-02 9.63320E-02 3.56119E-01
 -1      2466 3.44173E-01 9.59460E-02 6.13677E-02-3.45664E-03 2.41794E-02-6.29321E-02
 -1      2467-7.06794E-01-3.74149E-01 2.61250E-02 1.01384E-01-9.62656E-02-9.39340E-02
 -1      2468 7.04201E-01 4.09431E-01 2.16720E-02-2.53282E-02-9.14059E-02-1.89333E-02
 -1      2469-3.05644E-02-2.18627E-02 2.29567E-03 1.32721E-03 7.85999E-04-2.06607E-01
 -1      2470 7.15074E-02 1.03033E-01 8.77349E-02 3.84920E-02-1.39912E-01 1.43357E-02
 -1      2471 3.89156E-02 3.82664E-02 5.28473E-02 3.88469E-02-2.60900E-02-9.33903E-03
 -1      2472 1.24704E-01 1.85067E-01 1.38391E-01-2.21546E-02-8.86886E-02-1.01605E-02
 -1      2473-8.01630E-02-4.01329E-02 3.65182E-02 4.19448E-02-1.88715E-01 2.33038E-01
 -1      2474 3.51384E-01 2.79088E-01 1.31298E-01-1.87234E-02-2.72558E-02 7.77066E-02
 -1      2475 8.04295E-02 1.66652E-02 7.04933E-02-2.36180E-02-4.18136E-02-2.56446E-02
 -1      2476-7.67867E-02-2.24475E-01 7.95559E-02-3.59180E-02 1.56660E-01 5.68612E-02
 -1      2477-5.12208E-02-6.67335E-02-3.71814E-02 1.10806E-01 1.98300E-02-1.06781E-01
 -1      2478 1.21150E-01 1.25317E-01 7.76352E-02 2.46187E-02 5.92780E-02 1.02636E-01
 -1      2479 4.06765E-01 2.23865E-01 1.43536E-01 2.18264E-02 7.60811E-03 1.74170E-02
 -1      2480-7.34187E-03 1.07119E-02 1.70441E-02-9.93140E-02 3.88434E-02-7.24142E-02
 -1      2481 3.57421E-01 2.63451E-01 2.70712E-01-1.57766E-02-6.05235E-02-3.28008E-02
 -1      2482-6.50724E-02-5.84272E-02-1.27621E-02-2.76089E-02 1.57713E-01 5.82454E-02
 -1      2483-1.38447E-01-9.04024E-02-9.96714E-02 4.19304E-02-6.23599E-02-4.12649E-02
 -1      2484-1.28022E-01-8.23325E-02 4.10746E-02-1.33317E-02 8.54668E-03-1.68752E-01
 -1      2485 1.99629E-01 1.22127E-01 1.16010E-01 1.06536E-01 1.75245E-01 4.19084E-01
 -1      2486-4.95093E-01-3.35903E-01-3.18626E-01-7.60154E-02 1.95962E-01 5.14348E-01
 -1      2487-1.65366E-01-7.56329E-02-2.47642E-02 9.71616E-02-2.68210E-02-7.31605E-02
 -1      2488-3.59832E-01-1.09032E-01-3.48325E-02-4.98439E-02 8.41644E-02-6.80420E-02
 -1      2489 5.14323E-01 3.09530E-01 2.81459E-01 7.19292E-02-5.88583E-02 4.95653E-02
 -1      2490-2.76735E-01-8.97002E-02-4.80415E-02 1.08236E-01-3.67905E-02-8.47469E-02
 -1      2491 4.57274E-01 2.19823E-01 1.01598E-01 4.46550E-02-3.11443E-02-3.29881E-02
 -1      2492 2.38380E-01 1.53659E-01 1.11179E-01-1.15797E-01-1.81803E-02-9.21638E-02
 -1      2493-4.90987E-01-3.08128E-01-1.96396E-01-3.15540E-02 2.15469E-03-4.23770E-02
 -1      2494-3.65955E-02-3.51244E-02-6.22201E-03-1.26543E-02-6.13241E-03-1.90801E-01
 -1      2495-1.23279E-02-3.45581E-02 5.79753E-03-4.27742E-02 5.41222E-04-6.63949E-02
 -1      2496 1.46435E-01 8.19763E-02 8.27818E-02-9.88293E-02 3.96971E-03-8.34485E-02
 -1      2497-9.59089E-02-8.25401E-02-8.15870E-02 4.77987E-02-2.44693E-02-3.02553E-02
 -1      2498 1.45659E-02 4.05053E-02 7.07924E-02-6.82629E-02 2.77566E-03-7.33541E-02
 -1      2499-4.89803E-01-2.34917E-01-7.87248E-02-1.04757E-01 2.62649E-03-7.03685E-02
 -1      2500-2.83912E-01-1.98762E-01-1.92205E-01-3.42208E-02 6.06900E-02-2.47233E-02
 -1      2501 2.10627E-01 3.11196E-02 2.72242E-02 1.18216E-01 3.84782E-02-1.21679E-01
 -1      2502-2.65342E-01-3.02957E-01-1.94050E-01-8.60685E-02 2.65554E-01 4.32619E-01
 -1      2503 3.55028E-01 2.86489E-01 2.25803E-01 6.60184E-02 3.38959E-01 4.50910E-01
 -1      2504-3.47012E-01-2.09585E-01-1.69552E-01-3.01250E-02 3.97610E-02-3.59360E-02
 -1      2505-3.12026E-01-1.93815E-01-9.98111E-02 8.19962E-02-5.21760E-02-7.26443E-02
 -1      2506 5.77073E-01 3.43994E-01 6.77778E-02-1.42288E-03-8.10715E-04-1.76543E-01
 -1      2507-2.01876E-01-9.87912E-02-6.33451E-02 8.62126E-02-3.90605E-02-7.10325E-02
 -1      2508-4.60519E-01-2.54093E-01-1.36730E-01 3.76828E-03 1.05761E-03-4.52736E-02
 -1      2509-2.58689E-01-2.19405E-01-9.20064E-02-3.54856E-04-2.20693E-02 1.91770E-01
 -1      2510 2.82922E-01 1.41265E-01 8.13403E-02-6.73229E-02 8.20975E-03-5.59233E-02
 -1      2511 4.61146E-01 3.03225E-01 2.76912E-01 2.92330E-02 3.32396E-03 2.42166E-02
 -1      2512-4.24383E-01-2.21895E-01-1.40447E-01-3.19878E-02 6.39246E-03-4.37705E-02
 -1      2513-1.66553E-01-1.22556E-01-7.50160E-02-5.58439E-02 1.15703E-02-3.68852E-02
 -1      2514-2.01811E-01-1.02494E-01-7.52717E-02-9.72343E-02 4.79690E-03-6.16334E-02
 -1      2515-2.46447E-01-1.48902E-01-4.74174E-02-5.39047E-02 3.14363E-02-5.89064E-02
 -1      2516 4.54467E-01 3.49881E-01 3.57580E-02 1.42977E-01 9.67728E-02 3.12656E-01
 -1      2517-3.44074E-01-8.21833E-02-3.60649E-02 8.08650E-02-2.05185E-02-5.03229E-02
 -1      2518 1.34289E-01 1.42517E-01 7.34340E-02-1.89561E-02-5.47337E-02 3.27419E-02
 -1      2519-1.31859E-02-1.35985E-02 1.30236E-02-1.00523E-01 1.43769E-02-4.38883E-02
 -1      2520-8.59820E-02-2.11493E-02-1.16434E-01-5.66094E-02 1.54119E-03-6.25652E-02
 -1      2521-2.98567E-01-1.18311E-01-8.32147E-03 1.46309E-01-4.75236E-02-8.68068E-02
 -1      2522 2.52217E-01 1.90250E-01 1.56152E-01 3.91897E-02-5.47117E-02 1.21597E-01
 -1      2523 8.28982E-03 1.90584E-02-1.42940E-03 1.59213E-01-1.05368E-02-9.90250E-02
 -1      2524-2.01503E-01-1.13456E-01 2.41067E-04 1.69608E-01-3.94179E-03-5.26149E-02
 -1      2525 6.19500E-01 2.83201E-01 1.18777E-01-6.26535E-02-1.09125E-02-1.36532E-02
 -1      2526-4.43561E-02-6.14618E-02-2.91126E-02-5.20249E-02 9.34148E-02-2.91996E-02
 -1      2527-1.47860E-01-1.94051E-01-6.75641E-02-6.48453E-02-8.71554E-02 4.07915E-01
 -1      2528 3.40461E-01 1.78909E-01 1.21456E-01-8.01464E-02-2.26748E-03-6.12419E-02
 -1      2529 2.20973E-01 1.14690E-01 3.77586E-02-1.48417E-01-5.94575E-03-7.13552E-02
 -1      2530 2.24489E-01 9.73278E-02 7.30019E-02 5.67544E-03 8.37692E-02-3.06021E-02
 -1      2531 2.34311E-01 1.22869E-01 7.84775E-02 2.69881E-03-7.07881E-03-2.12216E-01
 -1      2532 3.05324E-02 1.34098E-02-7.18210E-02 8.85573E-02 3.69744E-03-3.44236E-02
 -1      2533-7.69163E-02-2.69938E-02 6.66020E-02 1.07792E-01 4.16567E-02-4.98098E-02
 -1      2534 9.20196E-02 6.14397E-02 4.71748E-02 2.95435E-02-9.68084E-03-2.07214E-01
 -1      2535 1.31397E-01 4.63963E-02-9.58972E-03 1.72819E-01 1.97176E-02-1.91039E-01
 -1      2536-2.47054E-01-1.66276E-01-1.27335E-01 3.41254E-03-3.47617E-03-2.11599E-01
 -1      2537-3.41477E-02-9.59737E-02-5.35387E-02-1.33391E-02-1.15223E-01 2.03170E-02
 -1      2538 1.87396E-01 7.03035E-02 4.00999E-02-6.02102E-02-8.92814E-02-4.60552E-02
 -1      2539 1.10678E-01 1.08085E-01 3.74266E-02-5.64660E-02-2.58489E-02-3.47796E-02
 -1      2540-2.02294E-01-1.01684E-01-5.95255E-02 2.30089E-03-1.12171E-02-5.54107E-02
 -1      2541 8.88380E-02 8.79536E-02 1.53057E-01 7.11879E-03 2.30279E-01 6.90183E-02
 -1      2542 5.23432E-01 2.55383E-01 2.32816E-02 1.10979E-01 1.07048E-01 4.29110E-01
 -1      2543-4.95057E-02-3.00230E-02-3.88458E-02 1.82453E-01-5.46244E-03-1.59150E-01
 -1      2544 6.52777E-02 3.53140E-02 6.73068E-02 1.52307E-02-7.18644E-02 2.64188E-03
 -1      2545 3.16977E-01 2.27118E-01 1.87807E-01 6.10934E-04 2.53584E-01 6.46782E-01
 -1      2546 8.25068E-02 7.39010E-02 5.84244E-02 1.39089E-02-6.55249E-03-2.06408E-01
 -1      2547-2.69510E-01-1.94309E-01-1.12119E-01 1.12650E-01-4.01543E-02-2.94886E-02
 -1      2548 3.38800E-01 1.79530E-01-1.16210E-02-1.02018E-01-6.59961E-03-4.54369E-02
 -1      2549 3.98934E-01 1.66342E-01 4.83340E-02-5.63981E-02 5.87129E-03-2.51611E-02
 -1      2550-1.75392E-01-1.35720E-01-8.56066E-02 8.56924E-02-1.02130E-02-9.50077E-02
 -1      2551-3.82692E-01-8.60408E-02-9.29722E-02-3.46869E-02 2.20640E-02-5.40363E-02
 -1      2552-9.20079E-01-5.40746E-01-1.42713E-01-1.70319E-02 1.14519E-02-6.84415E-03
 -1      2553 4.25126E-01 2.48601E-01 1.30828E-01-2.76628E-02-4.51155E-02-3.69338E-02
 -1      2554 2.50584E-01 1.46982E-01 1.18162E-01-5.20243E-02 1.31437E-02-3.63234E-02
 -1      2555 4.80826E-01 2.69128E-01 2.91608E-02-5.53711E-02-9.55909E-03-4.08175E-02
 -1      2556-3.15865E-01-2.20883E-01-1.36641E-01-9.05430E-02 2.70747E-02-6.07870E-02
 -1      2557-3.11221E-01-3.74658E-01-4.24980E-01-7.31172E-02 3.00524E-01 4.82352E-01
 -1      2558 4.76960E-01 2.11427E-01 1.15494E-01-6.87447E-02 2.01669E-02-6.30315E-03
 -1      2559 6.86733E-01 3.41594E-01 1.09178E-01-4.87894E-02 2.24246E-02-3.66180E-02
 -1      2560 2.34452E-01 1.72691E-01 1.12395E-01-7.62943E-02-6.74225E-03-5.79811E-02
 -1      2561 1.15827E-01 8.84462E-02 4.79841E-02-4.41111E-02 1.11382E-02-1.80003E-01
 -1      2562-2.18529E-01-2.97481E-01-3.40152E-01-4.08041E-02 2.15011E-01 5.86220E-01
 -1      2563-1.54103E-01-1.10979E-01-6.66538E-02 9.40090E-02 1.45432E-02-3.11389E-02
 -1      2564 4.24882E-01 2.43342E-01 1.82031E-01-8.39745E-02-1.88559E-02-7.16467E-02
 -1      2565-2.93052E-01-5.09067E-02 5.34272E-02 6.35491E-03-2.35109E-02-2.69892E-02
 -1      2566 2.04842E-02-1.23684E-02-4.04006E-02-4.85876E-02-6.75920E-02 2.63231E-03
 -1      2567-1.54069E-01-9.94367E-02 1.59988E-02-8.95758E-02-1.86788E-02-4.38094E-02
 -1      2568 2.82735E-01 1.84703E-01-1.97342E-02 1.37123E-01-8.79540E-02-3.89045E-01
 -1      2569-1.48600E-01-8.35785E-02 3.95312E-02 8.27452E-02-1.41537E-02 6.70573E-02
 -1      2570-1.79700E-01-1.51883E-01-7.92049E-02 1.33329E-01 3.30616E-02-7.55000E-02
 -1      2571 1.28542E-02 1.28363E-02 2.94822E-02-3.46701E-02 3.43833E-02-1.34967E-03
 -1      2572 5.43520E-01 2.98747E-01 8.84123E-02 1.49637E-01 2.07256E-02-6.70416E-02
 -1      2573-4.88831E-01-2.89928E-01 2.11662E-02-4.32674E-02 7.87437E-02-1.11471E-01
 -1      2574-1.47674E-01-9.80263E-02 6.52519E-02-8.16003E-02 1.31108E-03 1.53525E-02
 -1      2575 1.59100E-01 1.17274E-01 1.31578E-01-1.73682E-01 1.54806E-01-4.33531E-01
 -1      2576 3.65429E-01 8.21993E-01 5.72138E-01-1.55557E-01 1.59246E-01-2.49107E-01
 -1      2577 2.02831E-01 6.94565E-01 2.96059E-01 1.67634E-01-7.88730E-02-1.35176E-01
 -1      2578 1.77913E-01 7.73015E-01 2.21491E-01-1.95567E-01 9.78129E-02-1.39869E-01
 -1      2579 2.65161E-01 1.89157E-01 4.55724E-01 1.43877E-01-1.32531E-01-5.61411E-01
 -1      2580 1.85651E-02 1.45730E-02-6.40649E-02 2.82892E-02 2.37986E-02-1.80458E-01
 -1      2581 2.54757E-01 8.22097E-02-4.30815E-02-6.75136E-02-1.03595E-02-6.43247E-02
 -1      2582-2.64850E-02-9.99401E-03-1.44916E-01-9.77643E-02-7.19955E-03-4.31991E-01
 -1      2583-3.60128E-02-2.35049E-02 4.94710E-02-3.69148E-02 3.05481E-02 1.13365E-02
 -1      2584 2.31258E-01 1.15013E+00 3.00939E-01-5.44360E-02 2.77012E-02-8.26512E-02
 -1      2585-2.49297E-01-6.78627E-02 5.35647E-02 6.87077E-02-1.12333E-02-6.13961E-02
 -1      2586 1.37425E-01 9.32240E-02-5.41309E-02-8.22308E-02 2.01566E-02 1.05351E-02
 -1      2587-1.88068E-02 2.13761E-02 5.26914E-02 1.02741E-01 1.50501E-01-5.64169E-01
 -1      2588-2.00785E-01-1.75176E-01-2.90792E-01 1.30459E-01 1.05116E-01-5.03452E-01
 -1      2589 2.14540E-01 5.56419E-02 5.51461E-02 1.45973E-01-1.53191E-03-9.89067E-02
 -1      2590-1.70879E-01-7.62982E-01-4.37347E-01 1.79800E-03 2.02131E-02-1.51154E-01
 -1      2591 2.48158E-01 1.24099E-01 2.89161E-02-7.71741E-02 5.00613E-02-2.00882E-01
 -1      2592 1.89839E-01 6.26701E-02-2.52320E-03-8.28175E-02 6.77317E-02-1.87007E-01
 -1      2593-1.97712E-01-3.46173E-01-2.38523E-01-1.77042E-01-1.59785E-01-2.86759E-01
 -1      2594-2.01716E-01-5.49482E-01-2.82521E-01-1.18313E-01-1.05668E-01-1.92475E-01
 -1      2595 6.51625E-01 3.92827E-01-7.57633E-02 7.32531E-02 5.32496E-02-1.51974E-01
 -1      2596-2.31673E-01-7.08194E-02 6.25874E-02-5.84755E-02 2.56618E-03-2.53098E-02
 -1      2597 2.26633E-01 8.62527E-02-8.56796E-03-2.02552E-02 2.73111E-02-2.27137E-01
 -1      2598-2.95674E-01-7.93134E-01-2.54614E-01-1.92947E-01-1.28530E-01-1.49139E-01
 -1      2599-2.19767E-01-6.60353E-02 7.18369E-02-4.89113E-03 1.68651E-02-5.23468E-02
 -1      2600-2.19014E-01-7.24124E-02 6.40154E-02-5.61700E-02-1.70511E-02-2.47863E-02
 -1      2601-3.18569E-01-4.91821E-01-1.51802E-01 2.89957E-01 1.59170E-01-2.17488E-01
 -1      2602-1.96633E-01-7.63113E-01-2.27442E-01 2.48038E-01 1.03941E-01-1.62869E-01
 -1      2603-2.74674E-01-1.08826E+00-3.26032E-01 2.77095E-02 3.79658E-02-8.78345E-02
 -1      2604 4.68544E-01 2.21438E-01 8.34951E-02 1.58120E-01-9.84982E-02-2.72179E-01
 -1      2605-2.11526E-01-1.32995E-01 7.68507E-02 1.79497E-01 9.71511E-02-3.04767E-01
 -1      2606-2.78130E-01-1.24406E-01-1.93669E-02 8.85702E-02 4.10551E-02-1.87923E-01
 -1      2607-1.59487E-01-3.28747E-02 2.67057E-02 5.63116E-02 5.55205E-02-1.82246E-01
 -1      2608 1.83547E-01 1.05380E-01 1.65067E-02-6.81922E-02-1.56904E-02-2.02458E-01
 -1      2609-2.63661E-01-3.12304E-01-2.98519E-01 1.75882E-01 1.73143E-01-3.95698E-01
 -1      2610 3.07199E-01 1.09180E-01-1.14160E-02-1.79593E-01 1.67274E-01-3.38928E-01
 -1      2611-8.60258E-03-9.03442E-03-8.88812E-03 2.34554E-02-4.85069E-03-4.30588E-03
 -1      2612-2.27978E-01-2.43237E-01-1.83960E-01-1.65452E-01-1.19308E-01-4.07163E-01
 -1      2613-9.23703E-02-1.67098E-02-1.06252E-01 8.99477E-02 2.90277E-02-4.19759E-01
 -1      2614-2.15470E-01-5.40598E-02 7.20390E-02 6.85276E-02 2.66117E-02 5.34065E-03
 -1      2615 1.09294E-01-2.97211E-03 8.07335E-03-5.97764E-02 1.60010E-02-2.83441E-01
 -1      2616 8.52898E-02 1.76463E-01 1.10762E-01-4.87197E-03 5.83072E-02-2.09804E-01
 -1      2617 2.95177E-01 5.28589E-02-2.50756E-04-2.16747E-02 4.89645E-03-2.14726E-01
 -1      2618 2.87663E-01 4.88185E-02 1.79751E-02-1.49004E-02-7.47721E-03-2.25017E-01
 -1      2619-2.51409E-01-1.41483E-01 2.76623E-02-1.58848E-01 2.10435E-02-2.05150E-01
 -1      2620 3.20677E-01 1.38061E-01 3.89483E-02 1.21254E-01 1.18914E-01-1.72168E-01
 -1      2621 1.44050E-01 7.42462E-01 3.03957E-01-8.22107E-02 1.29739E-01-1.42811E-01
 -1      2622 1.46642E-01 1.21457E+00 2.89813E-01-7.25853E-02 5.34911E-02-1.66721E-01
 -1      2623 2.93784E-01 4.11952E-01 3.00203E-01-2.42954E-01 1.57705E-01-3.05975E-01
 -1      2624-1.47809E-01-9.21125E-01-2.15291E-01-2.93859E-01-1.43002E-01-8.35184E-02
 -1      2625 2.66755E-01 4.11335E-01 1.78492E-01 2.30073E-01-1.90900E-01-3.35880E-01
 -1      2626-1.85199E-01 2.41576E-02-4.15108E-02 7.25621E-02 3.69383E-02-3.53128E-01
 -1      2627 2.48414E-01 7.08608E-02-5.10063E-02 5.34634E-02 6.60346E-03-6.40708E-02
 -1      2628-7.95611E-02-1.22102E-01-3.01656E-02 3.29940E-02 7.81879E-02-2.22644E-01
 -1      2629-5.19533E-01-3.07100E-01 6.47943E-03-4.19827E-02 2.11685E-02-4.63492E-02
 -1      2630-7.30016E-02-6.57298E-02 3.51459E-02-5.96282E-02-2.35512E-02-2.65790E-02
 -1      2631-7.98241E-02-1.11417E-01-1.71246E-01-7.68231E-02 4.87152E-03-5.53456E-01
 -1      2632 1.66599E-01 1.59734E-01 2.41847E-02 2.06584E-02-3.96897E-03-3.11402E-01
 -1      2633-1.76728E-01-9.26192E-02 4.49871E-02 8.83360E-02-4.68506E-03-1.50408E-02
 -1      2634-6.67630E-01-3.80716E-01 5.62431E-02 5.91134E-02-3.36643E-02-1.13372E-01
 -1      2635 2.73375E-01 4.67698E-01 6.63716E-02-3.49404E-01 1.37039E-01-2.07893E-01
 -1      2636 2.57892E-01 1.41092E+00 2.89563E-01 2.86124E-02 4.88381E-03-3.86722E-02
 -1      2637-4.52675E-01-1.52641E-01-1.92050E-01 2.01607E-01 3.26091E-02-2.98780E-01
 -1      2638-2.18859E-01-1.39474E-01-9.54730E-02-1.16267E-01-1.07475E-01-4.87419E-01
 -1      2639 2.39351E-01 7.63368E-02-5.45953E-02 6.00386E-02-3.19800E-02-1.64019E-02
 -1      2640-1.47455E-02-6.22260E-02 4.83436E-02-4.12325E-02-5.30731E-02-7.08781E-02
 -1      2641-2.98190E-02-1.73569E-01-7.02954E-02-5.62892E-02-4.71250E-02-1.22493E-01
 -1      2642-2.36955E-01-7.76792E-01-3.25342E-01-7.74994E-02 8.52129E-03-1.18292E-01
 -1      2643-1.57141E-01 1.17491E-01-4.49374E-02-5.28417E-02-7.63291E-02-2.00076E-01
 -1      2644 1.46397E-01 9.85943E-02-1.57418E-02 9.60706E-02-1.64632E-02 3.32257E-03
 -1      2645-1.73535E-01-8.13843E-01-3.56698E-01-8.82930E-02-3.76305E-02-1.58392E-01
 -1      2646 2.09864E-01 2.97431E-01 5.93821E-02-9.91899E-02 7.57337E-02-1.29517E-01
 -1      2647-9.87661E-02-1.06235E+00-3.58203E-01 3.30284E-01 1.63232E-01-1.46169E-01
 -1      2648-2.72887E-01-2.65887E-01-1.92640E-01-2.28907E-01-1.75129E-01-3.91266E-01
 -1      2649-1.03789E-01-8.15909E-02 5.29074E-02 1.07163E-01 7.71697E-02-1.03574E-01
 -1      2650-1.45974E-01-1.37038E-01-5.15308E-02 1.21324E-01 9.03059E-02-1.47752E-01
 -1      2651 1.42061E-01 9.73343E-02-3.09389E-02-6.28929E-02 2.18452E-02-5.10655E-02
 -1      2652-2.74397E-01-2.37818E-01-2.17191E-01 3.08490E-02 1.33713E-02-2.77185E-01
 -1      2653 5.32162E-02 4.54149E-02-5.20244E-02-4.37141E-02-2.55754E-02 1.06944E-02
 -1      2654 5.56060E-02 7.72243E-02-4.23441E-02-6.43971E-02 2.02338E-02-2.35918E-02
 -1      2655 1.60649E-01 9.28618E-01 4.22519E-01-2.59199E-02 5.00317E-02-1.44089E-01
 -1      2656 1.26110E-02-4.22988E-02 5.76909E-03 1.35515E-01 2.16660E-02-1.34003E-01
 -1      2657 2.29550E-01 6.42545E-02-7.66443E-02-6.49292E-02 3.53805E-02-5.12090E-03
 -1      2658-1.55695E-01-8.06433E-01-3.37231E-01 5.53350E-02 3.56239E-02-1.38699E-01
 -1      2659-3.09353E-01-4.08068E-02 3.36825E-02 8.11760E-03 1.52617E-03-1.88597E-01
 -1      2660-2.59750E-01-5.04122E-02-1.74187E-02 8.68568E-03-1.73909E-02-2.05945E-01
 -1      2661-1.49536E-01-1.14916E+00-3.13730E-01 1.19984E-01 1.33809E-02-1.14663E-01
 -1      2662 2.93885E-01 3.77739E-02-4.62739E-02-2.26522E-03 2.15555E-02-1.93332E-02
 -1      2663-4.62819E-01-2.80756E-01-9.66320E-03 2.44982E-02-8.66151E-02-7.91036E-02
 -1      2664 2.66245E-01 4.15145E-02-8.08183E-02 1.40443E-02-1.34507E-02 2.95893E-03
 -1      2665-2.82906E-02-3.56036E-02-2.48880E-02-1.31964E-02 7.46248E-03-4.33833E-02
 -1      2666 5.92670E-02 1.23411E-01 1.59862E-01-2.22361E-03 3.85084E-02-7.94179E-02
 -1      2667 6.54347E-02-4.44837E-02 4.22974E-02 1.33708E-01-7.58875E-02-3.89216E-01
 -1      2668-1.51314E-02 1.11414E-02 6.72091E-03 2.16361E-01-7.54291E-03-2.02800E-01
 -1      2669-2.62071E-01-3.51363E-01-4.69292E-01-1.23368E-01-1.52517E-01-4.12494E-01
 -1      2670 3.57405E-01 5.35521E-01 2.70932E-01 2.84722E-01-1.58245E-01-2.23642E-01
 -1      2671 1.55847E-01 8.34881E-02-6.08073E-02 9.14885E-02-5.29495E-03-4.73632E-03
 -1      2672-1.84166E-01-5.47985E-01-4.41068E-01-1.99721E-02 2.46071E-02-2.59659E-01
 -1      2673-2.77245E-01-1.04287E+00-4.64834E-01-1.10432E-01-1.05549E-01-1.07335E-01
 -1      2674 1.35527E-01 7.09020E-01 6.23830E-01-1.37293E-03 8.61910E-02-2.36073E-01
 -1      2675 6.78538E-02 8.53248E-02-1.34529E-02 5.69330E-02-2.08701E-02-2.56216E-02
 -1      2676 4.63905E-02 5.78192E-02-4.99523E-02 5.58038E-02 9.57373E-03 7.06373E-03
 -1      2677-2.62555E-01-7.03575E-01-2.60144E-01-1.61534E-01-1.71860E-01-2.07699E-01
 -1      2678-8.18822E-02-8.03236E-02 1.97151E-02 6.33737E-02 1.72425E-02-1.54881E-02
 -1      2679-6.67647E-02-6.27814E-02 1.01117E-02 4.92154E-02-2.20103E-03-6.32699E-03
 -1      2680 2.51856E-01 1.48851E+00 4.55036E-01 1.20683E-01-1.15232E-02-1.22047E-02
 -1      2681-3.26706E-02 1.00134E-02 9.32075E-03-1.44185E-01 8.47764E-03-2.50484E-01
 -1      2682-1.55426E-01-9.01956E-01-4.18360E-01-2.13277E-01-1.87229E-01-2.20034E-01
 -1      2683-1.11938E-01-1.21323E-01 7.53345E-02 3.61739E-02 3.26008E-02-1.31246E-01
 -1      2684-6.61991E-02-2.05920E-02-3.22120E-02 1.22474E-01-1.73095E-02-1.37870E-01
 -1      2685-4.07321E-01-1.97878E-01-1.36045E-01-8.77870E-02 2.70990E-02-9.44320E-02
 -1      2686-1.49367E-02 3.76922E-02-9.28801E-02 7.06042E-02-1.14858E-01-2.50442E-01
 -1      2687-2.64174E-01-6.42848E-02 3.49943E-04-9.66688E-02-4.93491E-02-2.12761E-01
 -1      2688-2.18748E-01-5.85794E-02 3.70169E-02-6.95234E-02-6.33536E-02-1.70464E-01
 -1      2689-9.20762E-03-3.54202E-02 1.69814E-02 3.03083E-02 6.38413E-02 1.17686E-02
 -1      2690 1.85651E-01 1.09773E+00 3.37029E-01 2.75487E-01-1.14688E-01-1.13850E-01
 -1      2691 7.39604E-01 3.67084E-01 2.40126E-02 5.93280E-02 2.78628E-02-5.91199E-02
 -1      2692 2.39071E-01 5.07616E-01 5.14787E-01 1.40531E-01-6.58579E-02-2.64499E-01
 -1      2693-3.37397E-01-4.05898E-01-4.82132E-01 2.08818E-01 1.74069E-01-4.51640E-01
 -1      2694-2.29403E-01-1.81655E-01-9.50003E-02 2.91184E-02 1.98567E-02-2.48020E-01
 -1      2695 1.92382E-01 4.17587E-03 8.87551E-02 1.82148E-02-4.97300E-02-4.08891E-01
 -1      2696 1.30885E-01 1.12217E+00 2.30256E-01-1.54473E-01 5.42642E-03-8.57429E-02
 -1      2697 2.97010E-01 9.44033E-01 2.14792E-01 2.73561E-01-9.36997E-02-1.38743E-01
 -1      2698 1.21620E-01-5.53004E-02 8.94147E-02-1.25114E-01 3.26470E-02-5.65258E-01
 -1      2699-2.72985E-01-7.14778E-01-4.55655E-01 2.26695E-01 1.43480E-01-1.95375E-01
 -1      2700-2.02797E-01-1.18766E+00-2.00504E-01 6.45059E-02 2.90426E-02-1.43880E-01
 -1      2701-6.78548E-02-7.50288E-02-1.14435E-01-3.07444E-02-7.69407E-02-5.89138E-01
 -1      2702 1.60406E-01 1.30664E-01-2.63119E-02 8.74782E-02-8.84696E-02-5.21589E-01
 -1      2703-2.49033E-01-1.30208E+00-5.49606E-01 1.32626E-01 6.74899E-02-1.33585E-01
 -1      2704-1.24333E-01-7.17828E-01-3.00956E-01 2.05475E-01 1.18198E-01-1.20892E-01
 -1      2705-2.15641E-01-1.41475E+00-2.32568E-01-1.37480E-01-4.10319E-02-1.36786E-01
 -1      2706-2.26417E-01-9.16846E-01-2.69696E-01-1.03864E-01 1.09143E-02-1.17837E-01
 -1      2707-1.42781E-01-4.96304E-01-5.35316E-01 2.11972E-01 7.04944E-02-2.65043E-01
 -1      2708-2.52867E-01-1.66428E-01-3.84175E-02-1.97721E-01-1.87644E-01-3.22386E-01
 -1      2709-8.33695E-02 6.46820E-02 1.31989E-01 8.36646E-02 1.36745E-01-5.56638E-01
 -1      2710-3.24136E-01-2.31808E-01-9.75597E-02 6.97226E-02-2.55250E-02-3.34380E-02
 -1      2711-8.22971E-01-4.82264E-01-9.68646E-02-1.04976E-02-5.98682E-03-5.97505E-03
 -1      2712 3.48182E-01 3.50774E-01 2.35797E-01 2.32477E-01-1.54343E-01-3.09373E-01
 -1      2713-1.49452E-01-1.67848E-01-3.87999E-02-9.14043E-02-6.63690E-02-1.35012E-01
 -1      2714-7.29806E-02-4.74755E-02 8.84576E-02-3.32503E-02-4.46528E-02-1.19012E-01
 -1      2715 2.16069E-01 8.92747E-02-1.74416E-02-1.54974E-01-2.79643E-03-9.81976E-02
 -1      2716 4.96706E-01 1.54757E-01 9.82462E-02 3.12036E-02 2.19229E-03-2.70403E-02
 -1      2717-5.15089E-01-9.44106E-02-1.36213E-01-2.54943E-01-1.87645E-01-3.71105E-01
 -1      2718-2.73473E-01-9.90510E-01-3.74853E-01-3.37704E-01-1.81307E-01-1.27813E-01
 -1      2719-1.84839E-01-4.86668E-02 1.77306E-02 4.87761E-02 3.06656E-02-1.86212E-01
 -1      2720 2.43194E-01 6.43476E-02-6.21295E-03-1.08259E-01-1.02315E-01-1.83054E-01
 -1      2721 1.17738E-02 2.05364E-02-8.59232E-02 1.45153E-02-2.66113E-02-8.96786E-02
 -1      2722 7.56747E-02 1.41467E-01 9.11209E-03 5.14262E-02-6.25540E-02-6.97087E-02
 -1      2723-2.34855E-02-1.08792E-01-3.27646E-02 1.82982E-02 4.15062E-02-1.57673E-01
 -1      2724 7.20343E-01 4.80891E-01 9.04578E-02-2.62912E-02 9.71848E-03-6.22510E-02
 -1      2725 5.10769E-01 2.82306E-01-5.14837E-03-6.12930E-02-8.00322E-02-1.14570E-01
 -1      2726 2.90318E-01 6.51998E-02-7.35734E-02-2.59928E-02 1.38326E-02-1.74215E-01
 -1      2727-3.48591E-01-1.56270E-01-7.44392E-02 1.92950E-02-1.76754E-02-6.08657E-02
 -1      2728-4.00219E-03-1.03378E-01 4.10975E-02 2.23428E-02 6.42709E-03-1.36880E-01
 -1      2729 2.21684E-01 1.65953E-01 1.15043E-01 2.14488E-01-1.83935E-01-3.38024E-01
 -1      2730-1.34179E-01-1.87286E-01-8.08469E-02 5.45987E-02 5.09827E-02-7.67824E-02
 -1      2731-5.24387E-02-4.08106E-02 6.63654E-02 1.07905E-02 4.02825E-02-9.11413E-02
 -1      2732 1.76595E-02 1.33516E-01 1.62180E-01-3.10085E-03-2.85013E-02-7.95635E-02
 -1      2733-3.58093E-02-4.85782E-02-3.78807E-02 5.93963E-03 5.50815E-03-5.74164E-02
 -1      2734 3.94856E-01 7.47541E-01 7.04592E-01 1.05864E-01-9.63004E-02-3.23180E-01
 -1      2735 2.52861E-01 1.00452E-01-2.54401E-02 8.81219E-02-5.93009E-02-1.75524E-01
 -1      2736 2.69146E-01 8.88267E-02 4.85923E-02 9.43612E-02-3.93606E-02-2.14112E-01
 -1      2737-5.95412E-02-8.23106E-02-6.39719E-02 1.05024E-01-3.27800E-02-1.36592E-01
 -1      2738 2.36553E-01 2.03077E-01 1.78600E-01 1.86787E-01-1.63203E-01-4.04024E-01
 -1      2739 1.73273E-01-6.56027E-02-3.31714E-02-1.12436E-01 6.44853E-02-5.04783E-01
 -1      2740-2.53516E-01-5.86048E-01-4.64073E-01 2.70150E-01 1.79133E-01-2.77031E-01
 -1      2741-1.95876E-01-9.94468E-02-1.21120E-01 4.08668E-02 4.52485E-02-1.28758E-01
 -1      2742 3.04013E-01 4.48510E-01 4.24967E-01 1.29354E-01-1.53110E-01-3.60495E-01
 -1      2743-3.88119E-01-7.60687E-01-8.48619E-01 8.72051E-02 1.07072E-01-3.82516E-01
 -1      2744 2.59340E-01 5.12760E-01 1.36118E-01-6.44819E-02-4.52683E-03-5.85102E-02
 -1      2745 6.91639E-01 4.61141E-01 9.52472E-02 2.15430E-02-1.05418E-02-4.36610E-02
 -1      2746-4.15231E-01-1.56512E-01-2.54849E-01-1.57134E-01-2.06947E-01-4.48756E-01
 -1      2747-2.58598E-02-4.90057E-02 1.17110E-01-3.06030E-02-2.62436E-02-1.11706E-01
 -1      2748 4.71742E-01 2.02084E-01 9.17094E-02-1.10670E-01-1.26408E-02-8.90941E-03
 -1      2749 3.52202E-02 1.01143E-01 1.70938E-02-4.11711E-02 6.49052E-03-1.67915E-01
 -1      2750 1.95151E-01 1.21182E-01 2.48382E-01 7.54487E-02-9.39075E-02-6.35862E-01
 -1      2751-6.47245E-01-3.74848E-01-1.31334E-01-7.20226E-02 5.96661E-02-3.74474E-02
 -1      2752 1.27279E-01 7.56172E-02 2.41030E-02 3.83363E-02-1.04499E-01-5.06095E-01
 -1      2753-2.64134E-01-1.88773E-01-4.84035E-02-9.29841E-02 1.02591E-02-5.87653E-02
 -1      2754-5.56635E-01-2.73556E-01-4.03220E-01-2.20890E-01-1.89596E-01-5.20342E-01
 -1      2755-3.53563E-01-4.67383E-01-4.43545E-01-2.25508E-01-2.49508E-01-3.39694E-01
 -1      2756 2.00229E-01 1.28277E-01 3.25121E-02 7.47486E-02 3.66561E-02-1.54345E-01
 -1      2757-5.57326E-02-1.32976E-01-1.26763E-01 4.41722E-02-3.46005E-02-1.56631E-01
 -1      2758 4.91642E-01 7.05276E-01 3.51655E-01 3.89075E-01-2.21147E-01-2.87203E-01
 -1      2759 7.95325E-01 4.17110E-01 9.85365E-02-5.01096E-02 2.22736E-02 3.84841E-02
 -1      2760-1.98872E-01-1.84539E-01 1.83091E-02-1.83403E-01 6.83140E-02-1.14633E-01
 -1      2761-2.95635E-02 3.75558E-02 1.25877E-02-1.53960E-01 1.82207E-02-6.62736E-02
 -1      2762-1.84669E-01-4.29683E-01-1.38343E-01-6.96064E-02 9.89241E-03-7.35012E-02
 -1      2763-1.80699E-01-1.41116E-01-1.30229E-01-7.75934E-02 2.64241E-02-6.33011E-02
 -1      2764 9.47197E-01 5.85086E-01 4.98048E-02-1.90303E-02-3.40446E-02-5.47030E-03
 -1      2765-3.42068E-01 1.30391E-01-6.47424E-02 1.00546E-02 1.21036E-01-6.06262E-01
 -1      2766-6.63040E-02-6.77842E-03-1.50714E-02 5.56663E-02-4.51321E-02-1.21975E-01
 -1      2767-7.59673E-03 1.00537E+00 1.78407E-01-2.68702E-01 1.65290E-01-2.16798E-01
 -1      2768 2.23447E-03 6.04124E-02 2.01833E-01-5.90199E-02-4.00022E-03-1.68300E-01
 -1      2769-3.91607E-01-1.98221E-01-1.28767E-02-1.70951E-01 3.64278E-02-1.00580E-01
 -1      2770-1.06605E-01-9.50534E-01-2.64659E-01-2.05601E-01-7.55763E-02-1.07620E-01
 -1      2771 2.17533E-01 7.47295E-02 1.05592E-01-5.06841E-02 2.38863E-02-2.42426E-01
 -1      2772-2.25801E-01-9.82798E-01-2.91905E-01-3.03068E-01-1.20013E-01-1.36391E-01
 -1      2773-4.64598E-01-2.61892E-01 2.47577E-02 1.60117E-01-8.26169E-02-6.29858E-02
 -1      2774-8.01568E-01-5.63988E-01-2.55468E-01 2.67516E-02-6.72139E-03-5.92461E-02
 -1      2775-4.25195E-01 1.49951E-02-1.47528E-01-8.70390E-02 8.77585E-02-5.57094E-01
 -1      2776-5.55228E-01-3.18408E-01-1.43323E-01 1.09972E-01-3.59188E-02-2.90835E-02
 -1      2777 2.90870E-01 3.60970E-01 1.96178E-01 1.11963E-01 3.32529E-03-7.49871E-02
 -1      2778-4.35555E-01-1.62117E-01-2.90523E-03 1.47963E-01-4.67844E-03-1.18199E-01
 -1      2779-2.33927E-01-6.90120E-02-6.88443E-02 9.81767E-02-6.24420E-02-1.16594E-01
 -1      2780 3.90388E-01 1.15544E-01 1.12184E-01-7.83136E-02-9.71448E-03-4.09007E-02
 -1      2781 4.25492E-01 4.10247E-01 9.80943E-02-2.79182E-01 4.75061E-02-2.28417E-01
 -1      2782 2.87136E-01 8.09717E-01 4.84506E-01-1.64219E-01 1.74403E-01-2.03557E-01
 -1      2783 3.62353E-01 1.24129E+00 5.53632E-01-3.06522E-01 1.76798E-01-1.47315E-01
 -1      2784 2.25745E-01 8.65492E-02-7.81186E-02 4.30598E-02 1.50391E-02-1.72350E-01
 -1      2785 1.21554E-01 9.37782E-01 4.30607E-01-8.20553E-02 2.06817E-02-1.36831E-01
 -1      2786 4.98286E-01 2.76225E-01 1.74008E-01-1.58090E-01-4.25449E-02-9.78055E-02
 -1      2787 1.90292E-01 9.93168E-01 3.30366E-01-2.73480E-01 9.14068E-02-1.61145E-01
 -1      2788 6.37352E-01 1.70739E-01 7.89934E-02 3.05367E-01-1.92596E-01-4.63890E-01
 -1      2789-3.03013E-01-2.54699E-01-2.50467E-01-9.41851E-02-7.64378E-02-2.78970E-01
 -1      2790-3.32896E-01-2.50583E-01-1.26515E-01 1.40722E-01 8.47308E-02-3.87158E-01
 -1      2791 1.57714E-01 7.40494E-01 4.18477E-01-1.18200E-02 8.63340E-03-1.36020E-01
 -1      2792-3.61317E-01-4.72409E-01-2.47905E-01 2.71018E-01 2.09028E-01-3.52959E-01
 -1      2793-1.39368E-01-1.54709E-01-2.32288E-01 8.85317E-02 7.46308E-02-2.42666E-01
 -1      2794 7.30922E-01 4.48775E-01 9.75113E-03-4.01851E-02-2.61902E-02-1.32430E-01
 -1      2795-2.43696E-01-1.26128E+00-3.25361E-01 1.20923E-01 5.12432E-03-1.10949E-01
 -1      2796 2.71126E-01 5.94465E-01 3.38103E-01 2.39958E-01-1.23529E-01-2.79477E-01
 -1      2797 2.06756E-02-7.99370E-03 1.31178E-01 4.39382E-02 2.37416E-02-1.16642E-01
 -1      2798 3.36192E-01 5.96279E-01 8.03931E-01 1.33645E-01-5.96488E-02-3.89503E-01
 -1      2799-3.56437E-01-4.23027E-01-1.69333E-01-2.58139E-01-1.70420E-01-3.31772E-01
 -1      2800 2.17281E-01 1.35018E+00 2.71624E-01 3.29125E-01-1.68829E-01-5.02392E-02
 -1      2801 3.48936E-01 5.92154E-01 3.43186E-01 3.94608E-01-3.29138E-01-3.02020E-01
 -1      2802 1.48028E-01 3.87496E-01 2.01036E-01 1.99080E-01-2.00771E-01-2.56388E-01
 -1      2803 2.91279E-01 1.93600E-01 1.21506E-01-1.69767E-01 1.60186E-01-3.62567E-01
 -1      2804 4.07772E-01 3.51326E-01 2.11115E-01 2.00663E-01-1.03832E-01-4.02209E-01
 -1      2805 2.89284E-01 5.16843E-02 3.17780E-02 4.96237E-02 3.77322E-02-8.67825E-02
 -1      2806-4.23115E-01-3.16579E-01-1.72056E-01 1.61804E-01 6.87889E-02-2.89574E-01
 -1      2807-1.24209E-02 1.50779E-02-2.15422E-02-9.53988E-02 1.87440E-02-1.97636E-01
 -1      2808-1.13377E-01-6.53686E-02-1.13413E-01-4.90123E-02-2.45254E-02-3.08778E-01
 -1      2809-1.35172E-01-4.44855E-02-1.21408E-01-6.53649E-02-3.76120E-02-4.99365E-01
 -1      2810 1.52664E-01 1.37150E-01 1.14098E-02-8.95195E-02 7.53831E-02-1.26077E-01
 -1      2811 6.44976E-02 5.04076E-02-8.01335E-02-5.36324E-02 5.98705E-02-1.08671E-01
 -1      2812 3.28914E-02 1.75141E-01-1.75361E-03 4.39752E-02 1.45735E-02-1.47923E-01
 -1      2813 1.96225E-01 1.27494E-01-5.79757E-02 1.09620E-01-2.42956E-02-1.19470E-01
 -1      2814 2.87090E-01 2.06507E-01 2.46840E-01 2.07594E-02 3.66451E-03-2.99731E-01
 -1      2815-5.16966E-01-5.76246E-01-1.61046E-01-3.40245E-01-7.36561E-02-1.89054E-01
 -1      2816 6.89903E-02 2.43565E-02-5.18146E-02 7.99930E-02-4.40189E-02-5.15923E-01
 -1      2817 7.96376E-02 7.62972E-02-8.84888E-02 9.45891E-02-7.80735E-02-1.11024E-01
 -1      2818 1.36124E-01 1.48886E-01 1.95239E-02 1.17200E-01-9.02229E-02-1.40316E-01
 -1      2819-1.12497E-01 3.53650E-02-9.38975E-02-7.85358E-02-5.83874E-02-3.29494E-01
 -1      2820 6.71411E-01 5.82166E-01 1.47722E-01 3.01854E-01-8.18752E-02-1.82965E-01
 -1      2821 9.40489E-02 1.07424E+00 2.02695E-01-9.09066E-02-1.24121E-02-1.18155E-01
 -1      2822-1.92288E-01-6.06651E-01-5.53014E-01 1.53264E-01 8.92844E-02-2.56743E-01
 -1      2823 9.97692E-02 4.38036E-02 2.87844E-02 1.21441E-02-1.29079E-01-6.45561E-01
 -1      2824 2.65887E-01 1.29132E+00 5.07967E-01-8.18417E-02 1.22895E-01-1.62182E-01
 -1      2825 1.75466E-01-1.49326E-01-2.07663E-01-7.59324E-03 2.38553E-01-6.33699E-01
 -1      2826 2.67105E-01 5.39270E-01 2.75924E-01-3.48580E-01 2.01429E-01-2.04010E-01
 -1      2827 1.50889E-01 1.05790E-01 1.98402E-01-3.70555E-02 1.07132E-01-6.15596E-01
 -1      2828-1.39113E-03-8.63847E-03 2.45276E-02 2.91772E-02-7.97775E-03-1.81751E-01
 -1      2829 2.70944E-01 4.43026E-01 5.00078E-01-1.34656E-01 1.06370E-01-4.00581E-01
 -1      2830 1.63977E-01-1.24263E-01-3.23007E-02 8.51784E-02-1.98418E-01-5.75055E-01
 -1      2831-2.45664E-01-3.84689E-01-2.09586E-01 1.25600E-01 7.96127E-02-1.87761E-01
 -1      2832-1.68142E-01-1.14836E-01-1.38024E-01 1.22739E-01 1.30640E-01-5.25225E-01
 -1      2833-1.73896E-01 5.08305E-01 3.54726E-02 3.01716E-02 6.01303E-02-1.08705E-01
 -1      2834 6.35606E-01 7.05579E-01 1.93398E-01-6.12514E-01 1.24307E-01-1.78562E-01
 -1      2835 3.40860E-01 7.40556E-01 3.72238E-01-2.22490E-01 1.14963E-01-1.98689E-01
 -1      2836-1.09577E-01-1.87417E-01-1.85591E-02 5.35363E-02 6.23410E-02-1.03205E-01
 -1      2837-4.18229E-01-2.16288E-01-3.60770E-01 2.27282E-01 2.12470E-01-5.53724E-01
 -1      2838 1.38565E-01-6.88229E-04 9.02665E-02 3.22489E-04-1.85225E-02-2.29991E-01
 -1      2839 2.28134E-01 2.90248E-01 3.90101E-01 8.36114E-02-7.05979E-02-3.13008E-01
 -1      2840-4.27046E-01 2.10099E-01-6.97583E-02 6.72312E-02-2.07987E-01-4.08727E-01
 -1      2841 3.34234E-01 8.23686E-01 3.26670E-01 1.92697E-01-8.63263E-02-1.17727E-01
 -1      2842 1.55846E-01 1.25267E-01 1.20894E-01-4.25012E-03-2.39419E-02-2.99999E-01
 -1      2843 5.51395E-01 3.15631E-01 3.05292E-01 1.87318E-01-2.03964E-01-5.64698E-01
 -1      2844 1.46932E-01 1.76233E-01 7.77695E-02 4.08596E-02-5.13725E-02-2.37827E-01
 -1      2845 4.87572E-01 3.47763E-01 5.23079E-02-6.68460E-02 2.61382E-03-2.21320E-01
 -1      2846 7.07464E-01 3.29486E-01 1.19234E-01 2.45994E-01-1.47080E-01-3.32946E-01
 -1      2847 1.30386E-02 2.18719E-02-3.23830E-02 1.55116E-01 7.15011E-03-8.78593E-02
 -1      2848-5.65574E-01-3.27143E-01-6.51080E-02-1.69155E-01-1.80843E-02-2.41937E-01
 -1      2849 2.07511E-01 1.90576E-01 2.68180E-01-5.59954E-02 5.30442E-02-2.91999E-01
 -1      2850-1.66967E-01-1.23341E-01-6.91926E-02 8.22088E-02-1.45403E-02-3.38459E-01
 -1      2851-2.38956E-01-4.65112E-01-4.46240E-01-1.09254E-01-1.47628E-01-2.84145E-01
 -1      2852-3.66398E-01-4.70685E-01-2.35672E-01-2.98698E-01-2.10669E-01-2.49448E-01
 -1      2853-1.03222E-01-2.22627E-01-3.34862E-01 1.39416E-03 5.31306E-02-1.33414E-01
 -1      2854-4.22468E-01-2.63873E-01 1.52278E-01-7.40359E-04 7.03348E-02-5.56313E-02
 -1      2855 2.42558E-02 6.14964E-02 2.06084E-02-4.66421E-04-1.63939E-02-7.48442E-02
 -1      2856 2.05081E-01 2.07599E-01-4.38100E-04 2.97870E-02 1.58479E-02-1.85850E-01
 -1      2857 3.65633E-01 6.13340E-01 5.34576E-01 2.40741E-01-1.53993E-01-3.60143E-01
 -1      2858 1.59407E-01 1.23494E-01-9.22190E-02-1.16524E-01 1.89520E-02-1.40830E-01
 -1      2859 1.17172E-01 1.47187E-01-1.12897E-01-7.94169E-02 9.41331E-02-4.08933E-01
 -1      2860 4.69530E-01 5.24976E-01 4.62918E-01-2.88969E-01 1.78167E-01-3.71996E-01
 -1      2861 1.02749E-02 2.89705E-01 3.55371E-02-1.88371E-01-3.97565E-03-2.48084E-01
 -1      2862 3.97815E-01 8.55655E-01 9.25643E-01-4.32106E-02-8.97666E-03-3.90305E-01
 -1      2863 2.84476E-01 3.32547E-01 3.15712E-01 1.92498E-01-2.05297E-01-4.16586E-01
 -1      2864 3.65695E-01 1.86294E+00 3.12327E-01 2.14382E-01 7.33812E-02-1.02148E-01
 -1      2865 2.42274E-01 1.60382E-01 7.17414E-02-9.53884E-02 1.68472E-02-1.71022E-01
 -1      2866 3.28287E-01 5.45388E-02 3.83774E-02-2.10947E-01 3.04637E-01-4.42564E-01
 -1      2867 1.83892E-01 2.02737E-01 6.78294E-03-6.76212E-03 4.32639E-03-1.15983E-01
 -1      2868 3.31469E-01 5.55315E-02 8.01240E-02-2.91626E-02-4.91325E-02-6.72808E-01
 -1      2869-4.39997E-01-7.43650E-01-6.90215E-01 5.60916E-02 5.13926E-02-3.23733E-01
 -1      2870-6.21859E-01-3.27893E-01-4.70536E-03-8.96013E-02 1.15758E-01-8.11828E-02
 -1      2871-2.07606E-01-9.01238E-02-5.39368E-02-6.18268E-02-2.64674E-02-2.57866E-01
 -1      2872 4.39097E-01 6.76728E-01 3.42591E-01-5.36250E-01 2.19939E-01-3.09814E-01
 -1      2873-3.79742E-01-6.45157E-01-2.76565E-01-2.30923E-01-1.22905E-01-2.25056E-01
 -1      2874-2.90537E-01-1.96388E-01-1.55612E-01 2.15357E-01 1.86859E-01-3.44271E-01
 -1      2875 1.11523E-01 1.11245E+00 2.52802E-01 2.89276E-01-1.74572E-01-1.35451E-01
 -1      2876-2.83034E-01-1.06729E+00-5.19106E-01 3.01922E-01 2.10320E-01-1.53092E-01
 -1      2877-2.05886E-01-6.17283E-01-6.48002E-01-9.12291E-02-4.85832E-02-3.30433E-01
 -1      2878-6.58277E-01-4.44666E-01-2.47285E-01 4.00655E-02 3.25438E-03-2.29820E-01
 -1      2879-9.00327E-02-2.96588E-02 3.08801E-02-1.67436E-02-3.79727E-02-4.91245E-01
 -1      2880-1.14761E-01-1.51511E-01-1.68010E-01-2.63735E-02-5.03090E-02-5.22502E-01
 -1      2881-4.53533E-02-1.58670E-01 2.27969E-02-1.12485E-01-1.02563E-01-3.97226E-01
 -1      2882-5.47556E-02-1.60551E-01-3.83191E-02-5.30411E-03-2.86191E-02-5.08014E-02
 -1      2883 2.77599E-01 1.35572E+00 3.53280E-01 3.42586E-01-2.69507E-01-1.04458E-01
 -1      2884 3.93356E-02 1.39605E-01 5.16610E-03 1.99834E-02-5.32884E-02-1.84179E-01
 -1      2885 5.63723E-02-1.54593E-02-7.17048E-03 2.29634E-01-3.17090E-02-6.93021E-02
 -1      2886 2.81647E-01 2.07873E-01 2.76403E-02 2.97649E-02-7.18431E-03-2.77345E-01
 -1      2887 9.18379E-02 1.17849E-01 4.37024E-02-7.78385E-03 6.63110E-02-1.82581E-01
 -1      2888 1.47293E-01 3.37167E-01 1.21148E-01-1.09093E-01 1.23319E-01-3.72158E-01
 -1      2889 1.65278E-01 2.15937E-01 1.20582E-01-4.41597E-02 4.49197E-02-2.15840E-01
 -1      2890 5.02030E-01 3.55808E-01 4.38898E-01 8.08109E-02-1.42149E-01-6.01856E-01
 -1      2891-2.72101E-01-9.90037E-01-5.95772E-01 2.34208E-01 2.17536E-01-1.54548E-01
 -1      2892-9.47938E-02-6.20051E-01-2.93195E-01 6.38782E-02 3.50251E-02-1.11943E-01
 -1      2893 2.96247E-01 2.08955E-01 5.00784E-02-2.42706E-01 3.30304E-02-2.31160E-01
 -1      2894 4.41925E-01 4.06140E-01 6.27277E-01-5.34524E-02 2.67022E-02-5.62134E-01
 -1      2895 2.31080E-01 8.30449E-01 3.63453E-01-2.24016E-01 5.86967E-02-2.28005E-01
 -1      2896 1.13245E-01 1.05510E+00 5.45957E-01-1.42215E-02 6.29818E-02-1.26839E-01
 -1      2897 2.96855E-01 1.14761E+00 4.94658E-02-2.07081E-01 4.83277E-02-1.55965E-01
 -1      2898 2.90879E-01 1.01740E+00 1.60599E-01 2.89652E-01-9.92684E-03-1.38524E-01
 -1      2899-6.43085E-01-2.32282E-01-1.50914E-01 2.08916E-01 1.31271E-01-3.86228E-01
 -1      2900-4.31606E-01 1.02131E-01-2.31185E-02 6.37646E-02-1.59954E-01-5.23340E-01
 -1      2901 1.95524E-01 2.16635E-01 1.00288E-01 9.09013E-02 1.17878E-02-2.43325E-01
 -1      2902 1.87064E-03 3.05346E-01 1.19424E-01-6.79921E-03 7.63499E-02-8.12047E-02
 -1      2903 5.14511E-01 1.12863E-01 2.10056E-01-2.08069E-01 3.06978E-01-4.83084E-01
 -1      2904 4.47873E-01 6.23108E-01 3.52040E-01 3.99431E-01-3.44802E-01-2.80937E-01
 -1      2905-2.53137E-01-4.37176E-01-4.46315E-01 2.66003E-01 1.51023E-01-2.90977E-01
 -1      2906-1.76475E-01-6.41416E-01-5.91635E-01 1.45837E-01-1.91129E-02-2.26799E-01
 -1      2907-2.76185E-01-1.33521E-01-3.19197E-02-1.16939E-01 1.02278E-02-2.42369E-01
 -1      2908-1.76800E-01-1.69837E-02-8.66769E-02 3.57962E-02 9.57631E-02-6.18293E-01
 -1      2909 2.72451E-01 2.80765E-01 3.13219E-02-1.57254E-01 2.89308E-02-2.48302E-01
 -1      2910-2.41605E-01-8.23693E-02-2.81084E-01 6.67520E-02 8.77962E-02-7.13431E-01
 -1      2911 3.62672E-01 4.36580E-01 5.36731E-01 8.21018E-02-1.51532E-01-4.96285E-01
 -1      2912-3.09531E-01-3.20055E-01-6.18946E-01-1.07784E-01-1.62276E-01-4.52526E-01
 -1      2913 5.00954E-01 4.08484E-01 1.30630E-01 3.11919E-01-1.14906E-01-3.49695E-01
 -1      2914 4.49114E-01 5.15453E-01 4.01305E-01 4.29165E-01-4.16653E-01-3.07490E-01
 -1      2915-6.36522E-02-1.78865E-01 2.35245E-03-6.06739E-02-4.79807E-03-3.90527E-01
 -1      2916-1.89748E-01-2.39956E-01-1.87224E-02-1.45845E-02 4.13532E-03-4.37066E-01
 -1      2917 2.22723E-01 2.14870E-01 2.95990E-01-1.10771E-01 1.29277E-01-4.63124E-01
 -1      2918-1.71286E-01-2.76851E-01-3.23096E-01-1.21357E-01-1.53848E-01-3.32039E-01
 -1      2919-3.58879E-01-5.04050E-01-3.39326E-01-2.79218E-01-2.34526E-01-2.85752E-01
 -1      2920-1.85867E-01-1.73347E-01-1.04810E-01 8.55100E-02 6.04931E-02-2.01954E-01
 -1      2921-1.21364E-01-2.39850E-01-9.47312E-02 2.33925E-01 3.58999E-02-2.13219E-01
 -1      2922-4.77640E-01-3.41718E-01-2.14521E-01 1.21591E-01 2.09805E-02-2.00363E-01
 -1      2923-2.58787E-01-2.54586E-02-5.20846E-02 5.55320E-02 1.98968E-01-5.87054E-01
 -1      2924 4.89513E-01 3.49305E-01 8.02078E-02 3.08985E-01-1.97985E-01-4.44727E-01
 -1      2925 5.30449E-02 2.65805E-01 2.08221E-01 4.13955E-02 8.29876E-02-2.06217E-01
 -1      2926 2.81211E-01 2.14132E-01 3.42758E-01 9.92993E-02-1.34058E-01-4.93576E-01
 -1      2927 4.44328E-02 2.25905E-01 7.88484E-02 1.98465E-02-6.43753E-02-4.26194E-02
 -1      2928 5.09098E-01-8.05231E-02 1.32089E-01-1.36135E-01-1.50421E-01-4.09721E-01
 -1      2929 3.72855E-01 1.32399E-01-1.08436E-02 8.51642E-02-3.00834E-02-1.96599E-01
 -1      2930-3.34141E-01-7.52950E-01-4.17262E-01 2.65572E-01 2.39549E-01-2.27372E-01
 -1      2931-1.14184E-01 4.39749E-01 6.38529E-02-3.92610E-02-4.29504E-02-1.64317E-01
 -1      2932 4.42779E-01 4.88393E-01 7.04358E-01 2.50028E-01-2.21257E-01-5.36173E-01
 -1      2933 3.23331E-01-5.69290E-02 9.68119E-02 9.20942E-02 4.56304E-02-3.59783E-01
 -1      2934-3.63889E-01-3.42254E-01-6.10534E-01 1.22277E-01 1.15010E-01-4.93044E-01
 -1      2935 1.62519E-01 3.21929E-01 3.30744E-01 4.85921E-02-5.74021E-02-2.16858E-01
 -1      2936 8.31613E-02-1.95134E-01-1.03669E-01 1.49436E-02 9.86575E-02-1.28151E-01
 -1      2937-3.57964E-02 2.11167E-01 3.53116E-02 6.91793E-02-6.02113E-02-1.73019E-01
 -1      2938-2.60362E-01-2.28426E-01-1.00649E-01 1.84721E-01 3.69004E-02-6.98824E-01
 -1      2939 2.43874E-01 2.43074E-01 9.35722E-02 6.96590E-02-2.44442E-02-4.70097E-01
 -1      2940 3.30905E-01 2.33112E-01 2.61930E-01-1.40599E-02 1.14585E-02-3.47074E-01
 -1      2941 7.27172E-02 1.28685E-01 1.52670E-01-2.07625E-02-4.60863E-02-1.29461E-01
 -1      2942-7.77121E-01-4.75212E-01-2.35315E-01 1.34321E-02 3.53057E-02-1.99091E-01
 -1      2943-3.28336E-01-3.22470E-01-3.51522E-01 1.24367E-01 9.34878E-02-3.66337E-01
 -1      2944-2.08572E-01 5.56516E-02 4.48165E-02-5.78894E-02-1.14432E-01-5.58980E-01
 -1      2945 3.61918E-04-1.56434E-01-1.24278E-01-4.28178E-02 3.44630E-02-6.11292E-02
 -1      2946-3.72331E-01 8.69972E-02-1.18239E-01-5.75685E-02 2.34108E-02-3.19953E-01
 -1      2947 2.61256E-01-1.94489E-02 1.30460E-01-4.21917E-02 8.80555E-02-6.93630E-01
 -1      2948 1.26078E-01 1.82575E-01-5.31737E-03 6.56822E-02-5.09020E-02-9.78230E-02
 -1      2949-3.96012E-01-2.35263E-01-5.24721E-01-3.23147E-02-2.89487E-02-4.96963E-01
 -1      2950 8.08266E-01 1.47001E-01 1.19292E-01 3.80711E-01-1.76275E-01-2.34128E-01
 -1      2951 3.48712E-01 3.19210E-01 4.95695E-01-2.13781E-01 1.65315E-01-4.87205E-01
 -1      2952 2.19914E-01 1.69992E-01 2.02724E-01-5.68497E-02 9.40557E-02-3.24508E-01
 -1      2953-3.43542E-01-6.49221E-01-3.18476E-01-2.40537E-01-1.98668E-01-2.56597E-01
 -1      2954-3.30858E-01-2.39763E-01-1.47218E-02 1.31914E-01 1.11439E-01-1.69982E-01
 -1      2955-4.03122E-01-2.15725E-01-1.03450E-01 1.50726E-01 1.26592E-02-5.55893E-01
 -1      2956 2.30206E-01 4.93515E-01 1.27367E-01 3.46788E-01-1.22216E-01-1.24735E-01
 -1      2957 2.59793E-02-4.51278E-02 5.13104E-02-3.53767E-03 2.93790E-02-1.07661E-01
 -1      2958 3.07341E-01-6.12254E-02 2.98420E-02-3.34384E-01 3.03455E-01-2.92003E-01
 -1      2959-2.22006E-02-1.72534E-01-1.10120E-01 2.36919E-01-1.22577E-01-7.83549E-02
 -1      2960 5.85101E-01 6.02530E-01 4.63770E-01-4.43559E-01 3.56437E-01-3.09888E-01
 -1      2961 1.84541E-01 8.18100E-01 5.07924E-01 6.37891E-02 3.47567E-02-1.75277E-01
 -1      2962 3.68456E-01 2.12962E-01 3.31535E-01 1.64148E-01-2.70059E-01-5.30559E-01
 -1      2963 7.54269E-01 4.57568E-01 4.43093E-02 2.10492E-02 5.51110E-04-1.01142E-01
 -1      2964 2.14825E-01 1.35637E+00 4.83224E-01 7.98680E-02 1.73956E-02-1.37026E-01
 -1      2965-2.09303E-01-1.45719E-01 6.42443E-02-1.82019E-01-2.00331E-01-4.00690E-01
 -1      2966-3.51478E-02 1.03760E-01-4.00801E-02-9.24943E-03-2.19524E-02-1.14552E-01
 -1      2967-9.69670E-01-2.31368E-01-3.45000E-01 2.23042E-01 2.38141E-01-4.74524E-01
 -1      2968 2.93340E-01 2.84889E-01-5.30509E-02-6.88220E-02 2.79435E-02-1.04374E-01
 -1      2969-1.25463E-01-1.94920E-01-1.54386E-01-3.71931E-03 8.32670E-02-2.02800E-01
 -1      2970 4.91710E-01 4.30504E-01 5.13522E-01-2.22955E-01 2.68907E-01-5.56447E-01
 -1      2971-2.74475E-01-1.24435E+00-2.98866E-01-2.62607E-02-1.87603E-02-1.25776E-01
 -1      2972-2.95764E-01-1.27682E+00-3.38813E-01-8.36503E-02-2.91045E-02-1.31320E-01
 -1      2973 3.37476E-01 8.67890E-01 1.82268E-01-2.77843E-01 6.64005E-02-1.45531E-01
 -1      2974 9.54248E-02 2.38356E-02 2.28233E-03-1.45787E-02 1.23443E-02-1.40149E-01
 -1      2975 7.31693E-02 6.89325E-02 1.22648E-01 3.19012E-02 2.79732E-02-1.39042E-01
 -1      2976 1.15352E-02 1.81478E-03 6.69690E-02-2.77270E-02 2.58940E-03-4.59549E-02
 -1      2977 6.44006E-01 8.22336E-01 7.43396E-01-5.77990E-02 8.69185E-02-4.20564E-01
 -1      2978-1.73327E-01-4.15972E-01-3.38845E-01-2.43617E-01-1.87128E-01-2.62668E-01
 -1      2979-3.08920E-01-5.00079E-02 5.48955E-02-2.39126E-02 6.17982E-04-1.63841E-01
 -1      2980-3.20829E-02-1.25002E-01-2.05918E-02-2.96258E-02-2.29775E-02-1.55360E-01
 -1      2981-6.17292E-01-5.43484E-01-3.51662E-01-4.40354E-01-3.21043E-01-3.05348E-01
 -1      2982 6.43817E-01 6.78658E-01 5.41568E-01-4.24953E-01 3.90673E-01-4.09846E-01
 -1      2983-1.75477E-02-2.65572E-01-8.60199E-02 8.25306E-03 5.98111E-02-6.07424E-02
 -1      2984 2.41066E-01 1.57571E-01 8.59395E-02-7.72879E-02-6.00830E-03-5.70690E-01
 -1      2985-3.05998E-01-2.63826E-01-3.69168E-01 1.33560E-01 1.50743E-01-4.29469E-01
 -1      2986-4.15146E-02-8.64839E-03 3.46039E-05 2.61999E-02 1.46032E-02-5.13558E-01
 -1      2987-3.30948E-02-3.18228E-02-3.11409E-03-3.14746E-02-1.01510E-02-7.89238E-02
 -1      2988-4.33330E-02 6.60319E-02 2.59960E-02-6.68888E-02-7.25759E-02-5.57891E-01
 -1      2989-2.74140E-01-2.29634E-01-2.83633E-01-2.21845E-01-2.42930E-01-4.42427E-01
 -1      2990 1.75056E-01 1.43598E-01-4.84915E-02-1.62732E-01 4.05243E-03-4.17019E-01
 -1      2991 1.62458E-01-1.31694E-01 1.72259E-02 3.98781E-01-2.72290E-01-2.60332E-01
 -1      2992 7.76447E-01 4.78210E-01 2.80022E-01-2.56805E-02 3.73288E-02-1.94293E-02
 -1      2993-2.98813E-01-9.52312E-02-6.83623E-02-2.42414E-01-2.49750E-01-3.88482E-01
 -1      2994 6.78279E-02 1.14886E-01 2.74928E-01 1.95478E-02-5.66177E-02-5.36722E-01
 -1      2995 4.36789E-01 6.37143E-01 1.90235E-01 4.69707E-01-2.61233E-01-1.61520E-01
 -1      2996-2.06410E-01-4.79476E-01-2.24909E-01-2.70368E-01-1.94862E-01-2.52986E-01
 -1      2997 3.94733E-02-3.75896E-02-1.14566E-01-7.55689E-02 2.87322E-02-3.86726E-01
 -1      2998-8.64626E-02-3.60678E-02-2.54771E-03 6.81892E-02-1.72456E-03-1.79233E-01
 -1      2999 1.28745E-01 1.22303E+00 4.30238E-01 3.97756E-02 1.64812E-02-9.10123E-02
 -1      3000-1.57086E-01-5.00948E-01-3.50906E-01-1.01119E-01-1.14527E-01-2.48443E-01
 -1      3001-2.94356E-01-3.58173E-01-2.41320E-01 1.60879E-01 1.14170E-01-2.94222E-01
 -1      3002-2.19387E-01-1.26641E-02-1.24380E-01 8.06433E-03 1.85284E-01-5.63811E-01
 -1      3003 3.37447E-01 7.88730E-01 5.97133E-01-1.29584E-01 1.91747E-01-2.33693E-01
 -1      3004 4.47653E-01 5.71654E-01 4.08897E-01-2.47834E-01 1.94682E-01-3.90021E-01
 -1      3005 1.98775E-01 8.63464E-01 5.56910E-01 1.57087E-01-1.79857E-01-2.10075E-01
 -1      3006-1.07370E-02-7.72705E-02-5.84814E-02 8.16703E-02-1.26844E-01-6.98740E-01
 -1      3007-3.34319E-01 3.68644E-02-1.39096E-01 6.09784E-02-1.32178E-01-6.67173E-01
 -1      3008 2.12470E-01 7.53751E-01 2.57131E-01 3.17443E-01 2.33873E-02-2.14447E-01
 -1      3009 8.88618E-01 4.74385E-01 7.21363E-02-2.55910E-01 5.14161E-02-2.88536E-01
 -1      3010 1.91397E-01-6.61809E-02 1.44916E-01-1.44756E-01-1.35154E-01-1.09716E-01
 -1      3011-1.80162E-01-7.60484E-01-4.13239E-01-1.22717E-01-1.24536E-01-2.03038E-01
 -1      3012-6.89633E-01-4.66732E-01-4.00305E-03-2.96005E-04-4.13315E-02-3.07385E-02
 -1      3013-2.48784E-01-3.91136E-01-1.72876E-01 1.19469E-01 1.17847E-01-4.70447E-01
 -1      3014-6.80312E-01-3.64686E-01-5.34095E-02 5.36314E-02 1.02703E-03 3.59704E-03
 -1      3015 1.97877E-01 1.75476E-01 3.38469E-05-1.03267E-01 6.34519E-02-1.25947E-01
 -1      3016-1.48719E-01-1.09319E-01 1.04268E-02-2.72429E-02 3.21233E-02-1.69562E-01
 -1      3017 2.96338E-01 9.11952E-02 2.64084E-01-1.81879E-01 2.74993E-01-4.05790E-01
 -1      3018 9.17492E-01 6.23224E-01 3.36203E-01 7.86309E-02 3.75104E-02-2.47784E-01
 -1      3019 5.49726E-01 1.71737E-01 2.66169E-01 2.72711E-01-3.01047E-01-4.21614E-01
 -1      3020-4.54564E-01-2.90449E-01-3.59520E-01-4.04487E-02-1.77011E-02-3.80687E-01
 -1      3021 2.19441E-01 8.98053E-01 6.73558E-01 1.26955E-01-2.27526E-01-2.28666E-01
 -1      3022-3.40580E-01-2.67892E-01-5.29478E-01-1.72984E-01-2.44486E-01-4.79826E-01
 -1      3023-1.30563E-01-7.73733E-01-3.01334E-01 9.51194E-02 7.91477E-02-1.37967E-01
 -1      3024-2.09798E-01-9.30201E-01-4.00678E-01-1.24884E-01-8.24548E-02-1.75033E-01
 -1      3025 9.58952E-02 2.36051E-01 1.11245E-01 4.54356E-02-1.15671E-01-2.49346E-01
 -1      3026 9.02592E-01 2.05642E-01 1.47246E-01 2.82393E-01-1.94683E-01-3.57098E-01
 -1      3027-6.19428E-02-2.40482E-01-4.72129E-02-9.98305E-02-6.53149E-02-1.46822E-01
 -1      3028 2.47371E-01 2.79545E-01 2.97427E-01 1.53769E-01-1.99741E-01-3.99096E-01
 -1      3029-2.92336E-01-3.04653E-01-1.94446E-01-2.08196E-02-4.92538E-02-2.37679E-01
 -1      3030 3.57292E-01 8.28825E-01 2.32629E-01-3.49672E-01 1.46505E-01-2.31293E-01
 -1      3031-3.48443E-01-5.54682E-01-2.52059E-01-2.83004E-01-1.28886E-01-2.13071E-01
 -1      3032-1.24163E-01-1.53481E-02 1.10955E-02-1.40650E-01-1.12107E-01-2.93160E-01
 -1      3033 2.20614E-01 1.69287E-01 1.36477E-01-8.76513E-02 9.65228E-02-2.44833E-01
 -1      3034-2.26253E-01-1.15049E+00-4.50890E-01 3.47026E-01 1.78886E-01-1.13148E-01
 -1      3035 1.27295E-01-4.36684E-01-1.01511E-01-1.02469E-01-1.05357E-01-2.30454E-01
 -1      3036-4.92852E-01-1.06076E-01-1.68748E-01 2.38589E-01 3.08126E-01-3.62122E-01
 -1      3037-1.12917E-01-3.66885E-01-5.04657E-02-4.01384E-01-1.71521E-01-1.10447E-01
 -1      3038-5.07117E-01-6.97668E-01-6.98694E-01-2.41131E-02 3.45780E-02-3.81828E-01
 -1      3039 1.55369E-01 1.25153E+00 5.95025E-01 6.02414E-02 1.34452E-02-2.30828E-01
 -1      3040-2.82220E-01-8.00175E-01-6.38012E-01-9.22969E-02-6.50182E-03-2.56460E-01
 -1      3041-1.58175E-01-6.08976E-02 6.29648E-02 7.42742E-02-8.19183E-02-5.93225E-01
 -1      3042-2.79992E-01-9.63398E-01-8.71002E-01 2.02885E-01 2.55076E-01-3.05719E-01
 -1      3043-4.43153E-01-8.17517E-01-7.58777E-01-1.87906E-01-1.26435E-01-3.90271E-01
 -1      3044-3.26854E-01-2.08353E-01-3.55453E-01-2.02022E-01-2.90696E-01-4.70730E-01
 -1      3045-1.91175E-01-1.26087E+00-1.91764E-01-3.16979E-01-4.17676E-02-1.13515E-01
 -1      3046-5.90438E-01-4.65103E-01-1.48891E-01-3.51624E-01-1.15664E-01-3.43297E-01
 -1      3047-2.62729E-01-7.54034E-01-5.95891E-01 4.68669E-02 3.04373E-02-2.06121E-01
 -1      3048-1.68617E-01-9.88389E-01-2.10858E-01 2.80305E-01 1.03009E-01-1.05076E-01
 -1      3049-2.49912E-01-1.75463E-01-1.06248E-01-5.89936E-02-5.24011E-03-2.23249E-01
 -1      3050-2.16126E-01-1.47550E-01-2.41520E-01-4.99302E-02-1.17686E-01-6.18710E-01
 -1      3051-6.23024E-03 5.70319E-02-1.07456E-02 6.89207E-02-1.35380E-01-6.85157E-01
 -1      3052-1.69990E-01-1.73374E-01-2.34947E-01 1.11806E-01 7.58395E-02-4.36424E-01
 -1      3053-1.01585E-03 1.99994E-01 1.65834E-01-1.11826E-01-6.42963E-02-1.32949E-01
 -1      3054-2.29023E-01 1.44712E-01-7.61063E-02-1.75975E-01 1.75941E-01-1.36325E-01
 -1      3055 1.71888E-01 1.31678E-01 1.21303E-01-2.51230E-01 1.78061E-02-6.34422E-01
 -1      3056 8.67261E-02 7.08324E-01 8.20110E-01 3.09108E-02 8.70717E-02-2.86786E-01
 -1      3057-2.96269E-01-2.14178E-01 1.43183E-03-1.28038E-01-6.61104E-02-1.18629E-01
 -1      3058-4.78860E-01-1.08811E-02-7.28869E-02-1.34427E-01 6.60289E-02-4.55771E-01
 -1      3059-2.16456E-01-9.07344E-01-5.84205E-01-8.48006E-02 5.49009E-02-1.85919E-01
 -1      3060-5.76680E-01-2.54333E-01-5.98332E-01 1.34249E-01 2.11482E-01-6.22212E-01
 -1      3061-1.77059E-01-1.23411E+00-3.36819E-01 8.85224E-02 5.18023E-02-1.02352E-01
 -1      3062 6.24495E-01 6.36025E-01 3.13892E-01 4.72389E-01-3.15626E-01-2.66429E-01
 -1      3063 6.31501E-01 4.18171E-01 5.39143E-01 1.12913E-01-1.37206E-01-5.70602E-01
 -1      3064-3.98279E-01-2.43012E-01-4.42668E-01 3.83943E-02 4.33395E-02-4.48868E-01
 -1      3065 6.90963E-02 3.90259E-01 4.75349E-02 2.38676E-01-2.38299E-02-1.72329E-01
 -1      3066-6.57642E-01 2.83953E-01-1.74594E-01 1.44720E-01-2.09195E-01-4.44363E-01
 -1      3067 3.69313E-01 7.92116E-01 3.46289E-01 2.78801E-01-1.01175E-01-2.29254E-01
 -1      3068 1.70682E-01 2.29277E-01 5.44141E-03 1.09975E-01-7.66200E-02-1.55960E-01
 -1      3069 3.45426E-01 5.03360E-02 1.42101E-01 1.48324E-01-3.42548E-01-4.97672E-01
 -1      3070-3.94773E-01-2.42700E-01-3.87864E-01 5.38303E-02-1.76146E-02-4.08894E-01
 -1      3071 6.09554E-01 2.80756E-01 2.56572E-01-2.13442E-01 1.84946E-01-3.92200E-01
 -1      3072-8.39261E-02-7.28175E-02-1.36372E-01-1.25269E-01-4.13436E-02-5.86462E-01
 -1      3073-2.42633E-01-9.53877E-01-4.77934E-01 1.79388E-01 1.88887E-01-1.22092E-01
 -1      3074-2.45851E-01-1.09791E-01-1.56223E-01 1.08746E-01 1.66544E-01-5.57913E-01
 -1      3075-6.43846E-01-1.10287E-01-1.79394E-01 2.81347E-01 4.30097E-01-4.86857E-01
 -1      3076 2.74315E-01 6.05869E-03 3.16788E-02 2.70437E-02 1.00472E-01-6.27679E-01
 -1      3077-4.12152E-01-5.35440E-01-1.34136E-01 3.19821E-01 1.07743E-01-1.40227E-01
 -1      3078-3.51001E-01-4.01517E-01-1.46751E-01-1.56170E-01-8.51414E-02-3.09470E-01
 -1      3079-3.82768E-01-2.02715E-01-1.63355E-01-8.09502E-02-1.07482E-01-3.01588E-01
 -1      3080 3.90937E-01 3.07676E-01 1.83971E-01-1.92224E-01 7.22893E-02-3.76622E-01
 -1      3081 2.69573E-01 4.43482E-01 2.59898E-01 2.84361E-01-3.35113E-01-3.22183E-01
 -1      3082-3.61352E-01-1.71467E-01-4.14963E-01-1.02712E-01-1.48473E-01-4.47810E-01
 -1      3083-2.63638E-01-2.15438E-01-2.13700E-01 7.87208E-02 2.14604E-02-3.36958E-01
 -1      3084 2.66680E-01 2.79991E-01 4.19513E-01 1.22954E-01-1.78381E-01-4.65217E-01
 -1      3085 4.90357E-01 5.55284E-01 7.02802E-01-6.24033E-02 5.93442E-02-4.27635E-01
 -1      3086 1.86552E-01 1.05915E-01 1.12664E-01-8.77149E-02-4.51874E-02-6.58569E-01
 -1      3087 4.23635E-01 2.61986E-01 4.16103E-01-9.29619E-03 1.97196E-02-4.47530E-01
 -1      3088-1.79846E-01-1.31627E-01 3.31828E-02 5.04561E-02-3.90557E-02-1.60571E-01
 -1      3089-2.11268E-01 5.74227E-02-1.04658E-01 2.99737E-02 1.34647E-01-6.25572E-01
 -1      3090-4.40248E-01-2.03695E-01-5.29516E-02-2.72022E-01-1.73828E-01-4.48832E-01
 -1      3091-2.67962E-01-2.52130E-01-2.75351E-01-9.75566E-02-6.21970E-02-3.55582E-01
 -1      3092 2.72615E-01 4.19725E-01 5.49694E-01 2.16575E-01-1.43930E-01-3.27396E-01
 -1      3093 5.68425E-01 1.42988E-01 3.96361E-01-1.91706E-01 3.52770E-01-5.43929E-01
 -1      3094 4.77171E-01 1.11093E+00 1.45156E-01 5.42785E-01-8.39088E-02-1.67722E-01
 -1      3095-5.50537E-01-6.06528E-01-3.03870E-01-4.51601E-01-2.93389E-01-2.15987E-01
 -1      3096-3.04756E-01-1.53191E+00-3.14539E-01 1.94154E-01 4.43064E-02-1.49598E-01
 -1      3097-1.91024E-01-3.38064E-02-2.01522E-02 1.48840E-01-6.07577E-02-1.66001E-01
 -1      3098 2.74111E-01-1.97770E-01 4.72781E-02-1.08662E-02-3.37057E-01-8.01349E-01
 -1      3099-6.45062E-01-2.46871E-01-3.00072E-01-2.62692E-01-2.82521E-01-4.17496E-01
 -1      3100 2.09252E-01 1.23436E+00 4.02986E-01 1.48004E-01 2.59834E-02-9.47757E-02
 -1      3101 2.83607E-01 5.73213E-01 4.13742E-01-2.39234E-01 1.98263E-01-3.31540E-01
 -1      3102 1.81401E-01 1.31832E+00 4.49813E-01 8.53138E-02-5.28435E-02-8.80110E-02
 -1      3103-1.28496E-01-3.10230E-02-7.86879E-02 1.25396E-03-1.28283E-02-6.69407E-01
 -1      3104 2.88909E-01 1.09698E+00 4.92903E-01 2.05780E-01-1.26661E-01-1.43262E-01
 -1      3105 1.90724E-01 8.18262E-01 3.97233E-01 1.20739E-01-1.32280E-01-1.22270E-01
 -1      3106-4.00187E-01-5.05236E-01-4.82456E-01-3.43633E-01-3.16615E-01-4.60081E-01
 -1      3107-4.09195E-01-5.25956E-01-3.58064E-01-3.48818E-01-3.67002E-01-3.50437E-01
 -1      3108-3.08833E-01-1.30848E+00-4.72239E-01-3.53388E-01-1.06645E-01-9.51553E-02
 -1      3109-5.97438E-01-1.82109E-01-1.57001E-01-2.38606E-01-3.11654E-01-3.84053E-01
 -1      3110-2.18012E-01-1.03097E+00-4.59645E-01 9.29537E-02 2.35895E-02-1.54148E-01
 -1      3111 1.56198E-01-2.04276E-01-3.28788E-03-6.40111E-02-1.54294E-01-1.67958E-01
 -1      3112-3.11730E-01-1.78875E-01-7.60318E-02-9.07390E-03-1.97957E-02-3.34108E-01
 -1      3113-1.26439E-01-3.13835E-01-2.65013E-01-5.57783E-02-9.34942E-02-2.75570E-01
 -1      3114 1.20311E-01 8.23499E-01 3.32617E-01 1.35097E-01-1.35271E-01-1.04290E-01
 -1      3115-2.35660E-01-2.44690E-01-2.20584E-01-1.45341E-01-3.86023E-02-2.72938E-01
 -1      3116-7.44640E-01-9.99123E-02-3.94891E-01 2.51776E-01 3.24054E-01-4.34487E-01
 -1      3117 2.58151E-01 1.23835E+00 3.10087E-01 3.02563E-01-5.67839E-02-5.64463E-02
 -1      3118 4.53018E-01 3.75256E-01 3.82225E-01-1.42479E-01 1.44162E-01-5.16045E-01
 -1      3119-2.45221E-01-7.55972E-01-3.46389E-01-1.74312E-01-7.57153E-02-1.91308E-01
 -1      3120 2.86768E-01 3.19802E-01 4.38435E-01-7.73346E-02 3.76582E-02-5.51896E-01
 -1      3121 1.28590E-01-3.07279E-01-4.70508E-02 4.30246E-03-3.44876E-03-1.68994E-01
 -1      3122-1.32947E-01 1.44505E-01 7.44146E-02-5.04645E-02-1.72420E-01-4.61602E-01
 -1      3123 3.78412E-01 2.06886E-01 5.71897E-02-2.19041E-03 7.19462E-02-3.32318E-01
 -1      3124 9.59506E-02 2.02281E-02 9.54119E-03-2.07173E-02 4.57309E-02-5.18598E-01
 -1      3125 7.86533E-02 8.15929E-01 4.98626E-01 5.06638E-02 1.01930E-02-1.15654E-01
 -1      3126-2.65054E-02 2.45238E-01 1.23316E-01 2.31898E-01 1.29189E-01-7.86439E-02
 -1      3127 3.38361E-01 2.70023E-01 4.09699E-01-8.42251E-03 1.27116E-02-4.86968E-01
 -1      3128 2.02275E-01 8.73827E-01 7.73340E-01 1.67070E-01-1.99226E-01-2.47351E-01
 -1      3129 3.04510E-01 2.63958E-01-5.48974E-02 1.46159E-02 2.41669E-02-7.98973E-02
 -1      3130 1.75878E-01 8.33853E-01 4.74819E-01 1.21557E-01-2.34536E-01-1.97762E-01
 -1      3131-1.70197E-01-2.85910E-01-2.79551E-01 1.27036E-02 1.34182E-01-3.83610E-01
 -1      3132-2.11585E-01-9.13191E-01-7.53198E-01-3.02840E-01-2.63081E-01-2.94859E-01
 -1      3133-2.03382E-01-9.39624E-01-3.62430E-01 2.30323E-01 5.84762E-02-1.79696E-01
 -1      3134 5.50513E-01 7.78257E-01 5.22738E-01-5.14552E-01 3.20095E-01-2.85410E-01
 -1      3135 6.37503E-01 1.80363E-01 2.61624E-01-2.12740E-01 2.72857E-01-4.49585E-01
 -1      3136 1.04601E-01 3.01652E-01 2.84619E-01 1.12119E-01-1.97365E-01-4.47948E-01
 -1      3137 3.63736E-01 6.70665E-01 4.13314E-01 2.84157E-01-1.96125E-01-3.88317E-01
 -1      3138 1.85625E-01 7.02542E-02-1.11211E-01-2.05763E-01-1.61971E-02-4.06931E-01
 -1      3139-4.88863E-01-2.96684E-01-1.31804E-01-8.64728E-02 2.28225E-02-1.29257E-02
 -1      3140 2.11973E-01 7.72490E-02 3.07911E-01-9.61991E-02 1.54852E-01-6.07683E-01
 -1      3141 2.11090E-01 1.04792E+00 5.53272E-01 7.60994E-02 2.75958E-02-1.81582E-01
 -1      3142-3.19659E-01 8.78189E-02-1.39678E-01 4.44331E-02 1.32012E-01-5.74787E-01
 -1      3143 2.66086E-01 1.45230E+00 4.29082E-01 2.13219E-01 3.83303E-03-9.91406E-02
 -1      3144 3.35344E-01 1.77819E-01 7.21440E-02-1.05038E-01-1.85259E-02-7.39464E-02
 -1      3145 2.10811E-01 1.21271E+00 1.84356E-01-3.29646E-01 3.61665E-02-1.36436E-01
 -1      3146-3.26891E-01 1.65425E-02 3.26674E-02-1.02527E-01 5.02935E-02-3.22536E-01
 -1      3147-1.09683E-01-1.72479E-01-2.33136E-01 1.52993E-02 2.20041E-03-4.65039E-01
 -1      3148-4.86096E-01-1.75376E-01-1.07755E-01-1.87553E-01-1.22835E-01-3.62832E-01
 -1      3149 2.67286E-01 1.10547E+00 3.99224E-01 2.02297E-01-1.35079E-01-1.06156E-01
 -1      3150-5.92302E-01-9.75858E-02-1.43539E-01-2.45380E-01-1.00913E-01-2.16011E-01
 -1      3151-7.77812E-01-1.52153E-01-1.21056E-01-2.81147E-01-1.16339E-01-2.44617E-01
 -1      3152-5.24427E-01-2.22216E-01-4.64102E-01 2.31539E-01 2.61939E-01-5.93274E-01
 -1      3153-8.85434E-01-1.02391E+00-1.09093E+00 1.41794E-01 2.31389E-01-3.85389E-01
 -1      3154 2.70471E-01 1.00626E+00 3.81598E-01 2.03705E-01-1.53301E-01-1.29373E-01
 -1      3155 1.90845E-01-2.07720E-02-2.78927E-02 3.88627E-02-1.73533E-01-6.52225E-01
 -1      3156-3.48847E-01-1.41277E-01 2.21154E-02 6.46073E-02 3.12038E-02-1.53964E-01
 -1      3157-1.94333E-01-5.86434E-01-6.24585E-01 6.81150E-02 4.21511E-02-3.55389E-01
 -1      3158 2.86201E-01-8.03230E-02-3.45973E-02-2.58420E-02 1.26792E-01-4.86838E-01
 -1      3159-4.68915E-01-3.35866E-01-1.98472E-01-5.74398E-02 1.91128E-02-1.79934E-01
 -1      3160-2.55511E-01-3.23354E-02 6.46613E-02 2.55978E-02 1.42171E-01-6.03962E-01
 -1      3161 5.04983E-02-4.03403E-01-4.42425E-02 2.28376E-03 6.43420E-02-1.21752E-01
 -1      3162 1.37408E-01 1.85957E-01 3.52810E-01 4.22709E-02 1.29096E-01-2.72012E-01
 -1      3163 3.28295E-01 5.26932E-01 5.89229E-01-9.06114E-02 1.06199E-01-3.15869E-01
 -1      3164-2.02562E-01-6.84813E-01-5.58521E-01 1.17954E-01 4.72347E-02-2.03505E-01
 -1      3165 3.66130E-01 1.37209E+00 5.79418E-01-4.04151E-01 1.95442E-01-2.17429E-01
 -1      3166 2.54246E-01-8.29496E-02 5.89897E-02 1.75806E-02 1.51947E-01-6.32369E-01
 -1      3167 4.31385E-01 8.61343E-01 4.71102E-01-3.01924E-01 1.88868E-01-2.98116E-01
 -1      3168-5.56821E-01-1.94865E-01-2.42970E-01 1.00451E-01 1.47486E-01-4.17948E-01
 -1      3169 2.50445E-01 1.24905E-01 1.09287E-01 1.21582E-01 1.86864E-02-7.65547E-02
 -1      3170 4.43590E-01 8.16936E-01 7.28093E-01-9.96046E-02 1.09919E-01-3.70257E-01
 -1      3171 2.88454E-01 1.00661E+00 5.62231E-02 4.38796E-01-1.32265E-01-1.82181E-01
 -1      3172 2.41262E-01 1.04812E-01 1.27027E-01 6.46598E-02-1.69636E-03-2.82957E-01
 -1      3173 2.17680E-01 2.69307E-01 2.31069E-01 8.36827E-02-9.93188E-02-2.94356E-01
 -1      3174-2.06137E-01-8.55693E-01-4.49451E-01-2.13971E-01-1.54913E-01-1.98732E-01
 -1      3175 3.80077E-01 6.21570E-01 6.42529E-01-1.63138E-01 1.53964E-01-3.75642E-01
 -1      3176 1.25493E-01 2.41630E-01 2.57519E-01-1.97336E-01 4.87948E-02-2.97544E-01
 -1      3177-6.51383E-01-3.72106E-01-3.19099E-01 5.04005E-02 7.59218E-02-4.27266E-01
 -1      3178 2.99233E-01 7.81046E-04-4.89369E-02-5.64764E-03-1.83373E-01-6.75590E-01
 -1      3179 4.55074E-01 1.13468E-01 2.16772E-01 2.04252E-01-3.34470E-01-4.65649E-01
 -1      3180 2.37896E-01 6.23668E-01 1.92209E-01 2.35238E-01-8.52417E-02-1.82810E-01
 -1      3181-3.45031E-01-2.25083E-01-3.85542E-01 1.46172E-01-2.99318E-03-4.05170E-01
 -1      3182 5.35904E-01 8.90242E-01 4.50943E-01 3.16400E-01-1.62959E-01-2.59260E-01
 -1      3183 1.57051E-01 1.45556E-02-7.20892E-03 1.87554E-01-2.36515E-01-3.20849E-01
 -1      3184-6.62374E-01-3.58471E-01-2.60146E-01 1.02738E-01 6.89425E-02-5.06750E-01
 -1      3185 3.04382E-01 2.18286E-01 1.46427E-01 7.88021E-02 1.87424E-02-2.25227E-01
 -1      3186 1.22369E-01 1.01631E+00 7.40469E-01-5.42018E-02 3.14126E-02-2.38023E-01
 -1      3187 5.46228E-01 1.56126E-01 1.23947E-01-2.13835E-01 9.26047E-02-2.07038E-01
 -1      3188-2.03250E-01-4.63007E-01-2.74860E-01-2.80751E-01-2.75776E-01-2.48399E-01
 -1      3189-2.93548E-02-1.40814E-02 1.10573E-02-1.71020E-01-4.40344E-03-1.68441E-01
 -1      3190 7.77934E-03-5.89886E-01-1.54376E-01-1.15580E-02 2.13422E-01-1.16991E-01
 -1      3191 2.34813E-02-6.45971E-02-5.58234E-02 6.77750E-02 1.38717E-01-6.74285E-01
 -1      3192-1.40085E-02-1.75428E-01-4.79054E-03 2.16072E-02 1.79823E-02-1.94966E-01
 -1      3193 5.28456E-01 6.71402E-01 6.56708E-01-3.68406E-01 3.47689E-01-4.25372E-01
 -1      3194-1.33849E-01-7.18354E-02 8.09288E-03-3.97690E-02-3.53459E-02-2.17283E-02
 -1      3195-3.69960E-01-1.24446E-01-3.59766E-01 3.91392E-02 1.52074E-01-6.43934E-01
 -1      3196 2.47007E-01 1.24701E+00 6.04115E-01-8.44297E-02 9.19220E-02-1.43116E-01
 -1      3197 4.03385E-01 8.98077E-01 2.14433E-01 3.60029E-01-1.63237E-01-2.65180E-01
 -1      3198 7.26472E-01 2.03669E-01 1.22000E-01 2.99433E-01-2.18197E-01-4.33021E-01
 -1      3199 4.46456E-01 1.17219E-01 1.76888E-02-2.38361E-02-1.07823E-01-5.32509E-02
 -1      3200 4.40792E-02 2.58643E-01 1.69065E-01-5.12189E-02-1.86130E-02-6.73136E-02
 -1      3201-1.13476E-02-2.04871E-01-9.74498E-03 6.74156E-02-1.12842E-01-1.71352E-01
 -1      3202 2.84679E-01 4.31928E-02 1.49387E-01 3.16448E-01-3.05840E-01-3.21135E-01
 -1      3203 5.37305E-01 6.51667E-02 2.44579E-01 2.61390E-01-4.17888E-01-5.08498E-01
 -1      3204 5.76712E-02 1.48172E-01 1.75388E-01 1.15274E-01 3.18916E-02-3.24093E-01
 -1      3205 5.61834E-01 4.64977E-01 1.12967E-02 2.53701E-01-2.54411E-02-9.52357E-02
 -1      3206-6.91845E-01-1.03746E-01-1.69406E-01-2.65332E-01-1.99527E-01-3.19832E-01
 -1      3207 3.71583E-01 3.75966E-01 2.15183E-01-1.51664E-01 1.03058E-01-5.67287E-01
 -1      3208-3.04897E-01-2.12171E-01-9.79121E-02-2.67592E-01-2.78619E-01-4.28344E-01
 -1      3209-7.33869E-02-3.76704E-02-2.55295E-02-5.43043E-02 2.64212E-03-1.80906E-01
 -1      3210 7.02155E-01 3.23744E-01 9.34716E-03 1.53778E-01 1.56424E-02-1.83756E-01
 -1      3211 7.40983E-02 1.00754E-01 1.31322E-01 1.22302E-01 1.02968E-01-1.03000E-01
 -1      3212 3.78928E-01 1.11584E-01-7.14017E-02-6.00607E-02-7.58102E-03-1.73168E-01
 -1      3213-3.83051E-02 9.02605E-01 1.09181E-01 6.54795E-02-2.87088E-02-6.06760E-02
 -1      3214 2.82727E-01 1.54059E-01 3.29392E-01 1.03092E-01-1.33469E-01-4.99706E-01
 -1      3215-4.16627E-01-2.74640E-01-1.11572E-01 1.41425E-01 7.07939E-02-2.81861E-01
 -1      3216 5.84661E-01 9.78399E-01 9.55211E-02-5.00600E-01 6.70230E-02-2.01057E-01
 -1      3217-2.47040E-01-3.65583E-01-7.47874E-02 1.57829E-01 1.04166E-01-1.40347E-01
 -1      3218 3.15797E-01 2.51060E-01 2.96496E-01 1.21342E-01-1.15903E-01-4.51864E-01
 -1      3219 9.44670E-03 9.06330E-01 4.70707E-02-9.25457E-02 1.47551E-02-1.09391E-01
 -1      3220 5.30437E-02 4.41578E-01 1.68185E-01-1.60123E-02 5.73474E-02-1.53609E-01
 -1      3221 3.46413E-01 2.71922E-01 4.53139E-01-2.39752E-03-5.63506E-02-5.00529E-01
 -1      3222 4.88512E-01 1.04111E+00 1.15149E+00 4.15236E-02 6.68086E-02-3.55345E-01
 -1      3223-3.40176E-01-2.33099E-01-9.02896E-02 3.18543E-02-4.34811E-02-1.78678E-01
 -1      3224-3.37948E-01-9.42167E-01-1.86359E-01-2.27983E-01-1.13783E-01-1.56622E-01
 -1      3225-1.30472E-01-3.46107E-01-1.44328E-01 1.82939E-02-2.20707E-02-2.31237E-01
 -1      3226-4.76010E-01-5.35974E-01-2.11709E-01 1.84601E-01 1.11948E-01-4.42041E-01
 -1      3227-3.84150E-01-2.11374E-01 4.07983E-02 3.13752E-02 8.88212E-03-1.50656E-01
 -1      3228 1.83200E-01 5.82388E-02 1.05813E-01-1.69682E-01 2.60445E-01-3.78413E-01
 -1      3229-1.84648E-01-7.38884E-02-1.44851E-01 4.18766E-02-6.93507E-02-6.56751E-01
 -1      3230 4.92097E-01 6.56971E-01 2.21585E-01-5.82856E-01 2.13472E-01-2.23766E-01
 -1      3231-2.60498E-01-6.42083E-01-4.64859E-01 2.67110E-01 1.76593E-01-2.69081E-01
 -1      3232 2.52911E-01 6.30446E-01 2.52673E-01 2.68984E-01-1.62541E-01-2.97455E-01
 -1      3233 2.04711E-01 4.17716E-01 9.31975E-02-1.09981E-01 6.49821E-02-1.73793E-01
 -1      3234 2.68040E-01 2.74218E-01 2.03026E-01-4.20928E-02 4.53879E-02-2.72348E-01
 -1      3235 2.34901E-01 4.87697E-01 3.35874E-01-1.77759E-01 1.04691E-01-2.67825E-01
 -1      3236 3.82081E-01 2.40162E-01 4.69116E-01-8.74093E-02 4.18555E-02-4.76435E-01
 -1      3237 1.40666E-01 8.50720E-02 3.14944E-01 4.25431E-02-2.87789E-02-5.66157E-01
 -1      3238-9.41426E-01-1.80583E-01-2.64775E-01 2.72419E-01 1.84825E-01-3.82455E-01
 -1      3239-6.06802E-01-2.99674E-01-4.27493E-01 2.65684E-01 2.65751E-01-5.18684E-01
 -1      3240-2.21902E-01-8.82248E-01-6.33207E-01 2.15093E-01 2.72587E-01-2.02807E-01
 -1      3241 1.80654E-01 1.04631E-01 1.05382E-01 1.36302E-01-9.11426E-03-2.08619E-01
 -1      3242 2.15343E-01 4.19291E-01 4.09758E-01-6.45156E-02 1.15379E-01-4.78663E-01
 -1      3243 8.39003E-01 4.64684E-01 6.20742E-02 3.11377E-01-6.93238E-02-2.47779E-01
 -1      3244-3.89783E-01-8.36429E-01-4.73561E-01 2.71498E-01 1.67096E-01-2.41695E-01
 -1      3245-7.74642E-01-4.27851E-01-1.62702E-01 2.16212E-02 2.32344E-03-2.42662E-01
 -1      3246-1.57680E-01 4.87926E-01 1.01265E-01 6.62162E-03-2.06635E-01-2.54975E-01
 -1      3247-5.23007E-01-6.46932E-01-3.74319E-01 4.18487E-01 3.31554E-01-2.57447E-01
 -1      3248-4.63062E-01-6.73189E-01-1.29540E-01 5.74460E-01 2.14806E-01-2.20904E-01
 -1      3249-2.58539E-01-8.54281E-01-7.71391E-02 2.83254E-01 6.21195E-02-1.17148E-01
 -1      3250-2.16149E-01-7.72886E-01-1.16935E-01 4.23412E-01 1.56013E-01-1.78456E-01
 -1      3251 6.79595E-02 3.45147E-01 7.98675E-02 1.09353E-01-1.36930E-01-2.14153E-01
 -1      3252-9.23933E-02-1.89587E-02-2.81828E-03 2.27904E-01-1.52505E-03-1.02735E-01
 -1      3253-1.65046E-01 3.16269E-01 2.43799E-02 3.96644E-02-5.51095E-02-2.24788E-01
 -1      3254 3.31198E-01 3.36122E-01 2.87397E-01-1.10550E-01 8.06362E-02-3.42532E-01
 -1      3255-1.98426E-01 5.27288E-01 4.74392E-02 1.26679E-02-1.45283E-01-2.80231E-01
 -1      3256-3.86024E-01-5.77172E-01-3.05913E-01-2.41478E-01-1.79769E-01-3.00830E-01
 -1      3257-2.20036E-01 9.76711E-02-9.93696E-02 2.83786E-01 2.64653E-01-2.03865E-01
 -1      3258-1.38459E-01-1.38052E+00-1.96319E-01 4.45003E-01 9.55063E-02-1.51136E-01
 -1      3259-3.96695E-01-3.08570E-01-2.16459E-01 1.40644E-01 1.72596E-01-5.29779E-01
 -1      3260-2.78470E-01-2.37916E-01-3.65994E-01-4.89148E-02-4.13652E-02-5.12417E-01
 -1      3261-7.83577E-02-6.26439E-01-1.12700E-01-3.38479E-02-1.75392E-01-1.47887E-01
 -1      3262-5.11555E-01-3.14715E-01-2.08658E-01 1.78616E-01 1.92297E-01-5.05712E-01
 -1      3263 4.87329E-01 9.79619E-01 6.86933E-01-2.30109E-01 2.98130E-01-1.89255E-01
 -1      3264 3.24446E-01 1.05302E+00 5.51245E-01-2.04542E-01 2.22591E-01-9.33109E-02
 -1      3265 3.57414E-01 7.81744E-01-8.12482E-02 4.62039E-01-1.14799E-01-1.33184E-01
 -1      3266 5.54519E-01 3.37864E-01 8.97963E-02-1.67164E-01 2.89208E-02-1.96938E-01
 -1      3267-3.08591E-01-1.45267E+00-4.01280E-01 4.41087E-01 1.29613E-01-1.21660E-01
 -1      3268 1.64136E-01-4.38643E-01 1.02655E-01-1.38714E-02-1.26531E-02-5.50488E-02
 -1      3269-5.16033E-02 2.82212E-01 1.59527E-01 4.98129E-02 2.56516E-01-4.32816E-01
 -1      3270 5.86644E-01 1.06808E-01 1.86886E-01 3.32574E-01-2.84809E-01-4.07651E-01
 -1      3271-1.71106E-01-1.85904E-01 1.35512E-02 1.27509E-01 2.69065E-02-1.56875E-01
 -1      3272 2.77579E-01 5.53277E-01-5.83670E-02 1.88699E-01-3.02726E-02-2.11755E-01
 -1      3273 4.38973E-01 8.72748E-03 1.99778E-01 5.52925E-03 1.34639E-01-6.89736E-01
 -1      3274 1.89738E-01 4.24264E-02 1.67144E-01 9.72540E-03-1.64062E-01-7.73624E-01
 -1      3275-1.82831E-01 1.53464E-01-7.85747E-02-1.99871E-01 9.92205E-02-1.06047E-01
 -1      3276 3.05788E-01 2.12689E-01 1.69188E-01 4.76513E-02 4.98716E-02-2.91978E-01
 -1      3277 6.59951E-02 7.25527E-01 2.36788E-01-8.43018E-03 2.08123E-01-1.45815E-01
 -1      3278-7.77188E-01-2.15332E-01-3.49982E-01-2.84036E-01-2.70763E-01-3.94201E-01
 -1      3279-2.78082E-01-3.76585E-01-4.48258E-01-2.01338E-01-1.28515E-01-3.15655E-01
 -1      3280 1.18991E-01 1.40290E-01 2.91194E-02 9.18343E-02 2.31792E-02-5.50243E-01
 -1      3281-6.62967E-01-6.61398E-01-6.87841E-01-2.99165E-02-7.93079E-02-4.52055E-01
 -1      3282 1.79267E-01-9.16424E-02-3.59575E-02-6.95741E-02 7.44221E-02-5.13999E-01
 -1      3283 8.38545E-01 6.73188E-01 8.73870E-01 1.47152E-01-1.56610E-01-5.98233E-01
 -1      3284 2.68384E-01 6.29922E-01 4.39141E-01-6.87422E-02 4.46822E-02-3.07185E-01
 -1      3285 1.69103E-01 1.08186E-02 1.83179E-02 1.69600E-01-2.82738E-01-4.14738E-01
 -1      3286 4.26971E-01 1.07034E+00 4.30489E-01-3.94376E-01 1.59515E-01-1.78852E-01
 -1      3287 5.14446E-01 3.52367E-01 3.06227E-01-2.70097E-02-3.10431E-02-4.12674E-01
 -1      3288 4.95701E-01 6.12200E-01 3.97707E-01-4.90189E-01 3.49734E-01-2.51327E-01
 -1      3289 1.86136E-01 1.24190E-02 2.10040E-01-4.01238E-02 1.40811E-01-7.09530E-01
 -1      3290 1.55928E-01 5.26015E-01 2.99646E-01 1.96511E-01 3.91156E-02-2.70306E-01
 -1      3291 3.17674E-01 8.30345E-01 6.43285E-01-2.09435E-01 2.11260E-01-2.83168E-01
 -1      3292 1.10346E-01 9.97754E-01 6.13659E-01-3.80263E-02 5.15633E-02-1.50447E-01
 -1      3293 2.26750E-02-2.23676E-01 6.67929E-02 1.05125E-01 8.13014E-02-9.00086E-02
 -1      3294 9.52780E-02 5.66711E-02-3.68452E-02 5.10960E-04 1.59315E-02-9.20684E-02
 -1      3295 3.63160E-01 6.47672E-02-1.01126E-01-2.39152E-01 1.78933E-01-2.37281E-01
 -1      3296-2.39097E-01-3.79442E-01-4.02655E-01 1.29703E-01 5.37186E-02-3.09791E-01
 -1      3297-4.69762E-01-3.86949E-01-1.25363E-01 2.09912E-01 3.07466E-03-2.27155E-01
 -1      3298 3.61438E-01 6.97314E-01 6.28388E-01-1.74665E-01-1.64497E-03-3.99605E-01
 -1      3299 2.85386E-01 4.84665E-01 7.03420E-01-2.11374E-01 7.35646E-02-3.95471E-01
 -1      3300 3.77220E-01 1.42684E-01 1.24052E-01-8.48176E-02 2.16096E-02-3.14316E-01
 -1      3301 2.79151E-01 2.56785E-01 1.65711E-01-2.26247E-01 1.17546E-01-3.72499E-01
 -1      3302 2.39041E-01 3.11110E-01 1.29093E-01-1.37617E-01 4.77060E-02-1.39556E-01
 -1      3303 3.85500E-01 2.67756E-01 1.84255E-01 5.09884E-02 2.86633E-02-1.96665E-01
 -1      3304 1.88076E-01 1.25405E+00 1.20226E-01 2.75314E-01 2.85539E-02-1.62675E-01
 -1      3305 3.14030E-01 2.12816E-01 3.03400E-01-1.54026E-01 9.75201E-02-5.37948E-01
 -1      3306 6.00976E-01 4.83343E-02 5.09286E-02-2.24687E-01 2.54094E-01-3.36098E-01
 -1      3307-5.39672E-01-7.81236E-01-1.95414E-01 6.51435E-01 1.57870E-01-9.39891E-02
 -1      3308-4.52536E-01-3.11971E-01-4.05775E-01 4.33204E-02 6.74136E-02-5.19434E-01
 -1      3309 4.80898E-01 4.40146E-01 7.01453E-01 6.91570E-02-1.65583E-01-6.67760E-01
 -1      3310-6.44759E-01-3.12759E-01-3.90081E-01 4.91602E-03 3.77618E-02-4.90682E-01
 -1      3311-3.04614E-01-9.66029E-01-9.67186E-01 2.10308E-01 2.89696E-01-3.44297E-01
 -1      3312-3.14462E-01-7.20790E-01-5.67684E-01 1.84028E-02 1.30762E-01-2.79937E-01
 -1      3313-2.88744E-01-8.77062E-01-2.55691E-01 4.12665E-01 2.04007E-01-2.14811E-01
 -1      3314 6.79161E-01 8.50226E-01 1.68641E-01-6.57309E-01 1.29422E-01-1.16755E-01
 -1      3315 3.85536E-01 1.11334E-01 3.83686E-01-7.93409E-02 8.46781E-02-4.95107E-01
 -1      3316-3.02967E-01-5.77786E-01-2.57334E-01-2.39580E-01-1.78620E-01-2.55849E-01
 -1      3317 9.76417E-02 1.79169E+00 1.92765E-01 1.38403E-01-2.56147E-02-8.52037E-02
 -1      3318 1.72461E-02-3.69071E-02-9.28007E-03-8.80794E-02 6.16471E-02-1.73679E-01
 -1      3319-2.87867E-01-1.43008E+00-1.09651E-01 2.89969E-01 4.49283E-02-7.27121E-02
 -1      3320-2.91690E-01-9.86605E-01-3.77342E-01 2.28905E-01 1.19916E-01-1.33017E-01
 -1      3321 4.98540E-01 8.88418E-01 8.47701E-01-4.71164E-02-7.46680E-02-4.10709E-01
 -1      3322-5.32430E-01-1.21220E-01-1.70399E-01-2.72876E-01-2.89888E-01-3.09687E-01
 -1      3323-2.68331E-01-1.86929E-01-8.03050E-02-5.82947E-02 1.07421E-02-1.94548E-01
 -1      3324 3.65500E-01 5.09522E-01 3.53854E-01 2.28058E-01-7.47927E-02-3.52579E-01
 -1      3325 7.04612E-02 2.36649E-02-2.69030E-02 2.57454E-02 8.93307E-02-6.05681E-01
 -1      3326 1.54561E-02-2.54969E-01-1.43886E-01-5.01641E-02 1.31144E-01-1.96401E-01
 -1      3327 4.99253E-01 6.17463E-01 4.73688E-01-3.90240E-01 3.58398E-01-3.43121E-01
 -1      3328-3.95134E-01-2.58154E-01-2.09134E-01-2.65479E-01-3.19511E-01-4.62991E-01
 -1      3329 2.63720E-01 6.01040E-01 2.28785E-01 3.66175E-01-2.64611E-01-2.01768E-01
 -1      3330 3.52664E-01 1.54616E-01 3.13035E-01-1.38510E-01 2.34365E-01-5.05563E-01
 -1      3331 2.53898E-01 7.96962E-01 5.77474E-01 4.10721E-02-1.28323E-01-2.75237E-01
 -1      3332 1.09677E-01-1.28648E-01 2.24962E-02 5.04575E-02-9.48062E-02-4.70530E-01
 -1      3333-5.47986E-01-5.94619E-01-2.58044E-01 4.60103E-01 2.43450E-01-3.41758E-01
 -1      3334-3.67521E-01-3.95231E-01 3.70558E-03-2.38603E-01-1.70048E-02-1.72398E-01
 -1      3335-1.48018E-04-3.05700E-01-2.61544E-01-4.87100E-02 2.23382E-01-3.32369E-01
 -1      3336 3.62141E-01 2.83425E-01 4.28491E-01-8.66942E-02 1.13388E-01-5.21443E-01
 -1      3337 9.91493E-03-5.05508E-02 1.40262E-02 2.02421E-01-7.07357E-03-7.81735E-02
 -1      3338-3.27303E-01-3.86999E-02-3.24719E-01 8.22806E-04-5.89526E-02-6.51434E-01
 -1      3339 2.47187E-01 1.01647E+00 8.31195E-01-1.03685E-01-6.78351E-02-2.80619E-01
 -1      3340-2.42775E-01 1.66044E-02-3.52409E-02-6.33265E-02-7.47491E-02-5.04334E-01
 -1      3341-3.73527E-01-6.25132E-01-2.36152E-01 4.49819E-01 2.72827E-01-1.89710E-01
 -1      3342 4.82703E-01 5.22776E-02 2.25065E-01-1.00636E-01-9.73193E-02-6.28749E-01
 -1      3343 5.66352E-01 2.72576E-01 3.11678E-01-8.10613E-02 3.39008E-02-7.42197E-01
 -1      3344 4.15727E-01 1.30838E-02 1.93707E-01-9.99623E-03-2.99004E-01-8.37303E-01
 -1      3345-5.30506E-01-5.80185E-01-5.26104E-01 2.88519E-01 2.83552E-01-3.87559E-01
 -1      3346-5.53803E-01-1.80968E-01-2.36017E-01-2.37640E-01-2.87548E-01-4.60180E-01
 -1      3347 1.66128E-01 1.76648E+00 1.48537E-01 8.23604E-02-1.06770E-01-1.02600E-01
 -1      3348 9.53718E-01 6.17309E-01 3.90028E-01 7.33077E-02 4.43562E-02-3.13550E-01
 -1      3349 5.16091E-01 6.76298E-01 3.05632E-01-5.49322E-01 2.75273E-01-2.70707E-01
 -1      3350 4.64276E-01 1.07266E+00 2.77476E-01 3.71680E-01-1.38475E-01-2.66778E-01
 -1      3351 7.29210E-01 3.24448E-01 4.11422E-02-1.90432E-01 7.01032E-02-4.44155E-01
 -1      3352 1.97735E-01 1.42221E-01-3.86466E-02 8.08456E-02-5.36804E-02-1.17421E-01
 -1      3353-2.60850E-01-3.68580E-01-2.97840E-01 1.16202E-01 1.07973E-01-2.28092E-01
 -1      3354-2.32631E-01 3.85923E-02-2.34098E-02-2.40886E-01-2.22467E-01-2.98404E-01
 -1      3355-4.98883E-01-5.10177E-01-6.26371E-01 3.36233E-01 3.16664E-01-4.10125E-01
 -1      3356-3.50350E-01-6.90513E-01-3.48818E-01 2.68588E-01 1.51045E-01-2.94219E-01
 -1      3357 3.49109E-01 6.46760E-02 2.30147E-01-4.02399E-03 1.22581E-01-7.36359E-01
 -1      3358-1.08707E-01-7.43407E-01-3.19196E-01-7.49373E-02-8.52984E-02-2.22859E-01
 -1      3359 1.24805E+00 9.11711E-01 6.31999E-01 6.04772E-02-9.34555E-03-2.86029E-01
 -1      3360 4.29557E-01 4.90463E-01 3.04235E-01 2.64219E-01-7.53477E-02-2.73116E-01
 -1      3361 5.16148E-01 1.14617E-01 1.81278E-01-1.83940E-01 2.98293E-01-5.12720E-01
 -1      3362-2.25186E-01-4.90256E-01-4.23861E-01 3.02270E-01 1.92931E-01-2.80043E-01
 -1      3363-5.82860E-01-1.50903E-01-2.96481E-01 2.05735E-01 3.25633E-01-5.53521E-01
 -1      3364 3.58644E-01 6.65436E-01 4.98756E-01-2.37034E-01 2.15641E-01-3.22026E-01
 -1      3365-4.67079E-01-7.97553E-01-2.54265E-01-2.74289E-01-8.54837E-02-2.09846E-01
 -1      3366-3.70415E-01-9.31460E-01-1.55929E-01 4.25452E-01 1.32630E-01-1.20554E-01
 -1      3367-1.27563E-01-6.45349E-01-2.51464E-01 6.24397E-02-2.21653E-01-2.33923E-01
 -1      3368-1.22062E-01-1.57556E+00-1.48579E-01 1.64274E-01 8.21084E-02-1.23956E-01
 -1      3369-1.57259E-01-1.75221E-01-1.56011E-01-2.05693E-02 2.27064E-02-6.09372E-01
 -1      3370-1.52214E-01-7.89440E-01-4.71593E-01-2.75911E-01-1.85146E-01-1.65144E-01
 -1      3371-1.19073E-01-8.44880E-02-8.99305E-03 3.38995E-03-4.03272E-02-1.12238E-01
 -1      3372 4.05643E-01 2.64893E-01 3.22935E-01-1.52280E-02-2.65102E-02-4.98709E-01
 -1      3373-5.35172E-01-2.41414E-01 5.21894E-02-4.31271E-02 5.24095E-02-2.05481E-01
 -1      3374 4.86350E-01 1.50806E+00 4.19571E-01 4.51156E-01 3.77495E-02-1.56473E-01
 -1      3375-6.26493E-01-3.45361E-01-3.06439E-01-1.95730E-01-1.06588E-01-4.30463E-01
 -1      3376 7.60091E-01 5.83560E-01 1.30151E-01 3.22699E-01-7.08282E-02-2.64336E-01
 -1      3377-2.97837E-01-2.08139E-01-1.39460E-01-1.65251E-01-1.51476E-03-5.72204E-01
 -1      3378 4.30917E-01 1.91975E-02 3.76695E-02 2.84758E-01-9.08592E-02-1.79915E-01
 -1      3379-3.14737E-01-2.00542E-01-1.97986E-01-2.37867E-01-2.81007E-01-4.58212E-01
 -1      3380 2.88392E-01 6.96534E-01 2.71677E-01 2.44056E-01-1.24713E-01-2.19196E-01
 -1      3381-1.66089E-01 2.01448E-01-3.14744E-02-7.26102E-02 2.35927E-02-1.88468E-01
 -1      3382 4.55110E-01 1.99003E-01 3.94968E-03 2.73160E-01-2.00335E-01-3.80136E-01
 -1      3383 4.92275E-01 1.98642E-01 9.16240E-03-1.07252E-01 8.78931E-02-2.34384E-01
 -1      3384-2.02021E-01-8.57204E-01-4.82230E-01-7.44878E-02 7.95972E-02-2.17067E-01
 -1      3385-5.37893E-01-3.24225E-01-2.91168E-01 1.73542E-01 1.43183E-01-4.34189E-01
 -1      3386 3.25316E-01 1.08745E-01-9.45796E-02 1.59337E-01 5.88628E-03-2.96646E-01
 -1      3387 5.15656E-01 1.81458E-02 1.29767E-01 1.08150E-01 9.36388E-02-4.80472E-01
 -1      3388-2.45954E-01 3.12414E-02 1.12475E-01 7.59355E-02 1.40356E-01-5.70867E-01
 -1      3389-1.34452E-01-2.71951E-02-9.70879E-02 1.01256E-01-5.95508E-02-7.05943E-01
 -1      3390-4.18318E-01-1.30168E-01 1.68453E-02 5.61605E-03-2.14314E-02-2.34217E-01
 -1      3391 3.14020E-01 2.47295E-01 6.08205E-02 1.54411E-01-4.87442E-02-4.93646E-01
 -1      3392-1.83777E-01-1.72196E-01-1.27012E-01 1.04681E-01 5.91772E-02-4.47508E-01
 -1      3393-4.41641E-01-3.00588E-01-4.46865E-01 1.07916E-01 1.81560E-01-5.52663E-01
 -1      3394 2.20225E-01 6.38160E-01 2.89354E-01-4.22852E-01 2.70460E-01-1.74092E-01
 -1      3395-3.66747E-01-4.87619E-01-3.32672E-02 4.35544E-01 5.72365E-02-9.31018E-02
 -1      3396 4.59302E-01-1.20111E-01 1.64537E-01-1.65874E-01-1.03639E-01-4.04673E-01
 -1      3397-8.05485E-01-4.96925E-01-2.51330E-01-1.14874E-01-3.74350E-03-3.04443E-01
 -1      3398-2.95118E-01-1.40325E+00-3.58778E-01-1.57136E-01-2.21692E-02-1.24311E-01
 -1      3399 4.15065E-01 3.38616E-01 3.63471E-01-2.23351E-01 1.60090E-01-4.39923E-01
 -1      3400-2.80089E-01-2.16306E-02-2.28962E-02 2.55193E-01-6.00123E-02-1.53778E-01
 -1      3401-2.47315E-01-1.70878E-01-2.46436E-01-2.56389E-02 4.58540E-02-6.23666E-01
 -1      3402-1.04220E-01-1.13932E-01-4.21045E-03 1.42420E-02-3.50037E-02-7.24965E-02
 -1      3403-2.42464E-01-8.59061E-01-6.22106E-01 6.23231E-02 2.85594E-02-1.42059E-01
 -1      3404-4.13438E-01-1.35730E-01-1.76151E-01-1.90069E-01-2.64804E-01-4.16125E-01
 -1      3405-3.13634E-01-1.19490E+00-1.42738E-01-2.82442E-01-4.11184E-02-1.15641E-01
 -1      3406 4.51354E-01 4.65380E-01 5.17792E-01 1.79031E-01-8.31773E-02-4.15389E-01
 -1      3407 4.54775E-01 7.92059E-02 4.05123E-01-1.19706E-01 3.21528E-01-5.64662E-01
 -1      3408 5.02608E-01 3.66786E-01 5.33367E-01-9.19125E-02 5.26445E-02-5.55758E-01
 -1      3409-2.13794E-01-1.90785E-01-1.18448E-01 1.86731E-01 5.18531E-02-7.85401E-01
 -1      3410-3.85109E-01 1.16580E-02-1.18169E-01-1.36004E-02 1.66515E-01-6.40765E-01
 -1      3411 1.77056E-01 1.32891E-01 1.87088E-01 2.81616E-02 5.22178E-02-6.26108E-01
 -1      3412 3.64226E-01 5.54444E-01 6.03567E-01-2.28340E-01 1.69759E-01-4.48067E-01
 -1      3413-4.61316E-01-2.55503E-01-1.41497E-01-2.16374E-01-1.78641E-01-4.72712E-01
 -1      3414-3.42396E-01-7.23277E-02-1.06064E-01-4.78177E-03-1.28792E-01-5.97497E-01
 -1      3415 1.44251E-01 7.95810E-02 1.60309E-01-5.18903E-03 7.17348E-02-6.15408E-01
 -1      3416-4.85331E-01-1.87325E-01-3.29121E-01-8.91122E-02 9.63256E-02-6.40543E-01
 -1      3417 2.96693E-01 1.29123E+00 2.07266E-01-4.44784E-01 1.71798E-01-7.70155E-02
 -1      3418-3.95182E-01-6.35143E-02-1.70474E-01-2.09941E-01-2.79689E-01-4.12612E-01
 -1      3419-1.55071E-01-3.67606E-01-2.80633E-01-1.46336E-01-1.74331E-01-3.58217E-01
 -1      3420-2.87278E-01-1.25972E+00-3.98445E-01-3.56085E-01-1.10023E-01-3.64115E-02
 -1      3421 2.20480E-01 1.53217E-01 2.51467E-01-1.02381E-01 4.61267E-02-4.63985E-01
 -1      3422 4.31919E-01 3.54894E-01 5.18053E-01 1.21166E-02-2.63465E-02-5.31560E-01
 -1      3423 3.74680E-01 5.55742E-01 1.39700E-01 5.38838E-01-2.39949E-01-1.55882E-01
 -1      3424-3.00557E-01-2.27253E-01-1.38124E-02 4.76499E-02 7.05533E-02-1.39516E-01
 -1      3425 2.86799E-01-4.02082E-02 1.17996E-01-2.56658E-01-2.11466E-01-9.27294E-02
 -1      3426 4.29926E-01 1.78721E+00 5.05305E-01 4.88935E-01-1.18944E-01-2.18322E-01
 -1      3427-1.46249E-01-2.11921E-02-7.03343E-02 1.34322E-02-9.51737E-02-6.60847E-01
 -1      3428 4.02474E-02-8.43892E-04 2.14782E-01-9.85764E-02-4.78016E-03-6.40553E-01
 -1      3429 4.62873E-01-5.67818E-02 9.58922E-03-2.87155E-01 1.09878E-01-1.64014E-01
 -1      3430-6.83399E-01-6.14465E-01-6.65714E-01-1.85371E-01-1.43927E-01-4.52679E-01
 -1      3431 4.49563E-01 2.30552E-01 1.62114E-01-2.03942E-01 1.10194E-01-5.03366E-01
 -1      3432-5.19906E-02-2.30428E-02 8.80225E-04-1.32296E-01-2.86508E-03-2.75076E-01
 -1      3433 7.22962E-02 9.23516E-01 1.61930E-01 1.05417E-01-1.47051E-02-1.73230E-01
 -1      3434-3.30657E-01-2.75622E-01 8.51067E-02-2.62806E-02 3.19254E-02-1.36834E-01
 -1      3435-5.48563E-01-6.41777E-01-2.66767E-01 4.51037E-01 3.10030E-01-2.49682E-01
 -1      3436-4.55713E-01-5.43125E-01-4.10386E-01 3.55863E-01 2.87887E-01-3.17470E-01
 -1      3437-4.48563E-01-3.47068E-01-3.76411E-01-1.22637E-01-1.00217E-01-5.37783E-01
 -1      3438-2.21410E-01-1.36449E+00-2.53884E-01 2.17302E-01 4.89355E-02-1.86261E-01
 -1      3439-5.88073E-01-2.16334E-01-3.24850E-01 2.20882E-01 3.01878E-01-5.33302E-01
 -1      3440-3.29940E-01-5.71123E-01-7.34351E-01-7.36720E-02-9.14390E-02-3.90591E-01
 -1      3441 2.49096E-01 7.71337E-01 4.54927E-01-9.00060E-02 1.36882E-01-2.02566E-01
 -1      3442 7.78209E-01 4.55563E-01 1.70890E-01-3.95359E-02-5.59192E-02-1.90097E-01
 -1      3443 3.46580E-01-1.40310E-01-1.07670E-01 4.68349E-01-1.69197E-01-1.49282E-01
 -1      3444 1.14592E-01 8.44483E-01 6.96770E-01 6.96366E-02 3.61117E-02-1.81220E-01
 -1      3445 1.50582E-02 6.10031E-02-2.80102E-02 8.38561E-02-1.61145E-01-7.30405E-01
 -1      3446 4.40882E-01 1.86812E-01 3.96950E-01-1.24734E-01 1.98216E-01-5.61433E-01
 -1      3447 8.12859E-02 2.84449E-01 3.16136E-02 1.80767E-01-3.42308E-02-8.49589E-02
 -1      3448-3.46284E-01-1.33797E+00-4.22424E-01-8.60488E-02 4.59589E-04-1.75858E-01
 -1      3449-4.82881E-01-1.93791E-01-1.11226E-01 1.15504E-01-5.63655E-02-3.07621E-01
 -1      3450 1.58712E-01-8.77673E-02-2.28337E-02-2.79137E-01 3.04077E-01-2.83685E-01
 -1      3451-5.59567E-01-5.50724E-01-4.77284E-01-4.16877E-01-3.49685E-01-3.71223E-01
 -1      3452-2.46530E-01-5.63547E-01-7.46305E-01 2.69564E-01 1.45842E-01-3.35244E-01
 -1      3453 1.46571E-01 6.93238E-01 3.26372E-01 3.04861E-02-5.15912E-02-1.68203E-01
 -1      3454 2.98753E-02 1.20607E-04-8.47697E-02 1.04308E-02-3.90873E-02-6.01578E-01
 -1      3455 3.23085E-01 4.16377E-02 2.45746E-01-2.71745E-01 3.53680E-01-3.66167E-01
 -1      3456 5.48879E-01 6.77888E-01 4.20629E-01-2.82704E-01 1.41805E-01-3.51285E-01
 -1      3457-8.03765E-01-4.38969E-01-2.84161E-01-3.30528E-03 5.04533E-02-3.70286E-01
 -1      3458-4.82499E-01 6.18170E-02-3.02845E-01-5.81273E-02 1.47904E-01-6.87920E-01
 -1      3459-3.09962E-01-8.95902E-01-2.77257E-01-1.95625E-01-4.33076E-02-1.63902E-01
 -1      3460-3.65294E-01-2.11092E-01-1.90732E-01-2.92809E-02 1.79639E-04-2.75034E-01
 -1      3461-1.72696E-01 1.49752E-01 1.29845E-01-3.14209E-01-2.90142E-01-2.38973E-01
 -1      3462 1.95335E-01 3.70980E-01 3.84628E-02 1.09294E-01-4.86879E-02-1.69643E-01
 -1      3463 1.95232E-01 6.69739E-02 3.33086E-02-1.80515E-02 6.84925E-02-2.81537E-02
 -1      3464 2.81757E-02-2.11650E-01-1.58296E-01 5.01685E-02-2.37150E-01-4.64050E-01
 -1      3465-2.87956E-01-3.90973E-01-3.34792E-01-1.11546E-01-1.20076E-01-5.02218E-01
 -1      3466-1.49612E-01-2.58250E-01-2.84985E-01-3.31425E-02-5.44745E-02-3.93459E-01
 -1      3467 3.78531E-01 2.34012E-01 2.24585E-01-1.57557E-01 1.12349E-01-4.85464E-01
 -1      3468 1.05733E-01 9.21344E-01 3.14495E-01 5.63832E-02-1.32624E-01-1.23451E-01
 -1      3469 5.12148E-01 5.26501E-01 6.61391E-01-1.13539E-01 9.90072E-02-4.43882E-01
 -1      3470-1.68826E-01 4.90261E-02 9.14700E-02-1.99638E-01-2.41528E-01-2.94365E-01
 -1      3471-2.37752E-01-2.84553E-01-1.41027E-01-1.07850E-01-1.06151E-01-6.92519E-01
 -1      3472-1.25847E+00-8.08606E-01-5.56629E-01-8.77362E-03 3.84339E-02-3.29673E-01
 -1      3473-2.68325E-01-1.37287E+00-2.24922E-01 4.87846E-01 7.18514E-02-8.81598E-02
 -1      3474 6.09012E-01 8.13480E-01 3.04218E-01 6.31985E-01-2.01435E-01-1.90980E-01
 -1      3475-2.63261E-01-7.93485E-01-1.50247E-01 4.00390E-01 2.05687E-01-1.77361E-01
 -1      3476-4.47663E-02-4.71618E-02 9.32659E-02-1.04207E-01-2.30279E-03-6.11585E-01
 -1      3477 1.41708E-01 7.07444E-02-3.40308E-02 6.90958E-02 9.62572E-02-6.17062E-01
 -1      3478-2.62870E-01-1.10919E+00-4.35546E-01-3.28026E-02 2.76404E-02-1.13507E-01
 -1      3479-1.95606E-01-1.02696E-01 2.45565E-02-2.40268E-01-1.12742E-02-2.91852E-01
 -1      3480 2.76176E-01 1.84745E-01 1.34535E-01 2.16034E-01-5.88172E-03-3.73041E-01
 -1      3481 3.65056E-01-4.93964E-02 2.67506E-01-1.34318E-02 1.56803E-01-6.37662E-01
 -1      3482 5.55352E-01 8.56603E-01 2.98893E-01-4.38840E-01 2.19471E-01-2.47085E-01
 -1      3483 3.13136E-01 2.24634E-01-3.58009E-03 1.02718E-01 7.67654E-03-1.91625E-01
 -1      3484-2.41674E-01-1.66492E-01-7.72568E-02-1.43439E-01 1.22325E-02-2.12867E-01
 -1      3485 2.93546E-01 3.84200E-01 2.51828E-01 9.89234E-02-9.07220E-02-3.90959E-01
 -1      3486-1.88031E-02-6.10418E-01-2.81649E-02-3.21594E-02 1.56132E-02-1.11731E-01
 -1      3487-3.28229E-01-4.42840E-02-2.37061E-01 1.03703E-04-1.16611E-01-7.12593E-01
 -1      3488 1.29994E-01-3.53659E-01-1.99435E-01-5.77266E-02 2.69968E-01-5.24002E-01
 -1      3489-2.27831E-01-3.78293E-01-3.13076E-01 9.32816E-02 1.21780E-01-5.11012E-01
 -1      3490 1.81173E-01 1.20367E-01 9.82259E-02 4.53222E-02 4.16306E-02-7.13916E-01
 -1      3491-1.80284E-01-1.26800E+00-2.22724E-01-8.45308E-02 3.76731E-03-3.37580E-02
 -1      3492-1.87964E-01-1.20437E+00-2.21447E-01-3.11669E-01-2.24323E-02-5.97607E-02
 -1      3493 1.74944E-01 1.24465E+00 5.32781E-01 2.82721E-02 1.10757E-02-1.29700E-01
 -1      3494-7.15342E-01-4.44423E-01-2.85591E-01-3.41450E-02 1.24893E-02-2.25854E-01
 -1      3495-3.62429E-01 4.56562E-02-8.29955E-02-1.14995E-01 1.56374E-01-6.56533E-01
 -1      3496 2.45670E-01 3.31749E-01 3.42804E-01 3.46115E-02-4.60896E-02-5.46348E-01
 -1      3497-1.35445E-01-1.28388E+00-5.66093E-02 2.97469E-01 4.14223E-02-7.13364E-02
 -1      3498-1.50996E-02-1.66110E-01-2.18881E-01-3.13346E-02 1.39020E-01-4.26934E-01
 -1      3499-2.91388E-01-1.22844E+00-4.49296E-01 4.07232E-01 1.97001E-01-9.32415E-02
 -1      3500 3.72267E-01-2.33785E-02 5.17814E-02 1.12941E-01 1.01842E-01-5.98522E-01
 -1      3501 5.55392E-01 5.25089E-01 7.32354E-02 2.22651E-01-3.01783E-02-2.86545E-01
 -1      3502-2.15162E-02-8.27427E-01-2.33406E-01-1.42602E-01-3.39772E-02-1.20382E-01
 -1      3503-7.70026E-01-3.43574E-01-1.55856E-01 1.14951E-01-1.69845E-02-2.72755E-01
 -1      3504 2.12375E-01 1.58793E+00 1.88586E-01 3.36476E-01-5.05424E-02-1.31093E-01
 -1      3505 2.51584E-01 1.44066E-01 8.20259E-02-2.10465E-01-7.52446E-02-2.02619E-01
 -1      3506-3.76312E-02-2.64241E-02-3.21250E-02-9.91746E-02-3.16448E-02-1.95856E-01
 -1      3507-7.59541E-01-4.99998E-01-2.40163E-01 1.32511E-01 1.45479E-02-1.84612E-01
 -1      3508-9.61941E-02-4.04542E-01 9.09909E-02 3.67654E-01 9.77774E-02-7.53431E-02
 -1      3509 3.92656E-01 5.33567E-01 4.75906E-01-1.67529E-01 1.32795E-01-3.72932E-01
 -1      3510 9.17343E-01 2.41680E-01 2.81911E-01 3.93941E-01-1.53280E-01-2.32580E-01
 -1      3511-4.60690E-01-3.18595E-01-2.41969E-01 7.01679E-02 5.99082E-02-4.92829E-01
 -1      3512 5.86836E-01 6.20101E-01 2.31826E-01 2.89489E-01-5.68534E-02-2.56162E-01
 -1      3513-4.24398E-01-4.47009E-01-1.52199E-02 9.70211E-02 2.62838E-02-1.52397E-01
 -1      3514-1.48360E-01-3.39774E-02-1.68948E-01 9.11424E-03 4.14085E-02-5.82815E-01
 -1      3515-8.16374E-01-2.85115E-01-1.95538E-01 2.50487E-01 1.56778E-01-4.94878E-01
 -1      3516 4.28413E-01 4.67146E-01 2.32657E-01 1.52862E-01-9.67963E-02-4.93836E-01
 -1      3517-3.25908E-01-1.24942E-01-2.46637E-01 7.66176E-02 1.15641E-01-3.93612E-01
 -1      3518-4.18699E-01-2.41318E-01-1.26766E-01 1.67288E-01 2.25553E-01-6.14228E-01
 -1      3519-4.97672E-01-1.42140E-01-2.90929E-01-2.50334E-01-2.74526E-01-4.21662E-01
 -1      3520-4.56905E-02-7.25962E-01-3.53085E-01-6.86739E-02 1.90690E-02-1.72760E-01
 -1      3521 6.04185E-02 4.74853E-02 1.26027E-01 2.02885E-01 2.08269E-01-1.98414E-01
 -1      3522-2.37943E-03 5.99444E-01 2.27119E-01 2.45045E-02 2.65875E-01-2.18242E-01
 -1      3523 4.40532E-01 4.39402E-01 7.48765E-01-1.47291E-01 1.00109E-01-4.70496E-01
 -1      3524 1.36309E-01 6.08095E-02-1.95215E-02-9.05698E-02-3.97603E-02-5.84609E-01
 -1      3525-3.16944E-01-7.59989E-02-4.23858E-01 8.91844E-02 9.67033E-02-5.61542E-01
 -1      3526-7.31237E-02-8.07817E-01-2.33439E-01 6.56401E-02-2.99854E-01-2.42807E-01
 -1      3527-2.24268E-01-4.36904E-02-5.86634E-02-9.98787E-02 8.41649E-02-1.53767E-01
 -1      3528-4.56840E-01-2.77118E-01-1.44394E-01-8.61151E-02-5.05561E-02-2.31032E-01
 -1      3529-3.63743E-01-7.54280E-01-5.52940E-01-1.40200E-01-1.56481E-02-2.84714E-01
 -1      3530-4.23143E-01-2.90408E-01-3.54348E-01 1.19271E-01 1.88304E-01-5.57714E-01
 -1      3531-5.28721E-01-6.67979E-01-1.32600E-01-5.07138E-01-7.04425E-02-1.25320E-01
 -1      3532-2.44466E-01-1.40460E+00-2.63000E-01 3.76332E-01 1.54389E-01-1.34839E-01
 -1      3533-1.22584E-01-9.08548E-02-2.22918E-03 5.42107E-03-2.57587E-02 7.22920E-03
 -1      3534 1.45095E-01 4.92681E-01 2.24242E-01 3.19192E-01-2.74279E-01-2.14600E-01
 -1      3535-4.97289E-01-3.17307E-01-3.25016E-01-1.52311E-01-3.27349E-02-3.88155E-01
 -1      3536-9.07955E-02 8.84924E-02 4.01329E-02-1.95169E-01 3.95724E-02-8.91602E-02
 -1      3537-2.91518E-01-5.28983E-01-2.03295E-01-3.80309E-01-1.60228E-01-1.67307E-01
 -1      3538-6.48958E-01-5.41069E-01-3.18045E-01-4.63242E-01-3.74153E-01-2.79535E-01
 -1      3539-3.20585E-01-2.27664E-01-3.68322E-01 7.05843E-02 6.89003E-02-6.42441E-01
 -1      3540 1.18495E-01-3.70371E-01-3.10349E-02 4.24270E-02-2.73454E-01-5.21790E-01
 -1      3541 2.58863E-01-2.61791E-01-7.76217E-02-3.89846E-02-2.97060E-01-7.57111E-01
 -1      3542 3.96396E-01-5.22332E-02 1.68809E-01-1.38813E-02-3.12261E-01-8.51986E-01
 -1      3543 1.62760E-01-2.43001E-01 4.83891E-02 5.25639E-02-2.95916E-01-5.60689E-01
 -1      3544-7.83070E-01-4.51812E-01-2.06650E-01-2.05653E-01-3.11598E-02-3.35289E-01
 -1      3545 2.58374E-01 1.60742E-01 1.13816E-01-2.14728E-01 1.28258E-02-3.64294E-01
 -1      3546-1.83020E-01-3.98092E-02-1.75517E-01-3.88636E-02 2.30154E-02-7.54293E-01
 -1      3547-9.93337E-01-7.05855E-01-5.10514E-01 3.83296E-02-1.23862E-02-2.60543E-01
 -1      3548-4.59796E-01-4.73742E-01-4.27069E-01-3.15566E-01-3.21835E-01-3.39435E-01
 -1      3549 6.28111E-01 2.99094E-01-5.17009E-02-1.06486E-01-3.09370E-02-1.80047E-01
 -1      3550-1.98454E-01-1.16054E+00-1.01325E-01-2.31309E-01 2.93792E-02-1.17289E-01
 -1      3551-2.42221E-01-1.47568E+00-1.95279E-01 4.93010E-01 4.09468E-02-6.31549E-02
 -1      3552-4.41748E-01-4.87757E-01-6.10468E-01-1.83527E-01-1.47574E-01-4.99311E-01
 -1      3553 5.00222E-01 2.75512E-01 8.58793E-03-1.70662E-02-3.90918E-02-2.44660E-01
 -1      3554 3.14677E-01 1.43396E+00 3.29624E-01 3.49571E-01-1.06598E-01 1.79872E-03
 -1      3555-2.64388E-01-4.37228E-03-2.64683E-02 2.95178E-01 3.28516E-01-2.69177E-01
 -1      3556 5.43645E-01 7.81356E-02 2.03837E-01-1.48189E-01-1.24990E-01-5.25984E-01
 -1      3557 3.62683E-01 4.04319E-01 6.52693E-01-3.98739E-01 3.13165E-01-5.15755E-01
 -1      3558 9.86711E-01 7.33388E-01 4.75634E-01 8.15884E-02 1.73987E-02-2.34617E-01
 -1      3559-6.54701E-01-3.14825E-01-2.79541E-01 1.42141E-01 2.34302E-01-5.89866E-01
 -1      3560-4.01728E-01-6.80251E-01-7.16358E-02-2.40177E-01-4.34413E-02-1.13486E-01
 -1      3561-7.66120E-01-8.50020E-01-3.03464E-01 6.36172E-01 2.61396E-01-1.75116E-01
 -1      3562-3.81589E-01-5.39622E-01-9.96086E-02-3.79125E-01-9.79407E-02-1.90484E-01
 -1      3563 3.97191E-01 7.12139E-01 3.56586E-01-4.88732E-01 3.11015E-01-2.55193E-01
 -1      3564 6.48675E-01 4.79713E-01 3.66272E-01 1.07243E-01 3.30013E-02-2.19568E-01
 -1      3565-5.14990E-01-8.66104E-01-3.54605E-01-3.40573E-01-1.74663E-01-1.94309E-01
 -1      3566-6.73218E-01-7.85888E-01-2.87797E-01 5.90235E-01 2.56977E-01-2.36292E-01
 -1      3567 1.60777E-01 2.03442E-01 2.54109E-01-4.92256E-02 4.83024E-02-5.67333E-01
 -1      3568 8.91704E-02-8.21558E-02-2.31224E-01 4.74843E-02-2.03262E-01-4.83635E-01
 -1      3569-8.36164E-01-5.32336E-01-3.97117E-01 1.73441E-01-3.67768E-02-2.31594E-01
 -1      3570-2.70129E-01-5.36938E-01-5.93298E-01 3.06783E-01 2.17106E-01-3.08420E-01
 -1      3571-3.75319E-01-8.95873E-01-1.80684E-01-3.02755E-01-1.39320E-01-1.85564E-01
 -1      3572 4.61116E-01 7.39047E-01 5.12411E-01-2.93161E-01 2.26341E-01-3.79496E-01
 -1      3573-2.90277E-01 1.77777E-01-1.26628E-02-3.48483E-01-2.55222E-01-2.45228E-01
 -1      3574-5.37491E-01-6.57497E-01 6.07263E-02 6.40453E-01 1.63149E-01-1.02378E-01
 -1      3575-3.51395E-01-4.99846E-01-5.97705E-01 3.28800E-01 2.76281E-01-4.27975E-01
 -1      3576 2.84400E-01 3.70738E-01-2.53652E-02 2.65188E-02 1.10164E-02-1.41163E-01
 -1      3577-3.74428E-02 4.48728E-01 1.78358E-01-5.14686E-02-2.20354E-01-1.92720E-01
 -1      3578-2.94921E-01-7.06730E-02-5.25619E-02 2.97945E-01 3.10438E-01-3.51025E-01
 -1      3579 8.55469E-01 6.56216E-01 4.54312E-01 2.30403E-01 3.68689E-03-3.58533E-01
 -1      3580-2.80352E-01-1.16047E+00-2.77246E-01 3.77478E-01 5.78214E-02-2.13919E-01
 -1      3581-8.96752E-01-9.00094E-01-2.03610E-01-3.90386E-01-1.46014E-01-1.80506E-01
 -1      3582 4.55462E-02 5.46442E-02 7.77390E-02 2.16636E-01-1.15352E-02-2.02252E-01
 -1      3583-4.05801E-01-1.77383E-01-3.29494E-01-1.23868E-01-1.35819E-01-4.62051E-01
 -1      3584 3.84995E-01 8.84796E-01 3.61392E-01-4.00815E-01 2.07424E-01-2.39590E-01
 -1      3585 8.97195E-01 6.10509E-01 1.93161E-01-1.71120E-01 3.66884E-02-2.44498E-01
 -1      3586 1.02770E+00 7.66885E-01 4.04941E-01-1.09363E-01 3.30863E-02-3.02311E-01
 -1      3587 5.51724E-01 8.67559E-01 4.45230E-01-4.37672E-01 2.23273E-01-2.38869E-01
 -1      3588 1.22941E-01 6.51315E-02 2.33310E-01-6.59370E-02-7.88168E-03-7.14845E-01
 -1      3589 3.99804E-01 5.62689E-01 6.57270E-02 3.76237E-01-2.19035E-02-1.14830E-01
 -1      3590 4.11904E-01 1.18380E+00 2.12648E-01 4.28196E-01-1.55253E-01-2.17808E-01
 -1      3591 2.64414E-01 6.00775E-01 1.66479E-01 4.10194E-01-2.00578E-01-1.43203E-01
 -1      3592-2.79181E-01-3.36986E-01-2.88573E-01-1.17729E-01-1.24989E-01-4.59437E-01
 -1      3593 3.25003E-01 3.96765E-01 2.42647E-01-1.55711E-01 9.67130E-02-4.50395E-01
 -1      3594-2.96372E-01-7.09010E-01-7.09265E-01-8.01418E-02 2.48545E-04-3.95975E-01
 -1      3595 9.53075E-01 5.70640E-01 2.63566E-01 1.46772E-01-4.95258E-02-3.15929E-01
 -1      3596-5.05007E-01-6.19271E-01-7.72761E-01-3.68504E-01-3.26940E-01-5.35052E-01
 -1      3597 3.71982E-01 5.67408E-01 7.91691E-02-3.51680E-01 4.37510E-02-1.38404E-01
 -1      3598 1.21580E+00 8.78908E-01 7.08587E-01 1.30282E-02-4.55732E-03-3.14593E-01
 -1      3599 2.93104E-01 4.95897E-02 6.10220E-02 1.02428E-01 1.04090E-01-6.39880E-01
 -1      3600-1.76107E-02-3.98831E-01-4.19666E-02 2.54960E-01 1.55149E-01-1.00845E-01
 -1      3601-1.18609E-01-1.04245E-01 1.55610E-02 1.00853E-01 4.35236E-02-9.14899E-02
 -1      3602 5.56953E-01 7.59339E-01 7.12971E-02-3.40622E-01 1.85719E-02-1.80650E-01
 -1      3603 4.86721E-01 8.10275E-01 7.34426E-01-8.55985E-02 6.34728E-02-4.19527E-01
 -1      3604 2.60952E-01 1.13206E+00 5.04371E-01-1.12982E-01 1.42192E-01-1.03218E-01
 -1      3605-2.71096E-02-9.98107E-01-1.73321E-01 1.32895E-01 6.99512E-02-1.04749E-01
 -1      3606 2.02740E-01 6.21600E-02 5.77922E-02-2.20283E-02-6.86390E-02-7.38095E-01
 -1      3607-3.54905E-01-9.56389E-01-3.87482E-01 3.67481E-01 2.00653E-01-2.12603E-01
 -1      3608-7.30397E-01-8.64356E-01-3.89464E-01-5.09195E-01-2.55884E-01-2.17589E-01
 -1      3609-1.56731E-01 2.90683E-01-1.35349E-01-1.53802E-01 5.62996E-02-7.35560E-02
 -1      3610-1.12515E-01-1.53771E+00-1.94828E-01 1.71687E-01 8.93385E-02-7.68099E-02
 -1      3611 3.58111E-01 4.53711E-01 1.71118E-01-2.03681E-01 7.47191E-02-4.04205E-01
 -1      3612 4.05125E-01 1.33133E+00 3.85768E-01-4.87696E-01 1.43242E-01-1.82623E-01
 -1      3613 8.08735E-01 8.44620E-01 2.13922E-01-7.15690E-01 1.62672E-01-1.60732E-01
 -1      3614 6.92813E-01 4.77864E-01 6.48568E-01-2.21104E-02-3.71836E-02-6.11009E-01
 -1      3615-1.45503E-01-3.37471E-01-5.11382E-01-2.25623E-01-9.09860E-02-3.22649E-01
 -1      3616-8.53747E-01-4.26526E-01-2.28012E-01-9.20939E-02-6.97563E-02-3.50969E-01
 -1      3617 7.08748E-01 4.01816E-01 2.87276E-01-1.45422E-01 2.25726E-02-4.92133E-01
 -1      3618 5.10541E-01 2.76557E-01 4.30926E-01 1.48591E-01-2.21512E-01-5.19819E-01
 -1      3619 5.53933E-01 6.76020E-01 5.56747E-02 3.39613E-01-2.67493E-02-1.74244E-01
 -1      3620 2.26371E-01 4.73005E-01 1.37563E-03 3.47377E-01-1.16450E-02-8.92063E-02
 -1      3621-1.27795E-01-5.61886E-02 6.35062E-02 6.47826E-02 3.91868E-02 1.24600E-02
 -1      3622 3.79550E-01-1.03015E-01 2.01133E-01-5.47611E-02-1.56467E-01-6.86984E-01
 -1      3623-4.23221E-01-2.37092E-01-8.57294E-02-5.74417E-02-4.24925E-02-1.68794E-01
 -1      3624 6.70838E-01 4.08360E-01 1.97747E-01-2.00572E-01 1.90747E-02-2.16348E-01
 -1      3625-4.99919E-01-6.93255E-01-1.27805E-01-5.02482E-01-2.08907E-01-1.17980E-01
 -1      3626 1.85207E-01-5.99660E-01-8.97873E-02-5.76955E-02-2.01542E-01-3.04532E-01
 -1      3627-2.93444E-01-1.64478E-01-5.98180E-02 2.59010E-01 3.85231E-02-2.16175E-01
 -1      3628-5.68074E-01-1.15379E+00-2.80338E-01 4.78953E-01 9.79912E-02-1.70358E-01
 -1      3629 3.41399E-01 1.99588E-01 9.26763E-02-1.14628E-01-1.16723E-02-1.00419E-01
 -1      3630 2.86046E-01-9.59271E-02-4.02736E-02-1.24589E-03 1.82245E-01-6.66441E-01
 -1      3631 6.89826E-01 8.38480E-01 1.34827E-01 6.69255E-01-9.81519E-02-1.17932E-01
 -1      3632 8.10919E-01 8.45702E-01 3.04413E-01-6.85643E-01 2.41452E-01-2.47731E-01
 -1      3633-4.76921E-01-2.75403E-01-4.78774E-01 6.07891E-02 7.56951E-02-5.54201E-01
 -1      3634-4.66914E-01-4.42052E-01-1.77478E-01 2.11617E-01 4.17688E-03-3.47522E-01
 -1      3635 1.35040E+00 8.49692E-01 3.83392E-01-9.62818E-02 2.90702E-02-2.65555E-01
 -1      3636 6.34018E-01 4.37385E-01 1.66150E-01-2.75125E-01 4.75923E-02-2.18369E-01
 -1      3637-1.30365E+00-9.56680E-01-6.49847E-01 4.60872E-02 1.84549E-02-3.40420E-01
 -1      3638 7.39449E-01 6.81991E-01 4.10355E-01-3.52545E-01 1.59044E-01-3.31904E-01
 -1      3639-2.45252E-02-4.40317E-01-1.76920E-01 1.12250E-01 6.48390E-02-2.96177E-01
 -1      3640-3.41560E-01 3.67757E-02 9.19182E-03 1.12518E-01-5.74943E-02-4.21262E-01
 -1      3641-1.11572E-01-7.53903E-02 6.05701E-02 6.86951E-02 3.51977E-02-3.91008E-02
 -1      3642-1.25724E+00-8.26433E-01-6.27349E-01 1.39347E-02 9.26014E-03-3.48782E-01
 -1      3643 1.27136E-01 4.16335E-02 3.74171E-02-8.22581E-04 5.95599E-02-1.20402E-01
 -1      3644 5.86669E-01 8.17869E-01 7.83789E-01 7.08873E-02-6.94855E-02-3.38070E-01
 -1      3645-3.25704E-01-4.06626E-01-4.11287E-01 1.60846E-01 1.30271E-01-6.52940E-01
 -1      3646 1.60690E-01 6.07995E-01 3.06571E-01 3.83917E-01-3.17693E-01-2.49998E-01
 -1      3647-1.57392E-01-1.49528E+00-1.59130E-01-1.45058E-01-5.24201E-02-9.87049E-02
 -1      3648-2.81460E-01 1.89528E-01 3.24309E-01 2.10646E-02-2.12556E-01-5.63192E-01
 -1      3649 3.80360E-01 1.62237E+00 2.38581E-01 5.58754E-01 4.87830E-02-1.18652E-01
 -1      3650 4.34223E-02-2.79332E-01-1.43625E-01-2.37411E-01 1.26568E-01-7.63026E-02
 -1      3651-2.13060E-01 3.92047E-01 1.45634E-01-1.57239E-02-2.34970E-01-3.74102E-01
 -1      3652-5.89498E-01 2.06818E-01-1.84548E-01 1.06332E-01-1.25229E-01-3.80442E-01
 -1      3653-6.14890E-01-3.95110E-01-2.38717E-01 2.07407E-01 1.67034E-02-2.39948E-01
 -1      3654-4.92443E-01-6.04639E-01-1.42279E-01-5.05757E-01-2.56941E-01-1.89695E-01
 -1      3655-8.68974E-01-4.00003E-01-2.80914E-01 1.31099E-01 2.53981E-02-4.16454E-01
 -1      3656 3.92953E-01 7.32678E-01 3.43575E-01 2.56656E-01-1.40349E-01-2.40886E-01
 -1      3657-8.13722E-01-2.53680E-01 1.97854E-02 2.69421E-01 8.66000E-02-3.90538E-01
 -1      3658-1.52460E-01-7.27065E-02-5.74824E-03 9.80706E-03 5.52293E-02 1.67271E-02
 -1      3659 4.97994E-01 5.29957E-03 3.20559E-02-3.79692E-01 2.45014E-01-2.22222E-01
 -1      3660 8.76409E-03-6.90878E-01-3.00986E-01-1.78474E-02 3.37627E-01-2.38141E-01
 -1      3661 6.25235E-01 8.09712E-01 1.07732E+00 1.01962E-01 3.11906E-03-4.99677E-01
 -1      3662-5.28392E-01 4.67152E-03-1.14780E-02 2.82182E-01 7.92374E-02-1.89051E-01
 -1      3663 9.54886E-03 4.06269E-01 1.61567E-01 6.62602E-02 2.39841E-01-2.72313E-01
 -1      3664-5.43795E-01-1.32886E-01-1.48212E-01 1.68612E-01 2.29025E-03-2.27766E-01
 -1      3665-8.15761E-01-7.22996E-01-1.22157E-01 6.71025E-01 1.12352E-01-8.46275E-02
 -1      3666-1.07404E+00-9.25349E-01-4.82234E-01-4.28860E-01-1.55225E-01-2.26907E-01
 -1      3667 5.80697E-01 5.39342E-01 1.01447E-01-2.55307E-01 4.24164E-02-2.29100E-01
 -1      3668 3.33896E-01 2.28804E-01 1.82069E-01 1.47765E-01-5.08493E-03-2.80513E-01
 -1      3669-2.53335E-01 3.18761E-01-6.16941E-02 3.04504E-02 2.42172E-01-4.83698E-01
 -1      3670 8.09448E-01 6.79417E-01 4.96369E-01-2.38174E-01 1.01333E-01-3.20052E-01
 -1      3671 1.20780E+00 5.28811E-01 2.47444E-01-1.21716E-01-1.22099E-02-3.26844E-01
 -1      3672-1.03113E+00-1.73267E-01-1.90938E-01 2.99818E-01 1.41184E-01-3.37703E-01
 -1      3673-5.61610E-02-1.24765E+00-3.47104E-01-2.18361E-01-6.06562E-02-3.55065E-02
 -1      3674-4.12281E-01 1.53705E-02-3.96524E-02-2.33033E-01-5.51907E-02-1.48866E-01
 -1      3675-2.87336E-01-1.21009E+00-3.18089E-01-2.96127E-01 8.98267E-03-1.09601E-01
 -1      3676 4.90610E-02 4.85894E-02 1.79640E-02 2.36950E-01-1.20959E-02-2.88938E-01
 -1      3677-9.13803E-01-5.69032E-01-2.31390E-01 2.98150E-01 4.04931E-02-3.21397E-01
 -1      3678-2.37537E-01-3.21534E-01-1.39005E-01-1.10477E-01 1.10080E-02-9.54582E-02
 -1      3679-2.78262E-01-6.11609E-01-4.12614E-02-4.72193E-01-6.01021E-02-1.18184E-01
 -1      3680 1.00423E+00 1.66043E-01 1.82846E-01-2.48211E-01 1.07523E-01-2.66464E-01
 -1      3681-5.49011E-01-1.03486E+00-1.24765E-01 4.83499E-01 1.25668E-01-2.21998E-01
 -1      3682 3.45818E-02 2.01568E-02 2.17027E-03-1.43795E-01-2.32346E-02-8.66914E-02
 -1      3683 6.29462E-01 5.17430E-01 7.09776E-01 2.16049E-02 1.75571E-02-5.68117E-01
 -1      3684-1.00581E+00-6.87571E-01-2.44184E-01-1.67591E-01-2.05342E-02-1.79322E-01
 -1      3685 4.69701E-01 2.80645E-01 3.05747E-01 7.48203E-02-3.65471E-02-4.38282E-01
 -1      3686-1.23181E-01-7.81045E-02-7.89626E-04 2.47326E-02 4.65697E-02-1.09317E-01
 -1      3687-3.83021E-01-9.99858E-01-4.43558E-01-1.66741E-01-1.08950E-02-1.69050E-01
 -1      3688-7.11515E-01-4.56427E-01-3.08611E-01-8.43653E-02-1.38984E-02-2.93288E-01
 -1      3689-2.38087E-01-4.76009E-01-2.02869E-01 7.64503E-02 1.87515E-02-4.10407E-02
 -1      3690-5.40980E-01-2.62601E-01-8.29613E-02-1.21081E-01 4.65808E-02-6.92615E-02
 -1      3691 1.91497E-01 1.10298E+00 3.02832E-01-2.02128E-01 2.89047E-02-1.49611E-01
 -1      3692-8.14375E-01-9.90019E-01-3.72968E-01-5.02948E-01-2.26314E-01-1.12480E-01
 -1      3693 1.73673E-01 1.17950E+00 1.85595E-01-1.76822E-01 2.99579E-02-1.13833E-01
 -1      3694 9.16707E-01 1.90060E-01 1.41590E-01-2.73191E-01 2.26516E-01-3.03188E-01
 -1      3695 1.70054E-01 8.97919E-02 1.87555E-01-8.99614E-02 7.33821E-02-1.36866E-01
 -1      3696-1.24034E+00-9.04582E-01-6.66098E-01-1.05927E-01 1.86326E-02-3.04637E-01
 -1      3697 2.86748E-01 1.00115E-01 2.10509E-02-2.21886E-01 1.44448E-02-1.07419E-01
 -1      3698 1.61075E-01 6.63871E-02 4.45141E-02 5.78141E-02-7.63160E-02-1.13717E-01
 -1      3699 1.04937E+00 4.80255E-01 2.23687E-01 7.28281E-02 4.09089E-02-2.95596E-01
 -1      3700-2.41257E-01-9.69507E-01-2.62866E-01-3.53245E-01-1.54394E-01-9.53260E-02
 -1      3701-2.39873E-01 1.00199E-01 6.57881E-02-9.64513E-02 1.59459E-01-6.69749E-01
 -1      3702-5.35630E-01-1.95095E-01-8.36478E-02 1.33500E-01-1.21171E-02-9.54764E-02
 -1      3703 6.99904E-01 7.26500E-01 9.51164E-01 2.12557E-01-1.10678E-01-6.43044E-01
 -1      3704-3.10076E-01-3.66515E-01-1.84341E-01 1.18250E-01 1.07467E-02-1.05076E-01
 -1      3705-6.87636E-01-4.93559E-01-3.14711E-01 1.73832E-01-3.40238E-02-2.55132E-01
 -1      3706 2.06324E-01 6.59426E-01 1.02290E-01 5.69738E-01-1.39390E-01-1.19202E-01
 -1      3707 2.36881E-01 1.26822E+00 3.81800E-01-1.74482E-01 7.43535E-02-1.12003E-01
 -1      3708 3.32127E-01 1.15352E+00 1.68295E-01-2.96513E-01 2.85112E-02-1.64216E-01
 -1      3709 4.41105E-01 2.21046E-01 8.42080E-02-6.60508E-03-2.67828E-03-3.37927E-03
 -1      3710 1.99339E-01 1.25323E-01 2.76415E-02 5.39605E-03 5.73669E-02-7.64358E-02
 -1      3711 1.57007E-01 1.12132E+00 1.13508E-01-2.17316E-01 3.35430E-03-1.83923E-01
 -1      3712-1.14975E+00-8.90253E-01-6.10950E-01-1.16346E-01 1.02606E-02-3.12707E-01
 -1      3713-5.58590E-01-3.57543E-01-2.42537E-01 1.56968E-01-1.66201E-02-2.58610E-01
 -1      3714-1.78538E-01 1.21864E-01 1.85556E-02 4.61841E-02 1.95025E-01-5.42117E-01
 -1      3715-6.14758E-01-3.10880E-01-4.40979E-01 2.92235E-02 1.14805E-01-6.61219E-01
 -1      3716 9.59845E-02 1.71482E-01 2.35453E-01 7.77502E-03-3.48248E-02-5.68344E-01
 -1      3717-5.92029E-02-4.11554E-01-1.53604E-01 1.92571E-01 1.86544E-01-1.58016E-01
 -1      3718 2.61784E-05 4.70220E-03-1.66842E-02 2.21145E-02 2.84131E-02 5.91074E-04
 -1      3719 1.15901E-01-2.75225E-01-8.69730E-02-4.56029E-02 1.83031E-01-5.03057E-01
 -1      3720 2.79651E-01 1.72176E+00 1.45278E-01-2.30663E-01 7.93763E-02-1.27711E-01
 -1      3721 3.85350E-01 1.51199E+00 2.40797E-01-5.08955E-01 1.09991E-01-7.15028E-02
 -1      3722-6.49662E-04-2.05145E-02-6.42865E-02 8.31164E-03 7.30307E-02-1.32522E-02
 -1      3723-2.76366E-01-1.47086E+00-1.15009E-01-4.40401E-01 9.72714E-02-1.00797E-01
 -1      3724-7.20280E-01-8.16979E-01-1.33746E-01-6.53267E-01-1.26647E-01-1.34991E-01
 -1      3725-1.73245E-01-7.10645E-02-1.80298E-01-1.72698E-02 5.73017E-03-6.71736E-01
 -1      3726 2.38969E-01 1.48948E+00 9.55112E-02-2.55859E-01-3.29201E-02-1.66530E-01
 -1      3727-5.64383E-01-4.61852E-01-1.99055E-01-1.87650E-01-1.40861E-02-2.41274E-01
 -1      3728 2.92456E-01 1.49987E+00 1.77803E-01-5.53019E-01 5.63704E-02-1.15657E-01
 -1      3729 3.72193E-01 2.10534E-01 1.97735E-01 1.94215E-01 1.63259E-03-3.98507E-01
 -1      3730 3.64469E-02 2.29970E-01 8.28300E-02 6.05343E-02-1.45314E-02-1.11009E-01
 -1      3731 5.36372E-01 3.33252E-01 1.65400E-01 2.75354E-01-1.98149E-02-2.90927E-01
 -1      3732 1.45911E-01 9.62261E-02 2.59102E-02 2.29017E-02-2.77902E-02-1.13781E-02
 -1      3733-2.55318E-01-6.35425E-01-1.44367E-01-4.52287E-01-2.12170E-01-1.22120E-01
 -1      3734 6.81930E-01 4.49003E-01 2.75007E-01-2.06496E-03-6.45297E-03-1.95006E-01
 -1      3735 2.87993E-01-9.11206E-02 9.18497E-02 1.40146E-01 3.41503E-02-3.50749E-01
 -1      3736 8.81422E-01 5.66040E-01 3.67992E-01-1.85594E-01 2.27135E-02-3.03202E-01
 -1      3737 1.18991E+00 8.35801E-01 5.50919E-01-7.22042E-02-4.53539E-03-3.60443E-01
 -1      3738-1.92890E-01-3.42550E-02-1.03683E-01-9.56476E-02-2.25463E-02-1.42790E-01
 -1      3739 4.27298E-02 1.96867E+00 1.90818E-01 1.06419E-01-1.01448E-01-1.26661E-01
 -1      3740 1.01296E-02 8.18966E-02 1.50847E-01-9.57604E-03 8.19006E-02-2.39383E-02
 -1      3741-1.42245E-01-2.63661E-02-6.94365E-02-3.10243E-02 3.19705E-02-1.46150E-01
 -1      3742-3.98566E-01-4.98427E-02-9.52569E-02 2.52339E-03-1.10632E-01-6.63385E-01
 -1      3743-1.10272E+00-7.26462E-01-3.41469E-01 1.15283E-01-6.10604E-02-2.50822E-01
 -1      3744-2.23169E-01-4.12598E-01-5.44558E-01 2.02580E-01 1.47988E-01-4.19990E-01
 -1      3745-7.72318E-01-8.96283E-01-2.28138E-01 4.98378E-01 8.80730E-02-2.47525E-01
 -1      3746-5.48464E-01-3.07040E-01-1.11403E-01 1.52058E-02 7.80834E-03-1.97101E-02
 -1      3747 2.14175E-01 1.13855E-01-1.11427E-02-1.11872E-02-3.04824E-02-5.65284E-02
 -1      3748 1.16587E+00 7.43971E-01 6.12749E-01 1.07293E-01-4.98253E-02-4.15922E-01
 -1      3749-7.96584E-02-9.04452E-02-2.88244E-02-2.03188E-02-3.04047E-02-1.15755E-01
 -1      3750 7.14780E-01 6.23829E-01 7.37853E-01-1.05970E-01 1.47524E-01-4.34089E-01
 -1      3751-8.17034E-01-5.69311E-01-4.02683E-01 8.55850E-02-3.43547E-02-2.15450E-01
 -1      3752-1.01071E+00-6.15986E-01-3.99502E-01 1.71266E-01 7.02320E-03-2.67999E-01
 -1      3753-4.68363E-01-1.21758E+00-1.45562E-01 5.99600E-01 1.67516E-01-2.66438E-01
 -1      3754 1.09546E-02 2.97214E-02 1.99252E-02 2.74716E-02-3.89137E-02 3.14232E-03
 -1      3755 1.33661E-01 1.64399E-01-2.33132E-02-9.51437E-03-8.55367E-02-8.53890E-02
 -1      3756-1.34768E-01-1.61148E-01-7.10305E-02-6.67473E-03 6.48651E-02-9.29841E-02
 -1      3757 7.39241E-01 3.92990E-01 1.74233E-01-3.58414E-03-8.20609E-03-5.02158E-03
 -1      3758-5.69256E-01-2.68986E-01-1.03614E-01-4.55747E-02-6.06816E-04-8.84367E-03
 -1      3759 1.38037E-01 9.57179E-02 7.07871E-02-4.71090E-03 4.56746E-02-1.17993E-01
 -1      3760 2.03262E-02-2.73579E-02-1.18146E-01-3.06711E-02-1.02847E-01-1.67512E-02
 -1      3761 1.28747E-01 1.05898E-01-1.11081E-02 4.10612E-02-3.67152E-02-6.91587E-02
 -1      3762-1.32937E+00-8.48297E-01-6.19027E-01 1.03239E-01-6.61881E-02-3.32508E-01
 -1      3763-1.78795E-02 3.16355E-02 5.58286E-03 3.00333E-02-6.80291E-02 3.93202E-03
 -1      3764 5.58139E-01 3.01697E-01 1.91899E-01-2.92217E-02-8.43852E-03-3.98019E-02
 -1      3765 6.45232E-01 3.80867E-01 2.84587E-01-1.83893E-02 3.84719E-02-1.60986E-02
 -1      3766-4.33062E-02-5.83540E-02-5.60399E-02 1.75867E-01-6.24751E-03-8.39016E-02
 -1      3767-3.11255E-02-5.97796E-02-3.82582E-02 1.01620E-01 2.34213E-02-8.87974E-02
 -1      3768 1.63221E-01 1.30338E-01 7.26115E-02 1.54569E-02-3.33730E-02-1.29053E-01
 -1      3769 5.65087E-01 2.73169E-01 2.05431E-01 2.65766E-02 3.82668E-02-3.06751E-04
 -1      3770-1.31093E-01-1.36250E-01-5.67469E-02 1.33927E-01 3.56367E-02-1.06639E-01
 -1      3771-1.29824E-03 4.25336E-04 1.95569E-02 1.24544E-01-2.12056E-02-6.51761E-02
 -1      3772 1.07749E+00 6.60051E-01 4.19198E-01 1.97063E-02 9.59552E-02-3.44299E-02
 -1      3773 5.98521E-02 1.65420E-02 1.03324E-01 2.24343E-01-3.20338E-02-8.13430E-02
 -1      3774-2.18798E-01-1.72136E-01-9.24378E-02 1.30671E-01 1.80986E-02-8.35705E-02
 -1      3775-9.38114E-02-9.74328E-02 1.26284E-02 1.35201E-01 3.09917E-02-9.62773E-02
 -1      3776 1.37828E-02 3.34764E-03 2.33910E-02 1.26184E-01 7.58228E-03-9.75704E-02
 -1      3777-7.96388E-02-1.19641E-01-1.86513E-01 1.87038E-02 6.90079E-02-1.97202E-01
 -1      3778 3.83461E-02 1.07621E-01 1.55496E-01 8.53325E-03 9.66063E-02-1.53327E-01
 -1      3779-7.80627E-02 4.32183E-02 1.85441E-01 2.59329E-02-1.27682E-01-1.60602E-01
 -1      3780-1.19869E-01-3.88130E-02-2.91873E-02-7.75020E-02 5.96562E-02-2.43452E-01
 -1      3781 2.24908E-01 4.14487E-02-7.98285E-03 8.14529E-02 5.15820E-02-6.59121E-02
 -1      3782 6.03075E-03 1.19228E-01 2.56577E-02-7.11292E-03 7.06645E-02-2.93807E-01
 -1      3783 1.14025E-01 1.34323E-01 2.40991E-01-2.73039E-02 4.14624E-02-5.78265E-02
 -1      3784-1.56698E-01 1.42325E-01 1.17314E-01-5.55770E-02 6.33874E-02-2.84534E-02
 -1      3785-1.55548E-01-6.21294E-02-5.67265E-02 7.58500E-02-4.62626E-02-2.72409E-01
 -1      3786-7.90146E-02-1.11071E-01-2.23677E-01-1.02980E-03-7.62308E-02-6.19535E-02
 -1      3787-4.89406E-02 8.21829E-03 5.83724E-02 6.97981E-02-7.32094E-02-2.08078E-01
 -1      3788-2.81013E-02-9.27264E-03-2.65561E-03 5.11679E-02-1.64059E-02-2.84271E-01
 -1      3789-7.93527E-02-9.48027E-02-5.69349E-02-3.49041E-02 7.15247E-02-2.38190E-01
 -1      3790 9.28921E-02 8.69510E-03-1.21799E-02-8.09020E-02-7.31554E-02-2.78388E-01
 -1      3791 3.99218E-02 6.25161E-03 4.31926E-02 7.12409E-02 3.32472E-02-2.28015E-01
 -1      3792 9.17087E-02 3.29672E-02-2.55496E-03 6.21400E-02 6.24894E-02-1.06724E-01
 -1      3793-1.54919E-01 6.56374E-03 3.45539E-03-9.90328E-02 5.02769E-02-9.35346E-02
 -1      3794 3.96373E-01 3.31980E-01 1.90318E-01 8.11112E-02 1.00182E-01-2.30351E-01
 -1      3795-2.29273E-01-2.90624E-01-1.82849E-01 2.56434E-02-6.22413E-02-1.19935E-01
 -1      3796-1.55123E-02 2.81953E-02 1.17304E-01 7.87950E-04 8.07046E-02-1.05439E-01
 -1      3797-1.93589E-01 8.71454E-02 5.38225E-02-4.23409E-02 2.65385E-02-2.64554E-02
 -1      3798 1.36023E-01 2.14114E-01 1.35115E-01 1.97367E-02-1.37200E-02-2.42832E-01
 -1      3799 9.31918E-03 9.44813E-02 1.39341E-01 2.55701E-02-1.35829E-01-1.74880E-01
 -1      3800 1.58539E-01 2.02775E-01 1.46791E-01 8.11325E-03-5.97028E-02-3.45083E-01
 -1      3801 2.03041E-01 2.42119E-01 1.96995E-01-1.13013E-02 2.58612E-02-2.61210E-01
 -1      3802 1.13666E-01 9.59249E-02 1.05305E-01-6.39696E-02-2.28920E-02-3.71232E-01
 -1      3803-1.57832E-01-1.58573E-01-1.17139E-01-6.52440E-03-9.91102E-02-2.01561E-01
 -1      3804 2.07751E-02 1.35094E-02-1.88116E-02-5.17126E-02-5.76953E-03-2.74010E-01
 -1      3805 1.24024E-01 1.94971E-01 1.88435E-02 1.82417E-02 1.51029E-02-2.10595E-01
 -1      3806 6.78772E-02-6.41864E-02 1.00958E-02-1.92191E-02-1.46398E-01-1.57368E-01
 -1      3807-1.60852E-01-1.36164E-01-2.53276E-01-2.85168E-02 2.52152E-03-1.05608E-01
 -1      3808 1.41772E-01 1.74092E-01 1.47504E-01-6.03610E-02-3.50229E-02-3.36425E-01
 -1      3809-1.08507E-01-9.83607E-02-8.65427E-02-9.19185E-03 6.76581E-02-2.50833E-01
 -1      3810-1.09911E-01-8.27303E-02 4.18088E-03-3.68301E-03 2.73973E-03-3.51241E-01
 -1      3811-2.05958E-01-4.95631E-01-3.84422E-01 6.75750E-02 4.18715E-02-2.29970E-01
 -1      3812 1.34564E-01 6.22366E-01 1.63103E-01-1.08357E-01 3.28649E-02-1.70160E-01
 -1      3813 4.03406E-01 3.89177E-01 2.82210E-01-7.36964E-02-2.73530E-02-2.69245E-01
 -1      3814-2.27435E-01-3.19907E-01-2.06799E-01 7.46218E-03-1.16895E-02-2.35688E-01
 -1      3815-7.48763E-02-1.45096E-01-5.18205E-02 3.72594E-02 3.53126E-02-2.63142E-01
 -1      3816-6.72373E-01-5.23821E-01-3.99969E-01-5.14645E-03-5.49365E-02-2.20919E-01
 -1      3817 2.26836E-01 1.28235E-02-3.36505E-02 7.81543E-02 3.10589E-02-8.41377E-02
 -1      3818 4.78993E-01 4.35895E-01 3.61520E-01-1.92576E-02 1.28438E-02-1.98083E-01
 -1      3819 8.86124E-02 4.61380E-02-4.52949E-02 6.49945E-02 6.49816E-02-3.34941E-01
 -1      3820 3.20660E-03-3.15034E-02 1.41793E-02-2.86342E-02 5.16232E-02-1.21230E-01
 -1      3821 9.65820E-02 1.79012E-01 1.50256E-01-8.50241E-03-1.36102E-01-6.89719E-02
 -1      3822 1.64165E-01 1.92244E-01 1.22899E-01-7.43617E-03-1.09811E-01-1.52076E-01
 -1      3823-3.67945E-01-4.05546E-01-3.21403E-01-9.19958E-03 1.02121E-02-2.29101E-01
 -1      3824 1.57674E-01-1.04912E-02-1.72463E-02-8.36214E-02-2.07719E-02-2.54746E-02
 -1      3825 1.44851E-01 2.12901E-01 9.86097E-02 1.06263E-02-8.08674E-03-4.27774E-01
 -1      3826-1.61219E-01-1.86841E-01-1.28973E-01 3.28783E-02 1.98835E-02-2.74154E-01
 -1      3827-3.15333E-01-2.41900E-01-1.49447E-01 5.99519E-02-1.04660E-01-1.82958E-01
 -1      3828-5.27684E-01-4.61403E-01-3.70977E-01-2.59479E-02 4.52825E-02-2.45427E-01
 -1      3829 2.18284E-01-6.47862E-02-7.89903E-03-6.53706E-02-1.47579E-02-2.33123E-02
 -1      3830 2.21000E-01 2.05050E-01 2.74804E-01-1.86954E-02 1.61652E-03-1.20017E-01
 -1      3831 2.01843E-01 3.51384E-01 3.02702E-01-3.07571E-02 5.10282E-02-2.71737E-01
 -1      3832-1.76673E-02-1.03409E-02-6.44246E-02 7.49161E-02 4.82227E-02-9.93835E-02
 -1      3833-5.47752E-02-1.31422E-01-8.43353E-02-3.08396E-02-7.52368E-02-2.40100E-01
 -1      3834-1.70232E-01-1.86678E-01-1.49857E-01-2.42074E-02-2.55899E-02-2.44115E-01
 -1      3835-6.23707E-02 4.64596E-02 7.28969E-02 8.43454E-02-3.12272E-02-2.73270E-02
 -1      3836 2.44823E-01 1.96063E-01 1.53636E-01 3.17005E-03 4.45677E-02-1.63075E-01
 -1      3837-5.44767E-01-4.16706E-01-2.56302E-01 1.00636E-01-6.58943E-02-2.42000E-01
 -1      3838 5.95300E-01 4.88900E-01 3.03946E-01-2.88141E-02 7.33339E-04-2.10668E-01
 -1      3839 1.30702E-01 9.92279E-01 2.15331E-01-1.86528E-01 1.01803E-01-1.29994E-01
 -1      3840 1.30359E-04 3.74549E-02 5.99347E-02 2.91561E-04-2.72344E-02-1.60389E-01
 -1      3841 1.77912E-01 1.12436E-01 1.41503E-01-1.37289E-01 1.24303E-02-3.61919E-01
 -1      3842-5.02545E-02 1.00184E-02-1.01363E-02 7.13124E-02 1.36762E-02-1.89655E-01
 -1      3843-8.49621E-02-5.27874E-02-1.62408E-01 5.54561E-03 5.24893E-02-1.43210E-01
 -1      3844-2.63534E-01-5.52102E-02-5.29122E-02-1.78924E-01-1.06271E-01-2.11416E-01
 -1      3845-2.95165E-01-3.39199E-01-1.73394E-01 1.80287E-02-1.28366E-01-2.04282E-01
 -1      3846-1.76759E-01-2.73051E-01-8.36089E-02-8.14227E-03 3.73518E-02-1.50587E-01
 -1      3847 1.34237E-01-1.90433E-02-1.20214E-01 5.27112E-03-1.03507E-01-4.50154E-02
 -1      3848 1.15822E-01 1.51251E-01 1.28485E-01 2.70637E-03-1.40812E-02-5.33825E-01
 -1      3849 6.28317E-01 4.92379E-01 3.83140E-01 1.00375E-02 1.05607E-02-1.23652E-01
 -1      3850-1.22652E-01 1.99392E-02 1.32556E-02-1.07463E-01 5.38949E-02-5.19192E-02
 -1      3851 1.79824E-01 1.48937E-01 1.67724E-01 9.95070E-02-1.01838E-01-4.03963E-01
 -1      3852-1.13088E-02-1.62560E-02-1.09794E-02 3.37481E-02 8.13092E-03-2.95229E-01
 -1      3853 1.84637E-01 1.40820E-01 1.92501E-01-1.24565E-01-7.45168E-04-3.51618E-01
 -1      3854 1.80285E-01 1.98731E-01 2.56281E-01-5.38161E-02 2.85049E-02-3.79821E-01
 -1      3855-1.76338E-01-1.46151E-01-2.72296E-02-6.49860E-02 3.86480E-02-2.98659E-01
 -1      3856 3.61953E-01 3.72878E-01 3.99492E-01-1.50811E-02-9.96416E-02-4.32326E-01
 -1      3857-1.78204E-01-1.91603E-01 2.74082E-02-2.85044E-02-9.88867E-03-1.32781E-01
 -1      3858-2.08270E-01-9.79119E-03 1.69684E-01 1.63462E-02-6.44280E-02-7.33672E-02
 -1      3859-4.58526E-02 7.24554E-02 2.20687E-02 2.29923E-03 6.63951E-02-2.78023E-02
 -1      3860 1.66494E-01-3.32716E-01-8.35446E-02 1.41054E-02 1.28743E-01-3.03857E-01
 -1      3861-1.20094E-01-6.46288E-01-3.95346E-01 9.07905E-02 1.17180E-01-2.01165E-01
 -1      3862-4.80455E-02-9.67495E-02-3.93247E-02 4.00801E-02-7.08929E-02-3.66259E-01
 -1      3863-9.62288E-03-2.56556E-03-1.30981E-02 3.89497E-02 1.18372E-02-1.32570E-01
 -1      3864-2.45671E-02 6.95327E-02-1.34075E-02-6.34980E-02-3.90093E-02-1.62880E-01
 -1      3865 1.62653E-01 1.79622E-01 2.04741E-01 3.80098E-02 1.06228E-01-1.54932E-01
 -1      3866 2.41455E-02 5.62030E-03 1.88230E-03 8.80344E-02-1.05277E-02-1.18579E-01
 -1      3867-3.37190E-01-2.37954E-01-2.14687E-01-1.16367E-01-9.59787E-02-3.74096E-01
 -1      3868-2.09583E-01-1.01988E-01 2.96089E-03-1.11197E-01-1.46704E-02-4.00315E-01
 -1      3869-1.84876E-01-6.89258E-02-3.56152E-03-1.66243E-01-1.46359E-01-2.66528E-01
 -1      3870-5.93690E-01-4.97847E-01-3.91153E-01 8.68032E-02-6.46118E-02-1.76903E-01
 -1      3871 1.06621E-01-1.55683E-01-6.61901E-02-7.42215E-02 1.50274E-01-5.05059E-01
 -1      3872-3.44090E-02-7.21875E-02-6.24605E-02 1.02502E-01 6.20427E-02-2.67222E-01
 -1      3873 1.08116E-01 1.21568E-01 1.61098E-01-4.56104E-02 4.82004E-02-4.23989E-01
 -1      3874 1.83617E-01 2.91147E-01 2.37599E-02-2.78498E-03-1.19038E-02-1.58225E-01
 -1      3875-1.12323E-01-8.14030E-01-2.94072E-01 1.73872E-01 1.05536E-01-1.29625E-01
 -1      3876-2.55580E-01-2.22136E-01-5.24044E-02 2.49373E-02-9.93187E-03-1.92602E-01
 -1      3877-3.92358E-01-2.43740E-01-1.65142E-01 3.48695E-02 1.74369E-02-1.57905E-01
 -1      3878-3.21135E-01-3.42134E-01-3.67798E-01-1.35832E-02-5.78684E-02-3.26818E-01
 -1      3879 8.68925E-02 9.83616E-01 2.38527E-01 1.39048E-01-1.05091E-01-1.10939E-01
 -1      3880-2.11757E-01-2.42784E-01-2.10241E-01 1.82346E-02 4.77035E-02-2.96100E-01
 -1      3881 4.05324E-01 3.93069E-01 2.67531E-01-1.58076E-02-5.56633E-02-1.95639E-01
 -1      3882-1.47057E-01 1.88109E-02 5.10803E-02 8.71305E-02-1.88945E-02-4.49483E-02
 -1      3883-1.42425E-01-7.44901E-01-1.92869E-01 1.40867E-01 3.32980E-02-1.32802E-01
 -1      3884-8.10252E-02-1.51804E-01-4.50125E-02 4.94897E-02 2.51608E-02-2.11786E-01
 -1      3885-7.80666E-02 8.80581E-02 1.02417E-01 8.41488E-02 1.15688E-01-4.20848E-01
 -1      3886 3.73531E-01 3.00523E-01 7.27779E-02 1.42450E-01-3.11528E-02-2.52794E-01
 -1      3887 5.18784E-01 4.96662E-01 3.87784E-01 9.40831E-02-5.56643E-03-4.24098E-01
 -1      3888-1.66999E-01-6.74076E-01-4.35803E-01-1.21155E-01-9.29818E-02-2.66307E-01
 -1      3889 6.84473E-02 4.67708E-02 2.98422E-02 2.85740E-02 6.11536E-02-2.08803E-01
 -1      3890 1.09782E-01 8.21887E-01 2.15428E-01 1.53586E-01 1.08458E-04-1.18649E-01
 -1      3891 3.00333E-01 4.30749E-01 2.30082E-01 1.47428E-01-3.93648E-02-2.31559E-01
 -1      3892 2.11201E-01 4.43300E-01 2.58616E-01-2.57598E-01 2.07896E-01-2.38857E-01
 -1      3893-3.25154E-02 6.72650E-02 2.57324E-02 7.15463E-02 6.73207E-02-4.20178E-01
 -1      3894 2.40011E-01 1.52365E-01 1.13075E-01-1.50447E-01 1.67482E-02-2.92846E-01
 -1      3895 1.57636E-01 6.79126E-01 4.73183E-01-1.08388E-01 3.47289E-02-2.28423E-01
 -1      3896-2.90498E-01-2.84998E-01-2.18980E-01-9.06344E-02 1.71620E-01-2.74650E-01
 -1      3897 7.24520E-02 1.56456E-01 2.55457E-01 3.80615E-02-6.47007E-02-1.60545E-01
 -1      3898-3.50690E-01-2.67895E-01-1.56627E-01 5.58695E-02-7.48246E-02-2.18643E-01
 -1      3899-2.29376E-01-2.17325E-01-1.78889E-01-2.24911E-02 9.01728E-02-1.35592E-01
 -1      3900-2.21634E-01-6.22693E-01-4.91151E-02-1.04813E-01 3.05721E-03-1.44952E-01
 -1      3901 2.70822E-02 8.73573E-02 7.77749E-02-8.82081E-03-5.41899E-02 1.82364E-02
 -1      3902-3.90280E-03 1.57793E-02-2.13577E-02-6.90966E-02 5.83690E-02-3.03659E-01
 -1      3903 2.54804E-02 3.36283E-02-4.66948E-02 9.87633E-02 3.69911E-02-3.74469E-01
 -1      3904-1.52090E-01-2.09425E-01-1.70282E-01-1.78786E-02-5.65669E-02-4.44791E-01
 -1      3905 8.82251E-02-1.22272E-02-8.53441E-02 2.83666E-04-1.97888E-02-4.84055E-01
 -1      3906-1.96448E-01-4.46290E-01-1.01848E-01 2.84256E-01 1.85821E-01-1.95216E-01
 -1      3907-1.63648E-01-3.32371E-01-2.61251E-01 1.70080E-01 1.52307E-01-3.03747E-01
 -1      3908 3.71977E-01 3.48320E-01 3.24543E-01-1.23101E-02 6.36740E-02-1.32857E-01
 -1      3909-9.52753E-01-6.59826E-01-5.04286E-01 3.34451E-05-2.68853E-02-2.60641E-01
 -1      3910 6.84261E-01 4.87375E-01 4.24821E-01 6.62620E-02 6.04220E-02-2.57496E-01
 -1      3911 2.04482E-01 2.11461E-01 2.37114E-01 9.24722E-02-9.80036E-02-3.80099E-01
 -1      3912-6.78423E-02-2.00251E-01-1.02550E-01-2.91922E-02-5.18731E-02-2.00726E-01
 -1      3913-3.37137E-01-3.81002E-01-3.23720E-01-1.52789E-01-1.03948E-01-3.18349E-01
 -1      3914-3.96878E-01-5.97008E-01-1.12755E-01 2.89322E-01 6.38093E-02-1.82984E-01
 -1      3915 2.97598E-01 6.36667E-01 5.76944E-01 5.56587E-02 3.17429E-02-2.83068E-01
 -1      3916 4.04094E-01 3.03977E-01 2.04462E-01-7.64570E-02-6.01217E-02-2.91470E-01
 -1      3917-4.63633E-02-2.17595E-02 4.33775E-02 6.33615E-02 2.90039E-02-3.14389E-01
 -1      3918-1.74240E-01-1.70161E-01-1.15021E-01-5.60290E-02-3.19751E-02-3.24191E-01
 -1      3919 1.47092E-01 7.33120E-02-1.06527E-02-1.32425E-01 8.17160E-02-1.99844E-01
 -1      3920-5.49296E-02-5.96550E-02 7.12747E-04 1.46100E-02-1.17592E-02-3.40277E-01
 -1      3921-1.99582E-01-1.48446E-01-1.51397E-01 2.79962E-02-1.20060E-01-1.70698E-01
 -1      3922-2.06742E-01-1.37810E-01-8.17193E-02-5.36170E-02 1.01917E-02-3.73350E-01
 -1      3923-1.70382E-01-2.12362E-01-2.24960E-01-1.77049E-02 5.03598E-02-6.82577E-02
 -1      3924-4.38739E-01-2.90625E-01-1.62942E-01-1.16905E-01-2.09542E-02-3.33029E-01
 -1      3925 4.50974E-01 4.07627E-01 2.86227E-01-2.91978E-02-1.70383E-01-1.82476E-01
 -1      3926 2.13862E-01 4.54689E-01 1.47430E-01-2.75923E-01 1.22698E-01-1.98652E-01
 -1      3927 5.27413E-01 4.81704E-01 3.38792E-01-5.27759E-02-9.57813E-02-2.39530E-01
 -1      3928 1.79096E-01-2.89549E-02-2.96277E-02-9.41856E-02-1.22069E-03-4.12287E-02
 -1      3929 3.04561E-01 3.80304E-01 3.15312E-01 1.48284E-02 4.39210E-02-3.26129E-01
 -1      3930-7.77395E-01-6.20424E-01-5.51098E-01-2.29962E-02 4.13170E-02-2.48889E-01
 -1      3931-9.41564E-02 1.74837E-02-1.79882E-02 8.67433E-02-6.20898E-02-2.96165E-01
 -1      3932 6.95134E-01 5.88389E-01 4.11005E-01-9.00407E-03 1.69737E-02-2.30790E-01
 -1      3933-2.16831E-01-4.05872E-01-3.39116E-01-2.00973E-01-1.98734E-01-3.33787E-01
 -1      3934-1.87863E-01-1.37346E-01-1.44043E-01-6.25584E-03 2.12768E-02-1.75483E-01
 -1      3935 2.91578E-01 3.09057E-01 2.36502E-01-1.10464E-01 5.83228E-02-3.67200E-01
 -1      3936-1.37520E-01-5.40497E-01-2.94305E-01-7.75558E-02-1.45303E-03-1.99653E-01
 -1      3937-1.93983E-01-3.82544E-01-1.46519E-01-2.76712E-01-1.93802E-01-1.82746E-01
 -1      3938-6.18651E-01-3.66048E-01-2.66536E-01-1.52928E-01 4.78463E-03-3.32106E-01
 -1      3939-6.81274E-02-1.29762E-02-6.84827E-02-6.73659E-02-5.53068E-02-1.22468E-01
 -1      3940 1.25560E-01 1.32104E-01 4.63768E-02 7.24479E-02-4.89793E-02-3.60616E-01
 -1      3941-2.15814E-01-1.15880E-01-1.42125E-01 1.85492E-01 1.74292E-01-4.12205E-01
 -1      3942 2.15222E-01 1.37932E-01 1.75764E-02 1.60372E-01 4.38985E-02-4.59138E-01
 -1      3943-1.98362E-01-7.64140E-02-4.09562E-02-1.62020E-01-1.27727E-01-3.54567E-01
 -1      3944 3.42219E-01 8.28016E-02 2.50407E-02 2.86301E-01-1.59341E-01-2.60616E-01
 -1      3945 7.40071E-01 5.99292E-01 3.90138E-01 7.46849E-03 8.71316E-03-1.81480E-01
 -1      3946-2.02033E-01 2.23318E-01-5.56150E-03-1.04106E-02 7.96756E-02-2.69005E-01
 -1      3947-1.28223E-01-1.55523E-01-4.74021E-02 6.30098E-02-3.56800E-02-4.12358E-01
 -1      3948-1.02145E-01-1.01773E+00-1.15752E-01 2.44869E-01 4.76959E-02-8.90990E-02
 -1      3949 2.50093E-01 7.45097E-02 1.33797E-01-2.23613E-01 2.57875E-01-3.52605E-01
 -1      3950-3.64272E-01-4.31118E-01-2.21239E-01-1.44276E-01-7.85057E-02-2.51808E-01
 -1      3951 4.55280E-01 7.68142E-01 1.14135E-01 3.49150E-01-8.79800E-02-2.16565E-01
 -1      3952 3.15969E-01 2.62182E-01 1.60955E-01 9.30643E-02 5.40601E-02-2.78829E-01
 -1      3953-2.54440E-01-4.25954E-01-3.52743E-01 1.57176E-01 8.87263E-02-2.79590E-01
 -1      3954-2.00041E-01-3.10218E-01-2.66036E-02-1.88866E-01-3.23813E-02-1.36216E-01
 -1      3955-3.59210E-01-1.05983E-01-1.04833E-01 1.86384E-01 8.97876E-02-2.46375E-01
 -1      3956 1.24819E-01 7.90452E-01 3.37595E-01 1.18931E-01 2.62742E-02-1.82607E-01
 -1      3957 6.54645E-01 5.06837E-01 4.44137E-01 9.02054E-03-1.54011E-01-3.25272E-01
 -1      3958 4.60576E-01 4.53650E-01 3.84926E-01-2.81489E-03 6.67784E-02-2.63856E-01
 -1      3959 9.61887E-02 6.47147E-02-1.38535E-02-8.40012E-02-3.06513E-02-1.07753E-01
 -1      3960-5.54847E-01-3.68073E-01-2.31050E-01-1.23635E-01 7.12971E-02-3.16284E-01
 -1      3961-1.18806E-01-8.18567E-02-5.25392E-02 1.03339E-01-8.14492E-04-2.81943E-01
 -1      3962-5.06867E-02-4.44803E-02-4.90483E-02 9.33250E-02 4.63964E-03-1.17745E-01
 -1      3963-1.10536E+00-8.25304E-01-5.37854E-01 3.71092E-02-1.62738E-02-3.52702E-01
 -1      3964-1.02924E-01-5.90541E-01-1.89349E-01-1.11897E-01-6.47438E-02-1.50910E-01
 -1      3965 1.26407E-01-2.34310E-01 4.26587E-03 3.10391E-02-1.18501E-01-3.33560E-01
 -1      3966-2.82765E-01-5.58891E-01-1.02390E-01 3.75103E-01 1.55888E-01-1.45671E-01
 -1      3967 2.10643E-01 8.63168E-01 2.87182E-02 1.43892E-01-1.49520E-02-1.25339E-01
 -1      3968-6.99613E-01-4.78772E-01-3.25410E-01-3.41122E-02 2.64916E-02-2.93943E-01
 -1      3969-1.37533E-01-7.31173E-02-2.09947E-02-1.16758E-01-5.88854E-03-2.68289E-01
 -1      3970 9.14973E-02 5.46783E-01 1.78727E-01 7.77616E-02-4.71473E-02-1.33504E-01
 -1      3971-5.40833E-01-4.27501E-01-2.34249E-01 6.81228E-02-5.15372E-02-2.45346E-01
 -1      3972 1.82226E-02-1.45043E-01-9.25292E-02-8.96478E-03-1.58496E-01-7.56439E-02
 -1      3973-9.11397E-01-6.17890E-01-4.00930E-01 4.13627E-02-6.83163E-02-2.85211E-01
 -1      3974 4.64400E-03 1.57437E-03 1.98430E-02 4.60915E-02-1.31001E-02-2.34085E-01
 -1      3975-4.11080E-01-2.47822E-01-1.43181E-01 5.29513E-02-3.73941E-02-1.76725E-01
 -1      3976 4.80816E-01 5.55143E-01 6.02036E-01 6.17398E-02-7.56045E-02-3.39464E-01
 -1      3977-9.63245E-01-7.68701E-01-4.93545E-01-7.59914E-02 5.46946E-02-2.14565E-01
 -1      3978-4.05708E-01-4.38643E-01-4.08396E-01-1.94093E-02-4.55277E-02-2.93199E-01
 -1      3979 1.76285E-01 4.68188E-01 3.01546E-01 4.04954E-02-5.90305E-02-2.29620E-01
 -1      3980 1.57827E-01 3.03944E-01 1.59314E-01-1.20382E-02 4.20033E-02-1.97910E-01
 -1      3981-4.30744E-02 1.27513E-02 5.79779E-02 1.73118E-03-1.16141E-02-3.85988E-01
 -1      3982-1.83041E-01-9.69653E-01-1.11541E-01 2.30791E-01 1.41385E-02-1.52266E-01
 -1      3983-6.66025E-01-5.77586E-01-3.53781E-01-3.99980E-02 9.13339E-02-2.39782E-01
 -1      3984 5.67387E-01 4.05899E-01 3.13159E-01 6.76332E-02 4.93255E-02-2.97538E-01
 -1      3985 5.39256E-01 3.80291E-01 3.12764E-01 5.57529E-02 8.27224E-02-2.24438E-01
 -1      3986 5.34829E-01 4.39832E-01 2.26346E-01-8.08525E-02-1.64020E-02-2.68830E-01
 -1      3987-1.58952E-01 7.49567E-02 7.17882E-02 4.57641E-02-3.29392E-02-4.71004E-02
 -1      3988 1.78978E-01 1.98672E-01 1.87046E-01-5.27521E-02 6.73763E-02-3.89992E-01
 -1      3989 1.90498E-02 5.11544E-02-1.40191E-02-3.00281E-02-4.93713E-02-1.26090E-01
 -1      3990-4.06688E-01-5.05203E-01-5.85680E-01 1.67951E-01 7.61813E-02-3.54370E-01
 -1      3991 2.09099E-01-1.03016E-01-7.33831E-02 5.82993E-02 3.09940E-02-2.47503E-02
 -1      3992-9.66768E-02-4.99676E-01-2.33310E-02-8.80031E-02-2.58119E-02-1.34386E-01
 -1      3993 6.57011E-01 4.29519E-01 3.52042E-01 7.84329E-02-7.51370E-03-2.98459E-01
 -1      3994-1.33888E-02 1.05719E-02 5.04776E-02 9.40401E-02-7.23471E-02-1.34642E-01
 -1      3995 5.11896E-02-2.86096E-02-1.81063E-02-8.81107E-02-1.02689E-01-2.85169E-01
 -1      3996-1.14126E-01-2.02852E-01-2.17481E-01 1.48262E-02 6.82844E-04-5.31527E-01
 -1      3997 3.41438E-01 6.25162E-01 1.22320E-01-4.21349E-01 9.22365E-02-1.46156E-01
 -1      3998 3.58656E-01 3.51643E-01 2.98190E-01-1.16703E-02-6.28448E-02-1.30343E-01
 -1      3999-2.47342E-01-1.88456E-01-1.55325E-01-2.93999E-02 1.87103E-02-1.93922E-01
 -1      4000 1.33599E-02 4.18376E-02 7.96858E-03-3.52712E-02 3.08167E-02-1.23656E-01
 -1      4001 2.74613E-01 1.61841E-01 8.22723E-02-1.01361E-01 1.12657E-02-2.07358E-01
 -1      4002 1.43612E-02-2.67761E-05 1.01064E-02 7.55427E-02-1.03346E-02-9.38172E-02
 -1      4003 8.71711E-02-2.42504E-02-5.53993E-02-2.50117E-02-5.02844E-02 2.85360E-03
 -1      4004-3.78949E-02-6.05443E-02 3.68788E-02-5.88644E-02 4.58397E-02-9.77282E-02
 -1      4005-1.20225E-01-6.79307E-02-7.78560E-02 3.59961E-02-2.82894E-02-2.10648E-01
 -1      4006-3.13445E-01-2.71140E-01-2.00667E-01 4.35066E-03 9.43082E-02-4.21129E-01
 -1      4007-1.10854E-01-1.78013E-01-1.12029E-01-1.12047E-02 9.23315E-03-3.73055E-01
 -1      4008 3.21137E-01 5.09664E-01 1.72137E-01-2.12076E-01 9.01898E-02-2.05975E-01
 -1      4009 4.14666E-01 3.51386E-01 2.44459E-01-2.88933E-02-2.69141E-02-2.31353E-01
 -1      4010-2.79304E-01-1.86136E-01-2.95281E-01-9.54755E-02-9.70678E-02-4.03370E-01
 -1      4011-1.35635E-01-9.36679E-02-8.75340E-02 1.07614E-02-8.05924E-03-1.77224E-01
 -1      4012-6.70621E-02-1.36247E-01-1.53207E-01 2.26949E-02-1.23341E-02-4.33324E-01
 -1      4013 2.94440E-01 2.91707E-03-4.59838E-02 3.12094E-02 2.17999E-02-2.56709E-02
 -1      4014-3.51328E-02-1.76549E-02 1.01973E-01-7.10462E-02 5.45394E-02-1.15914E-01
 -1      4015-2.32028E-01 2.37156E-01-5.38545E-02 2.57486E-02 1.39978E-01-4.23623E-01
 -1      4016 2.53236E-02 6.58765E-03-3.19203E-02-4.99065E-02-2.39284E-02-1.16692E-01
 -1      4017-3.60860E-01-5.68308E-01-2.60464E-01 2.43265E-01 8.08677E-02-2.49097E-01
 -1      4018-5.19106E-01-3.41959E-01-2.74206E-01-1.31018E-01 6.96210E-02-3.59199E-01
 -1      4019 1.27750E-01 2.81097E-01 1.06036E-01 1.03627E-01-6.18795E-02-2.18697E-01
 -1      4020 1.56020E-01-2.04213E-01-5.25498E-02-4.21901E-02 1.44756E-01-3.83285E-01
 -1      4021-4.02552E-01-3.42062E-01-1.76877E-01-2.50384E-02 9.89876E-02-9.96788E-02
 -1      4022-4.14764E-01-5.44173E-01-1.25536E-01-2.23272E-01-7.65441E-02-1.90172E-01
 -1      4023 1.54920E-01 2.45957E-01 1.48480E-01 1.24494E-02 1.26045E-01-1.26282E-01
 -1      4024-1.44406E-01-6.33548E-02-9.98526E-03 9.97720E-02-5.84043E-02-1.08069E-01
 -1      4025 4.27272E-01 5.19436E-01 4.56221E-01 7.53275E-02-1.06927E-01-3.83615E-01
 -1      4026 4.75327E-01 3.62270E-01 2.70696E-01-4.07682E-02 7.01073E-03-2.30425E-01
 -1      4027 1.98429E-01 1.23406E-01 1.20625E-01-5.15804E-02-3.20373E-02-2.10299E-01
 -1      4028-7.68455E-02 1.37481E-01 7.86327E-02-7.16492E-02-9.90857E-02-3.81248E-01
 -1      4029 4.62306E-03-1.03865E-02 2.59780E-03 1.24731E-02 3.85678E-03-5.12996E-02
 -1      4030 9.29729E-02-1.45058E-02 5.85207E-02 7.23621E-03 2.30388E-03-3.69106E-02
 -3
 9999
