    1C
    1U meshsolid_t.inp                                                  
    1UUSER                                                              
    1UDATE              03.july.2016                                    
    1UTIME              11:17:49                                        
    1UHOST                                                              
    1UPGM               CalculiX                                        
    1UVERSION           Version 2.10                             
    1UCOMPILETIME       Sa 5. MÃ¤r 12:23:33 CET 2016                    
    1UDIR                                                               
    1UDBN                                                               
    1UMAT    1PDMS                                                      
    2C                          3097                                     1
 -1         1 2.63013E+00-4.74999E-01 1.70000E+00
 -1         2 2.63013E+00 4.74999E-01 1.70000E+00
 -1         3 9.21869E+00 9.50000E-01 1.70000E+00
 -1         4 9.21869E+00-4.74999E-01 1.70000E+00
 -1         5 5.98657E+00 9.50000E-01 1.70000E+00
 -1         6 5.98657E+00 4.74999E-01 1.70000E+00
 -1         7 9.21869E+00-9.50000E-01 1.70000E+00
 -1         8 5.98657E+00-9.50000E-01 1.70000E+00
 -1         9 1.25751E+01 4.74999E-01 1.70000E+00
 -1        10 9.21869E+00 4.74999E-01 1.70000E+00
 -1        11 1.25751E+01-4.74999E-01 1.70000E+00
 -1        12 1.25751E+01 4.74999E-01 3.49999E-01
 -1        13 9.21869E+00 4.74999E-01 3.49999E-01
 -1        14 5.98657E+00 4.74999E-01 3.49999E-01
 -1        15 5.98657E+00-4.74999E-01 1.70000E+00
 -1        16 5.98657E+00-4.74999E-01 3.49999E-01
 -1        17 9.21869E+00-4.74999E-01 3.49999E-01
 -1        18 5.98657E+00-9.50000E-01 3.49999E-01
 -1        19 8.69874E+00 3.08900E+00 1.70000E+00
 -1        20 1.14361E+01 5.25114E+00 1.70000E+00
 -1        21 8.88051E+00 2.65016E+00 1.70000E+00
 -1        22 8.33519E+00 3.96668E+00 1.70000E+00
 -1        23 5.89442E+00 1.41328E+00 1.70000E+00
 -1        24 8.15341E+00 4.40553E+00 1.70000E+00
 -1        25 1.14361E+01 5.25114E+00 3.49999E-01
 -1        26 1.17997E+01 4.37345E+00 1.70000E+00
 -1        27 5.34909E+00 2.72980E+00 1.70000E+00
 -1        28 2.24815E+00 1.44535E+00 1.70000E+00
 -1        29 5.34909E+00 2.72980E+00 3.49999E-01
 -1        30 2.61170E+00 5.67665E-01 1.70000E+00
 -1        31 5.71264E+00 1.85212E+00 1.70000E+00
 -1        32 5.71264E+00 1.85212E+00 3.49999E-01
 -1        33 8.69874E+00 3.08900E+00 3.49999E-01
 -1        34 8.15341E+00 4.40553E+00 3.49999E-01
 -1        35 8.33519E+00 3.96668E+00 3.49999E-01
 -1        36 5.16732E+00 3.16865E+00 1.70000E+00
 -1        37 6.85448E+00 6.18273E+00 1.70000E+00
 -1        38 6.18273E+00 6.85448E+00 1.70000E+00
 -1        39 8.55608E+00 9.22784E+00 3.49999E-01
 -1        40 8.55608E+00 9.22784E+00 1.70000E+00
 -1        41 6.18273E+00 6.85448E+00 3.49999E-01
 -1        42 1.52391E+00 2.19566E+00 3.49999E-01
 -1        43 3.89727E+00 4.56902E+00 3.49999E-01
 -1        44 1.52391E+00 2.19566E+00 1.70000E+00
 -1        45 2.19566E+00 1.52391E+00 1.70000E+00
 -1        46 9.22784E+00 8.55608E+00 1.70000E+00
 -1        47 4.56902E+00 3.89727E+00 1.70000E+00
 -1        48 3.56139E+00 4.90489E+00 1.70000E+00
 -1        49 3.89727E+00 4.56902E+00 1.70000E+00
 -1        50 7.19035E+00 5.84685E+00 1.70000E+00
 -1        51 5.84685E+00 7.19035E+00 1.70000E+00
 -1        52 4.90489E+00 3.56139E+00 1.70000E+00
 -1        53 4.90489E+00 3.56139E+00 3.49999E-01
 -1        54 5.84685E+00 7.19035E+00 3.49999E-01
 -1        55 2.65016E+00 8.88051E+00 1.70000E+00
 -1        56 3.96668E+00 8.33519E+00 1.70000E+00
 -1        57 3.08900E+00 8.69874E+00 1.70000E+00
 -1        58 2.72980E+00 5.34909E+00 1.70000E+00
 -1        59 1.44535E+00 2.24815E+00 1.70000E+00
 -1        60 4.37345E+00 1.17997E+01 1.70000E+00
 -1        61 5.25114E+00 1.14361E+01 1.70000E+00
 -1        62 4.37345E+00 1.17997E+01 3.49999E-01
 -1        63 1.85212E+00 5.71264E+00 1.70000E+00
 -1        64 5.67665E-01 2.61170E+00 1.70000E+00
 -1        65 1.44535E+00 2.24815E+00 3.49999E-01
 -1        66 5.25114E+00 1.14361E+01 3.49999E-01
 -1        67 1.85212E+00 5.71264E+00 3.49999E-01
 -1        68 3.16865E+00 5.16732E+00 1.70000E+00
 -1        69 4.40553E+00 8.15341E+00 1.70000E+00
 -1        70 1.41328E+00 5.89442E+00 1.70000E+00
 -1        71-4.74999E-01 9.21869E+00 1.70000E+00
 -1        72 4.74999E-01 1.25751E+01 1.70000E+00
 -1        73 4.74999E-01 5.98657E+00 1.70000E+00
 -1        74-4.74999E-01 1.25751E+01 1.70000E+00
 -1        75-4.74999E-01 1.25751E+01 3.49999E-01
 -1        76-4.74999E-01 2.63013E+00 3.49999E-01
 -1        77-4.74999E-01 2.63013E+00 1.70000E+00
 -1        78 4.74999E-01 2.63013E+00 1.70000E+00
 -1        79 4.74999E-01 1.25751E+01 3.49999E-01
 -1        80 4.74999E-01 9.21869E+00 3.49999E-01
 -1        81 9.50000E-01 5.98657E+00 3.49999E-01
 -1        82-9.50000E-01 5.98657E+00 3.49999E-01
 -1        83-9.50000E-01 5.98657E+00 1.70000E+00
 -1        84-4.74999E-01 5.98657E+00 1.70000E+00
 -1        85-4.74999E-01 5.98657E+00 3.49999E-01
 -1        86 9.50000E-01 9.21869E+00 3.49999E-01
 -1        87 4.74999E-01 9.21869E+00 1.70000E+00
 -1        88 9.50000E-01 9.21869E+00 1.70000E+00
 -1        89 9.50000E-01 5.98657E+00 1.70000E+00
 -1        90-9.50000E-01 9.21869E+00 1.70000E+00
 -1        91-1.44535E+00 2.24815E+00 1.70000E+00
 -1        92-1.85212E+00 5.71264E+00 1.70000E+00
 -1        93-2.65016E+00 8.88051E+00 1.70000E+00
 -1        94-2.72980E+00 5.34909E+00 1.70000E+00
 -1        95-3.96668E+00 8.33519E+00 1.70000E+00
 -1        96-3.08900E+00 8.69874E+00 1.70000E+00
 -1        97-3.16865E+00 5.16732E+00 1.70000E+00
 -1        98-5.25114E+00 1.14361E+01 1.70000E+00
 -1        99-4.40553E+00 8.15341E+00 1.70000E+00
 -1       100-4.37345E+00 1.17997E+01 1.70000E+00
 -1       101-4.37345E+00 1.17997E+01 3.49999E-01
 -1       102-3.96668E+00 8.33519E+00 3.49999E-01
 -1       103-5.67665E-01 2.61170E+00 1.70000E+00
 -1       104-1.85212E+00 5.71264E+00 3.49999E-01
 -1       105-1.41328E+00 5.89442E+00 1.70000E+00
 -1       106-2.65016E+00 8.88051E+00 3.49999E-01
 -1       107-3.16865E+00 5.16732E+00 3.49999E-01
 -1       108-2.19566E+00 1.52391E+00 1.70000E+00
 -1       109-1.52391E+00 2.19566E+00 3.49999E-01
 -1       110-6.85448E+00 6.18273E+00 1.70000E+00
 -1       111-9.22784E+00 8.55608E+00 1.70000E+00
 -1       112-3.89727E+00 4.56902E+00 1.70000E+00
 -1       113-3.56139E+00 4.90489E+00 1.70000E+00
 -1       114-6.18273E+00 6.85448E+00 1.70000E+00
 -1       115-4.56902E+00 3.89727E+00 1.70000E+00
 -1       116-1.52391E+00 2.19566E+00 1.70000E+00
 -1       117-8.55608E+00 9.22784E+00 1.70000E+00
 -1       118-9.22784E+00 8.55608E+00 3.49999E-01
 -1       119-3.89727E+00 4.56902E+00 3.49999E-01
 -1       120-3.56139E+00 4.90489E+00 3.49999E-01
 -1       121-4.90489E+00 3.56139E+00 1.70000E+00
 -1       122-4.56902E+00 3.89727E+00 3.49999E-01
 -1       123-6.18273E+00 6.85448E+00 3.49999E-01
 -1       124-5.84685E+00 7.19035E+00 1.70000E+00
 -1       125-7.19035E+00 5.84685E+00 3.49999E-01
 -1       126-6.85448E+00 6.18273E+00 3.49999E-01
 -1       127-7.19035E+00 5.84685E+00 1.70000E+00
 -1       128-2.61170E+00 5.67665E-01 1.70000E+00
 -1       129-1.14361E+01 5.25114E+00 1.70000E+00
 -1       130-1.17997E+01 4.37345E+00 1.70000E+00
 -1       131-8.33519E+00 3.96668E+00 1.70000E+00
 -1       132-5.16732E+00 3.16865E+00 1.70000E+00
 -1       133-5.34909E+00 2.72980E+00 1.70000E+00
 -1       134-2.24815E+00 1.44535E+00 1.70000E+00
 -1       135-1.14361E+01 5.25114E+00 3.49999E-01
 -1       136-1.17997E+01 4.37345E+00 3.49999E-01
 -1       137-5.34909E+00 2.72980E+00 3.49999E-01
 -1       138-8.33519E+00 3.96668E+00 3.49999E-01
 -1       139-5.71264E+00 1.85212E+00 1.70000E+00
 -1       140-5.71264E+00 1.85212E+00 3.49999E-01
 -1       141-5.89442E+00 1.41328E+00 1.70000E+00
 -1       142-8.88051E+00 2.65016E+00 3.49999E-01
 -1       143-8.69874E+00 3.08900E+00 1.70000E+00
 -1       144-8.88051E+00 2.65016E+00 1.70000E+00
 -1       145-8.15341E+00 4.40553E+00 1.70000E+00
 -1       146-8.15341E+00 4.40553E+00 3.49999E-01
 -1       147-5.98657E+00 4.74999E-01 1.70000E+00
 -1       148-5.98657E+00 9.50000E-01 1.70000E+00
 -1       149-9.21869E+00 4.74999E-01 1.70000E+00
 -1       150-9.21869E+00-4.74999E-01 1.70000E+00
 -1       151-2.63013E+00-4.74999E-01 1.70000E+00
 -1       152-5.98657E+00-4.74999E-01 1.70000E+00
 -1       153-1.25751E+01 4.74999E-01 1.70000E+00
 -1       154-1.25751E+01-4.74999E-01 1.70000E+00
 -1       155-2.63013E+00-4.74999E-01 3.49999E-01
 -1       156-2.63013E+00 4.74999E-01 1.70000E+00
 -1       157-9.21869E+00 4.74999E-01 3.49999E-01
 -1       158-9.21869E+00 9.50000E-01 1.70000E+00
 -1       159-5.98657E+00-9.50000E-01 1.70000E+00
 -1       160-9.21869E+00-9.50000E-01 1.70000E+00
 -1       161-5.98657E+00-9.50000E-01 3.49999E-01
 -1       162-2.61170E+00-5.67665E-01 1.70000E+00
 -1       163-5.34909E+00-2.72980E+00 1.70000E+00
 -1       164-5.89442E+00-1.41328E+00 1.70000E+00
 -1       165-5.71264E+00-1.85212E+00 1.70000E+00
 -1       166-8.69874E+00-3.08900E+00 1.70000E+00
 -1       167-8.33519E+00-3.96668E+00 1.70000E+00
 -1       168-8.88051E+00-2.65016E+00 1.70000E+00
 -1       169-1.17997E+01-4.37345E+00 1.70000E+00
 -1       170-1.14361E+01-5.25114E+00 1.70000E+00
 -1       171-5.34909E+00-2.72980E+00 3.49999E-01
 -1       172-2.24815E+00-1.44535E+00 1.70000E+00
 -1       173-2.24815E+00-1.44535E+00 3.49999E-01
 -1       174-8.69874E+00-3.08900E+00 3.49999E-01
 -1       175-5.71264E+00-1.85212E+00 3.49999E-01
 -1       176-5.16732E+00-3.16865E+00 1.70000E+00
 -1       177-8.33519E+00-3.96668E+00 3.49999E-01
 -1       178-8.15341E+00-4.40553E+00 1.70000E+00
 -1       179-4.56902E+00-3.89727E+00 1.70000E+00
 -1       180-4.90489E+00-3.56139E+00 1.70000E+00
 -1       181-3.56139E+00-4.90489E+00 1.70000E+00
 -1       182-6.85448E+00-6.18273E+00 1.70000E+00
 -1       183-7.19035E+00-5.84685E+00 1.70000E+00
 -1       184-6.18273E+00-6.85448E+00 1.70000E+00
 -1       185-8.55608E+00-9.22784E+00 3.49999E-01
 -1       186-8.55608E+00-9.22784E+00 1.70000E+00
 -1       187-1.52391E+00-2.19566E+00 1.70000E+00
 -1       188-2.19566E+00-1.52391E+00 1.70000E+00
 -1       189-9.22784E+00-8.55608E+00 1.70000E+00
 -1       190-6.85448E+00-6.18273E+00 3.49999E-01
 -1       191-4.90489E+00-3.56139E+00 3.49999E-01
 -1       192-3.89727E+00-4.56902E+00 1.70000E+00
 -1       193-3.56139E+00-4.90489E+00 3.49999E-01
 -1       194-5.84685E+00-7.19035E+00 1.70000E+00
 -1       195-5.84685E+00-7.19035E+00 3.49999E-01
 -1       196-1.44535E+00-2.24815E+00 1.70000E+00
 -1       197-1.44535E+00-2.24815E+00 3.49999E-01
 -1       198-3.96668E+00-8.33519E+00 1.70000E+00
 -1       199-5.67665E-01-2.61170E+00 1.70000E+00
 -1       200-2.72980E+00-5.34909E+00 1.70000E+00
 -1       201-4.37345E+00-1.17997E+01 1.70000E+00
 -1       202-5.25114E+00-1.14361E+01 1.70000E+00
 -1       203-5.67665E-01-2.61170E+00 3.49999E-01
 -1       204-1.85212E+00-5.71264E+00 3.49999E-01
 -1       205-5.25114E+00-1.14361E+01 3.49999E-01
 -1       206-3.16865E+00-5.16732E+00 1.70000E+00
 -1       207-1.41328E+00-5.89442E+00 3.49999E-01
 -1       208-1.41328E+00-5.89442E+00 1.70000E+00
 -1       209-1.85212E+00-5.71264E+00 1.70000E+00
 -1       210-3.08900E+00-8.69874E+00 1.70000E+00
 -1       211-2.65016E+00-8.88051E+00 1.70000E+00
 -1       212-3.16865E+00-5.16732E+00 3.49999E-01
 -1       213-4.40553E+00-8.15341E+00 1.70000E+00
 -1       214-4.74999E-01-2.63013E+00 1.70000E+00
 -1       215-9.50000E-01-9.21869E+00 1.70000E+00
 -1       216-4.74999E-01-5.98657E+00 1.70000E+00
 -1       217 4.74999E-01-2.63013E+00 1.70000E+00
 -1       218 4.74999E-01-9.21869E+00 1.70000E+00
 -1       219-4.74999E-01-1.25751E+01 1.70000E+00
 -1       220 4.74999E-01-1.25751E+01 1.70000E+00
 -1       221 4.74999E-01-5.98657E+00 1.70000E+00
 -1       222-4.74999E-01-9.21869E+00 3.49999E-01
 -1       223-4.74999E-01-5.98657E+00 3.49999E-01
 -1       224-9.50000E-01-5.98657E+00 1.70000E+00
 -1       225-4.74999E-01-9.21869E+00 1.70000E+00
 -1       226 9.50000E-01-9.21869E+00 3.49999E-01
 -1       227-9.50000E-01-5.98657E+00 3.49999E-01
 -1       228 9.50000E-01-5.98657E+00 3.49999E-01
 -1       229 9.50000E-01-5.98657E+00 1.70000E+00
 -1       230 9.50000E-01-9.21869E+00 1.70000E+00
 -1       231 5.67665E-01-2.61170E+00 3.49999E-01
 -1       232 5.25114E+00-1.14361E+01 1.70000E+00
 -1       233 3.08900E+00-8.69874E+00 1.70000E+00
 -1       234 1.85212E+00-5.71264E+00 1.70000E+00
 -1       235 1.44535E+00-2.24815E+00 1.70000E+00
 -1       236 2.65016E+00-8.88051E+00 1.70000E+00
 -1       237 3.96668E+00-8.33519E+00 1.70000E+00
 -1       238 3.96668E+00-8.33519E+00 3.49999E-01
 -1       239 2.72980E+00-5.34909E+00 1.70000E+00
 -1       240 5.67665E-01-2.61170E+00 1.70000E+00
 -1       241 4.37345E+00-1.17997E+01 3.49999E-01
 -1       242 4.37345E+00-1.17997E+01 1.70000E+00
 -1       243 1.85212E+00-5.71264E+00 3.49999E-01
 -1       244 1.41328E+00-5.89442E+00 1.70000E+00
 -1       245 1.41328E+00-5.89442E+00 3.49999E-01
 -1       246 3.16865E+00-5.16732E+00 3.49999E-01
 -1       247 3.16865E+00-5.16732E+00 1.70000E+00
 -1       248 2.72980E+00-5.34909E+00 3.49999E-01
 -1       249 2.65016E+00-8.88051E+00 3.49999E-01
 -1       250 4.40553E+00-8.15341E+00 1.70000E+00
 -1       251 4.40553E+00-8.15341E+00 3.49999E-01
 -1       252 4.56902E+00-3.89727E+00 1.70000E+00
 -1       253 2.19566E+00-1.52391E+00 1.70000E+00
 -1       254 1.52391E+00-2.19566E+00 1.70000E+00
 -1       255 7.19035E+00-5.84685E+00 1.70000E+00
 -1       256 6.85448E+00-6.18273E+00 1.70000E+00
 -1       257 6.18273E+00-6.85448E+00 1.70000E+00
 -1       258 8.55608E+00-9.22784E+00 1.70000E+00
 -1       259 9.22784E+00-8.55608E+00 3.49999E-01
 -1       260 9.22784E+00-8.55608E+00 1.70000E+00
 -1       261 6.85448E+00-6.18273E+00 3.49999E-01
 -1       262 3.89727E+00-4.56902E+00 1.70000E+00
 -1       263 8.55608E+00-9.22784E+00 3.49999E-01
 -1       264 3.89727E+00-4.56902E+00 3.49999E-01
 -1       265 3.56139E+00-4.90489E+00 3.49999E-01
 -1       266 4.90489E+00-3.56139E+00 3.49999E-01
 -1       267 4.90489E+00-3.56139E+00 1.70000E+00
 -1       268 4.56902E+00-3.89727E+00 3.49999E-01
 -1       269 6.18273E+00-6.85448E+00 3.49999E-01
 -1       270 5.84685E+00-7.19035E+00 1.70000E+00
 -1       271 7.19035E+00-5.84685E+00 3.49999E-01
 -1       272 3.56139E+00-4.90489E+00 1.70000E+00
 -1       273 2.61170E+00-5.67665E-01 1.70000E+00
 -1       274 5.71264E+00-1.85212E+00 1.70000E+00
 -1       275 8.33519E+00-3.96668E+00 1.70000E+00
 -1       276 1.17997E+01-4.37345E+00 1.70000E+00
 -1       277 1.14361E+01-5.25114E+00 1.70000E+00
 -1       278 1.14361E+01-5.25114E+00 3.49999E-01
 -1       279 8.69874E+00-3.08900E+00 1.70000E+00
 -1       280 2.24815E+00-1.44535E+00 1.70000E+00
 -1       281 5.34909E+00-2.72980E+00 1.70000E+00
 -1       282 5.34909E+00-2.72980E+00 3.49999E-01
 -1       283 5.16732E+00-3.16865E+00 3.49999E-01
 -1       284 5.16732E+00-3.16865E+00 1.70000E+00
 -1       285 8.33519E+00-3.96668E+00 3.49999E-01
 -1       286 8.15341E+00-4.40553E+00 1.70000E+00
 -1       287 8.88051E+00-2.65016E+00 1.70000E+00
 -1       288 8.69874E+00-3.08900E+00 3.49999E-01
 -1       289 8.88051E+00-2.65016E+00 3.49999E-01
 -1       290 5.89442E+00-1.41328E+00 1.70000E+00
 -1       291-1.66733E+01 3.31653E+00 3.49999E-01
 -1       292-1.70000E+01 0.00000E+00-3.49999E-01
 -1       293 3.31653E+00 1.66733E+01-3.49999E-01
 -1       294 1.41350E+01 9.44469E+00 3.49999E-01
 -1       295 1.41350E+01 9.44469E+00-3.49999E-01
 -1       296 1.66733E+01 3.31653E+00-3.49999E-01
 -1       297 1.66733E+01-3.31653E+00-3.49999E-01
 -1       298 1.41350E+01-9.44469E+00-3.49999E-01
 -1       299 1.57060E+01 6.50562E+00-3.49999E-01
 -1       300 9.44469E+00-1.41350E+01-3.49999E-01
 -1       301 1.20208E+01 1.20208E+01-3.49999E-01
 -1       302 9.44469E+00 1.41350E+01-3.49999E-01
 -1       303 6.50562E+00 1.57060E+01-3.49999E-01
 -1       304-3.31653E+00-1.66733E+01-3.49999E-01
 -1       305-6.50562E+00 1.57060E+01-3.49999E-01
 -1       306-9.44469E+00 1.41350E+01-3.49999E-01
 -1       307-1.20208E+01-1.20208E+01-3.49999E-01
 -1       308-1.20208E+01 1.20208E+01-3.49999E-01
 -1       309-1.41350E+01 9.44469E+00-3.49999E-01
 -1       310-1.57060E+01 6.50562E+00-3.49999E-01
 -1       311-1.66733E+01 3.31653E+00-3.49999E-01
 -1       312 1.57060E+01 6.50562E+00 3.49999E-01
 -1       313 3.31653E+00 1.66733E+01 3.49999E-01
 -1       314-1.41350E+01 9.44469E+00 3.49999E-01
 -1       315-8.69874E+00 3.08900E+00 3.49999E-01
 -1       316-1.57060E+01 6.50562E+00 3.49999E-01
 -1       317-8.88051E+00-2.65016E+00 3.49999E-01
 -1       318-9.21869E+00-4.74999E-01 3.49999E-01
 -1       319-9.21869E+00-9.50000E-01 3.49999E-01
 -1       320-1.25751E+01-4.74999E-01 3.49999E-01
 -1       321-1.66733E+01-3.31653E+00 3.49999E-01
 -1       322-1.25751E+01 4.74999E-01 3.49999E-01
 -1       323-1.17997E+01-4.37345E+00 3.49999E-01
 -1       324-1.57060E+01-6.50562E+00 3.49999E-01
 -1       325-1.70000E+01 0.00000E+00 3.49999E-01
 -1       326-1.20208E+01 1.20208E+01 3.49999E-01
 -1       327-5.89442E+00 1.41328E+00 3.49999E-01
 -1       328-9.21869E+00 9.50000E-01 3.49999E-01
 -1       329-1.14361E+01-5.25114E+00 3.49999E-01
 -1       330-8.15341E+00-4.40553E+00 3.49999E-01
 -1       331-9.22784E+00-8.55608E+00 3.49999E-01
 -1       332-1.20208E+01-1.20208E+01 3.49999E-01
 -1       333-3.96668E+00-8.33519E+00 3.49999E-01
 -1       334-4.40553E+00-8.15341E+00 3.49999E-01
 -1       335-7.19035E+00-5.84685E+00 3.49999E-01
 -1       336-5.25114E+00 1.14361E+01 3.49999E-01
 -1       337-4.40553E+00 8.15341E+00 3.49999E-01
 -1       338-5.84685E+00 7.19035E+00 3.49999E-01
 -1       339-2.61170E+00-5.67665E-01 3.49999E-01
 -1       340-2.61170E+00 5.67665E-01 3.49999E-01
 -1       341-2.63013E+00 4.74999E-01 3.49999E-01
 -1       342-5.98657E+00 9.50000E-01 3.49999E-01
 -1       343-5.98657E+00 4.74999E-01 3.49999E-01
 -1       344-2.19566E+00 1.52391E+00 3.49999E-01
 -1       345-4.90489E+00 3.56139E+00 3.49999E-01
 -1       346-2.24815E+00 1.44535E+00 3.49999E-01
 -1       347-5.16732E+00 3.16865E+00 3.49999E-01
 -1       348-2.72980E+00 5.34909E+00 3.49999E-01
 -1       349-1.44535E+00 2.24815E+00 3.49999E-01
 -1       350-4.74999E-01-2.63013E+00 3.49999E-01
 -1       351-2.72980E+00-5.34909E+00 3.49999E-01
 -1       352-1.52391E+00-2.19566E+00 3.49999E-01
 -1       353-3.89727E+00-4.56902E+00 3.49999E-01
 -1       354-2.19566E+00-1.52391E+00 3.49999E-01
 -1       355-4.56902E+00-3.89727E+00 3.49999E-01
 -1       356-5.16732E+00-3.16865E+00 3.49999E-01
 -1       357-5.98657E+00-4.74999E-01 3.49999E-01
 -1       358-5.89442E+00-1.41328E+00 3.49999E-01
 -1       359-5.67665E-01 2.61170E+00 3.49999E-01
 -1       360 5.67665E-01 2.61170E+00 3.49999E-01
 -1       361 4.74999E-01-2.63013E+00 3.49999E-01
 -1       362 4.74999E-01 2.63013E+00 3.49999E-01
 -1       363 4.74999E-01-5.98657E+00 3.49999E-01
 -1       364 1.41328E+00 5.89442E+00 3.49999E-01
 -1       365 4.74999E-01 5.98657E+00 3.49999E-01
 -1       366 3.96668E+00 8.33519E+00 3.49999E-01
 -1       367 2.24815E+00-1.44535E+00 3.49999E-01
 -1       368 2.19566E+00-1.52391E+00 3.49999E-01
 -1       369 2.72980E+00 5.34909E+00 3.49999E-01
 -1       370 3.16865E+00 5.16732E+00 3.49999E-01
 -1       371 5.84685E+00-7.19035E+00 3.49999E-01
 -1       372 5.89442E+00-1.41328E+00 3.49999E-01
 -1       373 5.71264E+00-1.85212E+00 3.49999E-01
 -1       374 2.63013E+00-4.74999E-01 3.49999E-01
 -1       375 2.24815E+00 1.44535E+00 3.49999E-01
 -1       376 2.61170E+00-5.67665E-01 3.49999E-01
 -1       377 9.21869E+00 9.50000E-01 3.49999E-01
 -1       378 9.44469E+00 1.41350E+01 3.49999E-01
 -1       379 6.50562E+00 1.57060E+01 3.49999E-01
 -1       380 2.65016E+00 8.88051E+00 3.49999E-01
 -1       381 3.08900E+00 8.69874E+00 3.49999E-01
 -1       382-4.74999E-01 9.21869E+00 3.49999E-01
 -1       383-1.41328E+00 5.89442E+00 3.49999E-01
 -1       384-9.50000E-01 9.21869E+00 3.49999E-01
 -1       385-3.08900E+00 8.69874E+00 3.49999E-01
 -1       386-6.50562E+00 1.57060E+01 3.49999E-01
 -1       387-3.31653E+00 1.66733E+01 3.49999E-01
 -1       388-9.44469E+00 1.41350E+01 3.49999E-01
 -1       389-8.55608E+00 9.22784E+00 3.49999E-01
 -1       390 1.17997E+01 4.37345E+00 3.49999E-01
 -1       391 9.22784E+00 8.55608E+00 3.49999E-01
 -1       392 7.19035E+00 5.84685E+00 3.49999E-01
 -1       393 6.85448E+00 6.18273E+00 3.49999E-01
 -1       394 1.66733E+01 3.31653E+00 3.49999E-01
 -1       395 1.70000E+01 0.00000E+00 3.49999E-01
 -1       396 1.17997E+01-4.37345E+00 3.49999E-01
 -1       397 1.25751E+01-4.74999E-01 3.49999E-01
 -1       398 1.20208E+01 1.20208E+01 3.49999E-01
 -1       399 1.57060E+01-6.50562E+00 3.49999E-01
 -1       400 9.21869E+00-9.50000E-01 3.49999E-01
 -1       401 1.41350E+01-9.44469E+00 3.49999E-01
 -1       402 1.20208E+01-1.20208E+01 3.49999E-01
 -1       403 8.15341E+00-4.40553E+00 3.49999E-01
 -1       404 5.25114E+00-1.14361E+01 3.49999E-01
 -1       405 9.44469E+00-1.41350E+01 3.49999E-01
 -1       406 6.50562E+00-1.57060E+01 3.49999E-01
 -1       407 3.08900E+00-8.69874E+00 3.49999E-01
 -1       408 4.74999E-01-1.25751E+01 3.49999E-01
 -1       409 4.74999E-01-9.21869E+00 3.49999E-01
 -1       410 3.31653E+00-1.66733E+01 3.49999E-01
 -1       411-9.50000E-01-9.21869E+00 3.49999E-01
 -1       412-2.65016E+00-8.88051E+00 3.49999E-01
 -1       413-4.37345E+00-1.17997E+01 3.49999E-01
 -1       414-3.08900E+00-8.69874E+00 3.49999E-01
 -1       415-4.74999E-01-1.25751E+01 3.49999E-01
 -1       416-6.18273E+00-6.85448E+00 3.49999E-01
 -1       417-6.50562E+00-1.57060E+01 3.49999E-01
 -1       418 8.88051E+00 2.65016E+00 3.49999E-01
 -1       419 5.98657E+00 9.50000E-01 3.49999E-01
 -1       420 5.89442E+00 1.41328E+00 3.49999E-01
 -1       421 2.63013E+00 4.74999E-01 3.49999E-01
 -1       422 2.61170E+00 5.67665E-01 3.49999E-01
 -1       423 3.56139E+00 4.90489E+00 3.49999E-01
 -1       424 4.40553E+00 8.15341E+00 3.49999E-01
 -1       425 2.19566E+00 1.52391E+00 3.49999E-01
 -1       426 4.56902E+00 3.89727E+00 3.49999E-01
 -1       427 5.16732E+00 3.16865E+00 3.49999E-01
 -1       428 1.52391E+00-2.19566E+00 3.49999E-01
 -1       429 1.44535E+00-2.24815E+00 3.49999E-01
 -1       430 0.00000E+00 1.70000E+01-3.49999E-01
 -1       431 0.00000E+00 1.70000E+01 3.49999E-01
 -1       432-3.31653E+00 1.66733E+01-3.49999E-01
 -1       433 1.70000E+01 0.00000E+00-3.49999E-01
 -1       434 1.20208E+01-1.20208E+01-3.49999E-01
 -1       435-9.44469E+00-1.41350E+01 3.49999E-01
 -1       436-1.66733E+01-3.31653E+00-3.49999E-01
 -1       437 1.66733E+01-3.31653E+00 3.49999E-01
 -1       438 1.57060E+01-6.50562E+00-3.49999E-01
 -1       439-9.44469E+00-1.41350E+01-3.49999E-01
 -1       440-6.50562E+00-1.57060E+01-3.49999E-01
 -1       441 0.00000E+00-1.70000E+01 3.49999E-01
 -1       442-3.31653E+00-1.66733E+01 3.49999E-01
 -1       443 0.00000E+00-1.70000E+01-3.49999E-01
 -1       444-1.41350E+01-9.44469E+00-3.49999E-01
 -1       445-1.41350E+01-9.44469E+00 3.49999E-01
 -1       446-1.57060E+01-6.50562E+00-3.49999E-01
 -1       447 3.31653E+00-1.66733E+01-3.49999E-01
 -1       448 6.50562E+00-1.57060E+01-3.49999E-01
 -1       449 2.63013E+00 4.74999E-01 1.02500E+00
 -1       450 2.63013E+00-4.74999E-01 1.02500E+00
 -1       451 4.30835E+00 4.74999E-01 1.70000E+00
 -1       452 4.30835E+00-4.74999E-01 1.70000E+00
 -1       453 7.60263E+00 9.50000E-01 1.70000E+00
 -1       454 7.60263E+00-9.50000E-01 1.70000E+00
 -1       455 1.08969E+01 4.74999E-01 1.70000E+00
 -1       456 1.08969E+01-4.74999E-01 1.70000E+00
 -1       457 1.25751E+01 4.74999E-01 1.02500E+00
 -1       458 1.25751E+01-4.74999E-01 1.02500E+00
 -1       459 1.08969E+01 4.74999E-01 3.49999E-01
 -1       460 9.21869E+00 4.74999E-01 1.02500E+00
 -1       461 5.98657E+00 4.74999E-01 1.02500E+00
 -1       462 4.30835E+00 4.74999E-01 3.49999E-01
 -1       463 4.30835E+00-4.74999E-01 3.49999E-01
 -1       464 5.98657E+00-4.74999E-01 1.02500E+00
 -1       465 9.21869E+00-4.74999E-01 1.02500E+00
 -1       466 1.08969E+01-4.74999E-01 3.49999E-01
 -1       467 5.98657E+00-9.50000E-01 1.02500E+00
 -1       468 5.98657E+00 9.50000E-01 1.02500E+00
 -1       469 9.21869E+00-9.50000E-01 1.02500E+00
 -1       470 9.21869E+00 9.50000E-01 1.02500E+00
 -1       471 7.60263E+00-9.50000E-01 3.49999E-01
 -1       472 7.60263E+00 9.50000E-01 3.49999E-01
 -1       473 2.24815E+00 1.44535E+00 1.02500E+00
 -1       474 2.61170E+00 5.67665E-01 1.02500E+00
 -1       475 1.02492E+01 3.73123E+00 1.70000E+00
 -1       476 9.88564E+00 4.60891E+00 1.70000E+00
 -1       477 7.38747E+00 2.03172E+00 1.70000E+00
 -1       478 6.66037E+00 3.78709E+00 1.70000E+00
 -1       479 4.16217E+00 1.20989E+00 1.70000E+00
 -1       480 3.79862E+00 2.08757E+00 1.70000E+00
 -1       481 1.14361E+01 5.25114E+00 1.02500E+00
 -1       482 1.17997E+01 4.37345E+00 1.02500E+00
 -1       483 9.88564E+00 4.60891E+00 3.49999E-01
 -1       484 8.33519E+00 3.96668E+00 1.02500E+00
 -1       485 5.34909E+00 2.72980E+00 1.02500E+00
 -1       486 3.79862E+00 2.08757E+00 3.49999E-01
 -1       487 4.16217E+00 1.20989E+00 3.49999E-01
 -1       488 5.71264E+00 1.85212E+00 1.02500E+00
 -1       489 8.69874E+00 3.08900E+00 1.02500E+00
 -1       490 1.02492E+01 3.73123E+00 3.49999E-01
 -1       491 5.89442E+00 1.41328E+00 1.02500E+00
 -1       492 5.16732E+00 3.16865E+00 1.02500E+00
 -1       493 8.88051E+00 2.65016E+00 1.02500E+00
 -1       494 8.15341E+00 4.40553E+00 1.02500E+00
 -1       495 7.38747E+00 2.03172E+00 3.49999E-01
 -1       496 6.66037E+00 3.78709E+00 3.49999E-01
 -1       497 1.52391E+00 2.19566E+00 1.02500E+00
 -1       498 2.19566E+00 1.52391E+00 1.02500E+00
 -1       499 8.04116E+00 7.36940E+00 1.70000E+00
 -1       500 7.36940E+00 8.04116E+00 1.70000E+00
 -1       501 6.04762E+00 4.70412E+00 1.70000E+00
 -1       502 4.70412E+00 6.04762E+00 1.70000E+00
 -1       503 3.38234E+00 2.71059E+00 1.70000E+00
 -1       504 2.71059E+00 3.38234E+00 1.70000E+00
 -1       505 8.55608E+00 9.22784E+00 1.02500E+00
 -1       506 9.22784E+00 8.55608E+00 1.02500E+00
 -1       507 7.36940E+00 8.04116E+00 3.49999E-01
 -1       508 6.18273E+00 6.85448E+00 1.02500E+00
 -1       509 3.89727E+00 4.56902E+00 1.02500E+00
 -1       510 2.71059E+00 3.38234E+00 3.49999E-01
 -1       511 4.56902E+00 3.89727E+00 1.02500E+00
 -1       512 3.38234E+00 2.71059E+00 3.49999E-01
 -1       513 6.85448E+00 6.18273E+00 1.02500E+00
 -1       514 8.04116E+00 7.36940E+00 3.49999E-01
 -1       515 4.90489E+00 3.56139E+00 1.02500E+00
 -1       516 3.56139E+00 4.90489E+00 1.02500E+00
 -1       517 7.19035E+00 5.84685E+00 1.02500E+00
 -1       518 5.84685E+00 7.19035E+00 1.02500E+00
 -1       519 6.04762E+00 4.70412E+00 3.49999E-01
 -1       520 4.70412E+00 6.04762E+00 3.49999E-01
 -1       521 5.67665E-01 2.61170E+00 1.02500E+00
 -1       522 1.44535E+00 2.24815E+00 1.02500E+00
 -1       523 2.03172E+00 7.38747E+00 1.70000E+00
 -1       524 4.60891E+00 9.88564E+00 1.70000E+00
 -1       525 3.73123E+00 1.02492E+01 1.70000E+00
 -1       526 2.08757E+00 3.79862E+00 1.70000E+00
 -1       527 1.20989E+00 4.16217E+00 1.70000E+00
 -1       528 3.78709E+00 6.66037E+00 1.70000E+00
 -1       529 5.25114E+00 1.14361E+01 1.02500E+00
 -1       530 4.37345E+00 1.17997E+01 1.02500E+00
 -1       531 3.73123E+00 1.02492E+01 3.49999E-01
 -1       532 3.08900E+00 8.69874E+00 1.02500E+00
 -1       533 1.85212E+00 5.71264E+00 1.02500E+00
 -1       534 1.20989E+00 4.16217E+00 3.49999E-01
 -1       535 2.72980E+00 5.34909E+00 1.02500E+00
 -1       536 2.08757E+00 3.79862E+00 3.49999E-01
 -1       537 3.96668E+00 8.33519E+00 1.02500E+00
 -1       538 4.60891E+00 9.88564E+00 3.49999E-01
 -1       539 3.16865E+00 5.16732E+00 1.02500E+00
 -1       540 1.41328E+00 5.89442E+00 1.02500E+00
 -1       541 4.40553E+00 8.15341E+00 1.02500E+00
 -1       542 2.65016E+00 8.88051E+00 1.02500E+00
 -1       543 3.78709E+00 6.66037E+00 3.49999E-01
 -1       544 2.03172E+00 7.38747E+00 3.49999E-01
 -1       545-4.74999E-01 2.63013E+00 1.02500E+00
 -1       546 4.74999E-01 2.63013E+00 1.02500E+00
 -1       547-9.50000E-01 7.60263E+00 1.70000E+00
 -1       548 4.74999E-01 1.08969E+01 1.70000E+00
 -1       549-4.74999E-01 1.08969E+01 1.70000E+00
 -1       550 4.74999E-01 4.30835E+00 1.70000E+00
 -1       551-4.74999E-01 4.30835E+00 1.70000E+00
 -1       552 9.50000E-01 7.60263E+00 1.70000E+00
 -1       553 4.74999E-01 1.25751E+01 1.02500E+00
 -1       554-4.74999E-01 1.25751E+01 1.02500E+00
 -1       555-4.74999E-01 1.08969E+01 3.49999E-01
 -1       556-4.74999E-01 9.21869E+00 1.02500E+00
 -1       557-4.74999E-01 5.98657E+00 1.02500E+00
 -1       558-4.74999E-01 4.30835E+00 3.49999E-01
 -1       559 4.74999E-01 5.98657E+00 1.02500E+00
 -1       560 4.74999E-01 4.30835E+00 3.49999E-01
 -1       561 4.74999E-01 9.21869E+00 1.02500E+00
 -1       562 4.74999E-01 1.08969E+01 3.49999E-01
 -1       563 9.50000E-01 5.98657E+00 1.02500E+00
 -1       564-9.50000E-01 5.98657E+00 1.02500E+00
 -1       565 9.50000E-01 9.21869E+00 1.02500E+00
 -1       566-9.50000E-01 9.21869E+00 1.02500E+00
 -1       567 9.50000E-01 7.60263E+00 3.49999E-01
 -1       568-9.50000E-01 7.60263E+00 3.49999E-01
 -1       569-1.44535E+00 2.24815E+00 1.02500E+00
 -1       570-5.67665E-01 2.61170E+00 1.02500E+00
 -1       571-2.03172E+00 7.38747E+00 1.70000E+00
 -1       572-1.20989E+00 4.16217E+00 1.70000E+00
 -1       573-2.08757E+00 3.79862E+00 1.70000E+00
 -1       574-3.73123E+00 1.02492E+01 1.70000E+00
 -1       575-4.60891E+00 9.88564E+00 1.70000E+00
 -1       576-3.78709E+00 6.66037E+00 1.70000E+00
 -1       577-4.37345E+00 1.17997E+01 1.02500E+00
 -1       578-5.25114E+00 1.14361E+01 1.02500E+00
 -1       579-4.60891E+00 9.88564E+00 3.49999E-01
 -1       580-3.96668E+00 8.33519E+00 1.02500E+00
 -1       581-2.72980E+00 5.34909E+00 1.02500E+00
 -1       582-2.08757E+00 3.79862E+00 3.49999E-01
 -1       583-1.85212E+00 5.71264E+00 1.02500E+00
 -1       584-1.20989E+00 4.16217E+00 3.49999E-01
 -1       585-3.08900E+00 8.69874E+00 1.02500E+00
 -1       586-3.73123E+00 1.02492E+01 3.49999E-01
 -1       587-1.41328E+00 5.89442E+00 1.02500E+00
 -1       588-3.16865E+00 5.16732E+00 1.02500E+00
 -1       589-2.65016E+00 8.88051E+00 1.02500E+00
 -1       590-4.40553E+00 8.15341E+00 1.02500E+00
 -1       591-2.03172E+00 7.38747E+00 3.49999E-01
 -1       592-3.78709E+00 6.66037E+00 3.49999E-01
 -1       593-1.52391E+00 2.19566E+00 1.02500E+00
 -1       594-2.19566E+00 1.52391E+00 1.02500E+00
 -1       595-7.36940E+00 8.04116E+00 1.70000E+00
 -1       596-8.04116E+00 7.36940E+00 1.70000E+00
 -1       597-4.70412E+00 6.04762E+00 1.70000E+00
 -1       598-6.04762E+00 4.70412E+00 1.70000E+00
 -1       599-2.71059E+00 3.38234E+00 1.70000E+00
 -1       600-3.38234E+00 2.71059E+00 1.70000E+00
 -1       601-8.55608E+00 9.22784E+00 1.02500E+00
 -1       602-9.22784E+00 8.55608E+00 1.02500E+00
 -1       603-8.04116E+00 7.36940E+00 3.49999E-01
 -1       604-6.85448E+00 6.18273E+00 1.02500E+00
 -1       605-4.56902E+00 3.89727E+00 1.02500E+00
 -1       606-3.38234E+00 2.71059E+00 3.49999E-01
 -1       607-3.89727E+00 4.56902E+00 1.02500E+00
 -1       608-2.71059E+00 3.38234E+00 3.49999E-01
 -1       609-6.18273E+00 6.85448E+00 1.02500E+00
 -1       610-7.36940E+00 8.04116E+00 3.49999E-01
 -1       611-3.56139E+00 4.90489E+00 1.02500E+00
 -1       612-4.90489E+00 3.56139E+00 1.02500E+00
 -1       613-5.84685E+00 7.19035E+00 1.02500E+00
 -1       614-7.19035E+00 5.84685E+00 1.02500E+00
 -1       615-4.70412E+00 6.04762E+00 3.49999E-01
 -1       616-6.04762E+00 4.70412E+00 3.49999E-01
 -1       617-2.24815E+00 1.44535E+00 1.02500E+00
 -1       618-2.61170E+00 5.67665E-01 1.02500E+00
 -1       619-9.88564E+00 4.60891E+00 1.70000E+00
 -1       620-1.02492E+01 3.73123E+00 1.70000E+00
 -1       621-6.66037E+00 3.78709E+00 1.70000E+00
 -1       622-7.38747E+00 2.03172E+00 1.70000E+00
 -1       623-3.79862E+00 2.08757E+00 1.70000E+00
 -1       624-4.16217E+00 1.20989E+00 1.70000E+00
 -1       625-1.14361E+01 5.25114E+00 1.02500E+00
 -1       626-1.17997E+01 4.37345E+00 1.02500E+00
 -1       627-1.02492E+01 3.73123E+00 3.49999E-01
 -1       628-8.69874E+00 3.08900E+00 1.02500E+00
 -1       629-5.71264E+00 1.85212E+00 1.02500E+00
 -1       630-4.16217E+00 1.20989E+00 3.49999E-01
 -1       631-3.79862E+00 2.08757E+00 3.49999E-01
 -1       632-5.34909E+00 2.72980E+00 1.02500E+00
 -1       633-8.33519E+00 3.96668E+00 1.02500E+00
 -1       634-9.88564E+00 4.60891E+00 3.49999E-01
 -1       635-5.16732E+00 3.16865E+00 1.02500E+00
 -1       636-5.89442E+00 1.41328E+00 1.02500E+00
 -1       637-8.15341E+00 4.40553E+00 1.02500E+00
 -1       638-8.88051E+00 2.65016E+00 1.02500E+00
 -1       639-6.66037E+00 3.78709E+00 3.49999E-01
 -1       640-7.38747E+00 2.03172E+00 3.49999E-01
 -1       641-2.63013E+00 4.74999E-01 1.02500E+00
 -1       642-2.63013E+00-4.74999E-01 1.02500E+00
 -1       643-1.08969E+01 4.74999E-01 1.70000E+00
 -1       644-1.08969E+01-4.74999E-01 1.70000E+00
 -1       645-7.60263E+00 9.50000E-01 1.70000E+00
 -1       646-7.60263E+00-9.50000E-01 1.70000E+00
 -1       647-4.30835E+00 4.74999E-01 1.70000E+00
 -1       648-4.30835E+00-4.74999E-01 1.70000E+00
 -1       649-1.25751E+01 4.74999E-01 1.02500E+00
 -1       650-1.25751E+01-4.74999E-01 1.02500E+00
 -1       651-1.08969E+01-4.74999E-01 3.49999E-01
 -1       652-9.21869E+00-4.74999E-01 1.02500E+00
 -1       653-5.98657E+00-4.74999E-01 1.02500E+00
 -1       654-4.30835E+00-4.74999E-01 3.49999E-01
 -1       655-4.30835E+00 4.74999E-01 3.49999E-01
 -1       656-5.98657E+00 4.74999E-01 1.02500E+00
 -1       657-9.21869E+00 4.74999E-01 1.02500E+00
 -1       658-1.08969E+01 4.74999E-01 3.49999E-01
 -1       659-5.98657E+00 9.50000E-01 1.02500E+00
 -1       660-5.98657E+00-9.50000E-01 1.02500E+00
 -1       661-9.21869E+00 9.50000E-01 1.02500E+00
 -1       662-9.21869E+00-9.50000E-01 1.02500E+00
 -1       663-7.60263E+00 9.50000E-01 3.49999E-01
 -1       664-7.60263E+00-9.50000E-01 3.49999E-01
 -1       665-2.61170E+00-5.67665E-01 1.02500E+00
 -1       666-2.24815E+00-1.44535E+00 1.02500E+00
 -1       667-3.79862E+00-2.08757E+00 1.70000E+00
 -1       668-4.16217E+00-1.20989E+00 1.70000E+00
 -1       669-6.66037E+00-3.78709E+00 1.70000E+00
 -1       670-7.38747E+00-2.03172E+00 1.70000E+00
 -1       671-9.88564E+00-4.60891E+00 1.70000E+00
 -1       672-1.02492E+01-3.73123E+00 1.70000E+00
 -1       673-1.17997E+01-4.37345E+00 1.02500E+00
 -1       674-1.14361E+01-5.25114E+00 1.02500E+00
 -1       675-9.88564E+00-4.60891E+00 3.49999E-01
 -1       676-8.33519E+00-3.96668E+00 1.02500E+00
 -1       677-5.34909E+00-2.72980E+00 1.02500E+00
 -1       678-3.79862E+00-2.08757E+00 3.49999E-01
 -1       679-4.16217E+00-1.20989E+00 3.49999E-01
 -1       680-5.71264E+00-1.85212E+00 1.02500E+00
 -1       681-8.69874E+00-3.08900E+00 1.02500E+00
 -1       682-1.02492E+01-3.73123E+00 3.49999E-01
 -1       683-5.89442E+00-1.41328E+00 1.02500E+00
 -1       684-5.16732E+00-3.16865E+00 1.02500E+00
 -1       685-8.88051E+00-2.65016E+00 1.02500E+00
 -1       686-8.15341E+00-4.40553E+00 1.02500E+00
 -1       687-7.38747E+00-2.03172E+00 3.49999E-01
 -1       688-6.66037E+00-3.78709E+00 3.49999E-01
 -1       689-2.19566E+00-1.52391E+00 1.02500E+00
 -1       690-1.52391E+00-2.19566E+00 1.02500E+00
 -1       691-2.71059E+00-3.38234E+00 1.70000E+00
 -1       692-3.38234E+00-2.71059E+00 1.70000E+00
 -1       693-4.70412E+00-6.04762E+00 1.70000E+00
 -1       694-6.04762E+00-4.70412E+00 1.70000E+00
 -1       695-7.36940E+00-8.04116E+00 1.70000E+00
 -1       696-8.04116E+00-7.36940E+00 1.70000E+00
 -1       697-9.22784E+00-8.55608E+00 1.02500E+00
 -1       698-8.55608E+00-9.22784E+00 1.02500E+00
 -1       699-6.18273E+00-6.85448E+00 1.02500E+00
 -1       700-7.36940E+00-8.04116E+00 3.49999E-01
 -1       701-3.89727E+00-4.56902E+00 1.02500E+00
 -1       702-2.71059E+00-3.38234E+00 3.49999E-01
 -1       703-3.38234E+00-2.71059E+00 3.49999E-01
 -1       704-4.56902E+00-3.89727E+00 1.02500E+00
 -1       705-6.85448E+00-6.18273E+00 1.02500E+00
 -1       706-8.04116E+00-7.36940E+00 3.49999E-01
 -1       707-4.90489E+00-3.56139E+00 1.02500E+00
 -1       708-3.56139E+00-4.90489E+00 1.02500E+00
 -1       709-7.19035E+00-5.84685E+00 1.02500E+00
 -1       710-5.84685E+00-7.19035E+00 1.02500E+00
 -1       711-6.04762E+00-4.70412E+00 3.49999E-01
 -1       712-4.70412E+00-6.04762E+00 3.49999E-01
 -1       713-5.67665E-01-2.61170E+00 1.02500E+00
 -1       714-1.44535E+00-2.24815E+00 1.02500E+00
 -1       715-3.78709E+00-6.66037E+00 1.70000E+00
 -1       716-1.20989E+00-4.16217E+00 1.70000E+00
 -1       717-2.08757E+00-3.79862E+00 1.70000E+00
 -1       718-3.73123E+00-1.02492E+01 1.70000E+00
 -1       719-4.60891E+00-9.88564E+00 1.70000E+00
 -1       720-2.03172E+00-7.38747E+00 1.70000E+00
 -1       721-5.25114E+00-1.14361E+01 1.02500E+00
 -1       722-4.37345E+00-1.17997E+01 1.02500E+00
 -1       723-3.08900E+00-8.69874E+00 1.02500E+00
 -1       724-3.73123E+00-1.02492E+01 3.49999E-01
 -1       725-1.85212E+00-5.71264E+00 1.02500E+00
 -1       726-1.20989E+00-4.16217E+00 3.49999E-01
 -1       727-2.08757E+00-3.79862E+00 3.49999E-01
 -1       728-2.72980E+00-5.34909E+00 1.02500E+00
 -1       729-3.96668E+00-8.33519E+00 1.02500E+00
 -1       730-4.60891E+00-9.88564E+00 3.49999E-01
 -1       731-3.16865E+00-5.16732E+00 1.02500E+00
 -1       732-1.41328E+00-5.89442E+00 1.02500E+00
 -1       733-4.40553E+00-8.15341E+00 1.02500E+00
 -1       734-2.65016E+00-8.88051E+00 1.02500E+00
 -1       735-3.78709E+00-6.66037E+00 3.49999E-01
 -1       736-2.03172E+00-7.38747E+00 3.49999E-01
 -1       737 4.74999E-01-2.63013E+00 1.02500E+00
 -1       738-4.74999E-01-2.63013E+00 1.02500E+00
 -1       739-9.50000E-01-7.60263E+00 1.70000E+00
 -1       740 4.74999E-01-4.30835E+00 1.70000E+00
 -1       741-4.74999E-01-4.30835E+00 1.70000E+00
 -1       742 4.74999E-01-1.08969E+01 1.70000E+00
 -1       743-4.74999E-01-1.08969E+01 1.70000E+00
 -1       744 9.50000E-01-7.60263E+00 1.70000E+00
 -1       745-4.74999E-01-1.25751E+01 1.02500E+00
 -1       746 4.74999E-01-1.25751E+01 1.02500E+00
 -1       747 4.74999E-01-9.21869E+00 1.02500E+00
 -1       748 4.74999E-01-1.08969E+01 3.49999E-01
 -1       749 4.74999E-01-5.98657E+00 1.02500E+00
 -1       750 4.74999E-01-4.30835E+00 3.49999E-01
 -1       751-4.74999E-01-4.30835E+00 3.49999E-01
 -1       752-4.74999E-01-5.98657E+00 1.02500E+00
 -1       753-4.74999E-01-9.21869E+00 1.02500E+00
 -1       754-4.74999E-01-1.08969E+01 3.49999E-01
 -1       755-9.50000E-01-5.98657E+00 1.02500E+00
 -1       756 9.50000E-01-5.98657E+00 1.02500E+00
 -1       757-9.50000E-01-9.21869E+00 1.02500E+00
 -1       758 9.50000E-01-9.21869E+00 1.02500E+00
 -1       759-9.50000E-01-7.60263E+00 3.49999E-01
 -1       760 9.50000E-01-7.60263E+00 3.49999E-01
 -1       761 1.44535E+00-2.24815E+00 1.02500E+00
 -1       762 5.67665E-01-2.61170E+00 1.02500E+00
 -1       763 3.78709E+00-6.66037E+00 1.70000E+00
 -1       764 4.60891E+00-9.88564E+00 1.70000E+00
 -1       765 3.73123E+00-1.02492E+01 1.70000E+00
 -1       766 2.08757E+00-3.79862E+00 1.70000E+00
 -1       767 1.20989E+00-4.16217E+00 1.70000E+00
 -1       768 2.03172E+00-7.38747E+00 1.70000E+00
 -1       769 4.37345E+00-1.17997E+01 1.02500E+00
 -1       770 5.25114E+00-1.14361E+01 1.02500E+00
 -1       771 3.96668E+00-8.33519E+00 1.02500E+00
 -1       772 4.60891E+00-9.88564E+00 3.49999E-01
 -1       773 2.72980E+00-5.34909E+00 1.02500E+00
 -1       774 2.08757E+00-3.79862E+00 3.49999E-01
 -1       775 1.20989E+00-4.16217E+00 3.49999E-01
 -1       776 1.85212E+00-5.71264E+00 1.02500E+00
 -1       777 3.08900E+00-8.69874E+00 1.02500E+00
 -1       778 3.73123E+00-1.02492E+01 3.49999E-01
 -1       779 1.41328E+00-5.89442E+00 1.02500E+00
 -1       780 3.16865E+00-5.16732E+00 1.02500E+00
 -1       781 2.65016E+00-8.88051E+00 1.02500E+00
 -1       782 4.40553E+00-8.15341E+00 1.02500E+00
 -1       783 2.03172E+00-7.38747E+00 3.49999E-01
 -1       784 3.78709E+00-6.66037E+00 3.49999E-01
 -1       785 2.19566E+00-1.52391E+00 1.02500E+00
 -1       786 1.52391E+00-2.19566E+00 1.02500E+00
 -1       787 3.38234E+00-2.71059E+00 1.70000E+00
 -1       788 2.71059E+00-3.38234E+00 1.70000E+00
 -1       789 6.04762E+00-4.70412E+00 1.70000E+00
 -1       790 4.70412E+00-6.04762E+00 1.70000E+00
 -1       791 8.04116E+00-7.36940E+00 1.70000E+00
 -1       792 7.36940E+00-8.04116E+00 1.70000E+00
 -1       793 9.22784E+00-8.55608E+00 1.02500E+00
 -1       794 8.55608E+00-9.22784E+00 1.02500E+00
 -1       795 8.04116E+00-7.36940E+00 3.49999E-01
 -1       796 6.85448E+00-6.18273E+00 1.02500E+00
 -1       797 4.56902E+00-3.89727E+00 1.02500E+00
 -1       798 3.38234E+00-2.71059E+00 3.49999E-01
 -1       799 2.71059E+00-3.38234E+00 3.49999E-01
 -1       800 3.89727E+00-4.56902E+00 1.02500E+00
 -1       801 6.18273E+00-6.85448E+00 1.02500E+00
 -1       802 7.36940E+00-8.04116E+00 3.49999E-01
 -1       803 3.56139E+00-4.90489E+00 1.02500E+00
 -1       804 4.90489E+00-3.56139E+00 1.02500E+00
 -1       805 5.84685E+00-7.19035E+00 1.02500E+00
 -1       806 7.19035E+00-5.84685E+00 1.02500E+00
 -1       807 4.70412E+00-6.04762E+00 3.49999E-01
 -1       808 6.04762E+00-4.70412E+00 3.49999E-01
 -1       809 2.61170E+00-5.67665E-01 1.02500E+00
 -1       810 2.24815E+00-1.44535E+00 1.02500E+00
 -1       811 4.16217E+00-1.20989E+00 1.70000E+00
 -1       812 3.79862E+00-2.08757E+00 1.70000E+00
 -1       813 7.38747E+00-2.03172E+00 1.70000E+00
 -1       814 6.66037E+00-3.78709E+00 1.70000E+00
 -1       815 1.02492E+01-3.73123E+00 1.70000E+00
 -1       816 9.88564E+00-4.60891E+00 1.70000E+00
 -1       817 1.17997E+01-4.37345E+00 1.02500E+00
 -1       818 1.14361E+01-5.25114E+00 1.02500E+00
 -1       819 1.02492E+01-3.73123E+00 3.49999E-01
 -1       820 8.69874E+00-3.08900E+00 1.02500E+00
 -1       821 5.71264E+00-1.85212E+00 1.02500E+00
 -1       822 4.16217E+00-1.20989E+00 3.49999E-01
 -1       823 3.79862E+00-2.08757E+00 3.49999E-01
 -1       824 5.34909E+00-2.72980E+00 1.02500E+00
 -1       825 8.33519E+00-3.96668E+00 1.02500E+00
 -1       826 9.88564E+00-4.60891E+00 3.49999E-01
 -1       827 5.16732E+00-3.16865E+00 1.02500E+00
 -1       828 5.89442E+00-1.41328E+00 1.02500E+00
 -1       829 8.15341E+00-4.40553E+00 1.02500E+00
 -1       830 8.88051E+00-2.65016E+00 1.02500E+00
 -1       831 6.66037E+00-3.78709E+00 3.49999E-01
 -1       832 7.38747E+00-2.03172E+00 3.49999E-01
 -1       833 1.68367E+01 1.65826E+00 3.49999E-01
 -1       834 1.68367E+01 1.65826E+00-3.49999E-01
 -1       835-1.68367E+01 1.65826E+00-3.49999E-01
 -1       836-1.68367E+01 1.65826E+00 3.49999E-01
 -1       837 1.65826E+00 1.68367E+01 3.49999E-01
 -1       838 1.65826E+00 1.68367E+01-3.49999E-01
 -1       839 1.30779E+01 1.07327E+01 3.49999E-01
 -1       840 1.30779E+01 1.07327E+01-3.49999E-01
 -1       841 1.61896E+01 4.91108E+00 3.49999E-01
 -1       842 1.61896E+01 4.91108E+00-3.49999E-01
 -1       843-1.07327E+01 1.30779E+01 3.49999E-01
 -1       844-1.07327E+01 1.30779E+01-3.49999E-01
 -1       845-4.91108E+00 1.61896E+01 3.49999E-01
 -1       846-4.91108E+00 1.61896E+01-3.49999E-01
 -1       847 1.30779E+01-1.07327E+01 3.49999E-01
 -1       848 1.30779E+01-1.07327E+01-3.49999E-01
 -1       849 1.68367E+01-1.65826E+00-3.49999E-01
 -1       850 1.61896E+01-4.91108E+00-3.49999E-01
 -1       851 1.49205E+01-7.97515E+00-3.49999E-01
 -1       852 1.49205E+01 7.97515E+00-3.49999E-01
 -1       853 1.07327E+01-1.30779E+01-3.49999E-01
 -1       854 1.07327E+01 1.30779E+01-3.49999E-01
 -1       855 7.97515E+00-1.49205E+01-3.49999E-01
 -1       856 7.97515E+00 1.49205E+01-3.49999E-01
 -1       857 4.91108E+00-1.61896E+01-3.49999E-01
 -1       858 4.91108E+00 1.61896E+01-3.49999E-01
 -1       859 1.65826E+00-1.68367E+01-3.49999E-01
 -1       860-1.65826E+00-1.68367E+01-3.49999E-01
 -1       861-1.65826E+00 1.68367E+01-3.49999E-01
 -1       862-4.91108E+00-1.61896E+01-3.49999E-01
 -1       863-7.97515E+00-1.49205E+01-3.49999E-01
 -1       864-7.97515E+00 1.49205E+01-3.49999E-01
 -1       865-1.07327E+01-1.30779E+01-3.49999E-01
 -1       866-1.30779E+01-1.07327E+01-3.49999E-01
 -1       867-1.30779E+01 1.07327E+01-3.49999E-01
 -1       868-1.49205E+01-7.97515E+00-3.49999E-01
 -1       869-1.49205E+01 7.97515E+00-3.49999E-01
 -1       870-1.61896E+01-4.91108E+00-3.49999E-01
 -1       871-1.61896E+01 4.91108E+00-3.49999E-01
 -1       872-1.68367E+01-1.65826E+00-3.49999E-01
 -1       873 1.49205E+01 7.97515E+00 3.49999E-01
 -1       874 7.97515E+00 1.49205E+01 3.49999E-01
 -1       875 4.91108E+00 1.61896E+01 3.49999E-01
 -1       876 1.07327E+01 1.30779E+01 3.49999E-01
 -1       877-1.49205E+01 7.97515E+00 3.49999E-01
 -1       878-1.30779E+01 1.07327E+01 3.49999E-01
 -1       879-1.61896E+01 4.91108E+00 3.49999E-01
 -1       880-1.30779E+01-1.07327E+01 3.49999E-01
 -1       881-1.49205E+01-7.97515E+00 3.49999E-01
 -1       882-1.61896E+01-4.91108E+00 3.49999E-01
 -1       883-1.68367E+01-1.65826E+00 3.49999E-01
 -1       884-1.07327E+01-1.30779E+01 3.49999E-01
 -1       885-1.65826E+00 1.68367E+01 3.49999E-01
 -1       886-7.97515E+00 1.49205E+01 3.49999E-01
 -1       887 1.68367E+01-1.65826E+00 3.49999E-01
 -1       888 1.61896E+01-4.91108E+00 3.49999E-01
 -1       889 1.49205E+01-7.97515E+00 3.49999E-01
 -1       890 1.07327E+01-1.30779E+01 3.49999E-01
 -1       891 7.97515E+00-1.49205E+01 3.49999E-01
 -1       892 4.91108E+00-1.61896E+01 3.49999E-01
 -1       893 1.65826E+00-1.68367E+01 3.49999E-01
 -1       894-1.65826E+00-1.68367E+01 3.49999E-01
 -1       895-4.91108E+00-1.61896E+01 3.49999E-01
 -1       896-7.97515E+00-1.49205E+01 3.49999E-01
 -1       897 5.14746E+00 4.74999E-01 1.70000E+00
 -1       898 3.46924E+00 4.74999E-01 1.70000E+00
 -1       899 5.14746E+00-4.74999E-01 1.70000E+00
 -1       900 6.79460E+00 9.50000E-01 1.70000E+00
 -1       901 1.00578E+01 4.74999E-01 1.70000E+00
 -1       902 1.17360E+01-4.74999E-01 1.70000E+00
 -1       903 1.00578E+01 4.74999E-01 3.49999E-01
 -1       904 3.46924E+00 4.74999E-01 3.49999E-01
 -1       905 5.14746E+00-4.74999E-01 3.49999E-01
 -1       906 1.17360E+01-4.74999E-01 3.49999E-01
 -1       907 8.41066E+00-9.50000E-01 3.49999E-01
 -1       908 8.41066E+00 9.50000E-01 3.49999E-01
 -1       909 6.79460E+00 9.50000E-01 3.49999E-01
 -1       910 4.93741E+00 1.53101E+00 1.70000E+00
 -1       911 3.02339E+00 1.76646E+00 1.70000E+00
 -1       912 9.11042E+00 4.28780E+00 3.49999E-01
 -1       913 3.02339E+00 1.76646E+00 3.49999E-01
 -1       914 4.93741E+00 1.53101E+00 3.49999E-01
 -1       915 1.10245E+01 4.05234E+00 3.49999E-01
 -1       916 8.13399E+00 2.34094E+00 3.49999E-01
 -1       917 7.40689E+00 4.09631E+00 3.49999E-01
 -1       918 5.91384E+00 3.47787E+00 3.49999E-01
 -1       919 5.27549E+00 6.61899E+00 1.70000E+00
 -1       920 4.13275E+00 5.47625E+00 1.70000E+00
 -1       921 3.97568E+00 3.30393E+00 1.70000E+00
 -1       922 2.11725E+00 2.78900E+00 1.70000E+00
 -1       923 6.77607E+00 7.44782E+00 3.49999E-01
 -1       924 2.11725E+00 2.78900E+00 3.49999E-01
 -1       925 3.97568E+00 3.30393E+00 3.49999E-01
 -1       926 8.63450E+00 7.96274E+00 3.49999E-01
 -1       927 5.47625E+00 4.13275E+00 3.49999E-01
 -1       928 6.61899E+00 5.27549E+00 3.49999E-01
 -1       929 5.27549E+00 6.61899E+00 3.49999E-01
 -1       930 4.13275E+00 5.47625E+00 3.49999E-01
 -1       931 1.72250E+00 6.64094E+00 1.70000E+00
 -1       932 3.41011E+00 9.47398E+00 1.70000E+00
 -1       933 8.88779E-01 3.38693E+00 1.70000E+00
 -1       934 3.47787E+00 5.91384E+00 1.70000E+00
 -1       935 4.09631E+00 7.40689E+00 1.70000E+00
 -1       936 4.05234E+00 1.10245E+01 3.49999E-01
 -1       937 3.41011E+00 9.47398E+00 3.49999E-01
 -1       938 8.88779E-01 3.38693E+00 3.49999E-01
 -1       939 2.40869E+00 4.57385E+00 3.49999E-01
 -1       940 4.93003E+00 1.06609E+01 3.49999E-01
 -1       941 4.09631E+00 7.40689E+00 3.49999E-01
 -1       942 2.34094E+00 8.13399E+00 3.49999E-01
 -1       943 1.72250E+00 6.64094E+00 3.49999E-01
 -1       944-9.50000E-01 6.79460E+00 1.70000E+00
 -1       945 4.74999E-01 5.14746E+00 1.70000E+00
 -1       946-4.74999E-01 3.46924E+00 1.70000E+00
 -1       947 9.50000E-01 8.41066E+00 1.70000E+00
 -1       948-4.74999E-01 1.00578E+01 3.49999E-01
 -1       949-4.74999E-01 3.46924E+00 3.49999E-01
 -1       950 4.74999E-01 5.14746E+00 3.49999E-01
 -1       951 4.74999E-01 1.17360E+01 3.49999E-01
 -1       952 9.50000E-01 6.79460E+00 3.49999E-01
 -1       953 9.50000E-01 8.41066E+00 3.49999E-01
 -1       954-9.50000E-01 8.41066E+00 3.49999E-01
 -1       955-9.50000E-01 6.79460E+00 3.49999E-01
 -1       956-2.34094E+00 8.13399E+00 1.70000E+00
 -1       957-4.09631E+00 7.40689E+00 1.70000E+00
 -1       958-3.47787E+00 5.91384E+00 1.70000E+00
 -1       959-4.28780E+00 9.11042E+00 3.49999E-01
 -1       960-1.76646E+00 3.02339E+00 3.49999E-01
 -1       961-1.53101E+00 4.93741E+00 3.49999E-01
 -1       962-4.05234E+00 1.10245E+01 3.49999E-01
 -1       963-1.72250E+00 6.64094E+00 3.49999E-01
 -1       964-2.34094E+00 8.13399E+00 3.49999E-01
 -1       965-4.09631E+00 7.40689E+00 3.49999E-01
 -1       966-3.47787E+00 5.91384E+00 3.49999E-01
 -1       967-5.27549E+00 6.61899E+00 1.70000E+00
 -1       968-2.11725E+00 2.78900E+00 1.70000E+00
 -1       969-3.30393E+00 3.97568E+00 1.70000E+00
 -1       970-2.78900E+00 2.11725E+00 1.70000E+00
 -1       971-8.63450E+00 7.96274E+00 3.49999E-01
 -1       972-7.44782E+00 6.77607E+00 3.49999E-01
 -1       973-2.78900E+00 2.11725E+00 3.49999E-01
 -1       974-3.30393E+00 3.97568E+00 3.49999E-01
 -1       975-7.96274E+00 8.63450E+00 3.49999E-01
 -1       976-4.13275E+00 5.47625E+00 3.49999E-01
 -1       977-5.27549E+00 6.61899E+00 3.49999E-01
 -1       978-6.61899E+00 5.27549E+00 3.49999E-01
 -1       979-5.47625E+00 4.13275E+00 3.49999E-01
 -1       980-9.47398E+00 3.41011E+00 1.70000E+00
 -1       981-7.40689E+00 4.09631E+00 1.70000E+00
 -1       982-3.02339E+00 1.76646E+00 1.70000E+00
 -1       983-4.57385E+00 2.40869E+00 1.70000E+00
 -1       984-3.38693E+00 8.88779E-01 1.70000E+00
 -1       985-9.47398E+00 3.41011E+00 3.49999E-01
 -1       986-3.38693E+00 8.88779E-01 3.49999E-01
 -1       987-4.57385E+00 2.40869E+00 3.49999E-01
 -1       988-1.06609E+01 4.93003E+00 3.49999E-01
 -1       989-5.91384E+00 3.47787E+00 3.49999E-01
 -1       990-7.40689E+00 4.09631E+00 3.49999E-01
 -1       991-8.13399E+00 2.34094E+00 3.49999E-01
 -1       992-6.64094E+00 1.72250E+00 3.49999E-01
 -1       993-8.41066E+00 9.50000E-01 1.70000E+00
 -1       994-3.46924E+00 4.74999E-01 1.70000E+00
 -1       995-5.14746E+00 4.74999E-01 1.70000E+00
 -1       996-3.46924E+00-4.74999E-01 1.70000E+00
 -1       997-1.17360E+01-4.74999E-01 3.49999E-01
 -1       998-1.00578E+01-4.74999E-01 3.49999E-01
 -1       999-3.46924E+00-4.74999E-01 3.49999E-01
 -1      1000-5.14746E+00 4.74999E-01 3.49999E-01
 -1      1001-1.17360E+01 4.74999E-01 3.49999E-01
 -1      1002-6.79460E+00 9.50000E-01 3.49999E-01
 -1      1003-8.41066E+00 9.50000E-01 3.49999E-01
 -1      1004-8.41066E+00-9.50000E-01 3.49999E-01
 -1      1005-6.79460E+00-9.50000E-01 3.49999E-01
 -1      1006-3.02339E+00-1.76646E+00 1.70000E+00
 -1      1007-4.93741E+00-1.53101E+00 1.70000E+00
 -1      1008-6.64094E+00-1.72250E+00 1.70000E+00
 -1      1009-8.13399E+00-2.34094E+00 1.70000E+00
 -1      1010-1.10245E+01-4.05234E+00 1.70000E+00
 -1      1011-9.11042E+00-4.28780E+00 3.49999E-01
 -1      1012-3.02339E+00-1.76646E+00 3.49999E-01
 -1      1013-4.93741E+00-1.53101E+00 3.49999E-01
 -1      1014-1.10245E+01-4.05234E+00 3.49999E-01
 -1      1015-6.64094E+00-1.72250E+00 3.49999E-01
 -1      1016-8.13399E+00-2.34094E+00 3.49999E-01
 -1      1017-7.40689E+00-4.09631E+00 3.49999E-01
 -1      1018-5.91384E+00-3.47787E+00 3.49999E-01
 -1      1019-3.30393E+00-3.97568E+00 1.70000E+00
 -1      1020-2.11725E+00-2.78900E+00 1.70000E+00
 -1      1021-3.97568E+00-3.30393E+00 1.70000E+00
 -1      1022-5.47625E+00-4.13275E+00 1.70000E+00
 -1      1023-6.61899E+00-5.27549E+00 1.70000E+00
 -1      1024-8.63450E+00-7.96274E+00 1.70000E+00
 -1      1025-7.96274E+00-8.63450E+00 3.49999E-01
 -1      1026-6.77607E+00-7.44782E+00 3.49999E-01
 -1      1027-2.11725E+00-2.78900E+00 3.49999E-01
 -1      1028-3.97568E+00-3.30393E+00 3.49999E-01
 -1      1029-8.63450E+00-7.96274E+00 3.49999E-01
 -1      1030-5.47625E+00-4.13275E+00 3.49999E-01
 -1      1031-6.61899E+00-5.27549E+00 3.49999E-01
 -1      1032-5.27549E+00-6.61899E+00 3.49999E-01
 -1      1033-4.13275E+00-5.47625E+00 3.49999E-01
 -1      1034-4.09631E+00-7.40689E+00 1.70000E+00
 -1      1035-8.88779E-01-3.38693E+00 1.70000E+00
 -1      1036-2.40869E+00-4.57385E+00 1.70000E+00
 -1      1037-1.72250E+00-6.64094E+00 1.70000E+00
 -1      1038-3.41011E+00-9.47398E+00 3.49999E-01
 -1      1039-8.88779E-01-3.38693E+00 3.49999E-01
 -1      1040-2.40869E+00-4.57385E+00 3.49999E-01
 -1      1041-4.93003E+00-1.06609E+01 3.49999E-01
 -1      1042-3.47787E+00-5.91384E+00 3.49999E-01
 -1      1043-4.09631E+00-7.40689E+00 3.49999E-01
 -1      1044-2.34094E+00-8.13399E+00 3.49999E-01
 -1      1045-1.72250E+00-6.64094E+00 3.49999E-01
 -1      1046-9.50000E-01-8.41066E+00 1.70000E+00
 -1      1047 4.74999E-01-3.46924E+00 1.70000E+00
 -1      1048-4.74999E-01-5.14746E+00 1.70000E+00
 -1      1049 4.74999E-01-1.00578E+01 1.70000E+00
 -1      1050-4.74999E-01-1.17360E+01 1.70000E+00
 -1      1051 4.74999E-01-1.17360E+01 3.49999E-01
 -1      1052 4.74999E-01-1.00578E+01 3.49999E-01
 -1      1053 4.74999E-01-3.46924E+00 3.49999E-01
 -1      1054-4.74999E-01-5.14746E+00 3.49999E-01
 -1      1055-4.74999E-01-1.17360E+01 3.49999E-01
 -1      1056-9.50000E-01-8.41066E+00 3.49999E-01
 -1      1057 9.50000E-01-8.41066E+00 3.49999E-01
 -1      1058 9.50000E-01-6.79460E+00 3.49999E-01
 -1      1059 3.47787E+00-5.91384E+00 1.70000E+00
 -1      1060 1.76646E+00-3.02339E+00 1.70000E+00
 -1      1061 1.53101E+00-4.93741E+00 1.70000E+00
 -1      1062 1.72250E+00-6.64094E+00 1.70000E+00
 -1      1063 2.34094E+00-8.13399E+00 1.70000E+00
 -1      1064 4.28780E+00-9.11042E+00 3.49999E-01
 -1      1065 1.76646E+00-3.02339E+00 3.49999E-01
 -1      1066 1.53101E+00-4.93741E+00 3.49999E-01
 -1      1067 4.05234E+00-1.10245E+01 3.49999E-01
 -1      1068 1.72250E+00-6.64094E+00 3.49999E-01
 -1      1069 2.34094E+00-8.13399E+00 3.49999E-01
 -1      1070 4.09631E+00-7.40689E+00 3.49999E-01
 -1      1071 3.47787E+00-5.91384E+00 3.49999E-01
 -1      1072 2.78900E+00-2.11725E+00 1.70000E+00
 -1      1073 3.30393E+00-3.97568E+00 1.70000E+00
 -1      1074 5.47625E+00-4.13275E+00 1.70000E+00
 -1      1075 7.44782E+00-6.77607E+00 1.70000E+00
 -1      1076 7.96274E+00-8.63450E+00 1.70000E+00
 -1      1077 7.44782E+00-6.77607E+00 3.49999E-01
 -1      1078 2.78900E+00-2.11725E+00 3.49999E-01
 -1      1079 3.30393E+00-3.97568E+00 3.49999E-01
 -1      1080 7.96274E+00-8.63450E+00 3.49999E-01
 -1      1081 5.27549E+00-6.61899E+00 3.49999E-01
 -1      1082 6.61899E+00-5.27549E+00 3.49999E-01
 -1      1083 5.47625E+00-4.13275E+00 3.49999E-01
 -1      1084 4.93741E+00-1.53101E+00 1.70000E+00
 -1      1085 3.38693E+00-8.88779E-01 1.70000E+00
 -1      1086 4.57385E+00-2.40869E+00 1.70000E+00
 -1      1087 6.64094E+00-1.72250E+00 1.70000E+00
 -1      1088 9.47398E+00-3.41011E+00 1.70000E+00
 -1      1089 1.06609E+01-4.93003E+00 1.70000E+00
 -1      1090 9.47398E+00-3.41011E+00 3.49999E-01
 -1      1091 3.38693E+00-8.88779E-01 3.49999E-01
 -1      1092 4.57385E+00-2.40869E+00 3.49999E-01
 -1      1093 1.06609E+01-4.93003E+00 3.49999E-01
 -1      1094 7.40689E+00-4.09631E+00 3.49999E-01
 -1      1095 8.13399E+00-2.34094E+00 3.49999E-01
 -1      1096 6.64094E+00-1.72250E+00 3.49999E-01
 -1      1097 1.69183E+01 8.29132E-01 3.49999E-01
 -1      1098-1.69183E+01 8.29132E-01-3.49999E-01
 -1      1099 2.48740E+00 1.67550E+01 3.49999E-01
 -1      1100 1.64315E+01 4.11380E+00 3.49999E-01
 -1      1101 1.59478E+01 5.70835E+00-3.49999E-01
 -1      1102-1.00887E+01 1.36065E+01 3.49999E-01
 -1      1103 1.67550E+01-2.48740E+00-3.49999E-01
 -1      1104 1.59478E+01-5.70835E+00-3.49999E-01
 -1      1105 1.45278E+01-8.70992E+00-3.49999E-01
 -1      1106 1.53132E+01 7.24039E+00-3.49999E-01
 -1      1107 1.00887E+01-1.36065E+01-3.49999E-01
 -1      1108 1.13768E+01 1.25493E+01-3.49999E-01
 -1      1109 7.24039E+00-1.53132E+01-3.49999E-01
 -1      1110 8.70992E+00 1.45278E+01-3.49999E-01
 -1      1111 4.11380E+00-1.64315E+01-3.49999E-01
 -1      1112 4.11380E+00 1.64315E+01-3.49999E-01
 -1      1113 5.70835E+00 1.59478E+01-3.49999E-01
 -1      1114 8.29132E-01-1.69183E+01-3.49999E-01
 -1      1115-2.48740E+00-1.67550E+01-3.49999E-01
 -1      1116-2.48740E+00 1.67550E+01-3.49999E-01
 -1      1117-8.29132E-01 1.69183E+01-3.49999E-01
 -1      1118-5.70835E+00-1.59478E+01-3.49999E-01
 -1      1119-8.70992E+00-1.45278E+01-3.49999E-01
 -1      1120-8.70992E+00 1.45278E+01-3.49999E-01
 -1      1121-7.24039E+00 1.53132E+01-3.49999E-01
 -1      1122-1.13768E+01-1.25493E+01-3.49999E-01
 -1      1123-1.36065E+01-1.00887E+01-3.49999E-01
 -1      1124-1.36065E+01 1.00887E+01-3.49999E-01
 -1      1125-1.25493E+01 1.13768E+01-3.49999E-01
 -1      1126-1.53132E+01-7.24039E+00-3.49999E-01
 -1      1127-1.45278E+01 8.70992E+00-3.49999E-01
 -1      1128-1.64315E+01-4.11380E+00-3.49999E-01
 -1      1129-1.59478E+01 5.70835E+00-3.49999E-01
 -1      1130-1.69183E+01-8.29132E-01-3.49999E-01
 -1      1131 1.53132E+01 7.24039E+00 3.49999E-01
 -1      1132 8.70992E+00 1.45278E+01 3.49999E-01
 -1      1133 1.13768E+01 1.25493E+01 3.49999E-01
 -1      1134-1.25493E+01 1.13768E+01 3.49999E-01
 -1      1135-1.59478E+01 5.70835E+00 3.49999E-01
 -1      1136-1.25493E+01-1.13768E+01 3.49999E-01
 -1      1137-1.45278E+01-8.70992E+00 3.49999E-01
 -1      1138-1.59478E+01-5.70835E+00 3.49999E-01
 -1      1139-1.67550E+01-2.48740E+00 3.49999E-01
 -1      1140-1.00887E+01-1.36065E+01 3.49999E-01
 -1      1141-2.48740E+00 1.67550E+01 3.49999E-01
 -1      1142-8.70992E+00 1.45278E+01 3.49999E-01
 -1      1143 1.69183E+01-8.29132E-01 3.49999E-01
 -1      1144 1.64315E+01-4.11380E+00 3.49999E-01
 -1      1145 1.53132E+01-7.24039E+00 3.49999E-01
 -1      1146 1.13768E+01-1.25493E+01 3.49999E-01
 -1      1147 8.70992E+00-1.45278E+01 3.49999E-01
 -1      1148 5.70835E+00-1.59478E+01 3.49999E-01
 -1      1149 2.48740E+00-1.67550E+01 3.49999E-01
 -1      1150-8.29132E-01-1.69183E+01 3.49999E-01
 -1      1151-4.11380E+00-1.64315E+01 3.49999E-01
 -1      1152-7.24039E+00-1.53132E+01 3.49999E-01
 -1      1153 3.46924E+00-4.74999E-01 1.70000E+00
 -1      1154 8.41066E+00 9.50000E-01 1.70000E+00
 -1      1155 8.41066E+00-9.50000E-01 1.70000E+00
 -1      1156 6.79460E+00-9.50000E-01 1.70000E+00
 -1      1157 1.17360E+01 4.74999E-01 1.70000E+00
 -1      1158 1.00578E+01-4.74999E-01 1.70000E+00
 -1      1159 1.17360E+01 4.74999E-01 3.49999E-01
 -1      1160 5.14746E+00 4.74999E-01 3.49999E-01
 -1      1161 3.46924E+00-4.74999E-01 3.49999E-01
 -1      1162 1.00578E+01-4.74999E-01 3.49999E-01
 -1      1163 6.79460E+00-9.50000E-01 3.49999E-01
 -1      1164 1.10245E+01 4.05234E+00 1.70000E+00
 -1      1165 9.47398E+00 3.41011E+00 1.70000E+00
 -1      1166 9.11042E+00 4.28780E+00 1.70000E+00
 -1      1167 1.06609E+01 4.93003E+00 1.70000E+00
 -1      1168 8.13399E+00 2.34094E+00 1.70000E+00
 -1      1169 6.64094E+00 1.72250E+00 1.70000E+00
 -1      1170 5.91384E+00 3.47787E+00 1.70000E+00
 -1      1171 7.40689E+00 4.09631E+00 1.70000E+00
 -1      1172 3.38693E+00 8.88779E-01 1.70000E+00
 -1      1173 4.57385E+00 2.40869E+00 1.70000E+00
 -1      1174 1.06609E+01 4.93003E+00 3.49999E-01
 -1      1175 4.57385E+00 2.40869E+00 3.49999E-01
 -1      1176 3.38693E+00 8.88779E-01 3.49999E-01
 -1      1177 9.47398E+00 3.41011E+00 3.49999E-01
 -1      1178 6.64094E+00 1.72250E+00 3.49999E-01
 -1      1179 8.63450E+00 7.96274E+00 1.70000E+00
 -1      1180 7.44782E+00 6.77607E+00 1.70000E+00
 -1      1181 6.77607E+00 7.44782E+00 1.70000E+00
 -1      1182 7.96274E+00 8.63450E+00 1.70000E+00
 -1      1183 6.61899E+00 5.27549E+00 1.70000E+00
 -1      1184 5.47625E+00 4.13275E+00 1.70000E+00
 -1      1185 2.78900E+00 2.11725E+00 1.70000E+00
 -1      1186 3.30393E+00 3.97568E+00 1.70000E+00
 -1      1187 7.96274E+00 8.63450E+00 3.49999E-01
 -1      1188 3.30393E+00 3.97568E+00 3.49999E-01
 -1      1189 2.78900E+00 2.11725E+00 3.49999E-01
 -1      1190 7.44782E+00 6.77607E+00 3.49999E-01
 -1      1191 2.34094E+00 8.13399E+00 1.70000E+00
 -1      1192 4.93003E+00 1.06609E+01 1.70000E+00
 -1      1193 4.28780E+00 9.11042E+00 1.70000E+00
 -1      1194 4.05234E+00 1.10245E+01 1.70000E+00
 -1      1195 2.40869E+00 4.57385E+00 1.70000E+00
 -1      1196 1.76646E+00 3.02339E+00 1.70000E+00
 -1      1197 1.53101E+00 4.93741E+00 1.70000E+00
 -1      1198 1.53101E+00 4.93741E+00 3.49999E-01
 -1      1199 1.76646E+00 3.02339E+00 3.49999E-01
 -1      1200 4.28780E+00 9.11042E+00 3.49999E-01
 -1      1201 3.47787E+00 5.91384E+00 3.49999E-01
 -1      1202-9.50000E-01 8.41066E+00 1.70000E+00
 -1      1203 4.74999E-01 1.17360E+01 1.70000E+00
 -1      1204 4.74999E-01 1.00578E+01 1.70000E+00
 -1      1205-4.74999E-01 1.00578E+01 1.70000E+00
 -1      1206-4.74999E-01 1.17360E+01 1.70000E+00
 -1      1207 4.74999E-01 3.46924E+00 1.70000E+00
 -1      1208-4.74999E-01 5.14746E+00 1.70000E+00
 -1      1209 9.50000E-01 6.79460E+00 1.70000E+00
 -1      1210-4.74999E-01 1.17360E+01 3.49999E-01
 -1      1211-4.74999E-01 5.14746E+00 3.49999E-01
 -1      1212 4.74999E-01 3.46924E+00 3.49999E-01
 -1      1213 4.74999E-01 1.00578E+01 3.49999E-01
 -1      1214-1.72250E+00 6.64094E+00 1.70000E+00
 -1      1215-1.53101E+00 4.93741E+00 1.70000E+00
 -1      1216-8.88779E-01 3.38693E+00 1.70000E+00
 -1      1217-1.76646E+00 3.02339E+00 1.70000E+00
 -1      1218-2.40869E+00 4.57385E+00 1.70000E+00
 -1      1219-4.05234E+00 1.10245E+01 1.70000E+00
 -1      1220-3.41011E+00 9.47398E+00 1.70000E+00
 -1      1221-4.28780E+00 9.11042E+00 1.70000E+00
 -1      1222-4.93003E+00 1.06609E+01 1.70000E+00
 -1      1223-4.93003E+00 1.06609E+01 3.49999E-01
 -1      1224-2.40869E+00 4.57385E+00 3.49999E-01
 -1      1225-8.88779E-01 3.38693E+00 3.49999E-01
 -1      1226-3.41011E+00 9.47398E+00 3.49999E-01
 -1      1227-7.96274E+00 8.63450E+00 1.70000E+00
 -1      1228-6.77607E+00 7.44782E+00 1.70000E+00
 -1      1229-7.44782E+00 6.77607E+00 1.70000E+00
 -1      1230-8.63450E+00 7.96274E+00 1.70000E+00
 -1      1231-4.13275E+00 5.47625E+00 1.70000E+00
 -1      1232-5.47625E+00 4.13275E+00 1.70000E+00
 -1      1233-6.61899E+00 5.27549E+00 1.70000E+00
 -1      1234-3.97568E+00 3.30393E+00 1.70000E+00
 -1      1235-3.97568E+00 3.30393E+00 3.49999E-01
 -1      1236-2.11725E+00 2.78900E+00 3.49999E-01
 -1      1237-6.77607E+00 7.44782E+00 3.49999E-01
 -1      1238-1.06609E+01 4.93003E+00 1.70000E+00
 -1      1239-9.11042E+00 4.28780E+00 1.70000E+00
 -1      1240-1.10245E+01 4.05234E+00 1.70000E+00
 -1      1241-5.91384E+00 3.47787E+00 1.70000E+00
 -1      1242-6.64094E+00 1.72250E+00 1.70000E+00
 -1      1243-8.13399E+00 2.34094E+00 1.70000E+00
 -1      1244-4.93741E+00 1.53101E+00 1.70000E+00
 -1      1245-1.10245E+01 4.05234E+00 3.49999E-01
 -1      1246-4.93741E+00 1.53101E+00 3.49999E-01
 -1      1247-3.02339E+00 1.76646E+00 3.49999E-01
 -1      1248-9.11042E+00 4.28780E+00 3.49999E-01
 -1      1249-1.17360E+01 4.74999E-01 1.70000E+00
 -1      1250-1.00578E+01 4.74999E-01 1.70000E+00
 -1      1251-1.00578E+01-4.74999E-01 1.70000E+00
 -1      1252-1.17360E+01-4.74999E-01 1.70000E+00
 -1      1253-6.79460E+00 9.50000E-01 1.70000E+00
 -1      1254-6.79460E+00-9.50000E-01 1.70000E+00
 -1      1255-8.41066E+00-9.50000E-01 1.70000E+00
 -1      1256-5.14746E+00-4.74999E-01 1.70000E+00
 -1      1257-5.14746E+00-4.74999E-01 3.49999E-01
 -1      1258-3.46924E+00 4.74999E-01 3.49999E-01
 -1      1259-1.00578E+01 4.74999E-01 3.49999E-01
 -1      1260-4.57385E+00-2.40869E+00 1.70000E+00
 -1      1261-3.38693E+00-8.88779E-01 1.70000E+00
 -1      1262-5.91384E+00-3.47787E+00 1.70000E+00
 -1      1263-7.40689E+00-4.09631E+00 1.70000E+00
 -1      1264-9.11042E+00-4.28780E+00 1.70000E+00
 -1      1265-1.06609E+01-4.93003E+00 1.70000E+00
 -1      1266-9.47398E+00-3.41011E+00 1.70000E+00
 -1      1267-1.06609E+01-4.93003E+00 3.49999E-01
 -1      1268-4.57385E+00-2.40869E+00 3.49999E-01
 -1      1269-3.38693E+00-8.88779E-01 3.49999E-01
 -1      1270-9.47398E+00-3.41011E+00 3.49999E-01
 -1      1271-2.78900E+00-2.11725E+00 1.70000E+00
 -1      1272-4.13275E+00-5.47625E+00 1.70000E+00
 -1      1273-5.27549E+00-6.61899E+00 1.70000E+00
 -1      1274-6.77607E+00-7.44782E+00 1.70000E+00
 -1      1275-7.96274E+00-8.63450E+00 1.70000E+00
 -1      1276-7.44782E+00-6.77607E+00 1.70000E+00
 -1      1277-3.30393E+00-3.97568E+00 3.49999E-01
 -1      1278-2.78900E+00-2.11725E+00 3.49999E-01
 -1      1279-7.44782E+00-6.77607E+00 3.49999E-01
 -1      1280-3.47787E+00-5.91384E+00 1.70000E+00
 -1      1281-1.53101E+00-4.93741E+00 1.70000E+00
 -1      1282-1.76646E+00-3.02339E+00 1.70000E+00
 -1      1283-4.93003E+00-1.06609E+01 1.70000E+00
 -1      1284-3.41011E+00-9.47398E+00 1.70000E+00
 -1      1285-4.05234E+00-1.10245E+01 1.70000E+00
 -1      1286-4.28780E+00-9.11042E+00 1.70000E+00
 -1      1287-2.34094E+00-8.13399E+00 1.70000E+00
 -1      1288-4.05234E+00-1.10245E+01 3.49999E-01
 -1      1289-1.53101E+00-4.93741E+00 3.49999E-01
 -1      1290-1.76646E+00-3.02339E+00 3.49999E-01
 -1      1291-4.28780E+00-9.11042E+00 3.49999E-01
 -1      1292-9.50000E-01-6.79460E+00 1.70000E+00
 -1      1293 4.74999E-01-5.14746E+00 1.70000E+00
 -1      1294-4.74999E-01-3.46924E+00 1.70000E+00
 -1      1295 4.74999E-01-1.17360E+01 1.70000E+00
 -1      1296-4.74999E-01-1.00578E+01 1.70000E+00
 -1      1297 9.50000E-01-6.79460E+00 1.70000E+00
 -1      1298 9.50000E-01-8.41066E+00 1.70000E+00
 -1      1299 4.74999E-01-5.14746E+00 3.49999E-01
 -1      1300-4.74999E-01-3.46924E+00 3.49999E-01
 -1      1301-4.74999E-01-1.00578E+01 3.49999E-01
 -1      1302-9.50000E-01-6.79460E+00 3.49999E-01
 -1      1303 4.09631E+00-7.40689E+00 1.70000E+00
 -1      1304 4.28780E+00-9.11042E+00 1.70000E+00
 -1      1305 4.93003E+00-1.06609E+01 1.70000E+00
 -1      1306 4.05234E+00-1.10245E+01 1.70000E+00
 -1      1307 3.41011E+00-9.47398E+00 1.70000E+00
 -1      1308 2.40869E+00-4.57385E+00 1.70000E+00
 -1      1309 8.88779E-01-3.38693E+00 1.70000E+00
 -1      1310 4.93003E+00-1.06609E+01 3.49999E-01
 -1      1311 2.40869E+00-4.57385E+00 3.49999E-01
 -1      1312 8.88779E-01-3.38693E+00 3.49999E-01
 -1      1313 3.41011E+00-9.47398E+00 3.49999E-01
 -1      1314 3.97568E+00-3.30393E+00 1.70000E+00
 -1      1315 2.11725E+00-2.78900E+00 1.70000E+00
 -1      1316 6.61899E+00-5.27549E+00 1.70000E+00
 -1      1317 5.27549E+00-6.61899E+00 1.70000E+00
 -1      1318 4.13275E+00-5.47625E+00 1.70000E+00
 -1      1319 8.63450E+00-7.96274E+00 1.70000E+00
 -1      1320 6.77607E+00-7.44782E+00 1.70000E+00
 -1      1321 8.63450E+00-7.96274E+00 3.49999E-01
 -1      1322 3.97568E+00-3.30393E+00 3.49999E-01
 -1      1323 2.11725E+00-2.78900E+00 3.49999E-01
 -1      1324 6.77607E+00-7.44782E+00 3.49999E-01
 -1      1325 4.13275E+00-5.47625E+00 3.49999E-01
 -1      1326 3.02339E+00-1.76646E+00 1.70000E+00
 -1      1327 8.13399E+00-2.34094E+00 1.70000E+00
 -1      1328 7.40689E+00-4.09631E+00 1.70000E+00
 -1      1329 5.91384E+00-3.47787E+00 1.70000E+00
 -1      1330 1.10245E+01-4.05234E+00 1.70000E+00
 -1      1331 9.11042E+00-4.28780E+00 1.70000E+00
 -1      1332 1.10245E+01-4.05234E+00 3.49999E-01
 -1      1333 4.93741E+00-1.53101E+00 3.49999E-01
 -1      1334 3.02339E+00-1.76646E+00 3.49999E-01
 -1      1335 9.11042E+00-4.28780E+00 3.49999E-01
 -1      1336 5.91384E+00-3.47787E+00 3.49999E-01
 -1      1337 1.67550E+01 2.48740E+00 3.49999E-01
 -1      1338 1.67550E+01 2.48740E+00-3.49999E-01
 -1      1339 1.69183E+01 8.29132E-01-3.49999E-01
 -1      1340-1.67550E+01 2.48740E+00-3.49999E-01
 -1      1341-1.67550E+01 2.48740E+00 3.49999E-01
 -1      1342-1.69183E+01 8.29132E-01 3.49999E-01
 -1      1343 8.29132E-01 1.69183E+01 3.49999E-01
 -1      1344 8.29132E-01 1.69183E+01-3.49999E-01
 -1      1345 2.48740E+00 1.67550E+01-3.49999E-01
 -1      1346 1.36065E+01 1.00887E+01 3.49999E-01
 -1      1347 1.25493E+01 1.13768E+01 3.49999E-01
 -1      1348 1.25493E+01 1.13768E+01-3.49999E-01
 -1      1349 1.36065E+01 1.00887E+01-3.49999E-01
 -1      1350 1.59478E+01 5.70835E+00 3.49999E-01
 -1      1351 1.64315E+01 4.11380E+00-3.49999E-01
 -1      1352-1.13768E+01 1.25493E+01 3.49999E-01
 -1      1353-1.13768E+01 1.25493E+01-3.49999E-01
 -1      1354-1.00887E+01 1.36065E+01-3.49999E-01
 -1      1355-4.11380E+00 1.64315E+01 3.49999E-01
 -1      1356-5.70835E+00 1.59478E+01 3.49999E-01
 -1      1357-5.70835E+00 1.59478E+01-3.49999E-01
 -1      1358-4.11380E+00 1.64315E+01-3.49999E-01
 -1      1359 1.25493E+01-1.13768E+01 3.49999E-01
 -1      1360 1.36065E+01-1.00887E+01 3.49999E-01
 -1      1361 1.36065E+01-1.00887E+01-3.49999E-01
 -1      1362 1.25493E+01-1.13768E+01-3.49999E-01
 -1      1363 1.69183E+01-8.29132E-01-3.49999E-01
 -1      1364 1.64315E+01-4.11380E+00-3.49999E-01
 -1      1365 1.53132E+01-7.24039E+00-3.49999E-01
 -1      1366 1.45278E+01 8.70992E+00-3.49999E-01
 -1      1367 1.13768E+01-1.25493E+01-3.49999E-01
 -1      1368 1.00887E+01 1.36065E+01-3.49999E-01
 -1      1369 8.70992E+00-1.45278E+01-3.49999E-01
 -1      1370 7.24039E+00 1.53132E+01-3.49999E-01
 -1      1371 5.70835E+00-1.59478E+01-3.49999E-01
 -1      1372 2.48740E+00-1.67550E+01-3.49999E-01
 -1      1373-8.29132E-01-1.69183E+01-3.49999E-01
 -1      1374-4.11380E+00-1.64315E+01-3.49999E-01
 -1      1375-7.24039E+00-1.53132E+01-3.49999E-01
 -1      1376-1.00887E+01-1.36065E+01-3.49999E-01
 -1      1377-1.25493E+01-1.13768E+01-3.49999E-01
 -1      1378-1.45278E+01-8.70992E+00-3.49999E-01
 -1      1379-1.53132E+01 7.24039E+00-3.49999E-01
 -1      1380-1.59478E+01-5.70835E+00-3.49999E-01
 -1      1381-1.64315E+01 4.11380E+00-3.49999E-01
 -1      1382-1.67550E+01-2.48740E+00-3.49999E-01
 -1      1383 1.45278E+01 8.70992E+00 3.49999E-01
 -1      1384 7.24039E+00 1.53132E+01 3.49999E-01
 -1      1385 5.70835E+00 1.59478E+01 3.49999E-01
 -1      1386 4.11380E+00 1.64315E+01 3.49999E-01
 -1      1387 1.00887E+01 1.36065E+01 3.49999E-01
 -1      1388-1.45278E+01 8.70992E+00 3.49999E-01
 -1      1389-1.53132E+01 7.24039E+00 3.49999E-01
 -1      1390-1.36065E+01 1.00887E+01 3.49999E-01
 -1      1391-1.64315E+01 4.11380E+00 3.49999E-01
 -1      1392-1.36065E+01-1.00887E+01 3.49999E-01
 -1      1393-1.53132E+01-7.24039E+00 3.49999E-01
 -1      1394-1.64315E+01-4.11380E+00 3.49999E-01
 -1      1395-1.69183E+01-8.29132E-01 3.49999E-01
 -1      1396-1.13768E+01-1.25493E+01 3.49999E-01
 -1      1397-8.29132E-01 1.69183E+01 3.49999E-01
 -1      1398-7.24039E+00 1.53132E+01 3.49999E-01
 -1      1399 1.67550E+01-2.48740E+00 3.49999E-01
 -1      1400 1.59478E+01-5.70835E+00 3.49999E-01
 -1      1401 1.45278E+01-8.70992E+00 3.49999E-01
 -1      1402 1.00887E+01-1.36065E+01 3.49999E-01
 -1      1403 7.24039E+00-1.53132E+01 3.49999E-01
 -1      1404 4.11380E+00-1.64315E+01 3.49999E-01
 -1      1405 8.29132E-01-1.69183E+01 3.49999E-01
 -1      1406-2.48740E+00-1.67550E+01 3.49999E-01
 -1      1407-5.70835E+00-1.59478E+01 3.49999E-01
 -1      1408-8.70992E+00-1.45278E+01 3.49999E-01
 -1      1409-1.82058E+00 2.49233E+00 3.49999E-01
 -1      1410-1.58663E+00 2.58923E+00 3.49999E-01
 -1      1411-1.82058E+00-2.49233E+00 3.49999E-01
 -1      1412-1.58663E+00-2.58923E+00 3.49999E-01
 -1      1413 3.04969E+00 4.74999E-01 3.49999E-01
 -1      1414 2.95278E+00 7.08946E-01 3.49999E-01
 -1      1415-7.28222E-01 2.99932E+00 3.49999E-01
 -1      1416-4.74999E-01 2.99932E+00 3.49999E-01
 -1      1417 1.60591E+00-2.63577E+00 3.49999E-01
 -1      1418 1.78496E+00-2.45671E+00 3.49999E-01
 -1      1419 7.28222E-01-2.99932E+00 3.49999E-01
 -1      1420 4.74999E-01-2.99932E+00 3.49999E-01
 -1      1421-2.49233E+00-1.82058E+00 3.49999E-01
 -1      1422-2.58923E+00-1.58663E+00 3.49999E-01
 -1      1423-7.28222E-01-2.99932E+00 3.49999E-01
 -1      1424-4.74999E-01-2.99932E+00 3.49999E-01
 -1      1425-2.99932E+00-7.28222E-01 3.49999E-01
 -1      1426-2.99932E+00-4.74999E-01 3.49999E-01
 -1      1427-2.63577E+00 1.60591E+00 3.49999E-01
 -1      1428-2.45671E+00 1.78496E+00 3.49999E-01
 -1      1429 1.82058E+00 2.49233E+00 3.49999E-01
 -1      1430 1.58663E+00 2.58923E+00 3.49999E-01
 -1      1431 7.28222E-01 2.99932E+00 3.49999E-01
 -1      1432 4.74999E-01 2.99932E+00 3.49999E-01
 -1      1433 2.63577E+00 1.60591E+00 3.49999E-01
 -1      1434 2.45671E+00 1.78496E+00 3.49999E-01
 -1      1435-2.99932E+00 7.28222E-01 3.49999E-01
 -1      1436-2.99932E+00 4.74999E-01 3.49999E-01
 -1      1437 2.63577E+00-1.60591E+00 3.49999E-01
 -1      1438 2.45671E+00-1.78496E+00 3.49999E-01
 -1      1439 2.99932E+00-7.28222E-01 3.49999E-01
 -1      1440 2.99932E+00-4.74999E-01 3.49999E-01
 -1      1441-2.80551E+00-6.47943E-01 3.49999E-01
 -1      1442-2.80551E+00-4.74999E-01 3.49999E-01
 -1      1443-2.63013E+00 0.00000E+00 3.49999E-01
 -1      1444-2.42992E+00-1.00651E+00 3.49999E-01
 -1      1445-2.34400E+00-1.67225E+00 3.49999E-01
 -1      1446-2.41018E+00-1.51246E+00 3.49999E-01
 -1      1447 2.42992E+00-1.00651E+00 3.49999E-01
 -1      1448 2.83991E+00 4.74999E-01 3.49999E-01
 -1      1449 2.77372E+00 6.34778E-01 3.49999E-01
 -1      1450 0.00000E+00-2.63013E+00 3.49999E-01
 -1      1451 2.63013E+00 0.00000E+00 3.49999E-01
 -1      1452-2.24815E+00-1.44535E+00 6.87499E-01
 -1      1453 6.47943E-01-2.80551E+00 3.49999E-01
 -1      1454 4.74999E-01-2.80551E+00 3.49999E-01
 -1      1455-1.85978E+00-1.85978E+00 3.49999E-01
 -1      1456-1.67225E+00-2.34400E+00 3.49999E-01
 -1      1457-1.51246E+00-2.41018E+00 3.49999E-01
 -1      1458-1.00651E+00-2.42992E+00 3.49999E-01
 -1      1459 1.00651E+00-2.42992E+00 3.49999E-01
 -1      1460 2.63013E+00 4.74999E-01 6.87499E-01
 -1      1461-1.52391E+00-2.19566E+00 6.87499E-01
 -1      1462 2.44196E+00 1.52563E+00 3.49999E-01
 -1      1463 2.31967E+00 1.64792E+00 3.49999E-01
 -1      1464 1.85978E+00 1.85978E+00 3.49999E-01
 -1      1465 2.42992E+00 1.00651E+00 3.49999E-01
 -1      1466-2.80551E+00 6.47943E-01 3.49999E-01
 -1      1467-2.80551E+00 4.74999E-01 3.49999E-01
 -1      1468 1.52563E+00-2.44196E+00 3.49999E-01
 -1      1469 1.64792E+00-2.31967E+00 3.49999E-01
 -1      1470-6.47943E-01 2.80551E+00 3.49999E-01
 -1      1471-4.74999E-01 2.80551E+00 3.49999E-01
 -1      1472-6.47943E-01-2.80551E+00 3.49999E-01
 -1      1473-4.74999E-01-2.80551E+00 3.49999E-01
 -1      1474-1.00651E+00 2.42992E+00 3.49999E-01
 -1      1475 1.00651E+00 2.42992E+00 3.49999E-01
 -1      1476 0.00000E+00 2.63013E+00 3.49999E-01
 -1      1477-2.63013E+00-4.74999E-01 6.87499E-01
 -1      1478-2.42992E+00 1.00651E+00 3.49999E-01
 -1      1479-1.85978E+00 1.85978E+00 3.49999E-01
 -1      1480-2.63013E+00 4.74999E-01 6.87499E-01
 -1      1481-2.61170E+00-5.67665E-01 6.87499E-01
 -1      1482-4.74999E-01 2.63013E+00 6.87499E-01
 -1      1483-5.67665E-01 2.61170E+00 6.87499E-01
 -1      1484-4.74999E-01-2.63013E+00 6.87499E-01
 -1      1485-5.67665E-01-2.61170E+00 6.87499E-01
 -1      1486 1.85978E+00-1.85978E+00 3.49999E-01
 -1      1487 2.24815E+00 1.44535E+00 6.87499E-01
 -1      1488 2.19566E+00 1.52391E+00 6.87499E-01
 -1      1489 4.74999E-01-2.63013E+00 6.87499E-01
 -1      1490 2.80551E+00-6.47943E-01 3.49999E-01
 -1      1491 2.80551E+00-4.74999E-01 3.49999E-01
 -1      1492 2.61170E+00-5.67665E-01 6.87499E-01
 -1      1493-1.44535E+00-2.24815E+00 6.87499E-01
 -1      1494-2.44196E+00 1.52563E+00 3.49999E-01
 -1      1495-2.31967E+00 1.64792E+00 3.49999E-01
 -1      1496 2.63013E+00 2.37500E-01 3.49999E-01
 -1      1497 2.44196E+00-1.52563E+00 3.49999E-01
 -1      1498 2.31967E+00-1.64792E+00 3.49999E-01
 -1      1499 6.47943E-01 2.80551E+00 3.49999E-01
 -1      1500 4.74999E-01 2.80551E+00 3.49999E-01
 -1      1501 2.19566E+00-1.52391E+00 6.87499E-01
 -1      1502 1.67225E+00 2.34400E+00 3.49999E-01
 -1      1503 1.51246E+00 2.41018E+00 3.49999E-01
 -1      1504 1.44535E+00 2.24815E+00 6.87499E-01
 -1      1505-2.19566E+00-1.52391E+00 6.87499E-01
 -1      1506 1.44535E+00-2.24815E+00 6.87499E-01
 -1      1507-2.61170E+00 5.67665E-01 6.87499E-01
 -1      1508 2.61170E+00 5.67665E-01 6.87499E-01
 -1      1509-1.67225E+00 2.34400E+00 3.49999E-01
 -1      1510-1.51246E+00 2.41018E+00 3.49999E-01
 -1      1511 1.52391E+00-2.19566E+00 6.87499E-01
 -1      1512-2.24815E+00 1.44535E+00 6.87499E-01
 -1      1513 2.63013E+00-4.74999E-01 6.87499E-01
 -1      1514-2.19566E+00 1.52391E+00 6.87499E-01
 -1      1515-1.52391E+00 2.19566E+00 6.87499E-01
 -1      1516 5.67665E-01-2.61170E+00 6.87499E-01
 -1      1517 4.74999E-01 2.63013E+00 6.87499E-01
 -1      1518 1.52391E+00 2.19566E+00 6.87499E-01
 -1      1519-1.44535E+00 2.24815E+00 6.87499E-01
 -1      1520 5.67665E-01 2.61170E+00 6.87499E-01
 -1      1521 1.21556E+01 2.41790E+00 3.49999E-01
 -1      1522-6.88558E+00-1.03050E+01 3.49999E-01
 -1      1523-2.41790E+00-1.21556E+01 3.49999E-01
 -1      1524-3.78002E+00-1.40896E+01 3.49999E-01
 -1      1525 1.06013E+01-7.08348E+00-3.49999E-01
 -1      1526-8.94056E+00 1.15508E+01 3.49999E-01
 -1      1527 1.47158E+01-1.03076E+00 3.49999E-01
 -1      1528-5.47244E+00 1.37349E+01 3.49999E-01
 -1      1529 1.27506E+01-0.00000E+00-3.49999E-01
 -1      1530 1.11346E+01 9.67677E+00 3.49999E-01
 -1      1531 3.82483E+00 5.31739E+00-3.49999E-01
 -1      1532-5.06996E+00-1.97361E+00-3.49999E-01
 -1      1533-4.87957E+00 1.17803E+01-3.49999E-01
 -1      1534-1.41048E+01 2.64492E+00 3.49999E-01
 -1      1535-3.18429E+00-9.06144E+00-3.49999E-01
 -1      1536 1.03119E+01-1.05952E+01 3.49999E-01
 -1      1537-1.25040E+01-2.48724E+00-3.49999E-01
 -1      1538 3.24781E+00-3.04985E+00-3.49999E-01
 -1      1539-8.00568E+00-1.23265E+01 3.49999E-01
 -1      1540-5.03396E+00-1.22892E+01-3.49999E-01
 -1      1541-8.42996E+00 9.61536E+00-3.49999E-01
 -1      1542 2.74616E+00-1.04873E+01-3.49999E-01
 -1      1543 7.24393E+00-1.01013E+01-3.49999E-01
 -1      1544 1.40688E+01-3.40968E+00 3.49999E-01
 -1      1545-2.64492E+00 1.41048E+01 3.49999E-01
 -1      1546-1.36384E+01 5.64931E+00 3.49999E-01
 -1      1547-1.40069E+01-2.78612E+00 3.49999E-01
 -1      1548-1.03465E+01 1.06373E+01-3.49999E-01
 -1      1549-1.47621E+01 0.00000E+00 3.49999E-01
 -1      1550-1.18745E+01 7.93427E+00 3.49999E-01
 -1      1551-1.18745E+01-7.93427E+00 3.49999E-01
 -1      1552-1.36384E+01-5.64931E+00 3.49999E-01
 -1      1553 1.38952E+01-2.62428E+00-3.49999E-01
 -1      1554 0.00000E+00 0.00000E+00 3.49999E-01
 -1      1555 7.93427E+00 1.18745E+01 3.49999E-01
 -1      1556 5.64931E+00 1.36384E+01 3.49999E-01
 -1      1557-1.25040E+01 2.48724E+00-3.49999E-01
 -1      1558 2.78612E+00 1.40069E+01 3.49999E-01
 -1      1559 0.00000E+00 1.47621E+01 3.49999E-01
 -1      1560-7.12181E+00 1.06585E+01 3.49999E-01
 -1      1561 1.01965E+01 4.97770E+00-3.49999E-01
 -1      1562-1.46295E+01-1.85944E+00-3.49999E-01
 -1      1563 1.37035E+01 2.85105E+00-3.49999E-01
 -1      1564 1.36384E+01 5.64931E+00 3.49999E-01
 -1      1565 1.47668E+01-4.04420E+00-3.49999E-01
 -1      1566 1.38487E+01-5.50695E+00 3.49999E-01
 -1      1567-3.87374E+00-1.42048E+01-3.49999E-01
 -1      1568-9.60317E-01-1.40007E+01-3.49999E-01
 -1      1569 1.18745E+01-7.93427E+00 3.49999E-01
 -1      1570-5.21884E+00 1.25993E+01 3.49999E-01
 -1      1571 5.64931E+00-1.36384E+01 3.49999E-01
 -1      1572 6.41025E+00-9.59361E+00 3.49999E-01
 -1      1573 2.78612E+00-1.40069E+01 3.49999E-01
 -1      1574 0.00000E+00-1.47621E+01 3.49999E-01
 -1      1575 3.63344E+00-1.34126E+01-3.49999E-01
 -1      1576-1.04384E+01-1.04384E+01 3.49999E-01
 -1      1577 9.59363E+00 6.41027E+00 3.49999E-01
 -1      1578-1.10679E+01 6.39472E+00-3.49999E-01
 -1      1579 9.03954E+00 9.03519E+00-3.49999E-01
 -1      1580 4.70232E+00-6.88361E+00-3.49999E-01
 -1      1581-1.46197E+01 4.26327E+00 3.49999E-01
 -1      1582-1.02457E+01 6.94491E+00 3.49999E-01
 -1      1583-1.19921E+00-4.73857E+00-3.49999E-01
 -1      1584 1.53329E+01-2.71924E+00-3.49999E-01
 -1      1585-1.06843E+01 1.02069E+01 3.49999E-01
 -1      1586 1.00983E+01-9.90033E+00-3.49999E-01
 -1      1587-1.16939E+01 8.68379E+00-3.49999E-01
 -1      1588 1.25916E+00 1.38905E+01 3.49999E-01
 -1      1589 1.26704E+01 6.30006E+00-3.49999E-01
 -1      1590-4.80792E+00-5.69865E+00-3.49999E-01
 -1      1591-1.13164E+01 2.25097E+00 3.49999E-01
 -1      1592-1.13164E+01-2.25097E+00 3.49999E-01
 -1      1593-9.34723E+00 1.20463E+01-3.49999E-01
 -1      1594-3.54666E+00-1.28073E+01 3.49999E-01
 -1      1595 1.25916E+00-1.38905E+01 3.49999E-01
 -1      1596-1.80118E+00-1.40082E+01 3.49999E-01
 -1      1597 2.40375E+00-1.20845E+01 3.49999E-01
 -1      1598 1.44896E+01 1.84565E+00 3.49999E-01
 -1      1599 1.21556E+01-2.41790E+00 3.49999E-01
 -1      1600 9.59361E+00-6.41025E+00 3.49999E-01
 -1      1601-7.78370E+00-1.19113E+01-3.49999E-01
 -1      1602-1.38905E+01-1.25916E+00 3.49999E-01
 -1      1603-1.41196E+01-4.04478E+00-3.49999E-01
 -1      1604-6.37004E-01-1.37553E+01 3.49999E-01
 -1      1605 9.64306E+00-9.64306E+00 3.49999E-01
 -1      1606 1.48623E+00 1.08409E+01-3.49999E-01
 -1      1607 1.20700E+01-4.72218E+00-3.49999E-01
 -1      1608 2.49545E+00 1.21235E+01 3.49999E-01
 -1      1609-3.84561E+00 1.32045E+01 3.49999E-01
 -1      1610 7.72361E+00-3.54455E+00-3.49999E-01
 -1      1611-8.96036E+00 1.28882E+01 3.49999E-01
 -1      1612-1.52467E+01-3.15564E+00-3.49999E-01
 -1      1613 1.32172E+01-6.59233E+00-3.49999E-01
 -1      1614-1.05566E+01 8.26843E+00 3.49999E-01
 -1      1615 1.86377E+00-1.46735E+01-3.49999E-01
 -1      1616-2.74192E+00-1.52323E+01 3.49999E-01
 -1      1617 1.48753E+01 2.09295E-01-3.49999E-01
 -1      1618 1.06783E+01 1.03801E+01-3.49999E-01
 -1      1619-2.75774E+00-1.52500E+01-3.49999E-01
 -1      1620-2.37666E+00-1.16681E+01-3.49999E-01
 -1      1621-8.91188E+00 5.95473E+00 3.49999E-01
 -1      1622 9.38811E-01-1.22924E+01-3.49999E-01
 -1      1623 1.19681E+01 8.48353E+00-3.49999E-01
 -1      1624 1.91955E+00-1.53011E+01 3.49999E-01
 -1      1625-1.34064E+01 7.29351E+00 3.49999E-01
 -1      1626 1.35855E+01-2.00078E+00 3.49999E-01
 -1      1627 1.18938E+01-9.22209E+00-3.49999E-01
 -1      1628 1.30889E+01 7.46850E+00 3.49999E-01
 -1      1629 9.46136E-01 1.38567E+01-3.49999E-01
 -1      1630-1.43278E+01-5.65229E+00-3.49999E-01
 -1      1631-1.53472E+01 3.14066E+00 3.49999E-01
 -1      1632-1.48123E+01-4.92860E+00 3.49999E-01
 -1      1633-1.33151E+01-4.15239E+00 3.49999E-01
 -1      1634 1.38940E+01-6.95410E+00 3.49999E-01
 -1      1635-1.17303E+01 1.01657E+01-3.49999E-01
 -1      1636 5.35923E+00-4.44159E+00-3.49999E-01
 -1      1637 7.84127E+00-1.20190E+01 3.49999E-01
 -1      1638-1.27558E+01-7.29042E+00-3.49999E-01
 -1      1639 7.52637E+00-9.66421E+00 3.49999E-01
 -1      1640-4.67814E+00 1.39865E+01-3.49999E-01
 -1      1641-6.05933E+00-9.55780E+00-3.49999E-01
 -1      1642 1.91955E+00 1.53011E+01 3.49999E-01
 -1      1643 2.08408E+00 1.04774E+01 3.49999E-01
 -1      1644 5.79116E-01-1.38023E+01-3.49999E-01
 -1      1645 1.32563E+01 8.50264E+00-3.49999E-01
 -1      1646-2.68152E-01-9.58638E+00-3.49999E-01
 -1      1647-7.77939E-01-1.22937E+01-3.49999E-01
 -1      1648-5.93495E+00-8.88227E+00 3.49999E-01
 -1      1649-2.07002E+00-1.04067E+01 3.49999E-01
 -1      1650-9.75738E+00-1.12328E+01-3.49999E-01
 -1      1651 4.32252E+00 1.46369E+01 3.49999E-01
 -1      1652-8.82760E+00-1.08743E+01 3.49999E-01
 -1      1653 4.46283E-01-1.53810E+01-3.49999E-01
 -1      1654 7.29351E+00 1.34064E+01 3.49999E-01
 -1      1655-1.04865E+01 1.17955E+01-3.49999E-01
 -1      1656-3.22241E+00 4.84361E+00-3.49999E-01
 -1      1657-4.24314E+00 1.47453E+01 3.49999E-01
 -1      1658 1.55030E+01 2.71124E-01 3.49999E-01
 -1      1659 1.38409E+01 0.00000E+00 3.49999E-01
 -1      1660-1.32092E+01 4.30498E+00 3.49999E-01
 -1      1661 1.12886E+01-2.19940E+00-3.49999E-01
 -1      1662-1.18345E+00 1.38740E+01 3.49999E-01
 -1      1663-1.32337E+01 6.60115E+00-3.49999E-01
 -1      1664-1.23512E+01-6.47900E+00 3.49999E-01
 -1      1665-9.13645E+00 1.31028E+01-3.49999E-01
 -1      1666-9.04377E+00 1.07723E+01-3.49999E-01
 -1      1667-5.27311E-01 4.54240E-01-3.49999E-01
 -1      1668 2.07002E+00-1.04067E+01 3.49999E-01
 -1      1669 1.31987E+01 1.62638E+00 3.49999E-01
 -1      1670 1.33900E+01 8.57410E+00 3.49999E-01
 -1      1671-1.38740E+01 1.18345E+00 3.49999E-01
 -1      1672-1.12563E+00-1.08266E+01-3.49999E-01
 -1      1673-1.52845E+01-3.33060E+00 3.49999E-01
 -1      1674-4.53563E+00 1.38482E+01 3.49999E-01
 -1      1675 8.54214E+00-8.16912E+00-3.49999E-01
 -1      1676-1.49180E+01 2.13499E-01-3.49999E-01
 -1      1677-1.21831E+01 9.45952E+00 3.49999E-01
 -1      1678 1.47174E+01-1.42772E-01 3.49999E-01
 -1      1679 1.46902E+01 8.61375E-01 3.49999E-01
 -1      1680-1.23817E+01 6.31047E+00 3.49999E-01
 -1      1681 1.91564E+00 1.52001E+01-3.49999E-01
 -1      1682 1.42025E+01-7.11904E+00-3.49999E-01
 -1      1683-1.31086E+00-2.60780E-01 3.49999E-01
 -1      1684 1.53498E+01-2.76756E+00 3.49999E-01
 -1      1685 6.31945E+00-1.27066E+01-3.49999E-01
 -1      1686-9.35748E+00 1.02885E+01 3.49999E-01
 -1      1687 3.30330E-01-1.35528E+01 3.49999E-01
 -1      1688-1.52312E+01-4.29496E+00-3.49999E-01
 -1      1689 1.12144E+01-1.08201E+01-3.49999E-01
 -1      1690 1.17201E+01-1.01573E+01 3.49999E-01
 -1      1691-1.46872E+01-6.04126E+00 3.49999E-01
 -1      1692-1.17683E+01-9.11906E+00-3.49999E-01
 -1      1693-1.18686E+01-9.59477E+00 3.49999E-01
 -1      1694-6.67281E+00-1.17440E+01 3.49999E-01
 -1      1695-1.46295E+01 2.69661E+00-3.49999E-01
 -1      1696-8.94111E+00 0.00000E+00-3.49999E-01
 -1      1697-1.34018E+01-7.63571E+00 3.49999E-01
 -1      1698-1.23910E+01-3.12256E+00 3.49999E-01
 -1      1699-3.94203E+00 1.37967E+00-3.49999E-01
 -1      1700 1.49591E+01-4.97315E+00 3.49999E-01
 -1      1701-8.21412E+00 1.03193E+01 3.49999E-01
 -1      1702-1.19279E+01-1.03278E+01-3.49999E-01
 -1      1703-8.79927E+00 1.08041E+01 3.49999E-01
 -1      1704 1.06675E+00-1.06132E+01-3.49999E-01
 -1      1705-2.43886E+00-1.37912E+01-3.49999E-01
 -1      1706 3.33983E+00-5.20773E+00-3.49999E-01
 -1      1707-1.20999E+01 1.04690E+01 3.49999E-01
 -1      1708 1.10305E+01-1.14708E+01 3.49999E-01
 -1      1709-1.41262E+01-2.89414E+00-3.49999E-01
 -1      1710 1.09103E+01 2.19982E+00-3.49999E-01
 -1      1711 1.42259E+01 4.75076E+00-3.49999E-01
 -1      1712-3.08363E-01-1.58810E+01 3.49999E-01
 -1      1713 6.88485E+00-1.09484E+01 3.49999E-01
 -1      1714-6.33943E+00 3.19731E-01-3.49999E-01
 -1      1715 8.64577E+00-9.64096E+00-3.49999E-01
 -1      1716-7.10205E+00 5.83710E+00-3.49999E-01
 -1      1717-5.04822E+00-1.31964E+01 3.49999E-01
 -1      1718 4.07292E+00-4.09557E+00-3.49999E-01
 -1      1719 7.97361E+00 1.16859E+01-3.49999E-01
 -1      1720-3.53843E+00-1.26926E+01-3.49999E-01
 -1      1721-1.81246E+00-1.46924E+01-3.49999E-01
 -1      1722-1.55709E+01 1.11499E+00 3.49999E-01
 -1      1723-2.41997E+00-1.02531E+01-3.49999E-01
 -1      1724 1.20635E+01-7.65963E+00-3.49999E-01
 -1      1725 1.97967E+00-1.15272E+01-3.49999E-01
 -1      1726 1.37561E+01 7.19048E+00-3.49999E-01
 -1      1727 9.95240E+00 5.54408E+00 3.49999E-01
 -1      1728 1.24110E+01-6.46923E+00 3.49999E-01
 -1      1729-8.83740E+00-8.34416E+00-3.49999E-01
 -1      1730 1.31384E+01-4.37219E+00 3.49999E-01
 -1      1731 1.74190E+00-8.35431E+00-3.49999E-01
 -1      1732-1.26569E+01 9.84837E+00-3.49999E-01
 -1      1733 9.72439E-01-9.35466E+00-3.49999E-01
 -1      1734-1.13923E+01 6.89255E+00 3.49999E-01
 -1      1735 1.05287E+01 8.89149E+00-3.49999E-01
 -1      1736 8.20865E+00-1.27063E+01-3.49999E-01
 -1      1737 1.56823E+01-1.66211E+00 3.49999E-01
 -1      1738 5.63016E+00-1.42549E+01-3.49999E-01
 -1      1739-7.42568E-01 1.11129E+00 3.49999E-01
 -1      1740 1.44159E+01-2.50326E+00 3.49999E-01
 -1      1741-1.03450E+00 1.47538E+01-3.49999E-01
 -1      1742 1.36313E+01 3.69663E+00 3.49999E-01
 -1      1743-1.32483E+01 6.43274E+00 3.49999E-01
 -1      1744 1.51425E+01-5.02876E+00-3.49999E-01
 -1      1745 4.91432E-02-7.84836E+00-3.49999E-01
 -1      1746 9.69401E+00-4.88178E+00-3.49999E-01
 -1      1747-5.61596E+00-1.42081E+01-3.49999E-01
 -1      1748 1.09394E+01-5.65638E+00-3.49999E-01
 -1      1749 4.62614E+00-5.55375E+00-3.49999E-01
 -1      1750-7.70528E+00-1.11978E+01 3.49999E-01
 -1      1751-1.14476E+01-1.10115E+01 3.49999E-01
 -1      1752 8.58175E+00-1.07215E+01 3.49999E-01
 -1      1753 2.15062E+00-9.46479E+00-3.49999E-01
 -1      1754-1.23198E+01 1.06495E+01-3.49999E-01
 -1      1755 5.79253E+00-1.47902E+01 3.49999E-01
 -1      1756-1.32444E+01-8.49627E+00-3.49999E-01
 -1      1757-1.05683E+01-9.02439E+00 3.49999E-01
 -1      1758-1.21330E+01-5.11942E+00-3.49999E-01
 -1      1759-5.00550E+00 1.50658E+01-3.49999E-01
 -1      1760 5.67793E+00-8.49762E+00 3.49999E-01
 -1      1761 4.15239E+00-1.33151E+01 3.49999E-01
 -1      1762-1.04774E+01-9.90438E+00-3.49999E-01
 -1      1763-1.22490E+01-8.19767E+00-3.49999E-01
 -1      1764-1.56180E+00-1.28996E+01 3.49999E-01
 -1      1765 1.39505E+00-1.21555E+01 3.49999E-01
 -1      1766-1.09403E+01-1.10146E+01-3.49999E-01
 -1      1767-1.08401E-01-1.45394E+01-3.49999E-01
 -1      1768 5.57952E+00 1.30897E+01-3.49999E-01
 -1      1769-1.03709E+01-1.17324E+01 3.49999E-01
 -1      1770-1.12977E+00-1.57210E+01-3.49999E-01
 -1      1771-2.47491E+00-1.27277E+01-3.49999E-01
 -1      1772-7.08694E+00 1.27782E+01 3.49999E-01
 -1      1773 1.33120E+01-3.95979E+00-3.49999E-01
 -1      1774-1.35171E+01-8.64205E+00 3.49999E-01
 -1      1775 1.19739E+01 3.95378E+00-3.49999E-01
 -1      1776-3.40017E+00-3.72789E+00-3.49999E-01
 -1      1777 1.59438E+01-1.98890E+00-3.49999E-01
 -1      1778-1.57306E+01 1.13072E+00-3.49999E-01
 -1      1779-1.54926E+01-4.26434E+00 3.49999E-01
 -1      1780 1.07425E+01 6.90234E+00-3.49999E-01
 -1      1781-1.09693E+01 1.13962E+01 3.49999E-01
 -1      1782 5.03715E+00-1.07849E+01-3.49999E-01
 -1      1783 9.54646E+00-2.97890E+00-3.49999E-01
 -1      1784-5.11328E+00-1.46357E+01 3.49999E-01
 -1      1785 7.64944E+00-8.97154E+00-3.49999E-01
 -1      1786 2.14398E+00-1.31944E+01-3.49999E-01
 -1      1787-1.06785E+01 5.98387E+00 3.49999E-01
 -1      1788-1.37553E+00 1.53626E+01 3.49999E-01
 -1      1789-1.24448E+01 3.11033E+00 3.49999E-01
 -1      1790 8.47489E+00-1.32044E+01 3.49999E-01
 -1      1791-1.24391E+01 0.00000E+00-3.49999E-01
 -1      1792-7.42555E-01 3.07557E-01 3.49999E-01
 -1      1793 1.19779E+01 9.87709E+00-3.49999E-01
 -1      1794-1.26696E+01-1.81175E+00 3.49999E-01
 -1      1795 4.55930E-01-1.00262E+01-3.49999E-01
 -1      1796-1.00086E+01 8.96285E+00-3.49999E-01
 -1      1797-9.96707E+00 9.37182E+00 3.49999E-01
 -1      1798-1.48034E+00-1.30819E+01-3.49999E-01
 -1      1799 3.74277E+00-1.17822E+01-3.49999E-01
 -1      1800 4.10792E+00-4.91632E+00-3.49999E-01
 -1      1801 1.13164E+01 1.58236E+00 3.49999E-01
 -1      1802 1.10606E+01 2.86873E+00 3.49999E-01
 -1      1803 1.06097E+01-8.53832E+00-3.49999E-01
 -1      1804 1.13164E+01-1.58236E+00 3.49999E-01
 -1      1805 1.19130E+01 3.38391E+00 3.49999E-01
 -1      1806 9.67188E+00-7.81629E+00-3.49999E-01
 -1      1807 1.28466E+01-8.92619E+00 3.49999E-01
 -1      1808 9.66421E+00-7.52637E+00 3.49999E-01
 -1      1809 6.24117E+00 1.43276E+01-3.49999E-01
 -1      1810 3.32418E+00 1.52634E+01-3.49999E-01
 -1      1811 3.36287E+00-1.17642E+01 3.49999E-01
 -1      1812 1.57119E+01 1.12888E+00-3.49999E-01
 -1      1813 1.48123E+01 4.92860E+00 3.49999E-01
 -1      1814-1.40743E+00-9.71519E+00-3.49999E-01
 -1      1815-2.38012E+00 1.19657E+01 3.49999E-01
 -1      1816-4.25715E+00-1.05905E+01-3.49999E-01
 -1      1817-1.49777E+01 4.10815E+00-3.49999E-01
 -1      1818 5.66432E+00-1.68123E+00-3.49999E-01
 -1      1819-1.47994E+01 5.43095E+00 3.49999E-01
 -1      1820 3.74339E+00-6.27142E+00-3.49999E-01
 -1      1821 1.09952E+01-6.78146E+00 3.49999E-01
 -1      1822-1.03830E+00-1.47142E+01 3.49999E-01
 -1      1823 1.50624E+00-1.57309E+01-3.49999E-01
 -1      1824-1.45316E+01-4.80864E+00-3.49999E-01
 -1      1825 1.42333E+01-5.87641E+00-3.49999E-01
 -1      1826-1.76188E+00-7.93698E+00-3.49999E-01
 -1      1827 1.22484E+00 1.04773E+01 3.49999E-01
 -1      1828 1.59724E+01 1.15454E+00 3.49999E-01
 -1      1829 1.47762E+01 5.78828E+00-3.49999E-01
 -1      1830 8.48263E-01-1.57550E+01 3.49999E-01
 -1      1831 3.23021E+00 1.53640E+01 3.49999E-01
 -1      1832-6.22230E+00 1.42923E+01-3.49999E-01
 -1      1833 1.29388E+01-3.24829E+00 3.49999E-01
 -1      1834-5.05966E+00 1.52443E+01 3.49999E-01
 -1      1835 1.27289E+01-1.57121E+00-3.49999E-01
 -1      1836 1.15218E+01-7.68780E-01-3.49999E-01
 -1      1837 3.27382E+00 1.43151E+00-3.49999E-01
 -1      1838-1.34542E+01 3.73521E+00-3.49999E-01
 -1      1839 6.42108E-01 3.78669E+00-3.49999E-01
 -1      1840-3.23490E+00-1.09862E+01-3.49999E-01
 -1      1841-3.11156E-01-1.04732E+01-3.49999E-01
 -1      1842 5.06261E+00-1.21566E+01-3.49999E-01
 -1      1843 1.36453E+01 5.72335E+00-3.49999E-01
 -1      1844 8.08662E-02-1.28858E+01-3.49999E-01
 -1      1845-6.69220E+00-7.22011E+00-3.49999E-01
 -1      1846-1.33321E+01-4.96259E+00-3.49999E-01
 -1      1847-5.35871E+00 8.57230E+00-3.49999E-01
 -1      1848-5.29674E+00-3.86130E+00-3.49999E-01
 -1      1849-1.55902E+01 3.20836E+00-3.49999E-01
 -1      1850 4.29329E+00 1.32173E+01 3.49999E-01
 -1      1851-7.07659E+00 1.22208E+01-3.49999E-01
 -1      1852-4.65608E+00-2.46489E-01-3.49999E-01
 -1      1853 7.71205E-01 1.57031E+01 3.49999E-01
 -1      1854-6.28518E+00-1.12008E+01-3.49999E-01
 -1      1855-9.62335E-01-1.48690E+01-3.49999E-01
 -1      1856-9.92982E+00 1.22050E+01 3.49999E-01
 -1      1857-1.28689E+01-6.08316E+00-3.49999E-01
 -1      1858-7.30360E+00 7.88874E+00-3.49999E-01
 -1      1859-1.93424E+00 9.70058E+00-3.49999E-01
 -1      1860-6.80207E+00-1.36095E+01 3.49999E-01
 -1      1861 1.31149E+01-5.36812E+00-3.49999E-01
 -1      1862-1.91386E+00-1.48951E+01 3.49999E-01
 -1      1863-9.45440E-01-8.69867E+00-3.49999E-01
 -1      1864 1.35808E+01-2.78973E+00 3.49999E-01
 -1      1865 1.07403E+01-7.88760E+00 3.49999E-01
 -1      1866 1.25072E+01 1.66610E+00-3.49999E-01
 -1      1867 1.41800E+01-1.13650E+00-3.49999E-01
 -1      1868-1.59262E+00-8.00665E+00 3.49999E-01
 -1      1869-1.53773E+01-1.35711E+00 3.49999E-01
 -1      1870-8.17495E+00 1.16524E+01-3.49999E-01
 -1      1871-1.13989E+01 8.82437E+00 3.49999E-01
 -1      1872-1.57523E+01-1.97004E+00-3.49999E-01
 -1      1873 2.95123E+00-1.08618E+01 3.49999E-01
 -1      1874-1.22853E+01 5.08673E+00-3.49999E-01
 -1      1875 1.11141E+01 7.68970E+00 3.49999E-01
 -1      1876-4.72321E+00-7.73111E+00-3.49999E-01
 -1      1877 1.09136E+01-3.69793E+00-3.49999E-01
 -1      1878-1.55138E+01 4.04564E+00 3.49999E-01
 -1      1879 1.10366E+01 7.94000E+00-3.49999E-01
 -1      1880 1.52194E+01 2.58673E+00-3.49999E-01
 -1      1881 2.74496E+00 3.48851E+00-3.49999E-01
 -1      1882 1.26211E+01-2.86297E+00-3.49999E-01
 -1      1883 3.57563E+00-8.10997E-01-3.49999E-01
 -1      1884 2.78547E+00-1.55315E+01-3.49999E-01
 -1      1885 6.50737E+00 1.21776E+01 3.49999E-01
 -1      1886-4.40356E+00-3.01114E+00-3.49999E-01
 -1      1887 1.21009E+01-6.06919E+00-3.49999E-01
 -1      1888 5.35304E+00-1.32040E+01-3.49999E-01
 -1      1889 5.37794E+00 5.73134E-01-3.49999E-01
 -1      1890-6.85809E+00 1.04531E+01-3.49999E-01
 -1      1891-9.94795E+00 1.11559E+01 3.49999E-01
 -1      1892 5.79253E+00 1.47902E+01 3.49999E-01
 -1      1893 2.22796E-01-8.77804E+00-3.49999E-01
 -1      1894 1.45497E+00-6.22956E+00-3.49999E-01
 -1      1895 1.07705E+01 1.11540E+01 3.49999E-01
 -1      1896 1.03327E+01-2.43325E+00 3.49999E-01
 -1      1897-1.32642E+00-9.98577E+00 3.49999E-01
 -1      1898-1.47678E+00-1.13164E+01 3.49999E-01
 -1      1899-2.92729E+00-1.11452E+01 3.49999E-01
 -1      1900-5.94623E+00-1.06941E+01 3.49999E-01
 -1      1901 9.78705E+00 9.78705E+00 3.49999E-01
 -1      1902 8.59110E+00-6.34080E+00-3.49999E-01
 -1      1903 1.24100E+01 9.64571E+00 3.49999E-01
 -1      1904 6.98873E+00-1.39322E+01-3.49999E-01
 -1      1905 4.21203E+00-1.48288E+01-3.49999E-01
 -1      1906-2.49942E+00 1.26753E+01-3.49999E-01
 -1      1907 6.21755E+00-3.13941E+00-3.49999E-01
 -1      1908-2.54529E-01-6.16481E+00-3.49999E-01
 -1      1909-2.78328E+00-1.42270E+01 3.49999E-01
 -1      1910 5.13005E+00 9.00271E+00-3.49999E-01
 -1      1911 5.66110E+00-8.89550E+00-3.49999E-01
 -1      1912 1.58968E+01-3.09919E-01-3.49999E-01
 -1      1913 8.89573E+00-9.96906E+00 3.49999E-01
 -1      1914-1.31133E+01 8.42622E+00-3.49999E-01
 -1      1915 1.24054E+01-6.87202E+00-3.49999E-01
 -1      1916-6.12080E+00-9.78705E+00 3.49999E-01
 -1      1917 1.54492E+01 2.77736E+00 3.49999E-01
 -1      1918-5.81207E+00-1.38830E+01 3.49999E-01
 -1      1919 1.91602E+00-1.06779E+01-3.49999E-01
 -1      1920 6.93404E+00-1.01707E+01 3.49999E-01
 -1      1921 1.45542E+01 6.36231E+00 3.49999E-01
 -1      1922 1.11805E+00-7.35681E+00-3.49999E-01
 -1      1923 1.36969E+01 2.60258E+00 3.49999E-01
 -1      1924 1.38336E+01-1.05034E-01-3.49999E-01
 -1      1925 1.11086E+01-1.06740E+01 3.49999E-01
 -1      1926 1.10259E+01 1.14652E+01-3.49999E-01
 -1      1927 5.88942E+00 1.51096E+01-3.49999E-01
 -1      1928 1.02118E+01-1.17865E+01-3.49999E-01
 -1      1929 1.35863E+01-1.79400E+00-3.49999E-01
 -1      1930-6.35003E+00 1.45312E+01 3.49999E-01
 -1      1931-1.34040E+01 3.33845E+00 3.49999E-01
 -1      1932 9.55680E+00-1.23017E+01 3.49999E-01
 -1      1933 1.08876E+00-1.59029E+00-3.49999E-01
 -1      1934 1.21338E+01-2.17192E+00-3.49999E-01
 -1      1935-3.20370E+00-1.50769E+00-3.49999E-01
 -1      1936 1.03661E+01-7.21895E+00 3.49999E-01
 -1      1937 8.01955E+00-1.37380E+01-3.49999E-01
 -1      1938 1.12447E+01-2.49353E+00 3.49999E-01
 -1      1939-1.68674E+00-1.38053E+01-3.49999E-01
 -1      1940-4.33564E+00-3.97676E+00-3.49999E-01
 -1      1941-3.93059E+00 9.99876E+00-3.49999E-01
 -1      1942 5.21106E+00-1.25805E+01 3.49999E-01
 -1      1943 8.47751E+00-6.33971E+00 3.49999E-01
 -1      1944-5.79676E+00 1.29049E+01-3.49999E-01
 -1      1945 7.03392E+00-5.29120E+00-3.49999E-01
 -1      1946 1.14997E+01-6.94690E+00-3.49999E-01
 -1      1947-5.52806E+00 1.37462E+01-3.49999E-01
 -1      1948 4.53540E+00-6.78771E+00 3.49999E-01
 -1      1949-1.05266E+01-7.88524E+00-3.49999E-01
 -1      1950 7.47272E+00-4.99312E+00 3.49999E-01
 -1      1951 7.03032E+00-1.32145E+01 3.49999E-01
 -1      1952 1.45513E+01 6.69683E+00-3.49999E-01
 -1      1953 8.49129E-01-8.17999E+00-3.49999E-01
 -1      1954 1.12125E+01-1.16925E+01-3.49999E-01
 -1      1955-2.88340E+00-1.01463E+01 3.49999E-01
 -1      1956 1.75335E+00-8.81468E+00 3.49999E-01
 -1      1957-1.36912E+01 1.32927E+00-3.49999E-01
 -1      1958 1.39946E+01-4.77326E+00-3.49999E-01
 -1      1959 4.44279E+00-1.28924E+01-3.49999E-01
 -1      1960-3.90607E+00 1.28037E+01-3.49999E-01
 -1      1961-1.02448E+01-6.84535E+00 3.49999E-01
 -1      1962 1.34833E+01-9.71035E-01 3.49999E-01
 -1      1963 1.19817E+01 2.74958E+00-3.49999E-01
 -1      1964 1.09992E+01 3.34533E+00-3.49999E-01
 -1      1965 3.36910E+00-7.91484E+00-3.49999E-01
 -1      1966-4.74629E+00-1.34242E+01-3.49999E-01
 -1      1967-9.75433E+00 1.12762E+01-3.49999E-01
 -1      1968-3.12421E+00 5.07183E-02-3.49999E-01
 -1      1969 7.94531E+00-1.39810E+01 3.49999E-01
 -1      1970-4.63508E+00-9.18443E+00-3.49999E-01
 -1      1971 1.04694E+01-1.21980E+01 3.49999E-01
 -1      1972 6.39579E+00-1.12670E+01-3.49999E-01
 -1      1973 4.42749E+00-1.25814E+01 3.49999E-01
 -1      1974 2.93628E+00-4.14404E+00-3.49999E-01
 -1      1975 4.62148E+00-8.15654E+00-3.49999E-01
 -1      1976-1.25805E+01-5.21106E+00 3.49999E-01
 -1      1977 2.60780E-01-1.31086E+00 3.49999E-01
 -1      1978 4.98680E+00-3.26214E+00-3.49999E-01
 -1      1979 4.29361E+00-2.02943E+00-3.49999E-01
 -1      1980 5.53858E+00-2.56297E+00-3.49999E-01
 -1      1981 1.39570E+01 1.36955E+00-3.49999E-01
 -1      1982-7.98286E+00 1.05939E+01-3.49999E-01
 -1      1983 1.91662E+00 5.21085E+00-3.49999E-01
 -1      1984 7.78106E+00-1.13835E+01-3.49999E-01
 -1      1985 1.96650E+00-1.30731E+01 3.49999E-01
 -1      1986-2.26900E+00-9.31532E+00-3.49999E-01
 -1      1987-6.02495E+00 9.75321E+00 3.49999E-01
 -1      1988-1.44605E+01 6.31223E+00-3.49999E-01
 -1      1989 9.10124E+00-1.09528E+01-3.49999E-01
 -1      1990 9.85627E+00 9.71087E+00-3.49999E-01
 -1      1991 1.21833E+01 8.30887E+00 3.49999E-01
 -1      1992 6.64324E+00-9.24803E+00-3.49999E-01
 -1      1993-5.78875E+00-1.23899E+01 3.49999E-01
 -1      1994-1.28074E+01 9.97184E+00 3.49999E-01
 -1      1995-1.33549E+01-6.62284E+00 3.49999E-01
 -1      1996 1.26057E+01-1.49835E+00 3.49999E-01
 -1      1997-1.12805E+01 1.11119E+01-3.49999E-01
 -1      1998 1.00467E+01-1.08499E+01-3.49999E-01
 -1      1999-7.69136E+00-1.01705E+01-3.49999E-01
 -1      2000-1.00539E+01 1.25434E+01-3.49999E-01
 -1      2001-5.36467E+00-2.89568E+00-3.49999E-01
 -1      2002 6.84535E+00 1.02448E+01 3.49999E-01
 -1      2003-1.66143E+00-8.05121E-01-3.49999E-01
 -1      2004-1.30464E+01 2.06306E+00 3.49999E-01
 -1      2005-6.70969E+00-1.03054E+01-3.49999E-01
 -1      2006-1.35516E+01-5.70935E+00-3.49999E-01
 -1      2007-1.45976E+00-1.16805E+01-3.49999E-01
 -1      2008 5.85580E-01-6.58369E+00-3.49999E-01
 -1      2009-2.51929E+00-8.44077E+00-3.49999E-01
 -1      2010-6.85216E+00 1.33401E+01-3.49999E-01
 -1      2011 1.40688E+01-3.49521E+00-3.49999E-01
 -1      2012-1.44029E+01 6.51882E+00 3.49999E-01
 -1      2013-7.31377E+00-8.64290E+00-3.49999E-01
 -1      2014 8.86079E+00-3.98922E+00-3.49999E-01
 -1      2015 5.95140E+00 1.09806E+01-3.49999E-01
 -1      2016 8.49763E+00 5.67794E+00 3.49999E-01
 -1      2017 1.29014E+01-7.47960E+00 3.49999E-01
 -1      2018-5.91217E+00-8.26345E+00-3.49999E-01
 -1      2019 1.33040E+01-6.24829E+00 3.49999E-01
 -1      2020 1.63160E-01 1.36524E+01 3.49999E-01
 -1      2021-2.07285E+00-9.53442E+00 3.49999E-01
 -1      2022 1.21890E+00-1.04773E+01 3.49999E-01
 -1      2023-4.96393E+00-1.23758E+01 3.49999E-01
 -1      2024-1.63992E+00-2.79648E+00-3.49999E-01
 -1      2025 1.10333E+01 4.37565E+00-3.49999E-01
 -1      2026 9.93143E+00-3.90621E+00-3.49999E-01
 -1      2027 9.16038E+00-1.31319E+01-3.49999E-01
 -1      2028 1.46585E+01-1.99924E+00-3.49999E-01
 -1      2029 1.08035E+01-9.69278E+00 3.49999E-01
 -1      2030 9.44551E+00-1.06402E+01 3.49999E-01
 -1      2031 9.09058E+00-1.14984E+01 3.49999E-01
 -1      2032 1.02367E+01-8.79348E+00 3.49999E-01
 -1      2033-1.29394E+00-1.56858E+01 3.49999E-01
 -1      2034 7.36671E+00-1.86939E+00-3.49999E-01
 -1      2035 3.13704E+00-1.89020E+00-3.49999E-01
 -1      2036 8.14407E+00-1.04778E+01-3.49999E-01
 -1      2037-5.18109E+00-1.11950E+01-3.49999E-01
 -1      2038 5.53653E-01 7.93814E+00-3.49999E-01
 -1      2039-5.16144E+00-1.00797E+01-3.49999E-01
 -1      2040 4.07950E+00 3.98382E-01-3.49999E-01
 -1      2041-8.21987E+00-9.22937E+00-3.49999E-01
 -1      2042-5.80734E+00-8.83758E-01-3.49999E-01
 -1      2043-5.18817E+00 9.57000E-01-3.49999E-01
 -1      2044-1.57052E+01 3.94505E+00-3.49999E-01
 -1      2045-8.73081E+00-4.40385E+00-3.49999E-01
 -1      2046-5.41983E+00 1.00616E+01-3.49999E-01
 -1      2047-6.99499E+00-9.13600E+00 3.49999E-01
 -1      2048-6.74293E+00-5.22975E+00-3.49999E-01
 -1      2049-8.01139E+00-1.35380E+01 3.49999E-01
 -1      2050-4.90168E+00 6.35782E+00-3.49999E-01
 -1      2051-1.39450E+01 5.02855E+00-3.49999E-01
 -1      2052-1.40506E+01 7.32071E+00-3.49999E-01
 -1      2053-1.31562E+01 7.51255E+00-3.49999E-01
 -1      2054-1.02034E+01-5.84810E+00-3.49999E-01
 -1      2055 9.07597E+00-1.20438E+01-3.49999E-01
 -1      2056 7.94952E+00-4.64324E+00-3.49999E-01
 -1      2057 8.02003E-02-1.19680E+01-3.49999E-01
 -1      2058-4.09556E+00-1.16914E+01-3.49999E-01
 -1      2059 7.26396E+00-1.22811E+01-3.49999E-01
 -1      2060 1.17096E+00 1.72969E+00-3.49999E-01
 -1      2061-1.71982E+00 2.74412E+00-3.49999E-01
 -1      2062 9.91678E+00 7.56944E+00 3.49999E-01
 -1      2063 6.70935E+00-7.51948E+00-3.49999E-01
 -1      2064-1.35591E+01 2.66964E+00-3.49999E-01
 -1      2065 9.30479E+00-1.01471E+01-3.49999E-01
 -1      2066-7.19446E+00 9.19064E+00-3.49999E-01
 -1      2067 7.06300E+00-1.30961E+01-3.49999E-01
 -1      2068-6.08937E+00 1.14454E+01-3.49999E-01
 -1      2069 9.80651E+00-1.22350E+00-3.49999E-01
 -1      2070-3.36115E+00-2.61255E+00-3.49999E-01
 -1      2071 1.23842E+01-7.80692E-01-3.49999E-01
 -1      2072 6.50332E+00-4.26175E+00-3.49999E-01
 -1      2073 8.66973E+00-1.23382E+01 3.49999E-01
 -1      2074 1.59937E+00-1.60366E+01 3.49999E-01
 -1      2075 1.53165E+01 5.08155E+00-3.49999E-01
 -1      2076 1.56174E+00 1.15307E+01 3.49999E-01
 -1      2077-2.76598E+00-6.11164E+00-3.49999E-01
 -1      2078 4.74685E+00-9.41594E-01-3.49999E-01
 -1      2079-7.16457E+00 9.48959E+00 3.49999E-01
 -1      2080-2.44444E+00-2.17954E+00-3.49999E-01
 -1      2081 1.04735E+01-5.91976E+00 3.49999E-01
 -1      2082-7.09994E+00-9.50620E+00-3.49999E-01
 -1      2083-4.94032E+00-1.09153E+00-3.49999E-01
 -1      2084-1.41060E+01 4.93998E+00 3.49999E-01
 -1      2085 1.33360E+01 2.02575E+00-3.49999E-01
 -1      2086 6.63335E-01-4.53088E+00-3.49999E-01
 -1      2087 3.30282E+00-1.52901E+01 3.49999E-01
 -1      2088 8.40598E+00-2.52357E+00-3.49999E-01
 -1      2089 1.98752E+00-1.44094E+01 3.49999E-01
 -1      2090-3.03303E+00-1.44256E+01-3.49999E-01
 -1      2091-1.52235E+01 5.05332E+00-3.49999E-01
 -1      2092-3.58383E-01 1.99767E+00-3.49999E-01
 -1      2093 9.64643E+00 7.77349E+00-3.49999E-01
 -1      2094-2.06546E+00 1.03838E+01 3.49999E-01
 -1      2095-2.05590E+00 1.30918E+01 3.49999E-01
 -1      2096-2.97602E+00 1.27470E+01 3.49999E-01
 -1      2097-3.73421E+00 1.23611E+01 3.49999E-01
 -1      2098 4.21782E+00-3.68901E-01-3.49999E-01
 -1      2099-3.45987E+00 3.08622E+00-3.49999E-01
 -1      2100 2.90633E+00 4.62647E+00-3.49999E-01
 -1      2101 5.84980E+00-5.12295E-01-3.49999E-01
 -1      2102-1.50666E+00-5.96819E+00-3.49999E-01
 -1      2103 3.85085E+00-7.16023E+00-3.49999E-01
 -1      2104-4.99312E+00-7.47272E+00 3.49999E-01
 -1      2105-9.43151E+00 3.65115E+00-3.49999E-01
 -1      2106 2.05488E+00-5.08684E+00-3.49999E-01
 -1      2107 3.18602E+00-1.28306E+01 3.49999E-01
 -1      2108-1.21784E+01 6.20782E+00-3.49999E-01
 -1      2109 1.71350E+00-1.12738E+01 3.49999E-01
 -1      2110 1.52945E+01-1.16691E+00-3.49999E-01
 -1      2111 7.15955E+00 1.30409E+01-3.49999E-01
 -1      2112-5.65030E+00-7.25440E+00-3.49999E-01
 -1      2113 9.52166E+00-8.93267E+00-3.49999E-01
 -1      2114 1.17943E+01 1.05664E+01 3.49999E-01
 -1      2115-1.00236E+01 1.99382E+00 3.49999E-01
 -1      2116 2.79209E+00 2.25113E-01-3.49999E-01
 -1      2117 9.30579E+00-1.33091E+01 3.49999E-01
 -1      2118 1.32996E+01-8.51888E-01-3.49999E-01
 -1      2119 3.38520E+00 6.87654E-01-3.49999E-01
 -1      2120-1.00236E+01-1.99382E+00 3.49999E-01
 -1      2121 1.15126E+01-8.39026E+00-3.49999E-01
 -1      2122 1.00085E+01 2.38099E+00 3.49999E-01
 -1      2123 1.09517E+01-9.44375E+00-3.49999E-01
 -1      2124 1.22606E+01 1.47326E+00 3.49999E-01
 -1      2125 2.76918E+00-1.22911E+01-3.49999E-01
 -1      2126 1.25878E+01 5.04806E+00-3.49999E-01
 -1      2127 1.17803E+01 4.78173E+00-3.49999E-01
 -1      2128 4.25763E+00-1.54705E+01 3.49999E-01
 -1      2129 4.92820E+00-1.65549E+00-3.49999E-01
 -1      2130-9.43922E+00 9.82119E+00-3.49999E-01
 -1      2131-1.07912E+01 9.67626E+00-3.49999E-01
 -1      2132-1.30994E+01 4.60963E+00-3.49999E-01
 -1      2133-8.07040E+00-8.46710E+00-3.49999E-01
 -1      2134 1.26021E+01 9.17589E+00-3.49999E-01
 -1      2135 1.11174E+01 9.58417E+00-3.49999E-01
 -1      2136 7.28646E+00 1.41026E+01-3.49999E-01
 -1      2137-7.49707E+00-7.71565E+00-3.49999E-01
 -1      2138 1.04130E+01 8.64977E+00 3.49999E-01
 -1      2139-1.37463E+01-6.79987E-01-3.49999E-01
 -1      2140-1.06901E+01-1.29014E+00-3.49999E-01
 -1      2141-7.24669E+00-1.11083E+01-3.49999E-01
 -1      2142-1.36880E+01-6.76882E+00-3.49999E-01
 -1      2143-6.76119E-01-1.14948E+01-3.49999E-01
 -1      2144-9.38519E+00-7.02212E+00-3.49999E-01
 -1      2145-3.37072E+00 1.49723E+01-3.49999E-01
 -1      2146-1.20149E+01-1.25555E+00-3.49999E-01
 -1      2147-1.31212E+01-3.46370E+00-3.49999E-01
 -1      2148-1.05966E+01-3.40463E+00-3.49999E-01
 -1      2149 1.46702E+01-6.20551E+00 3.49999E-01
 -1      2150-1.14582E+01-8.76306E+00 3.49999E-01
 -1      2151-7.90598E+00 1.13599E+01 3.49999E-01
 -1      2152-7.32835E+00 1.12593E+01-3.49999E-01
 -1      2153-1.47700E+01-6.47768E+00-3.49999E-01
 -1      2154 4.54146E+00-1.14802E+01-3.49999E-01
 -1      2155-5.43226E-01 3.27531E+00-3.49999E-01
 -1      2156 1.33197E+01-8.12818E+00-3.49999E-01
 -1      2157 4.11226E+00-1.31554E+00-3.49999E-01
 -1      2158-5.83095E+00-1.30952E+01-3.49999E-01
 -1      2159 1.23899E+01 6.26484E+00 3.49999E-01
 -1      2160-1.36340E+01 7.84697E-02 3.49999E-01
 -1      2161-1.87571E+00-7.76943E-01 3.49999E-01
 -1      2162-1.33029E+01 8.52755E+00 3.49999E-01
 -1      2163 1.14919E+00 1.59181E+01-3.49999E-01
 -1      2164 1.72442E+00-3.89450E+00-3.49999E-01
 -1      2165 8.47227E+00-3.30639E+00-3.49999E-01
 -1      2166-1.14715E+01 9.90903E+00 3.49999E-01
 -1      2167-1.27661E+01-7.15759E+00 3.49999E-01
 -1      2168-1.21555E+01-1.17638E+00 3.49999E-01
 -1      2169-8.57865E-01 1.46727E+01 3.49999E-01
 -1      2170-8.78601E+00-2.26530E+00-3.49999E-01
 -1      2171-1.04330E+01-1.20560E+01-3.49999E-01
 -1      2172 6.91189E+00-3.56017E+00-3.49999E-01
 -1      2173 7.08203E+00 9.35161E+00-3.49999E-01
 -1      2174 5.44790E+00 1.25376E+01 3.49999E-01
 -1      2175-1.86745E+00 5.20755E-01-3.49999E-01
 -1      2176-3.22844E+00 7.86767E+00-3.49999E-01
 -1      2177 1.25206E+01 5.18626E+00 3.49999E-01
 -1      2178 1.38467E+01 4.67221E+00 3.49999E-01
 -1      2179-1.51406E+00-1.79932E+00-3.49999E-01
 -1      2180-1.17335E+01-1.12461E+01-3.49999E-01
 -1      2181 4.68774E+00-1.43692E+01 3.49999E-01
 -1      2182 1.15881E+01-1.00355E+01-3.49999E-01
 -1      2183-1.64330E+00 6.80677E-01 3.49999E-01
 -1      2184-3.96972E+00-8.41475E+00-3.49999E-01
 -1      2185 1.26833E+01 8.91172E+00 3.49999E-01
 -1      2186 1.36116E+01-8.23086E+00 3.49999E-01
 -1      2187-1.27238E+01-8.22319E+00 3.49999E-01
 -1      2188 2.69239E+00 1.36180E+01-3.49999E-01
 -1      2189-1.50493E+01 2.08258E+00 3.49999E-01
 -1      2190 3.79436E+00-1.07116E+01-3.49999E-01
 -1      2191-7.65102E+00-1.34304E+01-3.49999E-01
 -1      2192 7.01475E+00-8.89457E+00 3.49999E-01
 -1      2193-8.08489E+00 8.60977E+00-3.49999E-01
 -1      2194-1.06964E+01-5.94060E+00 3.49999E-01
 -1      2195 1.07659E+01-1.37988E+00-3.49999E-01
 -1      2196 9.10131E+00-5.40610E+00 3.49999E-01
 -1      2197 2.75794E+00 8.83116E+00-3.49999E-01
 -1      2198 1.18027E+01-7.07722E+00 3.49999E-01
 -1      2199-8.04976E+00 1.23885E+01 3.49999E-01
 -1      2200-2.23978E+00-5.13164E+00-3.49999E-01
 -1      2201 6.57615E+00-1.22673E+00-3.49999E-01
 -1      2202 9.49899E+00 1.20914E+01 3.49999E-01
 -1      2203 1.98972E+00-2.58153E+00-3.49999E-01
 -1      2204-2.59985E-01-1.10542E+00-3.49999E-01
 -1      2205 2.69079E+00-8.63552E+00-3.49999E-01
 -1      2206-1.15014E+01 5.57765E+00-3.49999E-01
 -1      2207-7.15373E+00-3.41321E+00-3.49999E-01
 -1      2208 1.49317E+00-1.38372E+01-3.49999E-01
 -1      2209 8.20741E+00 2.98592E+00-3.49999E-01
 -1      2210-3.22495E+00-7.33788E+00-3.49999E-01
 -1      2211-1.45539E+01-3.98348E+00 3.49999E-01
 -1      2212 1.41367E+01-4.40624E+00 3.49999E-01
 -1      2213-9.04457E+00 6.78607E+00-3.49999E-01
 -1      2214 5.46030E+00-9.43569E+00 3.49999E-01
 -1      2215 1.80911E+00-1.23857E+01-3.49999E-01
 -1      2216 9.54197E+00 3.64224E+00-3.49999E-01
 -1      2217 2.64925E+00 1.45785E+01-3.49999E-01
 -1      2218-4.41938E-02 9.73141E+00-3.49999E-01
 -1      2219 1.52823E+00 1.60245E+01 3.49999E-01
 -1      2220 1.56069E+01 3.84093E-01-3.49999E-01
 -1      2221 9.93316E+00-1.15463E+01 3.49999E-01
 -1      2222 1.63979E+00 1.24247E+01-3.49999E-01
 -1      2223-6.44833E+00 1.35412E+01 3.49999E-01
 -1      2224-6.21457E+00 1.20449E+01 3.49999E-01
 -1      2225 1.10356E+01 5.26150E+00-3.49999E-01
 -1      2226-9.01671E-01 5.73558E+00-3.49999E-01
 -1      2227-9.31440E+00-1.25316E+01 3.49999E-01
 -1      2228-9.73972E+00-1.10507E+01 3.49999E-01
 -1      2229 3.90884E+00-1.46996E+01 3.49999E-01
 -1      2230 7.12374E+00-1.09053E+01-3.49999E-01
 -1      2231-2.57012E+00-1.31953E+01 3.49999E-01
 -1      2232 6.67358E+00-1.20997E+01 3.49999E-01
 -1      2233-9.03591E+00 8.84543E+00-3.49999E-01
 -1      2234 7.20214E+00 1.43580E+01 3.49999E-01
 -1      2235-1.13277E+01-3.23958E-01-3.49999E-01
 -1      2236-1.00175E+01-4.56480E+00-3.49999E-01
 -1      2237-1.37086E+01 5.86883E+00-3.49999E-01
 -1      2238-9.61514E+00-9.64974E+00 3.49999E-01
 -1      2239-2.18150E+00-3.90198E+00-3.49999E-01
 -1      2240-9.48780E+00-3.57574E+00-3.49999E-01
 -1      2241-6.84329E+00-1.19592E+01-3.49999E-01
 -1      2242 7.77128E+00-1.11190E+01 3.49999E-01
 -1      2243-1.22092E+01-1.05587E+01 3.49999E-01
 -1      2244 6.14583E+00-1.35569E+01-3.49999E-01
 -1      2245-9.09563E+00-6.90827E+00 3.49999E-01
 -1      2246-5.01954E+00-1.51121E+01-3.49999E-01
 -1      2247-1.72622E+00 4.32699E+00-3.49999E-01
 -1      2248 2.45468E+00-3.41548E+00-3.49999E-01
 -1      2249-8.42255E-01-4.02481E-01-3.49999E-01
 -1      2250 4.67455E-01-3.00147E+00-3.49999E-01
 -1      2251-6.11598E+00-8.02459E+00 3.49999E-01
 -1      2252 1.05078E+01 1.03057E+01 3.49999E-01
 -1      2253-1.14308E+00 1.58561E+01-3.49999E-01
 -1      2254-1.30735E+01-1.54812E+00-3.49999E-01
 -1      2255 4.14564E+00-2.92390E+00-3.49999E-01
 -1      2256-1.28969E+01-7.16454E-01-3.49999E-01
 -1      2257 5.98690E-01 1.20379E+00 3.49999E-01
 -1      2258-3.63533E-01 1.82750E+00 3.49999E-01
 -1      2259 4.30877E+00-1.56391E+01-3.49999E-01
 -1      2260-1.13773E+01-2.22173E+00-3.49999E-01
 -1      2261 1.56263E+01-6.92365E-01 3.49999E-01
 -1      2262-1.02552E+01-2.33023E+00-3.49999E-01
 -1      2263 3.13535E+00-1.44424E+01-3.49999E-01
 -1      2264 1.17104E+01-9.03976E+00 3.49999E-01
 -1      2265-1.17356E+00 1.61655E+01 3.49999E-01
 -1      2266-1.19919E+01 9.41787E+00-3.49999E-01
 -1      2267 1.06035E+01 6.75338E+00 3.49999E-01
 -1      2268 1.25640E+01-5.34761E+00 3.49999E-01
 -1      2269 7.33017E+00-4.19801E+00-3.49999E-01
 -1      2270-1.32644E+01-3.26843E+00 3.49999E-01
 -1      2271 1.26268E+01 7.51157E+00-3.49999E-01
 -1      2272-1.25461E+01 5.19682E+00 3.49999E-01
 -1      2273-3.06667E+00 1.53666E+01 3.49999E-01
 -1      2274-1.01694E+00 1.14159E+01-3.49999E-01
 -1      2275-1.17168E+00-3.71128E+00-3.49999E-01
 -1      2276-2.53871E+00 1.11268E+01-3.49999E-01
 -1      2277 1.28587E+01-4.61433E+00-3.49999E-01
 -1      2278-1.01260E+01-2.24348E-01-3.49999E-01
 -1      2279-7.73945E+00-9.79529E+00 3.49999E-01
 -1      2280-1.21936E+01 2.26963E+00 3.49999E-01
 -1      2281-8.31007E+00-3.32300E+00-3.49999E-01
 -1      2282 1.75526E+00 4.07288E+00-3.49999E-01
 -1      2283 3.13825E+00-1.12165E+01-3.49999E-01
 -1      2284-9.88218E+00 5.24213E+00-3.49999E-01
 -1      2285 4.59061E+00 1.49162E+01-3.49999E-01
 -1      2286 9.45576E+00 1.21786E+01-3.49999E-01
 -1      2287 1.20676E+01 7.27598E+00 3.49999E-01
 -1      2288-4.78724E+00-6.71578E+00-3.49999E-01
 -1      2289-2.30796E-01-1.60654E+01-3.49999E-01
 -1      2290 1.07592E+01 2.14016E+00 3.49999E-01
 -1      2291-9.46978E+00-1.25388E+00-3.49999E-01
 -1      2292-1.33646E+01-4.19374E+00-3.49999E-01
 -1      2293 2.60188E+00-6.10284E+00-3.49999E-01
 -1      2294 2.80670E-01 1.14676E+00-3.49999E-01
 -1      2295 2.59950E+00 1.48192E+01 3.49999E-01
 -1      2296 1.54041E+00 1.25961E+01 3.49999E-01
 -1      2297-5.11477E+00-1.54260E+01 3.49999E-01
 -1      2298-3.77384E+00-6.97378E-01-3.49999E-01
 -1      2299-4.85783E+00 1.27343E+01-3.49999E-01
 -1      2300-1.06708E+01 7.73345E+00-3.49999E-01
 -1      2301-2.35896E+00-1.31799E+00-3.49999E-01
 -1      2302-8.32128E+00 7.56981E+00-3.49999E-01
 -1      2303 1.53195E+01-3.89959E+00 3.49999E-01
 -1      2304-1.07181E+01-7.88862E+00 3.49999E-01
 -1      2305 3.76491E+00 1.16110E+01-3.49999E-01
 -1      2306-8.81468E+00-1.75335E+00 3.49999E-01
 -1      2307-3.44767E+00-1.00176E+01-3.49999E-01
 -1      2308 1.43715E+01 2.20290E+00-3.49999E-01
 -1      2309-1.34344E+01 3.16838E-01-3.49999E-01
 -1      2310-4.37184E+00 5.98550E-01-3.49999E-01
 -1      2311-7.31862E+00 1.19663E+01 3.49999E-01
 -1      2312-2.70212E+00-3.19395E+00-3.49999E-01
 -1      2313 4.99969E+00 1.52681E+01 3.49999E-01
 -1      2314-5.89547E+00-1.04677E+01-3.49999E-01
 -1      2315 3.56608E+00-1.53169E+01-3.49999E-01
 -1      2316 5.65202E+00-3.70061E+00-3.49999E-01
 -1      2317 1.48822E+01-1.83146E+00 3.49999E-01
 -1      2318-8.61588E-01-1.28942E+00 3.49999E-01
 -1      2319-2.89684E-01-7.38999E-01 3.49999E-01
 -1      2320-1.02608E+01-1.06463E+01-3.49999E-01
 -1      2321 1.37753E+01 9.14078E-01 3.49999E-01
 -1      2322-1.29359E+01-5.97283E+00 3.49999E-01
 -1      2323-8.05876E+00 1.27733E+01-3.49999E-01
 -1      2324-8.88403E+00 1.14835E+01-3.49999E-01
 -1      2325 5.82047E+00-9.99587E+00-3.49999E-01
 -1      2326-4.76780E-01 4.54124E+00-3.49999E-01
 -1      2327 1.99954E+00 1.60518E+01-3.49999E-01
 -1      2328-5.79622E-01-2.83099E+00-3.49999E-01
 -1      2329 5.88390E+00-1.50914E+01-3.49999E-01
 -1      2330-2.81250E+00 1.58059E+01-3.49999E-01
 -1      2331 2.83028E+00-1.59864E+01 3.49999E-01
 -1      2332 3.20738E+00 1.29777E+01 3.49999E-01
 -1      2333 6.90827E+00 9.09563E+00 3.49999E-01
 -1      2334-5.33737E+00 1.00380E+01 3.49999E-01
 -1      2335-4.73700E+00-1.42917E+01-3.49999E-01
 -1      2336 6.94971E+00-8.39421E+00-3.49999E-01
 -1      2337-9.23573E+00-9.94447E+00-3.49999E-01
 -1      2338-3.39127E+00 1.45567E+01 3.49999E-01
 -1      2339 1.55901E+01-4.29404E+00-3.49999E-01
 -1      2340-1.03199E+00-7.03066E+00-3.49999E-01
 -1      2341-1.19208E+00-1.21555E+01 3.49999E-01
 -1      2342-2.93236E+00-7.40297E-01-3.49999E-01
 -1      2343 1.05881E+01-4.58269E+00-3.49999E-01
 -1      2344-4.53540E+00-6.78770E+00 3.49999E-01
 -1      2345-1.52164E+01 4.76912E+00 3.49999E-01
 -1      2346 1.19623E+01-3.67894E+00-3.49999E-01
 -1      2347 8.50043E+00-1.22091E+00-3.49999E-01
 -1      2348-5.84477E+00 1.30556E+01 3.49999E-01
 -1      2349 8.17535E+00 1.05348E+01 3.49999E-01
 -1      2350-1.08150E+01 8.60412E+00-3.49999E-01
 -1      2351 5.14448E+00 3.00894E+00-3.49999E-01
 -1      2352 5.98515E-02-2.47860E-01-3.49999E-01
 -1      2353 1.03294E+01-1.43529E+00 3.49999E-01
 -1      2354 9.58301E+00-6.74782E+00-3.49999E-01
 -1      2355-8.33599E+00-7.67003E+00-3.49999E-01
 -1      2356 5.25604E-01 5.57059E+00-3.49999E-01
 -1      2357-1.17188E+01-3.29613E+00-3.49999E-01
 -1      2358-2.77539E+00 1.97144E+00-3.49999E-01
 -1      2359 7.28908E+00-1.25172E+01 3.49999E-01
 -1      2360 6.17061E+00-1.28751E+01 3.49999E-01
 -1      2361 3.80778E+00-9.00728E+00-3.49999E-01
 -1      2362-7.53083E+00 6.83070E+00-3.49999E-01
 -1      2363-1.87890E+00 9.44585E+00 3.49999E-01
 -1      2364-1.36956E+00 3.53698E+00-3.49999E-01
 -1      2365-2.28587E-01 5.30228E+00-3.49999E-01
 -1      2366-5.37694E+00-1.00216E+01 3.49999E-01
 -1      2367 1.48027E+01 3.75584E+00 3.49999E-01
 -1      2368 6.05580E+00-5.14388E+00-3.49999E-01
 -1      2369 1.17528E+01 1.08216E+01-3.49999E-01
 -1      2370 9.07432E+00 1.08503E+01-3.49999E-01
 -1      2371-6.18028E+00 1.10324E+01 3.49999E-01
 -1      2372 6.40033E+00-2.23603E+00-3.49999E-01
 -1      2373 9.33843E+00 6.26089E+00-3.49999E-01
 -1      2374 2.77836E+00 6.91850E+00-3.49999E-01
 -1      2375-1.31399E+01 1.95166E+00-3.49999E-01
 -1      2376-1.15393E+01-7.20603E+00-3.49999E-01
 -1      2377-9.88989E+00-8.87989E+00-3.49999E-01
 -1      2378 5.57539E+00-6.16649E+00-3.49999E-01
 -1      2379 6.91097E+00-1.42863E+01 3.49999E-01
 -1      2380 1.69650E+00 2.84309E+00-3.49999E-01
 -1      2381 5.56201E+00-1.14613E+01-3.49999E-01
 -1      2382-8.85223E+00-1.00246E+01 3.49999E-01
 -1      2383 3.45000E+00 1.20517E+01 3.49999E-01
 -1      2384-8.64790E+00-1.35280E+01-3.49999E-01
 -1      2385-6.63687E+00-1.38281E+01-3.49999E-01
 -1      2386-1.33142E+01-4.93595E+00 3.49999E-01
 -1      2387 1.03522E+00-1.54929E+00 3.49999E-01
 -1      2388 8.68054E+00 4.89252E+00-3.49999E-01
 -1      2389-2.14667E-01-5.11243E+00-3.49999E-01
 -1      2390-1.05572E+01-6.83619E+00-3.49999E-01
 -1      2391 1.48146E+01 1.10482E+00-3.49999E-01
 -1      2392-4.45829E+00-9.89075E+00-3.49999E-01
 -1      2393-5.79249E+00-1.31366E+01 3.49999E-01
 -1      2394-1.43126E+01-6.99985E+00 3.49999E-01
 -1      2395-8.57272E+00-1.09966E+01-3.49999E-01
 -1      2396-6.37745E+00-2.06385E+00-3.49999E-01
 -1      2397 6.27252E+00 1.11406E+01 3.49999E-01
 -1      2398 7.72906E+00-8.16234E+00-3.49999E-01
 -1      2399-5.31333E+00 9.00762E+00 3.49999E-01
 -1      2400-5.64802E+00-4.93846E+00-3.49999E-01
 -1      2401-8.76515E+00-1.37474E+01 3.49999E-01
 -1      2402-2.88653E+00-4.48478E+00-3.49999E-01
 -1      2403-5.99910E+00 7.28574E+00-3.49999E-01
 -1      2404-9.84070E+00-8.95445E+00 3.49999E-01
 -1      2405 5.46822E-01 2.66571E+00-3.49999E-01
 -1      2406-4.50028E+00 7.59506E+00-3.49999E-01
 -1      2407 9.78460E+00-1.25362E+01-3.49999E-01
 -1      2408 8.74663E+00-5.31200E+00-3.49999E-01
 -1      2409 4.22647E-01 4.66811E+00-3.49999E-01
 -1      2410 6.56831E+00-1.19980E+01-3.49999E-01
 -1      2411-6.26384E+00 1.22395E+01-3.49999E-01
 -1      2412 1.35270E+00 6.74473E+00-3.49999E-01
 -1      2413-3.38161E+00 6.35533E+00-3.49999E-01
 -1      2414 7.36667E+00-6.47745E+00-3.49999E-01
 -1      2415-5.37045E+00 8.03744E+00 3.49999E-01
 -1      2416 5.65487E+00-7.80347E+00-3.49999E-01
 -1      2417-1.24402E+01-3.21086E+00-3.49999E-01
 -1      2418-1.13254E+01-6.81964E+00 3.49999E-01
 -1      2419-6.30947E+00 9.63086E+00-3.49999E-01
 -1      2420 1.02625E+01 5.19083E-01-3.49999E-01
 -1      2421-1.14164E+01-6.04329E+00-3.49999E-01
 -1      2422-3.94802E+00-7.63378E+00-3.49999E-01
 -1      2423-4.14889E+00-2.11478E+00-3.49999E-01
 -1      2424 3.98870E+00 1.15829E+00-3.49999E-01
 -1      2425 4.05485E+00 2.40321E+00-3.49999E-01
 -1      2426-8.22428E+00-1.27151E+01-3.49999E-01
 -1      2427-1.49155E+00 1.13202E+01 3.49999E-01
 -1      2428-2.95553E+00 1.10246E+01 3.49999E-01
 -1      2429-3.89179E+00-6.73978E+00-3.49999E-01
 -1      2430-4.92649E-01 1.23140E+00-3.49999E-01
 -1      2431-1.12017E+01 3.68658E+00-3.49999E-01
 -1      2432-7.86676E+00 2.00281E+00-3.49999E-01
 -1      2433-7.59151E+00-4.46693E+00-3.49999E-01
 -1      2434 5.80284E+00-1.03113E+01 3.49999E-01
 -1      2435-8.17228E+00-5.96640E+00-3.49999E-01
 -1      2436 1.42216E+00 3.74716E-01-3.49999E-01
 -1      2437 6.77010E+00 1.18849E+01-3.49999E-01
 -1      2438 2.33444E+00-9.35302E-01-3.49999E-01
 -1      2439-1.05331E+01-2.81102E+00 3.49999E-01
 -1      2440-1.12553E+01-4.36014E+00-3.49999E-01
 -1      2441 6.66789E+00 1.92586E+00-3.49999E-01
 -1      2442-5.92500E+00 3.60895E+00-3.49999E-01
 -1      2443-7.69709E+00 6.22242E-01-3.49999E-01
 -1      2444-2.27647E+00 1.40736E+01-3.49999E-01
 -1      2445 8.28426E+00 7.60186E-01-3.49999E-01
 -1      2446-1.35749E+01-7.66046E+00-3.49999E-01
 -1      2447-4.20525E+00 1.47192E+01-3.49999E-01
 -1      2448 9.17974E+00-1.28555E-01-3.49999E-01
 -1      2449 9.30417E+00 8.92317E-01-3.49999E-01
 -1      2450-1.14411E+01-3.19553E+00 3.49999E-01
 -1      2451-1.71271E+00 1.62707E+00-3.49999E-01
 -1      2452-2.60377E+00 2.84434E+00-3.49999E-01
 -1      2453 2.92386E+00 1.03434E+01-3.49999E-01
 -1      2454 2.51941E+00 1.15401E+01-3.49999E-01
 -1      2455 1.19542E+01-5.83569E+00 3.49999E-01
 -1      2456 2.54843E-01 1.49655E+01-3.49999E-01
 -1      2457-1.38944E+01-1.48951E+00-3.49999E-01
 -1      2458-9.96646E-01-1.12300E+00-3.49999E-01
 -1      2459 1.43600E+00-4.61640E+00-3.49999E-01
 -1      2460-1.12450E+01-1.33030E+00 3.49999E-01
 -1      2461-7.30763E+00-8.27702E-01-3.49999E-01
 -1      2462-4.62106E+00-1.39368E+01 3.49999E-01
 -1      2463-2.15111E+00 5.52133E+00-3.49999E-01
 -1      2464-1.14833E+01 3.20236E+00 3.49999E-01
 -1      2465 1.02254E+01 4.13539E+00-3.49999E-01
 -1      2466 2.44471E+00-7.72435E+00-3.49999E-01
 -1      2467 1.05125E+01-2.80137E+00-3.49999E-01
 -1      2468-7.98907E+00 1.35787E+01 3.49999E-01
 -1      2469 7.93068E-01-1.61110E+01-3.49999E-01
 -1      2470 8.44125E-02 6.75976E+00-3.49999E-01
 -1      2471-1.01039E+01 6.83707E+00-3.49999E-01
 -1      2472-7.47272E+00-4.99312E+00 3.49999E-01
 -1      2473 9.00352E-01-3.72327E+00-3.49999E-01
 -1      2474-1.22102E+01 4.02544E+00-3.49999E-01
 -1      2475-1.17979E+01 7.33949E+00-3.49999E-01
 -1      2476-1.55834E+00 7.35462E+00-3.49999E-01
 -1      2477 5.70678E+00 1.20248E+01-3.49999E-01
 -1      2478-1.45901E+01-1.97375E+00 3.49999E-01
 -1      2479-1.57058E+01-2.36149E+00 3.49999E-01
 -1      2480-1.52914E+01-8.95002E-01-3.49999E-01
 -1      2481-1.07936E+01 9.38749E+00 3.49999E-01
 -1      2482-2.97251E+00 5.63417E+00-3.49999E-01
 -1      2483 1.23799E+01-5.38892E+00-3.49999E-01
 -1      2484-1.65408E+00 6.37310E+00-3.49999E-01
 -1      2485-2.13078E+00 8.46599E+00-3.49999E-01
 -1      2486-3.59260E+00 6.78592E-01-3.49999E-01
 -1      2487 3.42157E+00-1.35668E+01 3.49999E-01
 -1      2488-1.14660E+01 1.26988E+00-3.49999E-01
 -1      2489-9.53637E+00 7.82341E+00-3.49999E-01
 -1      2490 5.82290E+00 1.19023E+01 3.49999E-01
 -1      2491 4.67901E+00-1.39437E+01-3.49999E-01
 -1      2492 1.41189E+01 7.30920E+00 3.49999E-01
 -1      2493 1.51036E+01 5.72112E+00 3.49999E-01
 -1      2494 1.33629E+01 6.76780E-01-3.49999E-01
 -1      2495 1.17645E+01-3.36195E+00 3.49999E-01
 -1      2496 4.03815E+00 3.71618E+00-3.49999E-01
 -1      2497 3.48834E+00 3.05260E+00-3.49999E-01
 -1      2498 4.01839E+00 7.88818E+00-3.49999E-01
 -1      2499-4.64432E+00 1.07621E+01-3.49999E-01
 -1      2500-1.13392E+01-8.30916E+00-3.49999E-01
 -1      2501 9.89032E+00-2.13288E+00-3.49999E-01
 -1      2502 4.03082E+00 6.59456E+00-3.49999E-01
 -1      2503 4.85180E+00 1.12738E+01-3.49999E-01
 -1      2504 1.14857E+01-1.49721E+00-3.49999E-01
 -1      2505 2.14920E+00-9.56344E+00 3.49999E-01
 -1      2506-1.47479E+01 1.60975E+00-3.49999E-01
 -1      2507-1.43669E+01-7.30796E+00-3.49999E-01
 -1      2508-1.21291E+01-6.55582E+00-3.49999E-01
 -1      2509-2.52390E+00 6.95337E+00-3.49999E-01
 -1      2510 6.68014E+00 3.55602E+00-3.49999E-01
 -1      2511-9.76156E-01 8.91512E+00-3.49999E-01
 -1      2512-4.48410E-01-4.24467E+00-3.49999E-01
 -1      2513-6.34091E+00-4.11663E+00-3.49999E-01
 -1      2514-1.19162E+00 4.95968E+00-3.49999E-01
 -1      2515-7.59738E+00-5.32686E+00-3.49999E-01
 -1      2516-5.47241E+00 1.11961E-01-3.49999E-01
 -1      2517-1.17729E+01 1.42126E+00 3.49999E-01
 -1      2518-7.65580E+00-2.39266E+00-3.49999E-01
 -1      2519 1.83833E+00 7.93409E+00-3.49999E-01
 -1      2520-1.42761E+01 7.38402E+00 3.49999E-01
 -1      2521 3.20570E-01-1.11064E+01-3.49999E-01
 -1      2522 8.70480E+00 4.93913E+00 3.49999E-01
 -1      2523-1.56278E+01 2.16734E+00-3.49999E-01
 -1      2524 9.54377E+00-5.80916E+00-3.49999E-01
 -1      2525 5.18091E-01-5.66713E+00-3.49999E-01
 -1      2526 7.81439E+00 7.66907E+00-3.49999E-01
 -1      2527 2.84867E+00 5.65911E+00-3.49999E-01
 -1      2528-5.92745E+00-6.09155E+00-3.49999E-01
 -1      2529-4.70413E+00 9.34508E+00-3.49999E-01
 -1      2530-2.31023E-01 1.38927E+01-3.49999E-01
 -1      2531 2.31704E+00 1.59837E+01 3.49999E-01
 -1      2532 3.20762E-01 1.26698E+01-3.49999E-01
 -1      2533 1.03081E+01-6.26043E+00-3.49999E-01
 -1      2534-6.04172E+00 1.06146E+01-3.49999E-01
 -1      2535 1.50974E+01 3.84078E+00-3.49999E-01
 -1      2536 5.99411E+00 9.80339E+00-3.49999E-01
 -1      2537 7.20334E+00 1.06427E+01-3.49999E-01
 -1      2538 1.25265E+01 8.18082E-01-3.49999E-01
 -1      2539 2.27963E+00 1.31988E+01 3.49999E-01
 -1      2540 2.37674E+00 1.12787E+01 3.49999E-01
 -1      2541-1.11006E+00 1.28085E+01-3.49999E-01
 -1      2542-1.45749E+01 5.52092E+00-3.49999E-01
 -1      2543-3.74096E+00 7.15565E+00-3.49999E-01
 -1      2544 1.89326E+00 9.69124E+00-3.49999E-01
 -1      2545 5.01403E+00-1.64081E-01-3.49999E-01
 -1      2546-2.23608E+00-7.00899E+00-3.49999E-01
 -1      2547-8.75988E+00 1.19234E+00-3.49999E-01
 -1      2548-6.80397E+00 1.43271E+00-3.49999E-01
 -1      2549 9.46122E+00 4.53075E+00-3.49999E-01
 -1      2550-1.17061E+01 4.46125E-01-3.49999E-01
 -1      2551-4.47242E+00 8.48519E+00-3.49999E-01
 -1      2552 1.14699E+01 1.21832E+00-3.49999E-01
 -1      2553 1.35796E+00 0.00000E+00 3.49999E-01
 -1      2554 1.19463E+00 7.50310E+00-3.49999E-01
 -1      2555 1.32076E+01 3.98100E+00-3.49999E-01
 -1      2556 2.92351E+00-1.30659E+01-3.49999E-01
 -1      2557 1.09537E+01-7.80889E+00-3.49999E-01
 -1      2558-1.06429E+01 5.64573E+00-3.49999E-01
 -1      2559-5.74990E+00-1.63927E+00-3.49999E-01
 -1      2560 7.53557E+00-3.23848E-01-3.49999E-01
 -1      2561-9.98794E-01 1.03033E+01-3.49999E-01
 -1      2562 1.48307E+01-6.51289E+00-3.49999E-01
 -1      2563 1.31283E+01-9.15741E+00-3.49999E-01
 -1      2564 1.24678E+01-8.49398E+00-3.49999E-01
 -1      2565-9.31622E-01 2.56692E+00-3.49999E-01
 -1      2566 1.30331E+01-7.37598E+00-3.49999E-01
 -1      2567-4.14303E+00 5.51091E+00-3.49999E-01
 -1      2568 1.03247E+01 5.98109E+00-3.49999E-01
 -1      2569-8.84118E+00 8.11653E+00-3.49999E-01
 -1      2570-1.19345E+01 3.17561E+00-3.49999E-01
 -1      2571-6.93744E+00-6.23053E+00-3.49999E-01
 -1      2572 9.30459E-01 9.99727E+00-3.49999E-01
 -1      2573 1.17860E+01 1.75433E-01-3.49999E-01
 -1      2574-8.58161E+00-1.29296E+01 3.49999E-01
 -1      2575 8.06804E+00-7.20801E+00-3.49999E-01
 -1      2576 1.27857E+01 4.22502E+00 3.49999E-01
 -1      2577 5.22151E+00 1.40769E+01-3.49999E-01
 -1      2578 1.41380E+01 3.71556E+00-3.49999E-01
 -1      2579 6.36255E+00 1.41345E+01 3.49999E-01
 -1      2580-9.16118E+00 7.01233E+00 3.49999E-01
 -1      2581-9.98739E+00-5.45961E+00 3.49999E-01
 -1      2582-1.26619E+01 1.02165E+00-3.49999E-01
 -1      2583 2.87791E+00 1.01485E+01 3.49999E-01
 -1      2584-6.01520E+00 6.15380E+00-3.49999E-01
 -1      2585-1.95940E+00 1.52192E+01-3.49999E-01
 -1      2586 1.39161E+00 1.39161E+00 3.49999E-01
 -1      2587 8.59966E+00 1.30900E+01 3.49999E-01
 -1      2588-3.60444E+00 1.10191E+01-3.49999E-01
 -1      2589-8.26169E+00 5.92598E+00-3.49999E-01
 -1      2590-1.30577E+00 1.00474E+01 3.49999E-01
 -1      2591 7.10831E+00 1.14964E+01 3.49999E-01
 -1      2592 5.83991E+00 1.02329E+01 3.49999E-01
 -1      2593-1.00866E+01 2.15108E+00-3.49999E-01
 -1      2594-9.80170E+00 5.57337E+00 3.49999E-01
 -1      2595 1.01366E+01 2.83611E+00-3.49999E-01
 -1      2596 8.23660E-01 1.17045E+01-3.49999E-01
 -1      2597 7.89677E+00-1.03499E+01 3.49999E-01
 -1      2598-3.69985E+00-4.48398E+00-3.49999E-01
 -1      2599 1.76923E+00 1.33714E+01-3.49999E-01
 -1      2600 1.18749E+01 5.74634E+00-3.49999E-01
 -1      2601 6.13156E+00-1.14052E+01 3.49999E-01
 -1      2602 4.74261E+00-9.08690E+00-3.49999E-01
 -1      2603-6.81619E+00 7.23064E+00-3.49999E-01
 -1      2604-1.89445E+00 1.18852E+01-3.49999E-01
 -1      2605-9.41594E+00 7.77464E+00 3.49999E-01
 -1      2606 9.91665E+00 1.78016E+00-3.49999E-01
 -1      2607-3.62867E+00 1.38281E+01-3.49999E-01
 -1      2608-9.26856E+00-5.32843E+00-3.49999E-01
 -1      2609-5.94905E+00-1.21813E+01-3.49999E-01
 -1      2610 9.51627E+00 1.09234E+01 3.49999E-01
 -1      2611 5.52040E+00-6.98958E+00-3.49999E-01
 -1      2612-8.33693E+00-6.02943E+00 3.49999E-01
 -1      2613 1.13524E+00-2.45311E+00-3.49999E-01
 -1      2614 1.69851E-01-2.02808E+00-3.49999E-01
 -1      2615-9.60884E+00 6.09301E+00-3.49999E-01
 -1      2616-1.14518E+01 4.61239E+00-3.49999E-01
 -1      2617 1.12868E+01-8.41198E+00 3.49999E-01
 -1      2618 1.62036E+01-1.28826E-01 3.49999E-01
 -1      2619-3.63149E+00 2.21332E+00-3.49999E-01
 -1      2620 2.39979E+00-1.40090E+01-3.49999E-01
 -1      2621 1.14185E+01 6.22328E+00 3.49999E-01
 -1      2622 1.16886E+01 7.19471E+00-3.49999E-01
 -1      2623-2.22002E+00 1.58284E+01 3.49999E-01
 -1      2624-5.64913E-01 7.87285E+00-3.49999E-01
 -1      2625 5.42127E+00 4.66086E+00-3.49999E-01
 -1      2626 1.14090E+01 6.42258E+00-3.49999E-01
 -1      2627-8.12380E+00-1.46733E+00-3.49999E-01
 -1      2628 8.51110E+00 1.31515E+01-3.49999E-01
 -1      2629 3.71450E+00 1.42037E+01-3.49999E-01
 -1      2630 5.18301E+00 1.53957E+01-3.49999E-01
 -1      2631 5.10155E+00 1.42913E+01 3.49999E-01
 -1      2632 1.01175E+01 1.43017E+00 3.49999E-01
 -1      2633-6.14140E-03 8.74780E+00-3.49999E-01
 -1      2634 4.45763E+00 4.58688E+00-3.49999E-01
 -1      2635-7.80663E+00 4.25376E+00-3.49999E-01
 -1      2636-1.08457E+01 7.50223E+00 3.49999E-01
 -1      2637 1.71338E+00 1.16182E+01-3.49999E-01
 -1      2638 2.67394E+00 1.25734E+01-3.49999E-01
 -1      2639-8.09759E+00-1.61071E+00 3.49999E-01
 -1      2640-3.34607E+00 1.37891E+01 3.49999E-01
 -1      2641-7.82311E+00 1.38394E+01-3.49999E-01
 -1      2642 2.26672E+00 1.89321E+00-3.49999E-01
 -1      2643-9.00707E+00 5.43035E+00-3.49999E-01
 -1      2644 3.60802E+00 1.37425E+01 3.49999E-01
 -1      2645 5.69504E+00 8.52322E+00 3.49999E-01
 -1      2646-1.03011E+01 9.66593E-01-3.49999E-01
 -1      2647-1.03270E+01 3.14913E+00-3.49999E-01
 -1      2648-1.07735E+01 2.88765E-01-3.49999E-01
 -1      2649-2.41594E+00 4.75437E+00-3.49999E-01
 -1      2650 3.90395E+00 9.47063E+00-3.49999E-01
 -1      2651-2.22990E+00 3.62409E+00-3.49999E-01
 -1      2652 4.31407E+00 8.70492E+00-3.49999E-01
 -1      2653 3.10353E+00 9.55845E+00-3.49999E-01
 -1      2654 5.81023E-01 1.08324E+01-3.49999E-01
 -1      2655-9.27646E+00 4.55439E+00-3.49999E-01
 -1      2656 1.03029E+00-5.69582E-01-3.49999E-01
 -1      2657-7.87097E+00-6.85504E+00-3.49999E-01
 -1      2658-6.30243E+00-3.00498E+00-3.49999E-01
 -1      2659 1.53752E+01-3.52073E+00-3.49999E-01
 -1      2660-9.27949E-01-7.86152E+00-3.49999E-01
 -1      2661-4.20608E+00-1.34133E+00-3.49999E-01
 -1      2662-2.26873E+00-2.20542E-01-3.49999E-01
 -1      2663 6.07441E+00 6.59727E+00-3.49999E-01
 -1      2664-1.02984E+01 4.26490E+00-3.49999E-01
 -1      2665 2.14840E+00 1.04285E+01-3.49999E-01
 -1      2666 1.04243E+01-4.54217E-01-3.49999E-01
 -1      2667-1.16405E+01-6.05373E+00 3.49999E-01
 -1      2668 1.13016E+01-4.94353E+00-3.49999E-01
 -1      2669-9.39859E+00-1.26200E+01-3.49999E-01
 -1      2670-1.07397E+01 4.88821E+00-3.49999E-01
 -1      2671 3.32386E+00 3.98684E+00-3.49999E-01
 -1      2672 6.35724E+00 1.26676E+01-3.49999E-01
 -1      2673 4.95268E+00 5.79068E+00-3.49999E-01
 -1      2674 9.51630E+00-1.93701E+00 3.49999E-01
 -1      2675 3.03909E+00-9.45296E+00-3.49999E-01
 -1      2676-2.44923E+00 1.16610E+00-3.49999E-01
 -1      2677-8.03786E+00 6.11230E+00 3.49999E-01
 -1      2678 7.42611E+00 1.07762E+01 3.49999E-01
 -1      2679 1.00425E+01 1.11821E+01-3.49999E-01
 -1      2680 5.19809E+00 1.03639E+01-3.49999E-01
 -1      2681 2.04843E+00 6.12991E+00-3.49999E-01
 -1      2682 6.42045E+00-1.36891E+01 3.49999E-01
 -1      2683 6.43511E+00-5.94622E+00-3.49999E-01
 -1      2684-5.31294E+00 7.74685E+00-3.49999E-01
 -1      2685-1.85730E+00 1.32898E+01-3.49999E-01
 -1      2686-4.51467E-01 1.21531E+01-3.49999E-01
 -1      2687 7.82144E+00 6.14790E+00-3.49999E-01
 -1      2688 4.60923E+00 1.24121E+01-3.49999E-01
 -1      2689 8.58439E+00 3.90438E+00-3.49999E-01
 -1      2690 7.69207E+00-1.12294E+00-3.49999E-01
 -1      2691-8.94536E+00 2.54578E+00-3.49999E-01
 -1      2692-1.11429E+01 2.42463E+00-3.49999E-01
 -1      2693 1.24744E+00 4.72531E+00-3.49999E-01
 -1      2694-3.07141E+00-5.31638E+00-3.49999E-01
 -1      2695 5.19194E+00-7.77027E+00 3.49999E-01
 -1      2696-1.23922E+01-4.18213E+00-3.49999E-01
 -1      2697 5.43732E+00 1.80792E+00-3.49999E-01
 -1      2698-1.25109E+01-3.94446E+00 3.49999E-01
 -1      2699 6.06874E-01 9.26406E+00-3.49999E-01
 -1      2700-8.81468E+00 1.75335E+00 3.49999E-01
 -1      2701-1.45246E+00 1.23083E+01 3.49999E-01
 -1      2702-1.05331E+01 2.81102E+00 3.49999E-01
 -1      2703 2.19278E+00 9.61713E+00 3.49999E-01
 -1      2704 8.65676E+00 1.88724E+00-3.49999E-01
 -1      2705-1.69746E+00 1.08483E+01-3.49999E-01
 -1      2706 9.67091E+00 5.55475E+00-3.49999E-01
 -1      2707 6.78979E-01-5.46295E-01 3.49999E-01
 -1      2708 1.94871E+00-1.71374E+00-3.49999E-01
 -1      2709-1.09233E+01-5.24120E+00-3.49999E-01
 -1      2710 6.12072E+00 1.15623E+00-3.49999E-01
 -1      2711 9.15417E+00-8.70053E-01-3.49999E-01
 -1      2712-2.68662E+00 1.19053E+01-3.49999E-01
 -1      2713 5.97480E+00 5.55251E+00-3.49999E-01
 -1      2714-1.04773E+01-1.14427E+00 3.49999E-01
 -1      2715 8.76206E+00 7.16591E+00-3.49999E-01
 -1      2716 1.26026E-01 1.59826E+01-3.49999E-01
 -1      2717 3.98715E+00 1.05507E+01-3.49999E-01
 -1      2718-6.57192E+00-1.24214E+00-3.49999E-01
 -1      2719 7.66654E+00 2.12348E+00-3.49999E-01
 -1      2720 2.10654E+00-6.87320E+00-3.49999E-01
 -1      2721 3.52333E+00 6.02121E+00-3.49999E-01
 -1      2722-2.15627E-01 6.06185E+00-3.49999E-01
 -1      2723 1.46604E+00-3.15900E+00-3.49999E-01
 -1      2724-1.24844E+01 3.92685E+00 3.49999E-01
 -1      2725-1.23130E+01 8.05550E+00-3.49999E-01
 -1      2726-1.22082E+01 7.14739E+00 3.49999E-01
 -1      2727-3.02332E+00 9.24102E+00-3.49999E-01
 -1      2728-7.14732E+00 3.10987E+00-3.49999E-01
 -1      2729-7.04618E+00 2.25685E+00-3.49999E-01
 -1      2730-1.58810E+01-3.08363E-01 3.49999E-01
 -1      2731-8.34236E-01 6.78856E+00-3.49999E-01
 -1      2732-8.18605E+00 3.27313E+00-3.49999E-01
 -1      2733-6.02238E+00 1.10550E+00-3.49999E-01
 -1      2734-9.08508E+00 5.13007E+00 3.49999E-01
 -1      2735 9.15244E+00-1.74233E+00-3.49999E-01
 -1      2736-1.08609E+01-9.08116E+00-3.49999E-01
 -1      2737-5.35217E+00 1.11348E+01-3.49999E-01
 -1      2738 8.91502E+00 3.23208E+00-3.49999E-01
 -1      2739-1.47279E+01 1.28497E+00 3.49999E-01
 -1      2740-1.51814E-01-3.50422E+00-3.49999E-01
 -1      2741-1.26195E+01 1.32579E+00 3.49999E-01
 -1      2742 2.02501E+00 7.16404E+00-3.49999E-01
 -1      2743 2.79322E+00 7.87510E+00-3.49999E-01
 -1      2744 1.59262E+00 8.00665E+00 3.49999E-01
 -1      2745-1.59717E+01 1.99165E+00 3.49999E-01
 -1      2746 7.98838E+00 8.74546E+00-3.49999E-01
 -1      2747 4.69240E+00 1.33265E+01-3.49999E-01
 -1      2748 8.22626E+00 9.95867E+00-3.49999E-01
 -1      2749 6.72849E+00 1.00361E+01-3.49999E-01
 -1      2750 7.30388E+00 1.13744E+01-3.49999E-01
 -1      2751 1.31808E+00 5.76567E+00-3.49999E-01
 -1      2752 6.18602E+00 8.72972E+00-3.49999E-01
 -1      2753-2.27852E+00 1.49286E+01 3.49999E-01
 -1      2754-6.23129E+00 4.87212E+00-3.49999E-01
 -1      2755 8.61247E+00 5.76759E+00-3.49999E-01
 -1      2756-6.82195E+00 4.05935E+00-3.49999E-01
 -1      2757 1.10646E+01 5.26134E-01-3.49999E-01
 -1      2758-4.53458E+00 4.09200E+00-3.49999E-01
 -1      2759-1.27180E+01 3.39109E+00-3.49999E-01
 -1      2760-9.21983E+00-5.11997E+00 3.49999E-01
 -1      2761 5.05230E+00 6.83543E+00-3.49999E-01
 -1      2762-2.00071E+00 1.60636E+01-3.49999E-01
 -1      2763 7.48967E+00 4.50965E+00-3.49999E-01
 -1      2764 6.85109E+00 5.99609E+00-3.49999E-01
 -1      2765-3.95687E+00 1.18773E+01-3.49999E-01
 -1      2766-1.04773E+01 1.24423E+00 3.49999E-01
 -1      2767-9.66589E+00 6.37496E+00 3.49999E-01
 -1      2768 4.20573E+00-9.86260E+00-3.49999E-01
 -1      2769 5.10236E+00 7.91867E+00-3.49999E-01
 -1      2770 1.00557E+01 1.15155E+01 3.49999E-01
 -1      2771 0.00000E+00-2.03023E+00 3.49999E-01
 -1      2772-5.07989E+00 2.41542E+00-3.49999E-01
 -1      2773 1.06573E+01 5.94449E+00 3.49999E-01
 -1      2774-8.71335E+00-8.34422E-01-3.49999E-01
 -1      2775-7.32597E+00-1.64483E+00-3.49999E-01
 -1      2776 5.74298E+00 3.75781E+00-3.49999E-01
 -1      2777 6.39269E+00 4.49810E+00-3.49999E-01
 -1      2778 5.20681E+00 7.79253E+00 3.49999E-01
 -1      2779 3.48963E+00 1.45697E+01 3.49999E-01
 -1      2780 7.01789E+00 7.01387E+00-3.49999E-01
 -1      2781 2.73622E+00 2.62179E+00-3.49999E-01
 -1      2782 2.17795E+00 9.48472E-01-3.49999E-01
 -1      2783-9.64099E+00 4.55330E-01-3.49999E-01
 -1      2784 5.15374E+00 9.20584E+00 3.49999E-01
 -1      2785 6.04445E+00 9.35458E+00 3.49999E-01
 -1      2786 6.16821E+00 7.66151E+00-3.49999E-01
 -1      2787 6.15049E+00 7.90002E+00 3.49999E-01
 -1      2788-3.09712E+00 3.93195E+00-3.49999E-01
 -1      2789-3.10411E-01 1.08710E+01-3.49999E-01
 -1      2790 8.05965E+00 1.08164E+01-3.49999E-01
 -1      2791 3.64877E+00 1.25789E+01-3.49999E-01
 -1      2792 3.72807E+00 4.59424E+00-3.49999E-01
 -1      2793 8.70615E+00-1.73176E+00 3.49999E-01
 -1      2794 6.41241E+00 1.31042E+01 3.49999E-01
 -1      2795 4.69637E+00 9.70668E+00-3.49999E-01
 -1      2796 6.32844E+00-6.77534E+00-3.49999E-01
 -1      2797-1.07717E+00 1.36803E+01-3.49999E-01
 -1      2798 7.89434E+00 6.15207E+00 3.49999E-01
 -1      2799 7.47272E+00 4.99312E+00 3.49999E-01
 -1      2800 4.66441E+00 1.25272E+01 3.49999E-01
 -1      2801-3.78355E+00 4.30205E+00-3.49999E-01
 -1      2802-3.87498E+00-5.80135E+00-3.49999E-01
 -1      2803 1.19801E+00 8.57630E+00-3.49999E-01
 -1      2804 4.59315E+00 1.75039E+00-3.49999E-01
 -1      2805-1.25942E+00 1.30811E+01 3.49999E-01
 -1      2806 7.16163E+00 7.34980E-01-3.49999E-01
 -1      2807-2.31969E+00 1.03784E+01-3.49999E-01
 -1      2808 9.33920E+00 2.45132E+00-3.49999E-01
 -1      2809 8.81468E+00 1.75335E+00 3.49999E-01
 -1      2810 6.20315E+00 2.86591E-01-3.49999E-01
 -1      2811 7.44590E+00 5.37123E+00-3.49999E-01
 -1      2812 8.75609E+00 8.12204E+00-3.49999E-01
 -1      2813 9.09408E+00 7.17416E+00 3.49999E-01
 -1      2814-2.45120E-01 1.57495E+01 3.49999E-01
 -1      2815-6.06653E+00 2.09711E+00-3.49999E-01
 -1      2816-3.87283E+00 9.14588E+00-3.49999E-01
 -1      2817-1.27430E+01 7.85925E+00 3.49999E-01
 -1      2818-1.25038E+01 6.94706E+00-3.49999E-01
 -1      2819-1.59593E+01 1.09556E-01-3.49999E-01
 -1      2820-8.62298E+00 4.00590E+00-3.49999E-01
 -1      2821 7.65791E+00 9.71298E+00 3.49999E-01
 -1      2822 7.09069E+00 8.33831E+00-3.49999E-01
 -1      2823-5.42069E+00 4.39995E+00-3.49999E-01
 -1      2824-4.26757E+00-5.07883E+00-3.49999E-01
 -1      2825 7.57338E+00 3.61817E+00-3.49999E-01
 -1      2826 5.00940E+00-9.97405E+00-3.49999E-01
 -1      2827-4.28851E+00 2.79582E+00-3.49999E-01
 -1      2828-3.73177E+00 8.41546E+00-3.49999E-01
 -1      2829-5.04988E+00 3.33263E+00-3.49999E-01
 -1      2830-4.73060E+00 1.65626E+00-3.49999E-01
 -1      2831 4.88797E+00 3.84315E+00-3.49999E-01
 -1      2832 3.86164E+00 1.33840E+01-3.49999E-01
 -1      2833 6.30452E+00 1.34980E+01-3.49999E-01
 -1      2834 7.71006E+00 1.32160E+00-3.49999E-01
 -1      2835 6.68308E+00 5.24063E+00-3.49999E-01
 -1      2836-4.72922E-01 1.53656E+01-3.49999E-01
 -1      2837-1.61432E+01 4.94243E-01 3.49999E-01
 -1      2838-4.07296E+00 3.50819E+00-3.49999E-01
 -1      2839 4.07379E-01 1.90735E+00-3.49999E-01
 -1      2840 3.68234E-01 1.90234E+00 3.49999E-01
 -1      2841 1.66420E+00 2.17761E+00-3.49999E-01
 -1      2842-2.66841E-01 2.66310E+00-3.49999E-01
 -1      2843-2.56672E+00 4.75274E-01-3.49999E-01
 -1      2844-1.09496E+00-2.35874E+00-3.49999E-01
 -1      2845-2.37848E+00-7.63949E-01-3.49999E-01
 -1      2846 1.46842E+00-2.00250E+00-3.49999E-01
 -1      2847 2.49523E+00-2.12278E+00-3.49999E-01
 -1      2848-1.53605E+00-1.36444E+00 3.49999E-01
 -1      2849 5.64989E-01-2.43946E+00-3.49999E-01
 -1      2850-6.72775E-01-1.94126E+00 3.49999E-01
 -1      2851-6.12540E-01-1.77534E+00-3.49999E-01
 -1      2852 4.49964E-01 2.26207E+00 3.49999E-01
 -1      2853 1.77080E+00 1.46327E+00-3.49999E-01
 -1      2854-1.43096E+00 2.18741E+00-3.49999E-01
 -1      2855 2.10304E+00 2.62489E-01-3.49999E-01
 -1      2856 2.91713E+00-4.94652E-01-3.49999E-01
 -1      2857 8.42193E-01-2.77704E+00-3.49999E-01
 -1      2858-1.59382E+00-2.29578E+00-3.49999E-01
 -1      2859-4.42702E-01 2.22556E+00 3.49999E-01
 -1      2860-2.02008E+00 1.82091E-02 3.49999E-01
 -1      2861 9.79944E-01 1.84739E+00 3.49999E-01
 -1      2862-2.19907E+00 2.21008E-01-3.49999E-01
 -1      2863-1.03518E+00 1.63739E+00-3.49999E-01
 -1      2864-1.88755E+00 1.08754E+00-3.49999E-01
 -1      2865-2.64158E+00-4.28023E-01-3.49999E-01
 -1      2866-2.17039E+00-4.19763E-01 3.49999E-01
 -1      2867-1.80911E+00-1.33503E+00-3.49999E-01
 -1      2868 1.59920E+00-1.04902E+00-3.49999E-01
 -1      2869 1.77959E+00-7.37128E-01 3.49999E-01
 -1      2870-2.12159E+00 1.46148E+00-3.49999E-01
 -1      2871-2.18440E+00 4.34515E-01 3.49999E-01
 -1      2872 1.86053E+00 7.70654E-01 3.49999E-01
 -1      2873 1.06883E+00 2.33769E+00-3.49999E-01
 -1      2874 2.24365E+00 1.41884E+00-3.49999E-01
 -1      2875-1.11406E+00 1.66729E+00 3.49999E-01
 -1      2876-3.48535E-01-2.29545E+00-3.49999E-01
 -1      2877-2.09806E+00-1.77889E+00-3.49999E-01
 -1      2878 1.26069E+00-1.88674E+00 3.49999E-01
 -1      2879 6.14447E-01-1.99820E+00 3.49999E-01
 -1      2880 2.00798E+00-1.25832E+00-3.49999E-01
 -1      2881-1.18605E+00-1.77503E+00 3.49999E-01
 -1      2882 1.41003E-01 2.34833E+00-3.49999E-01
 -1      2883 5.22942E-01 2.27810E+00-3.49999E-01
 -1      2884-1.30028E+00 1.94599E+00 3.49999E-01
 -1      2885-2.11985E+00 2.18326E+00-3.49999E-01
 -1      2886 2.46526E+00 5.70015E-01-3.49999E-01
 -1      2887 2.32410E+00-3.16051E-01-3.49999E-01
 -1      2888 1.57557E+00-2.43021E+00-3.49999E-01
 -1      2889 1.61092E+00-1.32973E+00 3.49999E-01
 -1      2890-1.31395E+00-2.08611E+00-3.49999E-01
 -1      2891-2.71282E+00-1.71789E+00-3.49999E-01
 -1      2892 2.55540E+00-6.21902E-01-3.49999E-01
 -1      2893 2.91958E+00 1.98806E+00-3.49999E-01
 -1      2894 2.91956E+00 6.73206E-01-3.49999E-01
 -1      2895-5.63037E-01 2.36484E+00-3.49999E-01
 -1      2896-6.35426E-01 2.86519E+00-3.49999E-01
 -1      2897 2.04494E+00 1.01196E-01 3.49999E-01
 -1      2898 1.43763E+00 2.52213E+00-3.49999E-01
 -1      2899 1.30028E+00 1.94600E+00 3.49999E-01
 -1      2900 1.65196E-01 3.26269E+00-3.49999E-01
 -1      2901-1.61583E+00 1.30120E+00 3.49999E-01
 -1      2902-3.68248E-01-2.22665E+00 3.49999E-01
 -1      2903-2.36542E+00 1.82296E+00-3.49999E-01
 -1      2904-1.94828E+00 1.30181E+00 3.49999E-01
 -1      2905-1.91625E+00-1.19232E+00 3.49999E-01
 -1      2906 1.37420E+00-2.05663E+00 3.49999E-01
 -1      2907-2.80631E+00-1.67655E+00 9.16972E-01
 -1      2908 2.13810E+00-3.89449E-01 3.49999E-01
 -1      2909 2.19081E+00 5.01507E-01 3.49999E-01
 -1      2910-1.33649E+00-2.00019E+00 3.49999E-01
 -1      2911 2.49513E+00-1.55329E+00-3.49999E-01
 -1      2912-3.08067E+00 5.71847E-01-3.49999E-01
 -1      2913 1.83024E+00 1.23531E+00 3.49999E-01
 -1      2914 2.63720E+00 1.63745E+00-3.49999E-01
 -1      2915-1.77647E+00 2.36143E+00-3.49999E-01
 -1      2916 4.86243E-01 2.44449E+00 3.49999E-01
 -1      2917-2.91634E-02-2.75089E+00-3.49999E-01
 -1      2918 3.25946E+00 4.74999E-01 9.48279E-01
 -1      2919 3.20278E-01-2.26464E+00 3.49999E-01
 -1      2920-6.96055E-01-2.30104E+00 3.49999E-01
 -1      2921 6.27019E-01-2.30769E+00 3.49999E-01
 -1      2922-2.39673E+00-4.76745E-01 3.49999E-01
 -1      2923 1.97912E+00-1.11423E+00 3.49999E-01
 -1      2924 2.03083E+00 1.35697E+00 3.49999E-01
 -1      2925 7.45743E-01 3.21334E+00-3.49999E-01
 -1      2926-2.43022E+00-1.00580E+00 8.54088E-01
 -1      2927-3.23428E+00-4.74999E-01 9.16972E-01
 -1      2928-2.40512E+00 4.78413E-01 3.49999E-01
 -1      2929-1.39432E+00 2.08674E+00 3.49999E-01
 -1      2930-2.63013E+00 7.67997E-04 8.54088E-01
 -1      2931-2.08791E+00 1.39510E+00 3.49999E-01
 -1      2932-2.56565E+00-1.57686E+00 6.92750E-01
 -1      2933-3.19313E+00-8.08500E-01 9.48278E-01
 -1      2934-4.74999E-01 3.23428E+00 9.16972E-01
 -1      2935 1.39473E-01 2.82578E+00-3.49999E-01
 -1      2936-8.08500E-01 3.19313E+00 9.48278E-01
 -1      2937-3.23428E+00 4.74999E-01 9.16972E-01
 -1      2938-5.00758E-01-2.40219E+00 3.49999E-01
 -1      2939 2.82958E+00 1.68618E+00 9.48278E-01
 -1      2940 2.43022E+00 1.00580E+00 8.54088E-01
 -1      2941 2.83856E+00 1.17295E+00-3.49999E-01
 -1      2942-4.74999E-01-3.32118E+00 1.02500E+00
 -1      2943 7.67997E-04-2.63013E+00 8.54088E-01
 -1      2944 2.62286E+00 1.95111E+00 9.16969E-01
 -1      2945-2.64067E+00-1.96891E+00 9.48279E-01
 -1      2946 2.63013E+00-7.67997E-04 8.54088E-01
 -1      2947-1.86033E+00-1.85924E+00 8.54088E-01
 -1      2948-2.00434E+00 1.84070E+00-3.49999E-01
 -1      2949-2.97379E+00-4.74999E-01 6.92750E-01
 -1      2950 1.68618E+00-2.82958E+00 9.48278E-01
 -1      2951 4.74999E-01-3.23428E+00 9.16972E-01
 -1      2952-1.96891E+00-2.64067E+00 9.48279E-01
 -1      2953 3.00990E+00-1.14507E+00-3.49999E-01
 -1      2954 2.88660E+00-1.70980E+00 1.02500E+00
 -1      2955 1.00651E+00-2.42992E+00 8.54629E-01
 -1      2956-1.67655E+00-2.80631E+00 9.16972E-01
 -1      2957-4.82557E-01 2.42595E+00 3.49999E-01
 -1      2958-2.97379E+00 4.74999E-01 6.92750E-01
 -1      2959-1.85952E+00-1.52364E+00 3.49999E-01
 -1      2960-2.94505E+00-7.05744E-01 7.06511E-01
 -1      2961 4.74999E-01-2.97379E+00 6.92750E-01
 -1      2962-1.00651E+00-2.42992E+00 8.53008E-01
 -1      2963-1.34104E+00 2.58736E+00-3.49999E-01
 -1      2964-8.08500E-01-3.19313E+00 9.48278E-01
 -1      2965 1.67655E+00 2.80631E+00 9.16972E-01
 -1      2966 1.85924E+00 1.86033E+00 8.54088E-01
 -1      2967 2.43866E+00 1.76691E+00 6.92749E-01
 -1      2968 7.67997E-04 2.63013E+00 8.54088E-01
 -1      2969 1.00180E+00 2.81039E+00-3.49999E-01
 -1      2970-2.02770E+00-1.38192E+00 3.49999E-01
 -1      2971-1.77905E+00-2.45080E+00 7.06511E-01
 -1      2972-3.19313E+00 8.08500E-01 9.48278E-01
 -1      2973-1.57686E+00-2.56565E+00 6.92750E-01
 -1      2974 2.99095E+00 4.74999E-01 7.06512E-01
 -1      2975-4.74999E-01-3.02705E+00 7.51012E-01
 -1      2976-3.18658E+00 1.33620E+00-3.49999E-01
 -1      2977 2.58150E+00 1.58343E+00 7.06511E-01
 -1      2978 3.16986E+00 7.98862E-01 9.16969E-01
 -1      2979 4.54391E-01-2.42336E+00 3.49999E-01
 -1      2980-1.00722E+00 2.42963E+00 8.54088E-01
 -1      2981 2.42963E+00-1.00722E+00 8.54088E-01
 -1      2982 2.40993E+00 4.79371E-01 3.49999E-01
 -1      2983 1.95111E+00-2.62286E+00 9.16969E-01
 -1      2984 2.92920E+00 6.99178E-01 6.92748E-01
 -1      2985-4.74999E-01 2.97379E+00 6.92750E-01
 -1      2986-1.11242E+00-2.89510E+00-3.49999E-01
 -1      2987 3.23428E+00-4.74999E-01 9.16972E-01
 -1      2988 2.37705E+00-4.72831E-01 3.49999E-01
 -1      2989 1.58343E+00-2.58150E+00 7.06511E-01
 -1      2990-2.45080E+00-1.77905E+00 7.06511E-01
 -1      2991-7.05744E-01-2.94505E+00 7.06511E-01
 -1      2992 8.08500E-01-3.19313E+00 9.48278E-01
 -1      2993 1.90750E+00-1.41415E+00 3.49999E-01
 -1      2994-2.62286E+00 1.95111E+00 9.16969E-01
 -1      2995-2.42992E+00 1.00651E+00 8.53008E-01
 -1      2996 1.96891E+00 2.64067E+00 9.48279E-01
 -1      2997 4.74999E-01 3.23428E+00 9.16972E-01
 -1      2998 1.00580E+00 2.43022E+00 8.54088E-01
 -1      2999 1.77905E+00 2.45080E+00 7.06511E-01
 -1      3000 4.74999E-01 2.97379E+00 6.92750E-01
 -1      3001-7.05744E-01 2.94505E+00 7.06511E-01
 -1      3002 4.47646E-01 3.01168E+00-3.49999E-01
 -1      3003 1.39432E+00 2.08675E+00 3.49999E-01
 -1      3004 2.54435E+00-1.87260E+00 8.56249E-01
 -1      3005 1.85978E+00-1.85978E+00 8.53007E-01
 -1      3006 2.08978E+00-1.29917E+00 3.49999E-01
 -1      3007 2.56737E+00-1.57758E+00 7.71874E-01
 -1      3008 3.19313E+00-8.08500E-01 9.48278E-01
 -1      3009 2.94505E+00-7.05744E-01 7.06511E-01
 -1      3010-1.67655E+00 2.80631E+00 9.16972E-01
 -1      3011 1.98615E+00-1.73342E+00 6.01503E-01
 -1      3012 1.76691E+00-2.43866E+00 6.92749E-01
 -1      3013 2.97379E+00-4.74999E-01 6.92750E-01
 -1      3014-1.85978E+00 1.85978E+00 8.53007E-01
 -1      3015-2.82958E+00 1.68618E+00 9.48278E-01
 -1      3016 7.05744E-01-2.94505E+00 7.06511E-01
 -1      3017-2.94505E+00 7.05744E-01 7.06511E-01
 -1      3018-2.58150E+00 1.58343E+00 7.06511E-01
 -1      3019 1.57686E+00 2.56565E+00 6.92750E-01
 -1      3020 8.08500E-01 3.19313E+00 9.48278E-01
 -1      3021-1.57686E+00 2.56565E+00 6.92750E-01
 -1      3022-2.43866E+00 1.76691E+00 6.92749E-01
 -1      3023-1.96891E+00 2.64067E+00 9.48279E-01
 -1      3024-1.77905E+00 2.45080E+00 7.06511E-01
 -1      3025 7.05744E-01 2.94505E+00 7.06511E-01
 -1      3026-2.81334E+00-5.59603E-01-4.35033E-03
 -1      3027 5.42022E-01-2.72494E+00-4.89618E-02
 -1      3028-1.59441E+00-2.38621E+00 2.36438E-02
 -1      3029-2.38621E+00-1.59441E+00-2.56244E-02
 -1      3030 1.37420E+00-2.05663E+00 2.13831E-02
 -1      3031 1.58335E+00-2.36965E+00 2.14842E-02
 -1      3032-5.59878E-01-2.81472E+00 2.90177E-02
 -1      3033-2.39673E+00-4.76745E-01-4.89947E-03
 -1      3034-1.33649E+00-2.00019E+00 4.67455E-02
 -1      3035-4.81692E-01-2.42161E+00 7.05689E-03
 -1      3036-2.08791E+00 1.39510E+00 1.61864E-02
 -1      3037 2.81473E+00 5.59878E-01 1.24627E-02
 -1      3038-2.60489E+00-5.18145E-01 1.12611E-01
 -1      3039-2.81472E+00 5.59878E-01-1.95605E-02
 -1      3040-2.43619E+00 4.84592E-01 1.47002E-02
 -1      3041 2.03083E+00 1.35697E+00 4.22863E-03
 -1      3042-5.19623E-01-2.61232E+00 1.26766E-01
 -1      3043 2.35977E+00 1.57674E+00-6.21068E-03
 -1      3044-2.61668E+00-1.26716E+00 8.57915E-02
 -1      3045 2.73096E+00-5.43219E-01-1.58527E-02
 -1      3046 5.40605E-01-2.71782E+00 1.65483E-01
 -1      3047-1.39432E+00 2.08674E+00 1.22714E-02
 -1      3048 4.86243E-01 2.44449E+00 3.97108E-03
 -1      3049-1.41289E+00-2.11453E+00 1.98372E-01
 -1      3050 1.47876E+00-2.21311E+00 1.35363E-01
 -1      3051 2.44201E+00 4.85750E-01 1.99030E-02
 -1      3052-5.59878E-01 2.81472E+00 2.35892E-02
 -1      3053-4.82557E-01 2.42595E+00 2.25234E-02
 -1      3054-5.21161E-01 2.62006E+00 1.29869E-01
 -1      3055-1.53952E+00-2.30406E+00 1.90241E-01
 -1      3056 2.19802E+00 1.46867E+00 1.23070E-01
 -1      3057 1.65652E-01-2.90716E+00 6.19502E-02
 -1      3058-1.97986E+00-2.18471E+00 8.08411E-02
 -1      3059-2.71782E+00 5.40605E-01 1.68239E-01
 -1      3060 2.38621E+00-1.59441E+00 1.98049E-02
 -1      3061-2.38621E+00 1.59441E+00 5.21445E-02
 -1      3062 1.59441E+00 2.38621E+00-1.26789E-03
 -1      3063 5.04997E-01 2.53878E+00 1.76985E-01
 -1      3064-2.04561E+00-1.36684E+00 1.63737E-03
 -1      3065-2.90241E+00-1.69344E-01 9.18021E-02
 -1      3066-2.52719E+00 5.02691E-01 1.86458E-01
 -1      3067-1.44329E+00 2.16003E+00 1.81135E-01
 -1      3068-1.69344E-01 2.90241E+00 9.88820E-02
 -1      3069 4.84902E-01-2.43774E+00 1.37332E-01
 -1      3070-2.22790E+00 1.48864E+00 1.44056E-01
 -1      3071 2.74628E+00 9.54248E-01 9.62064E-02
 -1      3072 2.17206E+00 1.93257E+00 8.90326E-02
 -1      3073-1.20690E+00-2.40638E+00 1.85089E-02
 -1      3074 2.37705E+00-4.72831E-01 7.66614E-02
 -1      3075 2.90241E+00-1.69344E-01 7.63779E-02
 -1      3076-2.30406E+00-1.53952E+00 1.65158E-01
 -1      3077 1.26075E+00-2.66520E+00 7.70391E-02
 -1      3078 2.71782E+00 5.40605E-01 1.84537E-01
 -1      3079 2.06335E+00-1.37869E+00 1.50305E-02
 -1      3080-2.17206E+00 1.93257E+00 1.04721E-01
 -1      3081-9.93097E-01 2.77607E+00 8.08303E-02
 -1      3082 1.39432E+00 2.08675E+00 3.05183E-02
 -1      3083 1.53952E+00 2.30406E+00 1.77542E-01
 -1      3084 2.22362E+00-1.48578E+00 1.30389E-01
 -1      3085-1.29657E+00 2.50958E+00 1.07957E-01
 -1      3086 1.93257E+00-2.17206E+00 9.71855E-02
 -1      3087 2.52051E+00 5.01363E-01 1.94501E-01
 -1      3088-9.93097E-01-2.77607E+00 9.01518E-02
 -1      3089 2.71782E+00-5.40605E-01 1.83219E-01
 -1      3090 2.77607E+00-9.93097E-01 5.16888E-02
 -1      3091-2.66520E+00 1.26075E+00 8.49619E-02
 -1      3092-2.13433E+00-1.42612E+00 1.80913E-01
 -1      3093-1.81233E+00 2.11367E+00-1.31977E-02
 -1      3094 1.26716E+00 2.61668E+00 9.26725E-02
 -1      3095 2.32678E-01 2.90241E+00 3.82499E-02
 -1      3096 2.52969E+00-5.03189E-01 1.88933E-01
 -1      3097 8.66446E-01 2.60905E+00-1.37122E-02
 -3
    3C                          9370                                     1
 -1         1    3    0    1
 -2       241       404      1842      2154
 -1         2    3    0    1
 -2      1366       295      1645      1670
 -1         3    3    0    1
 -2      2052      1625      2162      2520
 -1         4    3    0    1
 -2       920       509       927      1184
 -1         5    3    0    1
 -2       485       488       910       914
 -1         6    3    0    1
 -2       932      1200       532       937
 -1         7    3    0    1
 -2      1640      1528      1947      2299
 -1         8    3    0    1
 -2      2915      3085      1509      3093
 -1         9    3    0    1
 -2       323      2357      2440      2696
 -1        10    3    0    1
 -2       184       182       699      1274
 -1        11    3    0    1
 -2      1463      3043      3056      3072
 -1        12    3    0    1
 -2      1942      1842      1959      1973
 -1        13    3    0    1
 -2      1630      1380      1632      1824
 -1        14    3    0    1
 -2       509       511       921       925
 -1        15    3    0    1
 -2       110       604       609       967
 -1        16    3    0    1
 -2      1412      1290      1423      2973
 -1        17    3    0    1
 -2       110       614       604      1233
 -1        18    3    0    1
 -2        19        22       484      1168
 -1        19    3    0    1
 -2      1703      1526      2151      2324
 -1        20    3    0    1
 -2       815      1090       819       826
 -1        21    3    0    1
 -2       343       653      1002      1005
 -1        22    3    0    1
 -2      2851      2179      2890      3034
 -1        23    3    0    1
 -2        71       566       556      1202
 -1        24    3    0    1
 -2       617      1512      2995      3018
 -1        25    3    0    1
 -2       799       798      1079      1538
 -1        26    3    0    1
 -2       703      1776      2070      2312
 -1        27    3    0    1
 -2      2358      1247      2976      3091
 -1        28    3    0    1
 -2      1499      3063      3095      3097
 -1        29    3    0    1
 -2       625       988      1238      1240
 -1        30    3    0    1
 -2       335      2435      2515      2571
 -1        31    3    0    1
 -2       760       783      1057      1731
 -1        32    3    0    1
 -2        93       585       589       956
 -1        33    3    0    1
 -2      1764      1798      1939      2231
 -1        34    3    0    1
 -2       645       646       664      1005
 -1        35    3    0    1
 -2      1161      1413      1440      3013
 -1        36    3    0    1
 -2       935       537       942      1191
 -1        37    3    0    1
 -2      1700      1744      1825      1958
 -1        38    3    0    1
 -2       532       366       537       942
 -1        39    3    0    1
 -2        37       508       513      1183
 -1        40    3    0    1
 -2       478       477       496       917
 -1        41    3    0    1
 -2       840      1349      1903      2134
 -1        42    3    0    1
 -2      1603      1633      2147      2270
 -1        43    3    0    1
 -2      1593      1526      1611      1856
 -1        44    3    0    1
 -2      1123      1392      1756      1774
 -1        45    3    0    1
 -2        95       580       585       956
 -1        46    3    0    1
 -2       711      1030      1033      2400
 -1        47    3    0    1
 -2       123       126       604       972
 -1        48    3    0    1
 -2      1434      2642      3043      3072
 -1        49    3    0    1
 -2       118       601       971       975
 -1        50    3    0    1
 -2       131       628       633      1243
 -1        51    3    0    1
 -2       153       650       649      1249
 -1        52    3    0    1
 -2       411       222      1301      1646
 -1        53    3    0    1
 -2       567       955       547       568
 -1        54    3    0    1
 -2       389      1541      1686      1701
 -1        55    3    0    1
 -2      1664      1857      1995      2322
 -1        56    3    0    1
 -2      1363      1143      1912      2261
 -1        57    3    0    1
 -2       487      1176      1837      2424
 -1        58    3    0    1
 -2      2613      3031      3050      3077
 -1        59    3    0    1
 -2      1462       375      1463      3056
 -1        60    3    0    1
 -2        63       540        70       931
 -1        61    3    0    1
 -2      1632      1688      1779      2211
 -1        62    3    0    1
 -2       476      1177       912       483
 -1        63    3    0    1
 -2        43       509       511       927
 -1        64    3    0    1
 -2       580        95       585      1221
 -1        65    3    0    1
 -2       956       580       964       965
 -1        66    3    0    1
 -2      1139      1382      1872      2479
 -1        67    3    0    1
 -2       114       613       124       967
 -1        68    3    0    1
 -2      1349       294      1346      1670
 -1        69    3    0    1
 -2      1394      1128      1673      1779
 -1        70    3    0    1
 -2        58        63       533      1197
 -1        71    3    0    1
 -2        87        71       561       947
 -1        72    3    0    1
 -2       652       157       998      1259
 -1        73    3    0    1
 -2      1679      1617      1924      2321
 -1        74    3    0    1
 -2       362       360      3063      1500
 -1        75    3    0    1
 -2      1612       321      1673      2479
 -1        76    3    0    1
 -2      1095      1610      2034      2088
 -1        77    3    0    1
 -2        57       532       932      1193
 -1        78    3    0    1
 -2       719      1291      1038       730
 -1        79    3    0    1
 -2       508        37       919      1183
 -1        80    3    0    1
 -2      1151      1567      1616      1619
 -1        81    3    0    1
 -2       264      1079      1322      1718
 -1        82    3    0    1
 -2       568      2476      2624      2731
 -1        83    3    0    1
 -2      1169       485       918       488
 -1        84    3    0    1
 -2      1681      2163      2219      2327
 -1        85    3    0    1
 -2      1397       861      1117      2265
 -1        86    3    0    1
 -2      1724      1915      1946      2198
 -1        87    3    0    1
 -2      1102      1611      1856      2000
 -1        88    3    0    1
 -2      1349       839       840      1903
 -1        89    3    0    1
 -2      1559      1588      1629      2456
 -1        90    3    0    1
 -2      3050      3031      1468      3077
 -1        91    3    0    1
 -2      1876      2018      2104      2112
 -1        92    3    0    1
 -2       634      2284      2594      2734
 -1        93    3    0    1
 -2      1566      1825      1861      1958
 -1        94    3    0    1
 -2      1536      1586      1998      2030
 -1        95    3    0    1
 -2      1996      1835      2071      2118
 -1        96    3    0    1
 -2       808      1636      2072      2368
 -1        97    3    0    1
 -2      1600      1936      2354      2533
 -1        98    3    0    1
 -2      1050       746      1051      1295
 -1        99    3    0    1
 -2      1658      1617      1679      2220
 -1       100    3    0    1
 -2       482        20       481      1164
 -1       101    3    0    1
 -2       860       894      1150      1770
 -1       102    3    0    1
 -2      1812      1598      1828      1880
 -1       103    3    0    1
 -2      3070      3061      1495      3080
 -1       104    3    0    1
 -2      1976      2006      2386      1846
 -1       105    3    0    1
 -2      1312      2164      2473      2723
 -1       106    3    0    1
 -2       773      1068      1059       776
 -1       107    3    0    1
 -2       499      1190      1180       923
 -1       108    3    0    1
 -2      1846      1857      1976      2006
 -1       109    3    0    1
 -2      1105       298      2186      2563
 -1       110    3    0    1
 -2      1104      1400      1744      2149
 -1       111    3    0    1
 -2      1008       669      1018      1262
 -1       112    3    0    1
 -2       233       771       777      1063
 -1       113    3    0    1
 -2      2126      1775      2555      2576
 -1       114    3    0    1
 -2      2488      1591      2517      2766
 -1       115    3    0    1
 -2      1571      1738      2244      2682
 -1       116    3    0    1
 -2       283      1978      1980      2316
 -1       117    3    0    1
 -2       849       887      1737      1777
 -1       118    3    0    1
 -2        27        31       488      1169
 -1       119    3    0    1
 -2        35        33       484       916
 -1       120    3    0    1
 -2      1672      1301      1841      1897
 -1       121    3    0    1
 -2       798       799      1323      1538
 -1       122    3    0    1
 -2       614       110       127      1233
 -1       123    3    0    1
 -2      1728      1915      2017      2198
 -1       124    3    0    1
 -2      1065      1312      1419      3077
 -1       125    3    0    1
 -2      1685      2059      2232      2359
 -1       126    3    0    1
 -2       317      2170      2240      2262
 -1       127    3    0    1
 -2      1690      1689      1925      2182
 -1       128    3    0    1
 -2        48       509       516       920
 -1       129    3    0    1
 -2       484        33       489       916
 -1       130    3    0    1
 -2      2435      2608      2612      2760
 -1       131    3    0    1
 -2      2203      2888      3031      3086
 -1       132    3    0    1
 -2       390      2126      2177      2576
 -1       133    3    0    1
 -2       271       261      1082      2683
 -1       134    3    0    1
 -2      2927       999      2937      2949
 -1       135    3    0    1
 -2       354      1455      3076      3092
 -1       136    3    0    1
 -2       409      1052      1646      1795
 -1       137    3    0    1
 -2       705       709      1023      1031
 -1       138    3    0    1
 -2      1178       478       918      1169
 -1       139    3    0    1
 -2       123       604       609      1237
 -1       140    3    0    1
 -2       720      1045       736       715
 -1       141    3    0    1
 -2       185      2041      2279      2382
 -1       142    3    0    1
 -2      1440      2856      3045      3075
 -1       143    3    0    1
 -2       916       484       917      1171
 -1       144    3    0    1
 -2       647      1000       655       654
 -1       145    3    0    1
 -2      1546      2132      2237      2272
 -1       146    3    0    1
 -2       755       216       224      1292
 -1       147    3    0    1
 -2      1024       695      1025      1029
 -1       148    3    0    1
 -2       961       584      2247      2514
 -1       149    3    0    1
 -2       348       104       581       961
 -1       150    3    0    1
 -2       621       990       639       640
 -1       151    3    0    1
 -2      1801      1866      2124      2552
 -1       152    3    0    1
 -2      1622      1051      1765      2109
 -1       153    3    0    1
 -2       696      1029       706       695
 -1       154    3    0    1
 -2       484       489       912      1166
 -1       155    3    0    1
 -2       285       820       825      1335
 -1       156    3    0    1
 -2        84        73       557       944
 -1       157    3    0    1
 -2       248       773      1068      1071
 -1       158    3    0    1
 -2      1780      1577      2093      2373
 -1       159    3    0    1
 -2      1562      1602      1869      2478
 -1       160    3    0    1
 -2       911       480      1172      2939
 -1       161    3    0    1
 -2      2107      1575      2487      2556
 -1       162    3    0    1
 -2       599       974       608       606
 -1       163    3    0    1
 -2       652       657       993      1003
 -1       164    3    0    1
 -2      1336       282      1907      1980
 -1       165    3    0    1
 -2       616       978      2584      2754
 -1       166    3    0    1
 -2       318       157       652      1004
 -1       167    3    0    1
 -2       282       373       821      1096
 -1       168    3    0    1
 -2       485        27      1169      1170
 -1       169    3    0    1
 -2      1839      1212      2900      2925
 -1       170    3    0    1
 -2      1632      1552      1824      2386
 -1       171    3    0    1
 -2       623       987       631       630
 -1       172    3    0    1
 -2       601       971      1227      1230
 -1       173    3    0    1
 -2       349      1474      3067      3085
 -1       174    3    0    1
 -2       595      1229       972      1228
 -1       175    3    0    1
 -2       361      3046      3057      3069
 -1       176    3    0    1
 -2       777      1064      1304      1307
 -1       177    3    0    1
 -2       337      2406      2551      2828
 -1       178    3    0    1
 -2      2939      2940      2977      2978
 -1       179    3    0    1
 -2       472       908      2445      2834
 -1       180    3    0    1
 -2       102       964       965      2176
 -1       181    3    0    1
 -2       620      1245      1240       988
 -1       182    3    0    1
 -2      1426      1425      3026      1441
 -1       183    3    0    1
 -2       424       366      1200      2652
 -1       184    3    0    1
 -2       268       264       797      1322
 -1       185    3    0    1
 -2      1030       693       711      1033
 -1       186    3    0    1
 -2      1569      1807      2264      2564
 -1       187    3    0    1
 -2       600      1235      1234       599
 -1       188    3    0    1
 -2       362      1476      1500      3095
 -1       189    3    0    1
 -2       484       916      1168      1171
 -1       190    3    0    1
 -2      1058       245      1068      1894
 -1       191    3    0    1
 -2      1715      1913      2036      2065
 -1       192    3    0    1
 -2       238       251      1064      1975
 -1       193    3    0    1
 -2        85       365       559       950
 -1       194    3    0    1
 -2      1423      1412      2973      3088
 -1       195    3    0    1
 -2      1689      1586      2029      2123
 -1       196    3    0    1
 -2      1290      1039      2275      2986
 -1       197    3    0    1
 -2       414       412      1038      1535
 -1       198    3    0    1
 -2      1400      1700      1744      2149
 -1       199    3    0    1
 -2       609       613       967       977
 -1       200    3    0    1
 -2       637       131       633       981
 -1       201    3    0    1
 -2      2119      2894      3037      3071
 -1       202    3    0    1
 -2       133       629       632      1244
 -1       203    3    0    1
 -2      1961      1949      2304      2390
 -1       204    3    0    1
 -2      1056      1826      1863      1868
 -1       205    3    0    1
 -2       999      2937      2949      2958
 -1       206    3    0    1
 -2      1288      1840      1899      2058
 -1       207    3    0    1
 -2      1907       831      2072      2172
 -1       208    3    0    1
 -2       621       622       640       992
 -1       209    3    0    1
 -2      2943       737      2951      2961
 -1       210    3    0    1
 -2       531       524       538       940
 -1       211    3    0    1
 -2       997       643      1001      1249
 -1       212    3    0    1
 -2       463       822      1883      2098
 -1       213    3    0    1
 -2      1634      1613      1682      2566
 -1       214    3    0    1
 -2      1596      1721      1822      1862
 -1       215    3    0    1
 -2      1126      2153      2394      2507
 -1       216    3    0    1
 -2       833      1339      1097      1828
 -1       217    3    0    1
 -2       653       656       995      1000
 -1       218    3    0    1
 -2       711       693       712      1033
 -1       219    3    0    1
 -2       155      1442      1443      3065
 -1       220    3    0    1
 -2       135      1680      2206      2272
 -1       221    3    0    1
 -2      1904       855      1969      2379
 -1       222    3    0    1
 -2       638       143       144      1243
 -1       223    3    0    1
 -2      1567      1524      1594      1966
 -1       224    3    0    1
 -2       515        47        52      1184
 -1       225    3    0    1
 -2      2200      1040      2239      2402
 -1       226    3    0    1
 -2       353       355      1940      2824
 -1       227    3    0    1
 -2       519       501       520       930
 -1       228    3    0    1
 -2       678       679      1269      1935
 -1       229    3    0    1
 -2      1945      1082      1950      2072
 -1       230    3    0    1
 -2      2120      1592      2140      2262
 -1       231    3    0    1
 -2      1610       832      2034      2172
 -1       232    3    0    1
 -2       980      1248       985       619
 -1       233    3    0    1
 -2      1443       341      1467      1480
 -1       234    3    0    1
 -2       585       589       956       964
 -1       235    3    0    1
 -2      1560      1890      2152      2371
 -1       236    3    0    1
 -2       823       822      1979      2157
 -1       237    3    0    1
 -2      1919      1668      2022      2109
 -1       238    3    0    1
 -2      1656       120      2567      2801
 -1       239    3    0    1
 -2       972       603      1858      2362
 -1       240    3    0    1
 -2       605       119       607       974
 -1       241    3    0    1
 -2      3002      1499      3095      3097
 -1       242    3    0    1
 -2       575      1223      1222       574
 -1       243    3    0    1
 -2       477       916       917      1171
 -1       244    3    0    1
 -2      1724      1915      2017      2566
 -1       245    3    0    1
 -2      1557      2488      2517      2582
 -1       246    3    0    1
 -2      1544      1684      2303      2659
 -1       247    3    0    1
 -2      1123      1392      1693      1756
 -1       248    3    0    1
 -2       163       677       680      1007
 -1       249    3    0    1
 -2       580       102       964       965
 -1       250    3    0    1
 -2       807       789      1081      1082
 -1       251    3    0    1
 -2       182      1273       184       699
 -1       252    3    0    1
 -2       485        27       488      1169
 -1       253    3    0    1
 -2      2115      2547      2593      2700
 -1       254    3    0    1
 -2       583       581       961      1215
 -1       255    3    0    1
 -2      1867      1659      1924      1962
 -1       256    3    0    1
 -2       601       971       975      1227
 -1       257    3    0    1
 -2      2100      1188      2671      2792
 -1       258    3    0    1
 -2      1038      1535      1955      2307
 -1       259    3    0    1
 -2       334      1876      1970      2018
 -1       260    3    0    1
 -2       112       605       607       969
 -1       261    3    0    1
 -2      1624      1884      2087      2331
 -1       262    3    0    1
 -2       576       965       571       592
 -1       263    3    0    1
 -2      1010      1267       674      1014
 -1       264    3    0    1
 -2        27       492        36      1170
 -1       265    3    0    1
 -2       505       926      1179      1182
 -1       266    3    0    1
 -2       595       603       971       975
 -1       267    3    0    1
 -2      1985      1786      2125      2556
 -1       268    3    0    1
 -2      3084      3079      2993      3006
 -1       269    3    0    1
 -2       529       936      1192      1194
 -1       270    3    0    1
 -2      1247      1427      1435      3091
 -1       271    3    0    1
 -2      1247       631      2972      3015
 -1       272    3    0    1
 -2       516        43       423       930
 -1       273    3    0    1
 -2      1640      1657      1674      2447
 -1       274    3    0    1
 -2        95       590       580       957
 -1       275    3    0    1
 -2       920       501       927       930
 -1       276    3    0    1
 -2       977       965      2406      2415
 -1       277    3    0    1
 -2       636       629       992      1242
 -1       278    3    0    1
 -2       669       687       688      1017
 -1       279    3    0    1
 -2      1188      1881      2100      2671
 -1       280    3    0    1
 -2      1479      1409      1509      3093
 -1       281    3    0    1
 -2       231      1453      1459      1516
 -1       282    3    0    1
 -2       559       563       952      1209
 -1       283    3    0    1
 -2      1593      1526      1870      2199
 -1       284    3    0    1
 -2       643       651       997      1001
 -1       285    3    0    1
 -2       323       674       329      1014
 -1       286    3    0    1
 -2      1507       618      2995      3017
 -1       287    3    0    1
 -2       494        22        24      1171
 -1       288    3    0    1
 -2      1313       778      1542      2675
 -1       289    3    0    1
 -2       701      1022      1033      1272
 -1       290    3    0    1
 -2      2955       762      1516      3016
 -1       291    3    0    1
 -2      2930      1443      2949      2958
 -1       292    3    0    1
 -2       528       941       543       523
 -1       293    3    0    1
 -2       197      1457      3055      3073
 -1       294    3    0    1
 -2      2882      2839      2883      3048
 -1       295    3    0    1
 -2       531      2650      2653      2717
 -1       296    3    0    1
 -2      1724      1569      2121      2564
 -1       297    3    0    1
 -2       619      1248       985       634
 -1       298    3    0    1
 -2      2080      1278      1421      2891
 -1       299    3    0    1
 -2       652       662      1004      1255
 -1       300    3    0    1
 -2      1643      2453      2583      2665
 -1       301    3    0    1
 -2      1199       938      2282      2380
 -1       302    3    0    1
 -2       615       597       616       979
 -1       303    3    0    1
 -2       509       511       927      1184
 -1       304    3    0    1
 -2       645      1255      1004       646
 -1       305    3    0    1
 -2       330       177      1017      2433
 -1       306    3    0    1
 -2       450      2946      2987      3013
 -1       307    3    0    1
 -2       551       550       946      2934
 -1       308    3    0    1
 -2      1581      1534      1695      1838
 -1       309    3    0    1
 -2       147      1256       152       653
 -1       310    3    0    1
 -2       131       633       981      1243
 -1       311    3    0    1
 -2      2945       689      2947      2990
 -1       312    3    0    1
 -2      1350      1101      2075      2493
 -1       313    3    0    1
 -2      1651      1810      2285      2629
 -1       314    3    0    1
 -2      1300      2740      1424      3057
 -1       315    3    0    1
 -2      1478       346      1494      1512
 -1       316    3    0    1
 -2       376       374      3089      3096
 -1       317    3    0    1
 -2       620       985       619       980
 -1       318    3    0    1
 -2      1567      1524      1616      2090
 -1       319    3    0    1
 -2       110       604       967      1233
 -1       320    3    0    1
 -2       186       697      1024      1275
 -1       321    3    0    1
 -2      1808      1806      1865      2032
 -1       322    3    0    1
 -2      1736      1790      1937      2027
 -1       323    3    0    1
 -2       257       805       270      1317
 -1       324    3    0    1
 -2       695      1276      1274      1026
 -1       325    3    0    1
 -2       353      1940      2598      2824
 -1       326    3    0    1
 -2      1408       863      1119      2049
 -1       327    3    0    1
 -2      1972      1713      2232      2410
 -1       328    3    0    1
 -2       843      1353       844      1655
 -1       329    3    0    1
 -2      1725      1597      1765      2215
 -1       330    3    0    1
 -2       727       726      1040      2239
 -1       331    3    0    1
 -2      1119       435      1408      2401
 -1       332    3    0    1
 -2      2642      1434      3043      2914
 -1       333    3    0    1
 -2      1620      1723      1840      1899
 -1       334    3    0    1
 -2      2287      2621      2622      2626
 -1       335    3    0    1
 -2       547       567       568       954
 -1       336    3    0    1
 -2       930       370      1201      1531
 -1       337    3    0    1
 -2      1420      1419      3027      3046
 -1       338    3    0    1
 -2       697       186       698      1275
 -1       339    3    0    1
 -2       398      1895      1926      2114
 -1       340    3    0    1
 -2       989       629       137       632
 -1       341    3    0    1
 -2      1631      1581      1817      1878
 -1       342    3    0    1
 -2      1869      1872      2478      2479
 -1       343    3    0    1
 -2      2084      1819      2091      2345
 -1       344    3    0    1
 -2       608       599       606      3023
 -1       345    3    0    1
 -2       963       581       958       966
 -1       346    3    0    1
 -2      1007      1268      1013       668
 -1       347    3    0    1
 -2      1900      1854      2005      2314
 -1       348    3    0    1
 -2      1651      1810      2629      2779
 -1       349    3    0    1
 -2       308      1353      1781      1997
 -1       350    3    0    1
 -2      1341       291      1631      1849
 -1       351    3    0    1
 -2       821       824      1084      1333
 -1       352    3    0    1
 -2      1412      3028      1457      3073
 -1       353    3    0    1
 -2       661       149       657       993
 -1       354    3    0    1
 -2       140       137       629      1246
 -1       355    3    0    1
 -2        28       473      2939      2940
 -1       356    3    0    1
 -2       484        19       489      1166
 -1       357    3    0    1
 -2      1888      1571      2244      2360
 -1       358    3    0    1
 -2       268       266      1636      1978
 -1       359    3    0    1
 -2       622       990       640       991
 -1       360    3    0    1
 -2      1478      1427      3091      3018
 -1       361    3    0    1
 -2       796      1317       801       256
 -1       362    3    0    1
 -2      1888      1761      1942      1959
 -1       363    3    0    1
 -2      1429      1434      1464      3072
 -1       364    3    0    1
 -2       489       912      1165      1177
 -1       365    3    0    1
 -2       384      1859      2363      2590
 -1       366    3    0    1
 -2       365        85       559       952
 -1       367    3    0    1
 -2       628       138       633       991
 -1       368    3    0    1
 -2      1864      1553      1882      1929
 -1       369    3    0    1
 -2      1385       858      1113      2630
 -1       370    3    0    1
 -2       149       661       158       993
 -1       371    3    0    1
 -2       590        95        99       957
 -1       372    3    0    1
 -2      1245       136      2431      2464
 -1       373    3    0    1
 -2       760       783      1731      1922
 -1       374    3    0    1
 -2      1549      1602      2139      2160
 -1       375    3    0    1
 -2      1177       476       912      1165
 -1       376    3    0    1
 -2       587        92       105      1214
 -1       377    3    0    1
 -2       829       825      1094      1328
 -1       378    3    0    1
 -2       879       871      2091      2345
 -1       379    3    0    1
 -2       532       542       942      1191
 -1       380    3    0    1
 -2      1048      1299       749      1054
 -1       381    3    0    1
 -2       730       724      1041      1816
 -1       382    3    0    1
 -2      1995      1857      2006      2322
 -1       383    3    0    1
 -2       470        13       460       908
 -1       384    3    0    1
 -2       476      1174       475       483
 -1       385    3    0    1
 -2       989       621       992      1242
 -1       386    3    0    1
 -2      2985       949      2997      3000
 -1       387    3    0    1
 -2      2921      2919      3069      2979
 -1       388    3    0    1
 -2       485        29       914      1175
 -1       389    3    0    1
 -2       384       954      2363      2511
 -1       390    3    0    1
 -2       460         4       465      1158
 -1       391    3    0    1
 -2       547       947       954      1202
 -1       392    3    0    1
 -2      2285      2577      2630      2631
 -1       393    3    0    1
 -2       866      1392       880      2243
 -1       394    3    0    1
 -2       275       829       286      1328
 -1       395    3    0    1
 -2       598       597       616       978
 -1       396    3    0    1
 -2      2966      2944      2967      2999
 -1       397    3    0    1
 -2       655       647      2927      2937
 -1       398    3    0    1
 -2      2887      2438      2892      3074
 -1       399    3    0    1
 -2      1040      1289      2200      2239
 -1       400    3    0    1
 -2       941       543      2502      2761
 -1       401    3    0    1
 -2      1924      1867      1962      2118
 -1       402    3    0    1
 -2         4       469         7      1155
 -1       403    3    0    1
 -2       798      1078      2983      3004
 -1       404    3    0    1
 -2      1626      1864      1882      1929
 -1       405    3    0    1
 -2        71        87       561      1204
 -1       406    3    0    1
 -2      1438      1486      1498      3086
 -1       407    3    0    1
 -2        37        38       508       919
 -1       408    3    0    1
 -2       923       508      1180      1181
 -1       409    3    0    1
 -2       813      1096       832       831
 -1       410    3    0    1
 -2       456      1162      1158       455
 -1       411    3    0    1
 -2       814      1096      1087       813
 -1       412    3    0    1
 -2      1581      1534      1631      1695
 -1       413    3    0    1
 -2      1470      1415      1474      3001
 -1       414    3    0    1
 -2        31        27       488       910
 -1       415    3    0    1
 -2      1559      1629      2020      2530
 -1       416    3    0    1
 -2       460        13       907       908
 -1       417    3    0    1
 -2       557        82       564       955
 -1       418    3    0    1
 -2      1758       329      1976      2667
 -1       419    3    0    1
 -2      1645      1623      1991      2185
 -1       420    3    0    1
 -2       798       787       799      1079
 -1       421    3    0    1
 -2       109      3067      1509      1510
 -1       422    3    0    1
 -2       504      1188      1186       503
 -1       423    3    0    1
 -2       363       223      2389      2525
 -1       424    3    0    1
 -2       476       912      1165      1166
 -1       425    3    0    1
 -2       736       735      2077      2546
 -1       426    3    0    1
 -2      1729      1029      2133      2355
 -1       427    3    0    1
 -2      1859       106      2363      2727
 -1       428    3    0    1
 -2      2593      1591      2702      2692
 -1       429    3    0    1
 -2       461      1156         6       464
 -1       430    3    0    1
 -2      1905      2128      2181      2229
 -1       431    3    0    1
 -2       861      1397       885      2265
 -1       432    3    0    1
 -2        47      1186        49       509
 -1       433    3    0    1
 -2      1689      1359      1708      1954
 -1       434    3    0    1
 -2        67       364      2681      2751
 -1       435    3    0    1
 -2      3047      1479      3067      3093
 -1       436    3    0    1
 -2       461        14       905      1160
 -1       437    3    0    1
 -2       391      2062      2093      2138
 -1       438    3    0    1
 -2       390       915      1775      1805
 -1       439    3    0    1
 -2      1752      1984      1989      2031
 -1       440    3    0    1
 -2      1695      1534      2189      2506
 -1       441    3    0    1
 -2      1542      1668      1873      2505
 -1       442    3    0    1
 -2      2024      2858      3028      3073
 -1       443    3    0    1
 -2      2453       531      2583      2653
 -1       444    3    0    1
 -2      1817      1849      1878      2044
 -1       445    3    0    1
 -2       317       174      1270      2240
 -1       446    3    0    1
 -2      1876       334      1970      2184
 -1       447    3    0    1
 -2       408      1595      1622      1985
 -1       448    3    0    1
 -2       293      1386       313      1831
 -1       449    3    0    1
 -2      1611      1593      1665      2323
 -1       450    3    0    1
 -2        73       557       559       945
 -1       451    3    0    1
 -2       502       930       520       501
 -1       452    3    0    1
 -2       464         8       467      1156
 -1       453    3    0    1
 -2       506        40       505      1179
 -1       454    3    0    1
 -2      1009       676      1016      1017
 -1       455    3    0    1
 -2      1730      1861      2268      2277
 -1       456    3    0    1
 -2      2178      2126      2555      2576
 -1       457    3    0    1
 -2      1176       486       487      1837
 -1       458    3    0    1
 -2      2253      1117      2265      2814
 -1       459    3    0    1
 -2       676       177      1016      1017
 -1       460    3    0    1
 -2       909       472      2560      2806
 -1       461    3    0    1
 -2      1984      1637      2031      2242
 -1       462    3    0    1
 -2       778       772      2190      2768
 -1       463    3    0    1
 -2        14       461       464      1163
 -1       464    3    0    1
 -2       410      1404      2315      2331
 -1       465    3    0    1
 -2       453       454       471       907
 -1       466    3    0    1
 -2       167       676      1009      1263
 -1       467    3    0    1
 -2      1072       253      3004      3005
 -1       468    3    0    1
 -2        66       529       936       940
 -1       469    3    0    1
 -2       171       175      1013      1532
 -1       470    3    0    1
 -2       353       701       704      1030
 -1       471    3    0    1
 -2      3032      3042      1450      3057
 -1       472    3    0    1
 -2      1104       399      1400      2149
 -1       473    3    0    1
 -2      1404       857      1111      2259
 -1       474    3    0    1
 -2      2196      1902      2408      2524
 -1       475    3    0    1
 -2      1354       843       844      2000
 -1       476    3    0    1
 -2      1959      1761      1973      2107
 -1       477    3    0    1
 -2      1631      1817      1849      1878
 -1       478    3    0    1
 -2       948       556      1204      1205
 -1       479    3    0    1
 -2       918      1178      2441      2510
 -1       480    3    0    1
 -2      2593      2647      2692      2702
 -1       481    3    0    1
 -2       580       585       956       964
 -1       482    3    0    1
 -2      1414      1449      1465      3071
 -1       483    3    0    1
 -2       222       411      1056      1863
 -1       484    3    0    1
 -2      1416      1415      3052      1470
 -1       485    3    0    1
 -2      1128      1612      1673      1779
 -1       486    3    0    1
 -2      1430      2380      3062      3094
 -1       487    3    0    1
 -2      1576      1762      2238      2320
 -1       488    3    0    1
 -2      1037       728      1042      1280
 -1       489    3    0    1
 -2       967       604       977       978
 -1       490    3    0    1
 -2       835      1342      1098      1778
 -1       491    3    0    1
 -2      2841      2781      3062      3072
 -1       492    3    0    1
 -2      1462       375      1465      1487
 -1       493    3    0    1
 -2       488       918      1169      1178
 -1       494    3    0    1
 -2      3043      3041      3056      3072
 -1       495    3    0    1
 -2       269       371      2611      2796
 -1       496    3    0    1
 -2       456       906       466       455
 -1       497    3    0    1
 -2       557        85       559       950
 -1       498    3    0    1
 -2       960      1236      2061      1409
 -1       499    3    0    1
 -2       843      1352      1655      1856
 -1       500    3    0    1
 -2       532        55       542      1191
 -1       501    3    0    1
 -2      1639       263      1715      1785
 -1       502    3    0    1
 -2       803       262       272      1318
 -1       503    3    0    1
 -2       414      1044      2009      2210
 -1       504    3    0    1
 -2       465       460      1158      1162
 -1       505    3    0    1
 -2      1011       177      2045      2240
 -1       506    3    0    1
 -2       461        14       909      1163
 -1       507    3    0    1
 -2        27       485       910      1173
 -1       508    3    0    1
 -2       562      1606      1827      2654
 -1       509    3    0    1
 -2       347       137      2442      2829
 -1       510    3    0    1
 -2      1580      1070      1948      2103
 -1       511    3    0    1
 -2       962       101      2097      2765
 -1       512    3    0    1
 -2       775      1066      2086      2459
 -1       513    3    0    1
 -2       426        43       511       927
 -1       514    3    0    1
 -2       174       177      1011      2240
 -1       515    3    0    1
 -2       803       264       800      1325
 -1       516    3    0    1
 -2      1617      1659      1678      1679
 -1       517    3    0    1
 -2      1189      1429      1434      2967
 -1       518    3    0    1
 -2      1503      1475      1504      3019
 -1       519    3    0    1
 -2      2049      1539      2426      2574
 -1       520    3    0    1
 -2      1143      1363      1737      2261
 -1       521    3    0    1
 -2        25       390      2025      2127
 -1       522    3    0    1
 -2      1643      1606      1827      2076
 -1       523    3    0    1
 -2       629       989       992      1242
 -1       524    3    0    1
 -2       936       525      1192      1194
 -1       525    3    0    1
 -2      2077       204      2102      2200
 -1       526    3    0    1
 -2       592      2176      2509      2543
 -1       527    3    0    1
 -2       532        56       537      1193
 -1       528    3    0    1
 -2       931      1201       943       528
 -1       529    3    0    1
 -2      1428      1427      3061      1494
 -1       530    3    0    1
 -2      1594       413      1720      2023
 -1       531    3    0    1
 -2       171       677      1015      1018
 -1       532    3    0    1
 -2      1582      1787      2471      2767
 -1       533    3    0    1
 -2      1617      1658      1912      2220
 -1       534    3    0    1
 -2      2222        79      2532      2596
 -1       535    3    0    1
 -2        35       916       917      2825
 -1       536    3    0    1
 -2       553      1206        72       554
 -1       537    3    0    1
 -2       622       990       981       621
 -1       538    3    0    1
 -2      1363       849      1737      1777
 -1       539    3    0    1
 -2      2944       924       512      1189
 -1       540    3    0    1
 -2      2284       988      2558      2670
 -1       541    3    0    1
 -2      1734      1578      1787      2206
 -1       542    3    0    1
 -2       585        96      1220      1221
 -1       543    3    0    1
 -2      1348       840      2114      2369
 -1       544    3    0    1
 -2      2060      2257      2294      2436
 -1       545    3    0    1
 -2      1659      1617      1678      1924
 -1       546    3    0    1
 -2      1539      2227      2426      2574
 -1       547    3    0    1
 -2      1076      1321      1080       791
 -1       548    3    0    1
 -2      1707      1635      1997      2166
 -1       549    3    0    1
 -2       793       794      1076      1080
 -1       550    3    0    1
 -2        17        13       465      1162
 -1       551    3    0    1
 -2       674       673      1010      1014
 -1       552    3    0    1
 -2       489       484       916      1168
 -1       553    3    0    1
 -2      1978      1092      1979      2255
 -1       554    3    0    1
 -2       652       157      1003      1004
 -1       555    3    0    1
 -2       813      1094      1327      1328
 -1       556    3    0    1
 -2      1692      1693      2150      2187
 -1       557    3    0    1
 -2       769       232       770      1306
 -1       558    3    0    1
 -2       765      1310       778       764
 -1       559    3    0    1
 -2        12       458       457       906
 -1       560    3    0    1
 -2        67       369      1983      2527
 -1       561    3    0    1
 -2       329      1014      1267      2440
 -1       562    3    0    1
 -2       331      1961      2144      2304
 -1       563    3    0    1
 -2      1446      1422      3044      3076
 -1       564    3    0    1
 -2        37      1181      1180       508
 -1       565    3    0    1
 -2      2903      2358      3061      3080
 -1       566    3    0    1
 -2       577        98       578      1219
 -1       567    3    0    1
 -2      1949      1757      2304      2500
 -1       568    3    0    1
 -2       899       461       464       905
 -1       569    3    0    1
 -2       906      1836      2071      2504
 -1       570    3    0    1
 -2       407       238       777      1064
 -1       571    3    0    1
 -2       499      1182      1179       926
 -1       572    3    0    1
 -2      1172        30      2939      2940
 -1       573    3    0    1
 -2      1960       101      2299      2765
 -1       574    3    0    1
 -2       112      1234       115       605
 -1       575    3    0    1
 -2      1119      2049      2191      2384
 -1       576    3    0    1
 -2       557       564       944       955
 -1       577    3    0    1
 -2       508        37       513      1180
 -1       578    3    0    1
 -2      1719      1555      2286      2628
 -1       579    3    0    1
 -2       769       770      1067      1306
 -1       580    3    0    1
 -2      3030      2613      3050      3077
 -1       581    3    0    1
 -2      1059       776       239       773
 -1       582    3    0    1
 -2       262       252       800      1073
 -1       583    3    0    1
 -2       218      1296       225       753
 -1       584    3    0    1
 -2        29       918      1178      2441
 -1       585    3    0    1
 -2        98       578      1219      1222
 -1       586    3    0    1
 -2       487       914      1889      2424
 -1       587    3    0    1
 -2        13       470       377       908
 -1       588    3    0    1
 -2      1323      2203      1417      1418
 -1       589    3    0    1
 -2       622       981       991      1243
 -1       590    3    0    1
 -2       558      1211      2326      2514
 -1       591    3    0    1
 -2       223       749       752      1302
 -1       592    3    0    1
 -2       135       136      1874      2616
 -1       593    3    0    1
 -2      2405      2873      2969      3097
 -1       594    3    0    1
 -2       397      1996      2071      2118
 -1       595    3    0    1
 -2       233       777      1304      1307
 -1       596    3    0    1
 -2       115       612       121      1232
 -1       597    3    0    1
 -2      2013      1641      2018      2047
 -1       598    3    0    1
 -2       453       471       472       908
 -1       599    3    0    1
 -2       789      1317      1081      1316
 -1       600    3    0    1
 -2       143       638       628      1243
 -1       601    3    0    1
 -2      1526      1666      1703      1891
 -1       602    3    0    1
 -2      1732      1677      1994      2162
 -1       603    3    0    1
 -2       820       830      1095      1327
 -1       604    3    0    1
 -2      1850      1768      1556      2174
 -1       605    3    0    1
 -2       289      1783      2088      2735
 -1       606    3    0    1
 -2       629      1241       133       632
 -1       607    3    0    1
 -2      1288      1041       724      1816
 -1       608    3    0    1
 -2      1073      1322       797      1079
 -1       609    3    0    1
 -2       263      1715      1913      2597
 -1       610    3    0    1
 -2       746      1055       745      1050
 -1       611    3    0    1
 -2      1201       943       543      2374
 -1       612    3    0    1
 -2       262       803       800      1318
 -1       613    3    0    1
 -2       411      1056      1863      1868
 -1       614    3    0    1
 -2       765      1313      1307       764
 -1       615    3    0    1
 -2       282       821       824      1096
 -1       616    3    0    1
 -2      2613      2888      3031      3077
 -1       617    3    0    1
 -2       741      1054       751       740
 -1       618    3    0    1
 -2      2872      2782      3041      1465
 -1       619    3    0    1
 -2         9       458        11       902
 -1       620    3    0    1
 -2      1055      1051      2057      2521
 -1       621    3    0    1
 -2      1610      1094      2172      2269
 -1       622    3    0    1
 -2      1546      2051      2084      2542
 -1       623    3    0    1
 -2       601       602       971      1230
 -1       624    3    0    1
 -2      1299      1048       749      1293
 -1       625    3    0    1
 -2      1412      1458      2973      3088
 -1       626    3    0    1
 -2      2131      1871      2350      2481
 -1       627    3    0    1
 -2       869      1379      2052      2520
 -1       628    3    0    1
 -2       668      1268       679       667
 -1       629    3    0    1
 -2       111       601      1227      1230
 -1       630    3    0    1
 -2       315       138       628       991
 -1       631    3    0    1
 -2       612       115       605      1232
 -1       632    3    0    1
 -2       411      1646      1814      1863
 -1       633    3    0    1
 -2      1806      1808      1936      2354
 -1       634    3    0    1
 -2       150       662       652      1255
 -1       635    3    0    1
 -2       643      1251       998      1250
 -1       636    3    0    1
 -2      3026      1968       999      3065
 -1       637    3    0    1
 -2      1692      1693      1702      1762
 -1       638    3    0    1
 -2        49        47       509       920
 -1       639    3    0    1
 -2      1631      1581      1695      1817
 -1       640    3    0    1
 -2       807       784      1820      1948
 -1       641    3    0    1
 -2       763       783       784      1070
 -1       642    3    0    1
 -2       888      1400      1700      1744
 -1       643    3    0    1
 -2       748       742       754      1055
 -1       644    3    0    1
 -2       190       335      1031      2048
 -1       645    3    0    1
 -2      1399       849      1103      1777
 -1       646    3    0    1
 -2      1707      1635      1732      1754
 -1       647    3    0    1
 -2      1547      1602      1794      2254
 -1       648    3    0    1
 -2      1127      2052      2162      2520
 -1       649    3    0    1
 -2        10         4       460       901
 -1       650    3    0    1
 -2       444      1123      1756      1774
 -1       651    3    0    1
 -2      1338      1812      1828      1880
 -1       652    3    0    1
 -2       556        80       953       954
 -1       653    3    0    1
 -2       919       508       928       929
 -1       654    3    0    1
 -2       501       919       928       929
 -1       655    3    0    1
 -2      2844      2851      2890      3034
 -1       656    3    0    1
 -2       663       645       664      1005
 -1       657    3    0    1
 -2       701      1022      1030      1033
 -1       658    3    0    1
 -2      1636       808      1749      2368
 -1       659    3    0    1
 -2      1572      1639      1992      2192
 -1       660    3    0    1
 -2      1680      1734      2108      2726
 -1       661    3    0    1
 -2      1037       715      1042      1045
 -1       662    3    0    1
 -2      1734      1680      2108      2206
 -1       663    3    0    1
 -2       725      1037      1042      1045
 -1       664    3    0    1
 -2       831       832      1610      2172
 -1       665    3    0    1
 -2       648      1257      1256       647
 -1       666    3    0    1
 -2      1676      1671      2160      2309
 -1       667    3    0    1
 -2       109      1479      1509      3093
 -1       668    3    0    1
 -2      1135      1129      1819      2091
 -1       669    3    0    1
 -2      1629      2020      2530      2532
 -1       670    3    0    1
 -2      1957      1534      2064      2506
 -1       671    3    0    1
 -2      1910       424      2652      2769
 -1       672    3    0    1
 -2       660       152       653      1254
 -1       673    3    0    1
 -2        79      1588      1629      2020
 -1       674    3    0    1
 -2       558       961      1211      2514
 -1       675    3    0    1
 -2       656       659      1002      1253
 -1       676    3    0    1
 -2      3048      2405      3063      3097
 -1       677    3    0    1
 -2       783      1068      2293      2720
 -1       678    3    0    1
 -2       525       937       524       932
 -1       679    3    0    1
 -2       252       797       800      1073
 -1       680    3    0    1
 -2      2386      2006      1630      1846
 -1       681    3    0    1
 -2      1728      1613      1887      2019
 -1       682    3    0    1
 -2      2046       579      2334      2529
 -1       683    3    0    1
 -2       973      1247      2358      1427
 -1       684    3    0    1
 -2      2928       340      1478      3066
 -1       685    3    0    1
 -2       653       343       656      1000
 -1       686    3    0    1
 -2       917       496      2510      2825
 -1       687    3    0    1
 -2       524      1200       937       538
 -1       688    3    0    1
 -2       808       831      1082      2072
 -1       689    3    0    1
 -2       190       416       699      1026
 -1       690    3    0    1
 -2      1990      2370      2610      2679
 -1       691    3    0    1
 -2      1632      1380      1688      1824
 -1       692    3    0    1
 -2       489        19      1165      1166
 -1       693    3    0    1
 -2       231      1453      3046      1459
 -1       694    3    0    1
 -2       605       607       969       974
 -1       695    3    0    1
 -2      1128       870      1688      1779
 -1       696    3    0    1
 -2      1857      1995      2006      2142
 -1       697    3    0    1
 -2      1267      1010       674      1265
 -1       698    3    0    1
 -2       469       465       907      1155
 -1       699    3    0    1
 -2       238      1965      1975      2361
 -1       700    3    0    1
 -2       627      2105      2647      2664
 -1       701    3    0    1
 -2       265       264      1325      1800
 -1       702    3    0    1
 -2      2313      2285      2630      2631
 -1       703    3    0    1
 -2       436       321      1128      1673
 -1       704    3    0    1
 -2       329      1758      2440      2709
 -1       705    3    0    1
 -2      1425      2342      3026      3044
 -1       706    3    0    1
 -2       676       681      1011      1264
 -1       707    3    0    1
 -2       185       331       697      1029
 -1       708    3    0    1
 -2       447       410      2315      2331
 -1       709    3    0    1
 -2       246       265      1325      1706
 -1       710    3    0    1
 -2       369        67       535       943
 -1       711    3    0    1
 -2       591       592      2176      2509
 -1       712    3    0    1
 -2       166       681      1264      1266
 -1       713    3    0    1
 -2       166       167       676      1009
 -1       714    3    0    1
 -2       165       163       680      1007
 -1       715    3    0    1
 -2      1591      2280      2570      2692
 -1       716    3    0    1
 -2      1599      1835      1882      1934
 -1       717    3    0    1
 -2      1670      1628      1726      2492
 -1       718    3    0    1
 -2       585       959      1220      1226
 -1       719    3    0    1
 -2      1052      1301      1646      1795
 -1       720    3    0    1
 -2        95        96       585      1221
 -1       721    3    0    1
 -2       456       906       455       902
 -1       722    3    0    1
 -2         9       457       902      1157
 -1       723    3    0    1
 -2      1576      1702      1762      1766
 -1       724    3    0    1
 -2      1392       866      1123      2243
 -1       725    3    0    1
 -2      1634      1145      1682      2149
 -1       726    3    0    1
 -2       129       626       625      1240
 -1       727    3    0    1
 -2      2917      1450      3057      3069
 -1       728    3    0    1
 -2       580       585       959      1221
 -1       729    3    0    1
 -2      2541      2095      2701      2805
 -1       730    3    0    1
 -2      1439      2953      2856      1883
 -1       731    3    0    1
 -2      1031       711       693      1032
 -1       732    3    0    1
 -2        93        96       585       956
 -1       733    3    0    1
 -2       112      1232       605       115
 -1       734    3    0    1
 -2      1459      1419      3077      3016
 -1       735    3    0    1
 -2      1832      1930      2010      2223
 -1       736    3    0    1
 -2       595      1237      1228       972
 -1       737    3    0    1
 -2       626       129       130      1240
 -1       738    3    0    1
 -2       613       114       609       967
 -1       739    3    0    1
 -2       807      1325      1749      1820
 -1       740    3    0    1
 -2        94       581      1215      1218
 -1       741    3    0    1
 -2       143       131       628      1239
 -1       742    3    0    1
 -2      1373       441       443      2289
 -1       743    3    0    1
 -2        43       426       511       925
 -1       744    3    0    1
 -2       100        98       577      1219
 -1       745    3    0    1
 -2       348       107       581       966
 -1       746    3    0    1
 -2        73      1208        84       557
 -1       747    3    0    1
 -2       897       461       905      1160
 -1       748    3    0    1
 -2      1667      1792      2175      2249
 -1       749    3    0    1
 -2       573      1224      1218       572
 -1       750    3    0    1
 -2       455      1159       906       459
 -1       751    3    0    1
 -2      1301       754      1672      1841
 -1       752    3    0    1
 -2       576       965       957       571
 -1       753    3    0    1
 -2       714      1493      2962      2973
 -1       754    3    0    1
 -2      1435      3039      2976      3091
 -1       755    3    0    1
 -2       712      1032      2288      2344
 -1       756    3    0    1
 -2       629       989       137       992
 -1       757    3    0    1
 -2       133       632       983      1244
 -1       758    3    0    1
 -2      1386       858       875      2313
 -1       759    3    0    1
 -2      1944      1947      2010      2223
 -1       760    3    0    1
 -2       692      1028       703       691
 -1       761    3    0    1
 -2      2349      1901      2370      2610
 -1       762    3    0    1
 -2      1045       351       725       204
 -1       763    3    0    1
 -2       537       366       941       942
 -1       764    3    0    1
 -2       983      1246       987       624
 -1       765    3    0    1
 -2       624      1246       987       630
 -1       766    3    0    1
 -2      1248       980       628      1239
 -1       767    3    0    1
 -2      2548       992      2733      2815
 -1       768    3    0    1
 -2       478       477       917      1171
 -1       769    3    0    1
 -2      1015       677      1008      1018
 -1       770    3    0    1
 -2       408       415       745      1055
 -1       771    3    0    1
 -2       492        27       485      1170
 -1       772    3    0    1
 -2       404       241      1842      1942
 -1       773    3    0    1
 -2       825       820      1095      1327
 -1       774    3    0    1
 -2       119       122       605       979
 -1       775    3    0    1
 -2      1737      1363      1777      2110
 -1       776    3    0    1
 -2      2318      2204      2850      2851
 -1       777    3    0    1
 -2       585       385       959      1226
 -1       778    3    0    1
 -2        95       580       956       957
 -1       779    3    0    1
 -2       736      1045      2340      2546
 -1       780    3    0    1
 -2       612       605       979      1232
 -1       781    3    0    1
 -2      1453      1419      1459      3016
 -1       782    3    0    1
 -2      1578      1734      2108      2206
 -1       783    3    0    1
 -2      1871      1677      2166      2266
 -1       784    3    0    1
 -2      1626      1553      1864      1929
 -1       785    3    0    1
 -2       604       110       609      1228
 -1       786    3    0    1
 -2      1715      1605      1913      2065
 -1       787    3    0    1
 -2       936       525       940      1192
 -1       788    3    0    1
 -2      2010      1944      2223      2348
 -1       789    3    0    1
 -2       578       962      1219      1222
 -1       790    3    0    1
 -2       553      1206      1203        72
 -1       791    3    0    1
 -2       836      1722      1778      2745
 -1       792    3    0    1
 -2      2642      3041      3043      3072
 -1       793    3    0    1
 -2       653       161       660      1005
 -1       794    3    0    1
 -2      1001       650      1249       649
 -1       795    3    0    1
 -2      1091      1334      3008      3009
 -1       796    3    0    1
 -2       357       161       653      1005
 -1       797    3    0    1
 -2       943      2527      1201       369
 -1       798    3    0    1
 -2      1065      1312      2992      3016
 -1       799    3    0    1
 -2       671      1267       682       675
 -1       800    3    0    1
 -2      2342      1269      1425      3026
 -1       801    3    0    1
 -2      1584      1544      1740      2011
 -1       802    3    0    1
 -2      2642      1189      1434      2893
 -1       803    3    0    1
 -2       748      1704      2022      2109
 -1       804    3    0    1
 -2       167       166       676      1264
 -1       805    3    0    1
 -2       509       920       927       930
 -1       806    3    0    1
 -2       628       131       633      1239
 -1       807    3    0    1
 -2        85        82       557       955
 -1       808    3    0    1
 -2      1161      1883      2040      2098
 -1       809    3    0    1
 -2       947       556       954      1202
 -1       810    3    0    1
 -2       556       561       947       953
 -1       811    3    0    1
 -2       580       102       585       964
 -1       812    3    0    1
 -2      1464      3041      3056      2924
 -1       813    3    0    1
 -2      1022       693      1033      1272
 -1       814    3    0    1
 -2      2174      1885      2672      2794
 -1       815    3    0    1
 -2       747      1296       218       753
 -1       816    3    0    1
 -2       718       719      1041      1283
 -1       817    3    0    1
 -2       871       879      1878      2345
 -1       818    3    0    1
 -2      1058       749      1292      1297
 -1       819    3    0    1
 -2      1302       227      1908      2340
 -1       820    3    0    1
 -2      1376      1140      2401      2669
 -1       821    3    0    1
 -2       719       718      1038      1284
 -1       822    3    0    1
 -2      1151      1374      1567      1619
 -1       823    3    0    1
 -2       735       715       736      1045
 -1       824    3    0    1
 -2       553        75       951      1210
 -1       825    3    0    1
 -2      1999      1522      2005      2082
 -1       826    3    0    1
 -2       216      1293       221       749
 -1       827    3    0    1
 -2      3071      3051      3078      3087
 -1       828    3    0    1
 -2      1523      1620      1898      2007
 -1       829    3    0    1
 -2      1268      1007       677      1260
 -1       830    3    0    1
 -2      1599      1626      1864      1882
 -1       831    3    0    1
 -2       557       944       952       955
 -1       832    3    0    1
 -2      1574      1653      1712      1767
 -1       833    3    0    1
 -2       725       351       728      1289
 -1       834    3    0    1
 -2      1879      1780      2062      2093
 -1       835    3    0    1
 -2      1639      1080      1785      2192
 -1       836    3    0    1
 -2      3051      2909      2982      3087
 -1       837    3    0    1
 -2       403      1094      1610      2269
 -1       838    3    0    1
 -2       173       354      3076      3092
 -1       839    3    0    1
 -2      2207      1017      2281      2433
 -1       840    3    0    1
 -2       485        29       488       914
 -1       841    3    0    1
 -2      1568      1604      1798      1939
 -1       842    3    0    1
 -2       674       169       170      1010
 -1       843    3    0    1
 -2      1339      1828      2220      2618
 -1       844    3    0    1
 -2      2945      2947      2952      2971
 -1       845    3    0    1
 -2       677       680      1007      1013
 -1       846    3    0    1
 -2       731       200       206      1280
 -1       847    3    0    1
 -2      1395       292       325      2730
 -1       848    3    0    1
 -2       181       701       708      1272
 -1       849    3    0    1
 -2       694      1031       711       693
 -1       850    3    0    1
 -2      2061       960      1409      1410
 -1       851    3    0    1
 -2       683       680      1008      1015
 -1       852    3    0    1
 -2       959       585      1220      1221
 -1       853    3    0    1
 -2       222       409      1646      1893
 -1       854    3    0    1
 -2       283      1092      1978      2255
 -1       855    3    0    1
 -2      1702      1576      1751      1766
 -1       856    3    0    1
 -2       399      1365      1145      2562
 -1       857    3    0    1
 -2      2867      2848      2905      3064
 -1       858    3    0    1
 -2        47       509       920      1184
 -1       859    3    0    1
 -2      1553      1544      1864      2011
 -1       860    3    0    1
 -2       110       114       609      1228
 -1       861    3    0    1
 -2      1540      1717      1993      2158
 -1       862    3    0    1
 -2       967       604       978      1233
 -1       863    3    0    1
 -2       529       936       940      1192
 -1       864    3    0    1
 -2      1223       336      2499      2737
 -1       865    3    0    1
 -2       143       628       980      1239
 -1       866    3    0    1
 -2      2946      2974      2987      3013
 -1       867    3    0    1
 -2      2170       174      2240      2281
 -1       868    3    0    1
 -2       469         4       465      1155
 -1       869    3    0    1
 -2       771       777      1063      1069
 -1       870    3    0    1
 -2       529        60       530      1194
 -1       871    3    0    1
 -2       481       915      1167      1174
 -1       872    3    0    1
 -2       703       702      1028      1776
 -1       873    3    0    1
 -2       544       523       941       942
 -1       874    3    0    1
 -2       119       605       607       976
 -1       875    3    0    1
 -2       281       824      1087      1329
 -1       876    3    0    1
 -2       527       526       939      1195
 -1       877    3    0    1
 -2      3039      1467      1466      1436
 -1       878    3    0    1
 -2      1013      1268      1532      2423
 -1       879    3    0    1
 -2      1783      1090      2014      2026
 -1       880    3    0    1
 -2       829       275       825      1328
 -1       881    3    0    1
 -2       137       140       629       992
 -1       882    3    0    1
 -2      1762      2238      2320      2337
 -1       883    3    0    1
 -2      1813      1711      2075      2535
 -1       884    3    0    1
 -2      1816       724      1840      2307
 -1       885    3    0    1
 -2       173      1446      3044      3076
 -1       886    3    0    1
 -2      1479      2451      2948      3093
 -1       887    3    0    1
 -2      1321      1076       793      1319
 -1       888    3    0    1
 -2      1119      1408      2049      2401
 -1       889    3    0    1
 -2        80       382       556       948
 -1       890    3    0    1
 -2       216       749       752      1048
 -1       891    3    0    1
 -2       207       204      1289      2102
 -1       892    3    0    1
 -2       608       606      2099      2452
 -1       893    3    0    1
 -2       453       907       908      1154
 -1       894    3    0    1
 -2       548      1205       549       948
 -1       895    3    0    1
 -2       369       939      1983      2100
 -1       896    3    0    1
 -2      1501      3004      3005      3011
 -1       897    3    0    1
 -2      1563      1521      1742      1805
 -1       898    3    0    1
 -2       812      1092       811      1086
 -1       899    3    0    1
 -2      1475      1431      3094      3097
 -1       900    3    0    1
 -2      2115       328      2547      2700
 -1       901    3    0    1
 -2       971       595       975      1227
 -1       902    3    0    1
 -2      1574      1604      1767      1822
 -1       903    3    0    1
 -2      1775       390      1805      2576
 -1       904    3    0    1
 -2         4       460       465      1155
 -1       905    3    0    1
 -2       465       460       907      1155
 -1       906    3    0    1
 -2       508        41       928       929
 -1       907    3    0    1
 -2      1602      1562      2457      2478
 -1       908    3    0    1
 -2      1780      1875      1879      2062
 -1       909    3    0    1
 -2      1325      1636      1749      1800
 -1       910    3    0    1
 -2      2174      1768      2688      2800
 -1       911    3    0    1
 -2       905        18      2078      2101
 -1       912    3    0    1
 -2       396      1730      2268      2277
 -1       913    3    0    1
 -2      2887      2892      3045      3074
 -1       914    3    0    1
 -2       830       279       287      1327
 -1       915    3    0    1
 -2      1142       306      1120      1665
 -1       916    3    0    1
 -2       720      1045       715      1037
 -1       917    3    0    1
 -2       610      1237      1847      2415
 -1       918    3    0    1
 -2        33        35       484       912
 -1       919    3    0    1
 -2       990       640       991      2728
 -1       920    3    0    1
 -2      1437      1447      3007      3009
 -1       921    3    0    1
 -2       989       629      1241      1242
 -1       922    3    0    1
 -2      1199      3062      1429      1430
 -1       923    3    0    1
 -2       972       604      1228      1229
 -1       924    3    0    1
 -2       351       204      2077      2200
 -1       925    3    0    1
 -2       590       580       957       965
 -1       926    3    0    1
 -2       557       559       945       950
 -1       927    3    0    1
 -2        58       535       931       934
 -1       928    3    0    1
 -2      2934      2968      2985      2997
 -1       929    3    0    1
 -2        13        17       465       907
 -1       930    3    0    1
 -2       102       590       337       965
 -1       931    3    0    1
 -2      1787       135      2206      2558
 -1       932    3    0    1
 -2      1760      1911      1975      2416
 -1       933    3    0    1
 -2        37      1181       508        38
 -1       934    3    0    1
 -2      1094       831      1610      2172
 -1       935    3    0    1
 -2       333       414      1535      2184
 -1       936    3    0    1
 -2       552       953       567       547
 -1       937    3    0    1
 -2      1717      1993      2158      2393
 -1       938    3    0    1
 -2        40       505      1179      1182
 -1       939    3    0    1
 -2      1625      1663      1743      2012
 -1       940    3    0    1
 -2       571       591       592       965
 -1       941    3    0    1
 -2      1747      1784      2246      2335
 -1       942    3    0    1
 -2       528      1201       943       543
 -1       943    3    0    1
 -2      1901      1530      1990      2252
 -1       944    3    0    1
 -2      1475      3048      3063      3097
 -1       945    3    0    1
 -2      1642      1588      1681      2295
 -1       946    3    0    1
 -2       139       133       629      1242
 -1       947    3    0    1
 -2      2782      3043      3071      2874
 -1       948    3    0    1
 -2       490      1177      2216      2595
 -1       949    3    0    1
 -2       612       122       345       979
 -1       950    3    0    1
 -2        73       557       944      1209
 -1       951    3    0    1
 -2      2859      2092      2863      3053
 -1       952    3    0    1
 -2      1501      1438      3004      3011
 -1       953    3    0    1
 -2       502       929       919       501
 -1       954    3    0    1
 -2      1577      1780      2267      2568
 -1       955    3    0    1
 -2      1237       603       610      1858
 -1       956    3    0    1
 -2      1680      2108      2206      2272
 -1       957    3    0    1
 -2       246       248      1311      1706
 -1       958    3    0    1
 -2       832       813      1094      1095
 -1       959    3    0    1
 -2      1622      1765      1985      2215
 -1       960    3    0    1
 -2      1816      1288      2037      2058
 -1       961    3    0    1
 -2      2236      1267      2440      2709
 -1       962    3    0    1
 -2      2613      3027      1459      3069
 -1       963    3    0    1
 -2      1913      1605      2030      2065
 -1       964    3    0    1
 -2       509       516       920       930
 -1       965    3    0    1
 -2       126       123       604       978
 -1       966    3    0    1
 -2       509        43       511       925
 -1       967    3    0    1
 -2       912       489      1165      1166
 -1       968    3    0    1
 -2        32        29       488      1178
 -1       969    3    0    1
 -2      1427      1247      3017      3018
 -1       970    3    0    1
 -2      1039       726       727      2275
 -1       971    3    0    1
 -2       157      1003      1004      1696
 -1       972    3    0    1
 -2      1604       415      1687      1844
 -1       973    3    0    1
 -2      2898      2873      3082      3094
 -1       974    3    0    1
 -2      1684      1584      1740      2028
 -1       975    3    0    1
 -2      1806      1321      1808      2354
 -1       976    3    0    1
 -2       604       123       609       977
 -1       977    3    0    1
 -2      1416       949      1432      3068
 -1       978    3    0    1
 -2      1000       655       654      1852
 -1       979    3    0    1
 -2       477      1178       496       495
 -1       980    3    0    1
 -2       581       107       588       966
 -1       981    3    0    1
 -2      1587      1677      1871      2266
 -1       982    3    0    1
 -2      1041      2039      2314      2366
 -1       983    3    0    1
 -2      3041      1464      3056      3072
 -1       984    3    0    1
 -2       348       581       963       966
 -1       985    3    0    1
 -2       259      1080      1321      1675
 -1       986    3    0    1
 -2       645       663       664      1004
 -1       987    3    0    1
 -2      1669      1981      2321      2494
 -1       988    3    0    1
 -2        96        95       585       956
 -1       989    3    0    1
 -2      1241       629       133      1242
 -1       990    3    0    1
 -2       525       937       531       524
 -1       991    3    0    1
 -2       556        80       561       953
 -1       992    3    0    1
 -2       299      1829      1921      1952
 -1       993    3    0    1
 -2      2247      1224      2649      2651
 -1       994    3    0    1
 -2      2152      2068      2311      2371
 -1       995    3    0    1
 -2       518        38        51       919
 -1       996    3    0    1
 -2       534       526       536       939
 -1       997    3    0    1
 -2      1758       329      2421      2709
 -1       998    3    0    1
 -2       749       752      1048      1054
 -1       999    3    0    1
 -2       932      1200       937       524
 -1      1000    3    0    1
 -2        43       509       927       930
 -1      1001    3    0    1
 -2       763       768      1070      1303
 -1      1002    3    0    1
 -2       507      1187      2526      2746
 -1      1003    3    0    1
 -2       281       274       824      1084
 -1      1004    3    0    1
 -2      1096      1818      2201      2372
 -1      1005    3    0    1
 -2      2858      2024      3028      3058
 -1      1006    3    0    1
 -2      1214        94       583        92
 -1      1007    3    0    1
 -2       556        71       561      1204
 -1      1008    3    0    1
 -2        83       557       564       944
 -1      1009    3    0    1
 -2       328      2115      2547      2593
 -1      1010    3    0    1
 -2       174       317      2170      2240
 -1      1011    3    0    1
 -2       581       588       958       966
 -1      1012    3    0    1
 -2      1778      1722      2523      2745
 -1      1013    3    0    1
 -2       821       828      1087      1096
 -1      1014    3    0    1
 -2        63        58       533       931
 -1      1015    3    0    1
 -2        83        84       557       944
 -1      1016    3    0    1
 -2      2438      2869      2880      2923
 -1      1017    3    0    1
 -2       376      3089      3090      3096
 -1      1018    3    0    1
 -2       595      1230      1227       971
 -1      1019    3    0    1
 -2      1746      2196      2408      2524
 -1      1020    3    0    1
 -2      1824      1603      2211      2386
 -1      1021    3    0    1
 -2        61        60       529      1194
 -1      1022    3    0    1
 -2       548      1206      1203       951
 -1      1023    3    0    1
 -2       385       102       585       959
 -1      1024    3    0    1
 -2      2614      1450      2917      3069
 -1      1025    3    0    1
 -2       835       836      1778      2745
 -1      1026    3    0    1
 -2      1403      1109      2329      2379
 -1      1027    3    0    1
 -2       557        73       559      1209
 -1      1028    3    0    1
 -2       269      2378      2683      2796
 -1      1029    3    0    1
 -2      1756      1697      2187      2446
 -1      1030    3    0    1
 -2       336       101      1533      1570
 -1      1031    3    0    1
 -2       831       832      1094      1610
 -1      1032    3    0    1
 -2      1101      1829      2075      2493
 -1      1033    3    0    1
 -2       476      1174      1167       475
 -1      1034    3    0    1
 -2      1112      1386      2285      2313
 -1      1035    3    0    1
 -2       461        14       464       905
 -1      1036    3    0    1
 -2      1794      1537      2146      2260
 -1      1037    3    0    1
 -2       459       455       466       906
 -1      1038    3    0    1
 -2       366       532       537      1200
 -1      1039    3    0    1
 -2        22       484      1168      1171
 -1      1040    3    0    1
 -2       123       972      1237      2603
 -1      1041    3    0    1
 -2       504      1188       503       510
 -1      1042    3    0    1
 -2       655       999       654      2298
 -1      1043    3    0    1
 -2      1594      1720      1966      2023
 -1      1044    3    0    1
 -2       581       104       583       961
 -1      1045    3    0    1
 -2       480      1175      1173       479
 -1      1046    3    0    1
 -2      1065      2203      2248      2723
 -1      1047    3    0    1
 -2       991      2432      2691      2732
 -1      1048    3    0    1
 -2      1644      1604      1687      1844
 -1      1049    3    0    1
 -2       597       598       616       979
 -1      1050    3    0    1
 -2      1042       725       351       728
 -1      1051    3    0    1
 -2       796       261      1081      1082
 -1      1052    3    0    1
 -2        38       518       508       919
 -1      1053    3    0    1
 -2      1094       403      1950      2056
 -1      1054    3    0    1
 -2      2397      1885      2437      2490
 -1      1055    3    0    1
 -2      1334       823      2035      2157
 -1      1056    3    0    1
 -2      1279       335      2435      2612
 -1      1057    3    0    1
 -2       600      1235       599       606
 -1      1058    3    0    1
 -2      2040       462      2098      2545
 -1      1059    3    0    1
 -2       104       348       581       963
 -1      1060    3    0    1
 -2      1900      1041      2314      2366
 -1      1061    3    0    1
 -2      1486       368      3084      2993
 -1      1062    3    0    1
 -2      3050       428      1469      3086
 -1      1063    3    0    1
 -2      1392      1123      1693      2243
 -1      1064    3    0    1
 -2      1544      1553      1740      2011
 -1      1065    3    0    1
 -2       805       257       801      1317
 -1      1066    3    0    1
 -2       915       475      1164      1167
 -1      1067    3    0    1
 -2       930      1201      2502      2721
 -1      1068    3    0    1
 -2      1929      1626      1962      1996
 -1      1069    3    0    1
 -2      2258      2294      2839      2840
 -1      1070    3    0    1
 -2       750       740       751      1054
 -1      1071    3    0    1
 -2       981       633       991      1243
 -1      1072    3    0    1
 -2      3046       231      1459      3069
 -1      1073    3    0    1
 -2       773       246       780      1071
 -1      1074    3    0    1
 -2       823      1078      1334      2035
 -1      1075    3    0    1
 -2      2370      2286      2610      2679
 -1      1076    3    0    1
 -2       518       508       919       929
 -1      1077    3    0    1
 -2      2708      2847      3060      3086
 -1      1078    3    0    1
 -2       633       628      1239      1248
 -1      1079    3    0    1
 -2       256      1320       257       801
 -1      1080    3    0    1
 -2       796       806      1082      1316
 -1      1081    3    0    1
 -2       943       544      2374      2742
 -1      1082    3    0    1
 -2       965       592      2050      2543
 -1      1083    3    0    1
 -2      1717      1540      1966      2158
 -1      1084    3    0    1
 -2       461       468       900       909
 -1      1085    3    0    1
 -2       264       268      1083      1636
 -1      1086    3    0    1
 -2      1581      1660      1838      2084
 -1      1087    3    0    1
 -2        17        13      1162      2448
 -1      1088    3    0    1
 -2      1649      1672      1723      1814
 -1      1089    3    0    1
 -2      1224       348      2463      2649
 -1      1090    3    0    1
 -2       780       239       773      1059
 -1      1091    3    0    1
 -2       848      1627      1690      2563
 -1      1092    3    0    1
 -2      1001       650       320       997
 -1      1093    3    0    1
 -2      1552      1630      1632      1824
 -1      1094    3    0    1
 -2      1617      1981      2321      2391
 -1      1095    3    0    1
 -2       771       238      1069      1070
 -1      1096    3    0    1
 -2       525       524       940      1192
 -1      1097    3    0    1
 -2      1041       718      1283      1285
 -1      1098    3    0    1
 -2      1638      1551      1763      2376
 -1      1099    3    0    1
 -2       813       814      1094      1328
 -1      1100    3    0    1
 -2       748      1052      1704      1795
 -1      1101    3    0    1
 -2       820       275       825      1331
 -1      1102    3    0    1
 -2       825       275      1327      1328
 -1      1103    3    0    1
 -2       773       243       776      1066
 -1      1104    3    0    1
 -2      1567      1524      1966      2462
 -1      1105    3    0    1
 -2      1574      1644      1653      1767
 -1      1106    3    0    1
 -2      1657      1640      1759      2447
 -1      1107    3    0    1
 -2       508        41       513       928
 -1      1108    3    0    1
 -2       275       820       825      1327
 -1      1109    3    0    1
 -2      1413      1161      2974      3013
 -1      1110    3    0    1
 -2       136      1245      2431      2616
 -1      1111    3    0    1
 -2       760      1745      1922      1953
 -1      1112    3    0    1
 -2       138       628       633      1248
 -1      1113    3    0    1
 -2      1325       264      1636      1800
 -1      1114    3    0    1
 -2       986      1247      1435      3091
 -1      1115    3    0    1
 -2       960      2936      3001      1225
 -1      1116    3    0    1
 -2       195      1032      2104      2112
 -1      1117    3    0    1
 -2       458        12       397       906
 -1      1118    3    0    1
 -2        71       556       947      1202
 -1      1119    3    0    1
 -2       887      1399      1737      1777
 -1      1120    3    0    1
 -2      1736      2059      2067      2359
 -1      1121    3    0    1
 -2      1906      1960      2096      2607
 -1      1122    3    0    1
 -2      1657      2145      2273      2338
 -1      1123    3    0    1
 -2       601       111       602      1230
 -1      1124    3    0    1
 -2       653       147       656      1253
 -1      1125    3    0    1
 -2      1094       831      2172      2269
 -1      1126    3    0    1
 -2      1521      1710      1801      1802
 -1      1127    3    0    1
 -2       681      1011      1266      1270
 -1      1128    3    0    1
 -2       693      1023      1032      1273
 -1      1129    3    0    1
 -2       149      1251       652       150
 -1      1130    3    0    1
 -2       203       350      3042      2938
 -1      1131    3    0    1
 -2       174       177       676      1011
 -1      1132    3    0    1
 -2       268      1636      1718      1978
 -1      1133    3    0    1
 -2      2194      2054      2421      2709
 -1      1134    3    0    1
 -2       751      1039      1300      2275
 -1      1135    3    0    1
 -2      2676      3039      3040      3091
 -1      1136    3    0    1
 -2      1087       824      1336      1329
 -1      1137    3    0    1
 -2       814      1336      1096       831
 -1      1138    3    0    1
 -2       425      1463      1464      1488
 -1      1139    3    0    1
 -2      1623      1793      1903      2134
 -1      1140    3    0    1
 -2      1540       413      1720      2058
 -1      1141    3    0    1
 -2      1818       373      1980      2372
 -1      1142    3    0    1
 -2       816      1093       826       815
 -1      1143    3    0    1
 -2      2038       568      2470       567
 -1      1144    3    0    1
 -2      1425      1012      2932      2960
 -1      1145    3    0    1
 -2      3064      2959      2970      3092
 -1      1146    3    0    1
 -2      1082       271      1945      1950
 -1      1147    3    0    1
 -2       548      1213      1204       948
 -1      1148    3    0    1
 -2       902      1159       906       455
 -1      1149    3    0    1
 -2      1499      3063      1500      3095
 -1      1150    3    0    1
 -2       931       535      1201       934
 -1      1151    3    0    1
 -2      3032      2328      3035      2917
 -1      1152    3    0    1
 -2       586       579      1223      2499
 -1      1153    3    0    1
 -2       770       232      1305      1306
 -1      1154    3    0    1
 -2       461       899       464         6
 -1      1155    3    0    1
 -2       749       223       752      1054
 -1      1156    3    0    1
 -2       739       744       760      1058
 -1      1157    3    0    1
 -2       222      1052      1301      1646
 -1      1158    3    0    1
 -2       643      1259      1250       998
 -1      1159    3    0    1
 -2      1132      1654      2136      2628
 -1      1160    3    0    1
 -2       104       581       583       963
 -1      1161    3    0    1
 -2       102       580       585       959
 -1      1162    3    0    1
 -2       633       628       991      1243
 -1      1163    3    0    1
 -2      2159      2287      2622      2626
 -1      1164    3    0    1
 -2      1701      1666      1703      1982
 -1      1165    3    0    1
 -2       353       701      1030      1033
 -1      1166    3    0    1
 -2       185       697      1025      1029
 -1      1167    3    0    1
 -2       701       179      1019      1021
 -1      1168    3    0    1
 -2       682       675      2236      2240
 -1      1169    3    0    1
 -2       854      1387      1368      2286
 -1      1170    3    0    1
 -2      2059      1685      2232      2410
 -1      1171    3    0    1
 -2      2839      2840      2861      3048
 -1      1172    3    0    1
 -2      1960      1906      2096      2712
 -1      1173    3    0    1
 -2      2257      1554      2294      2436
 -1      1174    3    0    1
 -2      1399      1684      1737      1777
 -1      1175    3    0    1
 -2       491       488      1169      1178
 -1      1176    3    0    1
 -2      1807      2156      2186      2563
 -1      1177    3    0    1
 -2      1548      1655      1891      1967
 -1      1178    3    0    1
 -2       624       987       983       623
 -1      1179    3    0    1
 -2      2517      1557      2582      2741
 -1      1180    3    0    1
 -2       718      1288      1285      1041
 -1      1181    3    0    1
 -2      2226        82      2722      2731
 -1      1182    3    0    1
 -2       261       269       801      1081
 -1      1183    3    0    1
 -2      2013      1641      2047      2082
 -1      1184    3    0    1
 -2       681       685      1009      1016
 -1      1185    3    0    1
 -2       630       631       986      1699
 -1      1186    3    0    1
 -2       834      1338      1812      1828
 -1      1187    3    0    1
 -2      1224      2649      2651      2788
 -1      1188    3    0    1
 -2        47       509       511       921
 -1      1189    3    0    1
 -2       905        18      1333      2078
 -1      1190    3    0    1
 -2       787      1322      1079       798
 -1      1191    3    0    1
 -2       703       702      1776      2312
 -1      1192    3    0    1
 -2      1679      1598      1981      2321
 -1      1193    3    0    1
 -2       840      1793      2114      2369
 -1      1194    3    0    1
 -2       746      1055      1050      1051
 -1      1195    3    0    1
 -2      1720      1594      1899      2058
 -1      1196    3    0    1
 -2      1289      1036       728      1281
 -1      1197    3    0    1
 -2      1415      3052      1470      3081
 -1      1198    3    0    1
 -2      1639      1785      1992      2192
 -1      1199    3    0    1
 -2       792      1324       791       802
 -1      1200    3    0    1
 -2      1526      1666      1891      1967
 -1      1201    3    0    1
 -2      1752      1989      2036      2065
 -1      1202    3    0    1
 -2      3026      3033      3065      3038
 -1      1203    3    0    1
 -2       774      1974      2164      2248
 -1      1204    3    0    1
 -2      3040      3039      3059      1478
 -1      1205    3    0    1
 -2       639       621       640       992
 -1      1206    3    0    1
 -2      1689      1536      1708      1925
 -1      1207    3    0    1
 -2      1796      1614      1797      2481
 -1      1208    3    0    1
 -2      1410      1409      2915      1509
 -1      1209    3    0    1
 -2       581       961      1215      1218
 -1      1210    3    0    1
 -2       153      1252       650      1249
 -1      1211    3    0    1
 -2       269       261       801      1324
 -1      1212    3    0    1
 -2       819       815       826      1093
 -1      1213    3    0    1
 -2      1634      1825      2019      2149
 -1      1214    3    0    1
 -2      1530      1623      1991      2138
 -1      1215    3    0    1
 -2      1550      1614      2300      2350
 -1      1216    3    0    1
 -2       758       218       230      1298
 -1      1217    3    0    1
 -2      1675       263      1715      2113
 -1      1218    3    0    1
 -2       315       138      2732      2820
 -1      1219    3    0    1
 -2        35        33      2209      2689
 -1      1220    3    0    1
 -2       511       515       927      1184
 -1      1221    3    0    1
 -2      2848      2905      3064      2959
 -1      1222    3    0    1
 -2       660       653      1005      1254
 -1      1223    3    0    1
 -2      1840      1620      1899      2058
 -1      1224    3    0    1
 -2      1043      2210      2422      2429
 -1      1225    3    0    1
 -2      1638      1995      2142      2167
 -1      1226    3    0    1
 -2      1626      1527      1867      1962
 -1      1227    3    0    1
 -2       367      1447      3084      3006
 -1      1228    3    0    1
 -2       551      1211      1208       550
 -1      1229    3    0    1
 -2      3034      2850      1458      2920
 -1      1230    3    0    1
 -2      1087      1336      1096       814
 -1      1231    3    0    1
 -2      1620      1523      1720      1771
 -1      1232    3    0    1
 -2       276       818       277      1330
 -1      1233    3    0    1
 -2      1083       807      1325      1749
 -1      1234    3    0    1
 -2      1200       932       532      1193
 -1      1235    3    0    1
 -2      3046      3027      1459      3077
 -1      1236    3    0    1
 -2       423       370       930      1531
 -1      1237    3    0    1
 -2      1747      1717      2158      1918
 -1      1238    3    0    1
 -2       340       341      1467      3059
 -1      1239    3    0    1
 -2       768      1068      1062       763
 -1      1240    3    0    1
 -2      2715       514      2798      2813
 -1      1241    3    0    1
 -2      1142       388      1665      2468
 -1      1242    3    0    1
 -2      1757      1576      1762      2238
 -1      1243    3    0    1
 -2        20       481      1164      1167
 -1      1244    3    0    1
 -2       507       499       514       926
 -1      1245    3    0    1
 -2       484       494       917      1171
 -1      1246    3    0    1
 -2      1585      1781      1997      2166
 -1      1247    3    0    1
 -2      1524      1705      1909      2090
 -1      1248    3    0    1
 -2       362      3063      1476      3095
 -1      1249    3    0    1
 -2      1847      1237      2403      2415
 -1      1250    3    0    1
 -2      1623      1530      1793      2135
 -1      1251    3    0    1
 -2       854      2202      1387      2286
 -1      1252    3    0    1
 -2       878       867      1754      1994
 -1      1253    3    0    1
 -2        29        32       488       914
 -1      1254    3    0    1
 -2       492       485       918      1170
 -1      1255    3    0    1
 -2       503       925       512       510
 -1      1256    3    0    1
 -2      2914      1433      3043      2941
 -1      1257    3    0    1
 -2      2501       289      2674      2735
 -1      1258    3    0    1
 -2       823       798      2035      2255
 -1      1259    3    0    1
 -2      1068      1058      1894      1922
 -1      1260    3    0    1
 -2      1611      2199      2323      2468
 -1      1261    3    0    1
 -2       633       637       981       990
 -1      1262    3    0    1
 -2      3046      3027      3057      3069
 -1      1263    3    0    1
 -2      1246       983       632      1244
 -1      1264    3    0    1
 -2       421       422      3078      3087
 -1      1265    3    0    1
 -2      1450       361      3057      3069
 -1      1266    3    0    1
 -2      1715      1605      2065      2113
 -1      1267    3    0    1
 -2      2427      2561      2590      2705
 -1      1268    3    0    1
 -2       163       677      1007      1260
 -1      1269    3    0    1
 -2      1679      1598      1828      2391
 -1      1270    3    0    1
 -2      1046       747      1057      1298
 -1      1271    3    0    1
 -2       736      1044      1826      1868
 -1      1272    3    0    1
 -2       958       583        94       581
 -1      1273    3    0    1
 -2       461       899         6       897
 -1      1274    3    0    1
 -2      1162        17      2448      2711
 -1      1275    3    0    1
 -2      1739      2258      2863      2875
 -1      1276    3    0    1
 -2       235       761      2950      2955
 -1      1277    3    0    1
 -2       749      1058      1292      1302
 -1      1278    3    0    1
 -2      3001      2980      3010      3021
 -1      1279    3    0    1
 -2       699       710      1032      1273
 -1      1280    3    0    1
 -2      1615      1595      1644      1653
 -1      1281    3    0    1
 -2      2635       990      2728      2756
 -1      1282    3    0    1
 -2       725       351      1289       204
 -1      1283    3    0    1
 -2       551      1211       550       558
 -1      1284    3    0    1
 -2       553      1206       951      1203
 -1      1285    3    0    1
 -2      1666      1686      1703      1891
 -1      1286    3    0    1
 -2       297      1103      1584      1684
 -1      1287    3    0    1
 -2       739      1302      1058       759
 -1      1288    3    0    1
 -2       382        80       556       954
 -1      1289    3    0    1
 -2      2024      1027      2080      2312
 -1      1290    3    0    1
 -2       971       118       975      2233
 -1      1291    3    0    1
 -2       573      1216      1217      2936
 -1      1292    3    0    1
 -2      1614      1796      2300      2350
 -1      1293    3    0    1
 -2      1159       902       457      1157
 -1      1294    3    0    1
 -2       583        94       581      1215
 -1      1295    3    0    1
 -2      2613      3030      1459      3077
 -1      1296    3    0    1
 -2      1078      1334      2035      3060
 -1      1297    3    0    1
 -2      1668      1542      1873      1919
 -1      1298    3    0    1
 -2      1701      1541      1982      2079
 -1      1299    3    0    1
 -2       655      1258      2298      2486
 -1      1300    3    0    1
 -2      3031      1417      1468      3077
 -1      1301    3    0    1
 -2      1050       742      1051      1055
 -1      1302    3    0    1
 -2      1557      1789      2004      2280
 -1      1303    3    0    1
 -2       708       701      1033      1272
 -1      1304    3    0    1
 -2      1034       729      1044      1287
 -1      1305    3    0    1
 -2      1536      1689      1708      1998
 -1      1306    3    0    1
 -2        62      2688      2791      2800
 -1      1307    3    0    1
 -2       310      1135      1129      1819
 -1      1308    3    0    1
 -2       959       579      1941      2529
 -1      1309    3    0    1
 -2      1712      1822      1855      2033
 -1      1310    3    0    1
 -2      1325      1071      1706      1820
 -1      1311    3    0    1
 -2       648      1257       647       654
 -1      1312    3    0    1
 -2       724       718       730      1041
 -1      1313    3    0    1
 -2       699       182       705      1276
 -1      1314    3    0    1
 -2       720      1034      1044      1287
 -1      1315    3    0    1
 -2       182       699      1274      1276
 -1      1316    3    0    1
 -2       555      2427      2561      2590
 -1      1317    3    0    1
 -2       442       304      1151      1619
 -1      1318    3    0    1
 -2       509        47       511      1184
 -1      1319    3    0    1
 -2      1826       736      2340      2546
 -1      1320    3    0    1
 -2      1224       961      2247      2649
 -1      1321    3    0    1
 -2      1758      1846      1976      2696
 -1      1322    3    0    1
 -2       128       618      2972      2995
 -1      1323    3    0    1
 -2       581       963       958       583
 -1      1324    3    0    1
 -2       343       357      1005      1714
 -1      1325    3    0    1
 -2      1724      2017      2564      2566
 -1      1326    3    0    1
 -2       575       959      1220      1221
 -1      1327    3    0    1
 -2      2337       331      1729      2377
 -1      1328    3    0    1
 -2      1015       171      1018      2658
 -1      1329    3    0    1
 -2      2488       658      2646      2766
 -1      1330    3    0    1
 -2       321       436      1612      1673
 -1      1331    3    0    1
 -2       795       791       802      1080
 -1      1332    3    0    1
 -2       586      1226      2727      2807
 -1      1333    3    0    1
 -2      1595      1615      1624      1830
 -1      1334    3    0    1
 -2       381       366       532       942
 -1      1335    3    0    1
 -2      1697      1995      2142      2394
 -1      1336    3    0    1
 -2       593      1515      3014      3024
 -1      1337    3    0    1
 -2      1792      1683      2175      2249
 -1      1338    3    0    1
 -2      1023       699      1032      1273
 -1      1339    3    0    1
 -2       391      1579      1901      1990
 -1      1340    3    0    1
 -2      1444      3044      3064      3092
 -1      1341    3    0    1
 -2      1835      1626      1929      1996
 -1      1342    3    0    1
 -2       669       670      1017      1263
 -1      1343    3    0    1
 -2      2943      1450      2961      2975
 -1      1344    3    0    1
 -2      1851      1772      2199      2311
 -1      1345    3    0    1
 -2       486       487      1837      2424
 -1      1346    3    0    1
 -2      2045      1011      2236      2608
 -1      1347    3    0    1
 -2       533       540       931       943
 -1      1348    3    0    1
 -2       907       400      2347      2711
 -1      1349    3    0    1
 -2      1764      1771      1798      2231
 -1      1350    3    0    1
 -2       461      1156       900         6
 -1      1351    3    0    1
 -2       902      1159       457       906
 -1      1352    3    0    1
 -2      2249      1683      2318      2319
 -1      1353    3    0    1
 -2       457        12       906      1159
 -1      1354    3    0    1
 -2      2328      1039      3032      2986
 -1      1355    3    0    1
 -2       171      1013      1268      1532
 -1      1356    3    0    1
 -2       776      1059       239      1062
 -1      1357    3    0    1
 -2      1067       770      1305      1306
 -1      1358    3    0    1
 -2       442      1151      1616      1619
 -1      1359    3    0    1
 -2       485      1169       918      1170
 -1      1360    3    0    1
 -2      1623      1903      1991      2185
 -1      1361    3    0    1
 -2      1614       118      1796      1797
 -1      1362    3    0    1
 -2       275       279       820      1327
 -1      1363    3    0    1
 -2       268       264      1718      1800
 -1      1364    3    0    1
 -2        20       482        26      1164
 -1      1365    3    0    1
 -2       528       943       931       523
 -1      1366    3    0    1
 -2       807       784      1071      1820
 -1      1367    3    0    1
 -2       501       920       927      1184
 -1      1368    3    0    1
 -2       341      1443      3059      3066
 -1      1369    3    0    1
 -2       560      1211       558       550
 -1      1370    3    0    1
 -2       555       548       562       951
 -1      1371    3    0    1
 -2       243       773       776      1068
 -1      1372    3    0    1
 -2        14      2710       909      2810
 -1      1373    3    0    1
 -2       238       407       777      1069
 -1      1374    3    0    1
 -2      2228      1650      2320      2337
 -1      1375    3    0    1
 -2        57        55       532      1191
 -1      1376    3    0    1
 -2      1065       774      2164      2248
 -1      1377    3    0    1
 -2      1625      1663      2052      2053
 -1      1378    3    0    1
 -2      1564      1829      1921      2493
 -1      1379    3    0    1
 -2       971       118      2233      2569
 -1      1380    3    0    1
 -2      1792      1683      2249      2319
 -1      1381    3    0    1
 -2      1623      1530      1735      2138
 -1      1382    3    0    1
 -2      2898      2841      3062      3082
 -1      1383    3    0    1
 -2      2010      1772      2223      2468
 -1      1384    3    0    1
 -2       335      2472      2515      2612
 -1      1385    3    0    1
 -2       983      1246       632       987
 -1      1386    3    0    1
 -2       617      2995      3015      3018
 -1      1387    3    0    1
 -2      1949      1757      2377      2404
 -1      1388    3    0    1
 -2      2069      1162      2353      2666
 -1      1389    3    0    1
 -2      1683      2003      2175      2249
 -1      1390    3    0    1
 -2      1568      1596      1604      1939
 -1      1391    3    0    1
 -2       256      1317       801       257
 -1      1392    3    0    1
 -2       131       637       145       981
 -1      1393    3    0    1
 -2      1780      1577      2373      2568
 -1      1394    3    0    1
 -2      1620      1649      1723      1899
 -1      1395    3    0    1
 -2       676       686      1017      1263
 -1      1396    3    0    1
 -2      1380      1630      1632      1691
 -1      1397    3    0    1
 -2       723       734      1044      1287
 -1      1398    3    0    1
 -2      1580       807      1820      1948
 -1      1399    3    0    1
 -2       385       106      2485      2727
 -1      1400    3    0    1
 -2       237       782       771      1303
 -1      1401    3    0    1
 -2       149      1251      1250       652
 -1      1402    3    0    1
 -2       157       652       657      1259
 -1      1403    3    0    1
 -2      1161       463      1883      2098
 -1      1404    3    0    1
 -2       557       559       952      1209
 -1      1405    3    0    1
 -2       797       264       800      1079
 -1      1406    3    0    1
 -2        85       557       559       952
 -1      1407    3    0    1
 -2       505        39       926      1187
 -1      1408    3    0    1
 -2      1672       754      1897      1898
 -1      1409    3    0    1
 -2       338       977      2403      2684
 -1      1410    3    0    1
 -2       248       246      1071      1706
 -1      1411    3    0    1
 -2      1637      1736      1790      2359
 -1      1412    3    0    1
 -2       670      1015      1008       669
 -1      1413    3    0    1
 -2       926       514      2715      2813
 -1      1414    3    0    1
 -2       147      1254       653       152
 -1      1415    3    0    1
 -2      1854      1522      1900      2005
 -1      1416    3    0    1
 -2      2286      1555      2587      2628
 -1      1417    3    0    1
 -2      1430      1475      1503      3019
 -1      1418    3    0    1
 -2       147       653       656       995
 -1      1419    3    0    1
 -2      1866      1669      2124      2538
 -1      1420    3    0    1
 -2       674       323       673      1014
 -1      1421    3    0    1
 -2      1598      1981      2308      2391
 -1      1422    3    0    1
 -2      3047      2451      1479      3093
 -1      1423    3    0    1
 -2      1080      1321      1675      2398
 -1      1424    3    0    1
 -2      1161       463      2918      2987
 -1      1425    3    0    1
 -2       993       652      1004      1255
 -1      1426    3    0    1
 -2      1001       658      2488      2517
 -1      1427    3    0    1
 -2      2018      1648      2104      2251
 -1      1428    3    0    1
 -2       152       660       159      1254
 -1      1429    3    0    1
 -2       155       339      3038      2922
 -1      1430    3    0    1
 -2      2276      2094      2427      2428
 -1      1431    3    0    1
 -2       348       107       966      2482
 -1      1432    3    0    1
 -2       657       661       993      1003
 -1      1433    3    0    1
 -2      1465      3051      3071      3087
 -1      1434    3    0    1
 -2       126       125       972      1716
 -1      1435    3    0    1
 -2      1712      1653      1830      2289
 -1      1436    3    0    1
 -2       676       166       681      1264
 -1      1437    3    0    1
 -2      1799      1067      2190      2283
 -1      1438    3    0    1
 -2       324       446      1691      2153
 -1      1439    3    0    1
 -2      2158      1860      2385      2393
 -1      1440    3    0    1
 -2       650      1001       320       649
 -1      1441    3    0    1
 -2       701       353       704      1028
 -1      1442    3    0    1
 -2       483      1174      1561      1727
 -1      1443    3    0    1
 -2       652       157       657      1003
 -1      1444    3    0    1
 -2       699       190      1031      1032
 -1      1445    3    0    1
 -2       670      1015       669       687
 -1      1446    3    0    1
 -2      1015      1008       669      1018
 -1      1447    3    0    1
 -2       672      1270      1266       671
 -1      1448    3    0    1
 -2       629       632       989      1241
 -1      1449    3    0    1
 -2       670      1009      1017      1263
 -1      1450    3    0    1
 -2       179       701       704      1021
 -1      1451    3    0    1
 -2       710       184       194      1273
 -1      1452    3    0    1
 -2       344      1479      1495      1514
 -1      1453    3    0    1
 -2       726       751      1289      1583
 -1      1454    3    0    1
 -2       676       174       681      1016
 -1      1455    3    0    1
 -2      1647      1055      2143      2341
 -1      1456    3    0    1
 -2       333       723       729      1291
 -1      1457    3    0    1
 -2      1291       333      1535      2184
 -1      1458    3    0    1
 -2       684       171       356      1018
 -1      1459    3    0    1
 -2      1052      1704      1795      2022
 -1      1460    3    0    1
 -2      1843      1564      2126      2178
 -1      1461    3    0    1
 -2      2114      1793      2135      2369
 -1      1462    3    0    1
 -2      1359      1689      1708      1925
 -1      1463    3    0    1
 -2      2155       584      2326      2364
 -1      1464    3    0    1
 -2      1009       676      1017      1263
 -1      1465    3    0    1
 -2       163       165       680      1008
 -1      1466    3    0    1
 -2      1695      1631      1817      1849
 -1      1467    3    0    1
 -2      2850      2851      2902      3035
 -1      1468    3    0    1
 -2       157       318       652       998
 -1      1469    3    0    1
 -2      1052       409      1733      1795
 -1      1470    3    0    1
 -2      1007      1268       677      1013
 -1      1471    3    0    1
 -2       687       669       688      1015
 -1      1472    3    0    1
 -2      1962      1835      1996      2118
 -1      1473    3    0    1
 -2      1810      1386       293      1831
 -1      1474    3    0    1
 -2       343       357       653      1005
 -1      1475    3    0    1
 -2       169       674       673      1010
 -1      1476    3    0    1
 -2       632       635       989      1241
 -1      1477    3    0    1
 -2       700       695       706      1029
 -1      1478    3    0    1
 -2       166       676       681      1009
 -1      1479    3    0    1
 -2      1443      3040      3059      3066
 -1      1480    3    0    1
 -2       669       670       687      1017
 -1      1481    3    0    1
 -2      1817      1581      1838      2051
 -1      1482    3    0    1
 -2       676       681      1009      1016
 -1      1483    3    0    1
 -2      1856      1593      1891      1967
 -1      1484    3    0    1
 -2       353       193       701      1033
 -1      1485    3    0    1
 -2       627      1245      2431      2702
 -1      1486    3    0    1
 -2       696      1279      1276       695
 -1      1487    3    0    1
 -2      1211       961      2226      2514
 -1      1488    3    0    1
 -2      1334      2035      2911      2953
 -1      1489    3    0    1
 -2      2645      2769      2786      2787
 -1      1490    3    0    1
 -2       707       704      1022      1030
 -1      1491    3    0    1
 -2       697       698      1025      1275
 -1      1492    3    0    1
 -2      1024       697      1025      1275
 -1      1493    3    0    1
 -2       692      1028       691      1021
 -1      1494    3    0    1
 -2       181       192       701      1272
 -1      1495    3    0    1
 -2      3054       359      1474      2957
 -1      1496    3    0    1
 -2      3053      3054      1474      2957
 -1      1497    3    0    1
 -2      1686      1548      1891      1967
 -1      1498    3    0    1
 -2      1995      1697      2142      2167
 -1      1499    3    0    1
 -2       190       699       705      1279
 -1      1500    3    0    1
 -2       119       605       976       979
 -1      1501    3    0    1
 -2       669       688      1015      1018
 -1      1502    3    0    1
 -2       175       171       680      1015
 -1      1503    3    0    1
 -2       697      1024      1025      1029
 -1      1504    3    0    1
 -2       200       209       725      1281
 -1      1505    3    0    1
 -2      2202      1719      2286      2370
 -1      1506    3    0    1
 -2       701       704      1021      1028
 -1      1507    3    0    1
 -2      1883      1091      1439      2953
 -1      1508    3    0    1
 -2      1819       310      1988      2542
 -1      1509    3    0    1
 -2       209       200       725      1037
 -1      1510    3    0    1
 -2       694      1031       693      1023
 -1      1511    3    0    1
 -2      1990      1530      2135      2252
 -1      1512    3    0    1
 -2       694      1030      1022       693
 -1      1513    3    0    1
 -2      1594      1524      1705      2231
 -1      1514    3    0    1
 -2      1078       798      1323      1538
 -1      1515    3    0    1
 -2       355       353       704      1030
 -1      1516    3    0    1
 -2       715      1043       735       736
 -1      1517    3    0    1
 -2       695      1024      1025      1275
 -1      1518    3    0    1
 -2      1137       444      1378      1774
 -1      1519    3    0    1
 -2      1992      1760      2192      2336
 -1      1520    3    0    1
 -2       616      2442      2754      2823
 -1      1521    3    0    1
 -2      2222      2296      2539      2599
 -1      1522    3    0    1
 -2       704       701      1022      1030
 -1      1523    3    0    1
 -2      1666      1686      1701      1703
 -1      1524    3    0    1
 -2       182       699       705      1023
 -1      1525    3    0    1
 -2        34       912      2388      2522
 -1      1526    3    0    1
 -2       189       186       697      1024
 -1      1527    3    0    1
 -2      1467      1443      1480      2958
 -1      1528    3    0    1
 -2      1547      1673      1709      2211
 -1      1529    3    0    1
 -2       717      1040       727       716
 -1      1530    3    0    1
 -2      1043       720      1034      1044
 -1      1531    3    0    1
 -2       218       747      1046      1298
 -1      1532    3    0    1
 -2       699       705      1023      1031
 -1      1533    3    0    1
 -2       699       190       705      1031
 -1      1534    3    0    1
 -2       693       711       712      1032
 -1      1535    3    0    1
 -2      1226      2094      2727      2807
 -1      1536    3    0    1
 -2       389       975      1541      2079
 -1      1537    3    0    1
 -2      2070      1278      2080      2891
 -1      1538    3    0    1
 -2      1873      1542      2190      2283
 -1      1539    3    0    1
 -2      1406       442      1616      1619
 -1      1540    3    0    1
 -2      2049      2384      2401      2574
 -1      1541    3    0    1
 -2       403      1610      2056      2269
 -1      1542    3    0    1
 -2       725       732      1037      1045
 -1      1543    3    0    1
 -2      1030      1022       693      1033
 -1      1544    3    0    1
 -2      3054      3053      1476      2957
 -1      1545    3    0    1
 -2       718       724       730      1038
 -1      1546    3    0    1
 -2       721       201       722      1285
 -1      1547    3    0    1
 -2      1002       343      1005      1714
 -1      1548    3    0    1
 -2       923      2526      2780      2822
 -1      1549    3    0    1
 -2      2306      1004      2627      2774
 -1      1550    3    0    1
 -2      1530      1618      2135      2252
 -1      1551    3    0    1
 -2       741      1054       740      1048
 -1      1552    3    0    1
 -2       223       363       749      1058
 -1      1553    3    0    1
 -2       400      2347      2711      2735
 -1      1554    3    0    1
 -2       723       198       729      1286
 -1      1555    3    0    1
 -2       729       733      1034      1043
 -1      1556    3    0    1
 -2      1537      1698      1794      2270
 -1      1557    3    0    1
 -2       743      1301      1296       742
 -1      1558    3    0    1
 -2       718       719       730      1041
 -1      1559    3    0    1
 -2       417      1747      1784      2297
 -1      1560    3    0    1
 -2      1635      1585      1997      2166
 -1      1561    3    0    1
 -2      1636       268      1718      1800
 -1      1562    3    0    1
 -2      3053      2859      1476      2957
 -1      1563    3    0    1
 -2      1300      1053      1424      2975
 -1      1564    3    0    1
 -2      1225       582       584      2364
 -1      1565    3    0    1
 -2      1080       802      1785      2192
 -1      1566    3    0    1
 -2      1036      1289      1040       716
 -1      1567    3    0    1
 -2      1543      1639      1715      1785
 -1      1568    3    0    1
 -2      1600      1902      1943      2524
 -1      1569    3    0    1
 -2      2586      2060      2861      2899
 -1      1570    3    0    1
 -2      2303      1144      2339      2659
 -1      1571    3    0    1
 -2      2155      2896      3052      3081
 -1      1572    3    0    1
 -2       200       731       728      1280
 -1      1573    3    0    1
 -2       179      1272       701       192
 -1      1574    3    0    1
 -2      1045      2102      2340      2546
 -1      1575    3    0    1
 -2       621       622       992      1242
 -1      1576    3    0    1
 -2        13        17      2445      2448
 -1      1577    3    0    1
 -2      1434      3043      1463      3072
 -1      1578    3    0    1
 -2      1538      1078      2035      2847
 -1      1579    3    0    1
 -2       747      1296      1049       218
 -1      1580    3    0    1
 -2      1791       322      2550      2582
 -1      1581    3    0    1
 -2      1425      3026      1441      3044
 -1      1582    3    0    1
 -2      1065       774      1312      2164
 -1      1583    3    0    1
 -2       720      1043       736      1044
 -1      1584    3    0    1
 -2       723       333       729      1044
 -1      1585    3    0    1
 -2      1547      1537      1709      2254
 -1      1586    3    0    1
 -2       725      1042       351      1045
 -1      1587    3    0    1
 -2       215       225       753      1046
 -1      1588    3    0    1
 -2      3037      1449      1448      1414
 -1      1589    3    0    1
 -2       742      1050      1051      1295
 -1      1590    3    0    1
 -2      1978      1322       283      2255
 -1      1591    3    0    1
 -2      1842      1888      1942      1959
 -1      1592    3    0    1
 -2      1048      1299      1054       740
 -1      1593    3    0    1
 -2      2646      1259      2648      2783
 -1      1594    3    0    1
 -2       578       336       962      1223
 -1      1595    3    0    1
 -2      1804       466      1836      2195
 -1      1596    3    0    1
 -2        33       418       916      2209
 -1      1597    3    0    1
 -2       219      1295       220       746
 -1      1598    3    0    1
 -2       752       749      1292      1302
 -1      1599    3    0    1
 -2       747       753      1046      1056
 -1      1600    3    0    1
 -2       222       409       747      1052
 -1      1601    3    0    1
 -2      1550      2725      2726      2817
 -1      1602    3    0    1
 -2       770      1067      1305      1310
 -1      1603    3    0    1
 -2       472      2445      2560      2806
 -1      1604    3    0    1
 -2       749       223      1058      1302
 -1      1605    3    0    1
 -2      2959       354      2970      3092
 -1      1606    3    0    1
 -2       300      1107      2027      2117
 -1      1607    3    0    1
 -2      1584       297      1684      2659
 -1      1608    3    0    1
 -2      1092       282      1978      1980
 -1      1609    3    0    1
 -2       743      1055       754       742
 -1      1610    3    0    1
 -2       320       322      1001      1791
 -1      1611    3    0    1
 -2       219       746       745      1050
 -1      1612    3    0    1
 -2      1412      1457      1458      3073
 -1      1613    3    0    1
 -2      2381      1972      2434      2601
 -1      1614    3    0    1
 -2       777      1064      1307      1313
 -1      1615    3    0    1
 -2      1645      1670      2134      2185
 -1      1616    3    0    1
 -2       747       222       753      1056
 -1      1617    3    0    1
 -2       222       747       753      1301
 -1      1618    3    0    1
 -2      2020      1662      2797      2805
 -1      1619    3    0    1
 -2      1443      2930      1480      2958
 -1      1620    3    0    1
 -2       813      1094      1095      1327
 -1      1621    3    0    1
 -2       580       956       957       965
 -1      1622    3    0    1
 -2      1580       807      1749      1820
 -1      1623    3    0    1
 -2      1358      1355      2145      2273
 -1      1624    3    0    1
 -2       237       233       771      1304
 -1      1625    3    0    1
 -2      1572      1911      1992      2325
 -1      1626    3    0    1
 -2      1312      2723      2857      3077
 -1      1627    3    0    1
 -2      1873      1668      1919      2109
 -1      1628    3    0    1
 -2       777       781      1063      1069
 -1      1629    3    0    1
 -2       771       233       777      1304
 -1      1630    3    0    1
 -2      1486      3060      1498      3086
 -1      1631    3    0    1
 -2      2161      3033      1444      2922
 -1      1632    3    0    1
 -2       776       239       773      1061
 -1      1633    3    0    1
 -2      1920      1572      2325      2434
 -1      1634    3    0    1
 -2       242       232       769      1306
 -1      1635    3    0    1
 -2      1090       819       826      2026
 -1      1636    3    0    1
 -2       747       222      1056      1057
 -1      1637    3    0    1
 -2       768      1063      1070      1303
 -1      1638    3    0    1
 -2       759       739       760      1058
 -1      1639    3    0    1
 -2       239       780       247      1059
 -1      1640    3    0    1
 -2      3027      2613      1459      3077
 -1      1641    3    0    1
 -2       248       246       773      1071
 -1      1642    3    0    1
 -2       291      1631      1849      1878
 -1      1643    3    0    1
 -2      1437      1447      1497      3007
 -1      1644    3    0    1
 -2      1575      1573      2487      2556
 -1      1645    3    0    1
 -2       770       404      1067      1310
 -1      1646    3    0    1
 -2       102       337      2551      2828
 -1      1647    3    0    1
 -2       773       780      1059      1071
 -1      1648    3    0    1
 -2       233       781       236      1063
 -1      1649    3    0    1
 -2      1289      1583      2200      2239
 -1      1650    3    0    1
 -2      1700      1565      1958      2212
 -1      1651    3    0    1
 -2      1453      3046      1459      3077
 -1      1652    3    0    1
 -2      1310       765      1067      1305
 -1      1653    3    0    1
 -2       773       248      1066      1311
 -1      1654    3    0    1
 -2       771       777      1064      1304
 -1      1655    3    0    1
 -2      1311      1061       773      1308
 -1      1656    3    0    1
 -2       233       237       771      1063
 -1      1657    3    0    1
 -2      1539      1601      2191      2426
 -1      1658    3    0    1
 -2       771       782      1070      1303
 -1      1659    3    0    1
 -2      2855      2553      2887      2897
 -1      1660    3    0    1
 -2       363       228      1058      2008
 -1      1661    3    0    1
 -2      1758       323      2440      2696
 -1      1662    3    0    1
 -2       540        63       533       931
 -1      1663    3    0    1
 -2      1062       239       776       234
 -1      1664    3    0    1
 -2      1795       748      1841      2521
 -1      1665    3    0    1
 -2      2029      1689      2123      2182
 -1      1666    3    0    1
 -2       535       369       943      1201
 -1      1667    3    0    1
 -2       789      1083       808       807
 -1      1668    3    0    1
 -2       428      3050      1486      3086
 -1      1669    3    0    1
 -2      1061      1311       773      1066
 -1      1670    3    0    1
 -2       566        71        90      1202
 -1      1671    3    0    1
 -2      1486      2708      3084      3086
 -1      1672    3    0    1
 -2       142      2115      2593      2691
 -1      1673    3    0    1
 -2      1073      1322      1079       787
 -1      1674    3    0    1
 -2      3060      1438      1498      3086
 -1      1675    3    0    1
 -2      1990      1901      2252      2610
 -1      1676    3    0    1
 -2       185      2238      2337      2382
 -1      1677    3    0    1
 -2       779       776      1062      1068
 -1      1678    3    0    1
 -2       799       774      1323      2248
 -1      1679    3    0    1
 -2      1718       268      1978      2255
 -1      1680    3    0    1
 -2      1542       778      1873      2190
 -1      1681    3    0    1
 -2       941       523       935       942
 -1      1682    3    0    1
 -2       238       771       777      1064
 -1      1683    3    0    1
 -2       788      1079       799       787
 -1      1684    3    0    1
 -2        56       532       537      1191
 -1      1685    3    0    1
 -2      2227      1650      2395      2669
 -1      1686    3    0    1
 -2       461      1156       464      1163
 -1      1687    3    0    1
 -2       509        43       925      1188
 -1      1688    3    0    1
 -2       763       768       783      1070
 -1      1689    3    0    1
 -2      1663      1680      2108      2818
 -1      1690    3    0    1
 -2      1804      1599      1934      1996
 -1      1691    3    0    1
 -2      1056       759      1057      1745
 -1      1692    3    0    1
 -2       408      1622      1765      1985
 -1      1693    3    0    1
 -2       793       259      1080      1321
 -1      1694    3    0    1
 -2       797      1318       252       800
 -1      1695    3    0    1
 -2       654       679      2083      2661
 -1      1696    3    0    1
 -2       739      1297       744      1058
 -1      1697    3    0    1
 -2      1068       773      1059      1071
 -1      1698    3    0    1
 -2      1667      1554      1792      2249
 -1      1699    3    0    1
 -2      2139      1602      2254      2256
 -1      1700    3    0    1
 -2      1447      1492      2981      3009
 -1      1701    3    0    1
 -2        67       533       535       943
 -1      1702    3    0    1
 -2       839      1349      1346      1903
 -1      1703    3    0    1
 -2       796      1320       256       801
 -1      1704    3    0    1
 -2       964       591       965      2176
 -1      1705    3    0    1
 -2       797       264      1079      1322
 -1      1706    3    0    1
 -2      2213      1621      2580      2767
 -1      1707    3    0    1
 -2       818       276       817      1330
 -1      1708    3    0    1
 -2      1402      1107      2117      2407
 -1      1709    3    0    1
 -2      1245       627      2431      2664
 -1      1710    3    0    1
 -2       797       800      1073      1079
 -1      1711    3    0    1
 -2       797      1318      1074       252
 -1      1712    3    0    1
 -2      1437      1439      1447      3009
 -1      1713    3    0    1
 -2      3051      2897      1496      2982
 -1      1714    3    0    1
 -2       258       793       794      1076
 -1      1715    3    0    1
 -2       792      1080       802       791
 -1      1716    3    0    1
 -2       796      1320       801      1324
 -1      1717    3    0    1
 -2      2431      2464      2474      2570
 -1      1718    3    0    1
 -2        56       537       935      1191
 -1      1719    3    0    1
 -2      1530      1618      2114      2135
 -1      1720    3    0    1
 -2      1881      1188      2497      2671
 -1      1721    3    0    1
 -2       294       295      1366      1670
 -1      1722    3    0    1
 -2       789       790       807      1081
 -1      1723    3    0    1
 -2       623       624       630      2972
 -1      1724    3    0    1
 -2      1637      1736      1984      2055
 -1      1725    3    0    1
 -2       567       952      2470      2554
 -1      1726    3    0    1
 -2      1132       874      2136      2234
 -1      1727    3    0    1
 -2       820       285       825      1095
 -1      1728    3    0    1
 -2       796      1320      1075       256
 -1      1729    3    0    1
 -2       274       821       824      1084
 -1      1730    3    0    1
 -2      1648       334      1970      2018
 -1      1731    3    0    1
 -2      1776      1277      1940      2598
 -1      1732    3    0    1
 -2       279       830       820      1327
 -1      1733    3    0    1
 -2      1721      1568      1822      1855
 -1      1734    3    0    1
 -2       789       807       808      1082
 -1      1735    3    0    1
 -2      1427      2358      3061      3091
 -1      1736    3    0    1
 -2      1176       913       486      1837
 -1      1737    3    0    1
 -2      2294      2257      2839      2840
 -1      1738    3    0    1
 -2      2903      2676      3061      3091
 -1      1739    3    0    1
 -2       812      1092       823       811
 -1      1740    3    0    1
 -2      1835      1626      1882      1929
 -1      1741    3    0    1
 -2      3042      3035      1450      2917
 -1      1742    3    0    1
 -2      1655       843      1856      2000
 -1      1743    3    0    1
 -2      1357       845      1356      1834
 -1      1744    3    0    1
 -2      1411      1027      1421      3058
 -1      1745    3    0    1
 -2        75      2530      2532      2541
 -1      1746    3    0    1
 -2      1599      1626      1835      1996
 -1      1747    3    0    1
 -2      1352      1353      1655      1781
 -1      1748    3    0    1
 -2      1961       331      2144      2245
 -1      1749    3    0    1
 -2      1595      1574      1653      1830
 -1      1750    3    0    1
 -2       373       282       821      1333
 -1      1751    3    0    1
 -2      1630      1552      1632      1691
 -1      1752    3    0    1
 -2      1567      1594      1705      1720
 -1      1753    3    0    1
 -2      2577      1651      2629      2747
 -1      1754    3    0    1
 -2       870      1138      1380      1632
 -1      1755    3    0    1
 -2       457       458       902       906
 -1      1756    3    0    1
 -2      1067      1799      1811      2283
 -1      1757    3    0    1
 -2      1031       711      2048      2513
 -1      1758    3    0    1
 -2      1527      1659      1867      1962
 -1      1759    3    0    1
 -2      2358      2903      3061      3091
 -1      1760    3    0    1
 -2      1817      1581      2051      2091
 -1      1761    3    0    1
 -2      1084       824      1086      1092
 -1      1762    3    0    1
 -2      1801      1710      1963      2552
 -1      1763    3    0    1
 -2       824       281      1084      1086
 -1      1764    3    0    1
 -2      1757      2150      2304      2500
 -1      1765    3    0    1
 -2      2105       315      2732      2820
 -1      1766    3    0    1
 -2      2132      2474      2724      2759
 -1      1767    3    0    1
 -2       792      1324      1320       791
 -1      1768    3    0    1
 -2       813       814       831      1094
 -1      1769    3    0    1
 -2      1540       205      1993      2023
 -1      1770    3    0    1
 -2      1548      1585      1635      2131
 -1      1771    3    0    1
 -2       797       804      1074      1083
 -1      1772    3    0    1
 -2      1094       825      1327      1328
 -1      1773    3    0    1
 -2      1199       536      1881      2380
 -1      1774    3    0    1
 -2      1332      1089       818      1330
 -1      1775    3    0    1
 -2      1542      1753      2505      2675
 -1      1776    3    0    1
 -2      1854      1522      2005      2141
 -1      1777    3    0    1
 -2      1544      1773      2011      2212
 -1      1778    3    0    1
 -2      1640      1528      1759      1947
 -1      1779    3    0    1
 -2       816      1090      1088       815
 -1      1780    3    0    1
 -2      1904       855      1937      1969
 -1      1781    3    0    1
 -2      1850      2688      2791      2832
 -1      1782    3    0    1
 -2       288       285       820      1095
 -1      1783    3    0    1
 -2       825       285      1094      1095
 -1      1784    3    0    1
 -2      1396      1769      2171      2180
 -1      1785    3    0    1
 -2       853       890      1146      1971
 -1      1786    3    0    1
 -2      1611      1593      1856      2000
 -1      1787    3    0    1
 -2      1041       730      1816      2392
 -1      1788    3    0    1
 -2       517       513       928      1183
 -1      1789    3    0    1
 -2       815      1332      1093       819
 -1      1790    3    0    1
 -2      1717      1594      1966      2023
 -1      1791    3    0    1
 -2      1719      1555      2202      2286
 -1      1792    3    0    1
 -2      1561      1174      2025      2225
 -1      1793    3    0    1
 -2      1372       410       447      2331
 -1      1794    3    0    1
 -2       484        35       916       917
 -1      1795    3    0    1
 -2      1729       331      1949      2377
 -1      1796    3    0    1
 -2       195       416      1032      2112
 -1      1797    3    0    1
 -2       604       609       967       977
 -1      1798    3    0    1
 -2      1425      1422      1444      2932
 -1      1799    3    0    1
 -2      1644      1574      1687      1767
 -1      1800    3    0    1
 -2      2875      2451      2901      3047
 -1      1801    3    0    1
 -2      1742      2178      2555      2576
 -1      1802    3    0    1
 -2       501       519       520       929
 -1      1803    3    0    1
 -2      2203      1417      3031      3077
 -1      1804    3    0    1
 -2      1604      1568      1644      1767
 -1      1805    3    0    1
 -2       907       460      1154      1155
 -1      1806    3    0    1
 -2       658       651      1001      2235
 -1      1807    3    0    1
 -2        57        56       532      1193
 -1      1808    3    0    1
 -2      1753       249      1956      2505
 -1      1809    3    0    1
 -2      1555      2349      2370      2610
 -1      1810    3    0    1
 -2       584       582      2247      2364
 -1      1811    3    0    1
 -2       367      1497      1498      3084
 -1      1812    3    0    1
 -2       471       453       907       908
 -1      1813    3    0    1
 -2      1567      1594      1720      1966
 -1      1814    3    0    1
 -2      1642      1681      1853      2163
 -1      1815    3    0    1
 -2      2060      2257      2586      2861
 -1      1816    3    0    1
 -2      1580       784      1820      2103
 -1      1817    3    0    1
 -2       489        33       912      1177
 -1      1818    3    0    1
 -2       794       259       263      1080
 -1      1819    3    0    1
 -2      1444      1422      1446      2932
 -1      1820    3    0    1
 -2      1813      1711      1829      2075
 -1      1821    3    0    1
 -2       824       282      1096      1336
 -1      1822    3    0    1
 -2      3048      2852      1475      3063
 -1      1823    3    0    1
 -2      2155       949      1416      3068
 -1      1824    3    0    1
 -2       583       958        94      1214
 -1      1825    3    0    1
 -2       125      1716      2589      2677
 -1      1826    3    0    1
 -2      1056      1826      1868      2660
 -1      1827    3    0    1
 -2      1567      1524      2246      2297
 -1      1828    3    0    1
 -2       953       567       547       954
 -1      1829    3    0    1
 -2      1551      1763      2150      2187
 -1      1830    3    0    1
 -2       691      1277      1028       702
 -1      1831    3    0    1
 -2      1576      1693      1757      1762
 -1      1832    3    0    1
 -2      1247       986      1435      3017
 -1      1833    3    0    1
 -2      1569      1724      1946      2198
 -1      1834    3    0    1
 -2       499      1181       500       923
 -1      1835    3    0    1
 -2       102       385       585       964
 -1      1836    3    0    1
 -2       533        58       535       931
 -1      1837    3    0    1
 -2      1857      1976      2006      2322
 -1      1838    3    0    1
 -2      1550      1587      1677      1871
 -1      1839    3    0    1
 -2      1683      2662      2860      2862
 -1      1840    3    0    1
 -2      1207       946      2934      2968
 -1      1841    3    0    1
 -2      1552      1630      2006      2142
 -1      1842    3    0    1
 -2       556        80       948      1213
 -1      1843    3    0    1
 -2       498        45      2944      2966
 -1      1844    3    0    1
 -2      1523      1764      1771      2007
 -1      1845    3    0    1
 -2      1001      2517      2582      2741
 -1      1846    3    0    1
 -2      1424      1450      1473      2975
 -1      1847    3    0    1
 -2      1860      1918      2385      2393
 -1      1848    3    0    1
 -2       421      1496      2982      3087
 -1      1849    3    0    1
 -2      1647       415      1764      1798
 -1      1850    3    0    1
 -2      1362      1689      1690      2182
 -1      1851    3    0    1
 -2      2159      2600      2621      2626
 -1      1852    3    0    1
 -2      1267       682       675      2236
 -1      1853    3    0    1
 -2      1575      1761      1959      2107
 -1      1854    3    0    1
 -2       460         4      1154      1155
 -1      1855    3    0    1
 -2       848      1362      1690      2182
 -1      1856    3    0    1
 -2      1578      1582      1734      1787
 -1      1857    3    0    1
 -2        27       485       488       910
 -1      1858    3    0    1
 -2      1380       870      1632      1688
 -1      1859    3    0    1
 -2       808       807      1749      2368
 -1      1860    3    0    1
 -2      1901      1990      2370      2610
 -1      1861    3    0    1
 -2       185       331      1029      1729
 -1      1862    3    0    1
 -2       751       750      1054      2389
 -1      1863    3    0    1
 -2       500      1187       499       507
 -1      1864    3    0    1
 -2      1544      1773      1833      2011
 -1      1865    3    0    1
 -2      1705      1596      1721      1939
 -1      1866    3    0    1
 -2       747       222      1052      1301
 -1      1867    3    0    1
 -2        72      1206        74       554
 -1      1868    3    0    1
 -2      1612      1673      1688      2211
 -1      1869    3    0    1
 -2      1551      2304      2376      2418
 -1      1870    3    0    1
 -2       237       771      1063      1303
 -1      1871    3    0    1
 -2       259       263      1080      1675
 -1      1872    3    0    1
 -2       992       640      2728      2729
 -1      1873    3    0    1
 -2      1384      1370      1809      1927
 -1      1874    3    0    1
 -2      1074       797      1083      1325
 -1      1875    3    0    1
 -2      1569      2121      2264      2617
 -1      1876    3    0    1
 -2      1548      1655      1781      1891
 -1      1877    3    0    1
 -2       773       776      1061      1066
 -1      1878    3    0    1
 -2       682      1270      2148      2439
 -1      1879    3    0    1
 -2      1078      1323      1418      3086
 -1      1880    3    0    1
 -2      1585      1635      2131      2166
 -1      1881    3    0    1
 -2       788      1079       787      1073
 -1      1882    3    0    1
 -2       300      1369      1790      2027
 -1      1883    3    0    1
 -2       414       333       723      1044
 -1      1884    3    0    1
 -2       416       190       699      1032
 -1      1885    3    0    1
 -2       971      2193      2302      2569
 -1      1886    3    0    1
 -2      1999      1652      2279      2382
 -1      1887    3    0    1
 -2       796      1317       256      1316
 -1      1888    3    0    1
 -2       785      1501      3004      3005
 -1      1889    3    0    1
 -2      1102      1354      1665      2000
 -1      1890    3    0    1
 -2       403       285      2014      2056
 -1      1891    3    0    1
 -2       317      2120      2170      2262
 -1      1892    3    0    1
 -2      1576      1751      1766      1769
 -1      1893    3    0    1
 -2      1317       796      1081      1316
 -1      1894    3    0    1
 -2      1613      1634      1682      1825
 -1      1895    3    0    1
 -2       658      1001      2488      2550
 -1      1896    3    0    1
 -2      1063       771      1070      1303
 -1      1897    3    0    1
 -2       215       753       757      1046
 -1      1898    3    0    1
 -2      1527      2028      2110      2317
 -1      1899    3    0    1
 -2       435      1376      1140      2401
 -1      1900    3    0    1
 -2       389      1797      2130      2233
 -1      1901    3    0    1
 -2       363       223      1908      2008
 -1      1902    3    0    1
 -2      2357       323      2450      2698
 -1      1903    3    0    1
 -2      1301      1646      1795      1841
 -1      1904    3    0    1
 -2       739      1302      1292      1058
 -1      1905    3    0    1
 -2      1384       379      1809      1892
 -1      1906    3    0    1
 -2      1920      1543      2230      2325
 -1      1907    3    0    1
 -2      1128       321      1394      1673
 -1      1908    3    0    1
 -2       748       754      1841      2521
 -1      1909    3    0    1
 -2      1942      2360      2410      2601
 -1      1910    3    0    1
 -2      1589      2159      2622      2626
 -1      1911    3    0    1
 -2       914       487      1175      2804
 -1      1912    3    0    1
 -2       717      1040       716      1036
 -1      1913    3    0    1
 -2       198       733       213      1034
 -1      1914    3    0    1
 -2      1979       823      2035      2255
 -1      1915    3    0    1
 -2       720      1043      1034       715
 -1      1916    3    0    1
 -2       867      1390      1124      1994
 -1      1917    3    0    1
 -2      1999      1522      2082      2279
 -1      1918    3    0    1
 -2      1067      1873      2190      2283
 -1      1919    3    0    1
 -2      1526      1870      2151      2324
 -1      1920    3    0    1
 -2       245       243      1894      2106
 -1      1921    3    0    1
 -2       379      1809      1892      1927
 -1      1922    3    0    1
 -2      1697      1638      2142      2167
 -1      1923    3    0    1
 -2      2176       385      2727      2828
 -1      1924    3    0    1
 -2       650       997      1249      1252
 -1      1925    3    0    1
 -2       627       619       634       988
 -1      1926    3    0    1
 -2       536       534       939      2282
 -1      1927    3    0    1
 -2       681      1011      1264      1266
 -1      1928    3    0    1
 -2      1141       861       885      2762
 -1      1929    3    0    1
 -2      1596      1721      1862      1909
 -1      1930    3    0    1
 -2      2097      1960      2712      2765
 -1      1931    3    0    1
 -2      2016      2715      2798      2813
 -1      1932    3    0    1
 -2      1915      1724      2017      2198
 -1      1933    3    0    1
 -2       677       163       680      1008
 -1      1934    3    0    1
 -2      1387      1368      2286      2587
 -1      1935    3    0    1
 -2      1571      1761      1888      2491
 -1      1936    3    0    1
 -2       677       163      1008      1262
 -1      1937    3    0    1
 -2      1634      1682      1825      2149
 -1      1938    3    0    1
 -2       444      1392      1123      1774
 -1      1939    3    0    1
 -2      1576      1693      1702      1751
 -1      1940    3    0    1
 -2      1534      1931      2004      2064
 -1      1941    3    0    1
 -2      2769      2645      2778      2787
 -1      1942    3    0    1
 -2      1708      1536      1998      2221
 -1      1943    3    0    1
 -2       306       388      1102      1665
 -1      1944    3    0    1
 -2       438       399      2149      2562
 -1      1945    3    0    1
 -2      1550      1587      2300      2475
 -1      1946    3    0    1
 -2        53       426       927      2831
 -1      1947    3    0    1
 -2      1723      1955      1986      2307
 -1      1948    3    0    1
 -2      1439      1490      3089      3090
 -1      1949    3    0    1
 -2      3029      1445      1422      1421
 -1      1950    3    0    1
 -2       452       905       463       451
 -1      1951    3    0    1
 -2       700       706      2137      2355
 -1      1952    3    0    1
 -2       452       905       451       899
 -1      1953    3    0    1
 -2       481        25       915      1174
 -1      1954    3    0    1
 -2         6       899       464        15
 -1      1955    3    0    1
 -2       460       470       908      1154
 -1      1956    3    0    1
 -2       907       460       908      1154
 -1      1957    3    0    1
 -2        15         8       464      1156
 -1      1958    3    0    1
 -2         4        10       460      1154
 -1      1959    3    0    1
 -2       453       909       472       471
 -1      1960    3    0    1
 -2         6      1156        15       464
 -1      1961    3    0    1
 -2       482       481       915      1164
 -1      1962    3    0    1
 -2         5       461       468       900
 -1      1963    3    0    1
 -2         5         6       461       900
 -1      1964    3    0    1
 -2       458         9       457       902
 -1      1965    3    0    1
 -2         4       460       901      1158
 -1      1966    3    0    1
 -2       663       664      1004      2443
 -1      1967    3    0    1
 -2       191       355      1848      1940
 -1      1968    3    0    1
 -2       453       909       471      1163
 -1      1969    3    0    1
 -2       475      1177       483       490
 -1      1970    3    0    1
 -2        16        14       464      1163
 -1      1971    3    0    1
 -2      1456       352      1457      3055
 -1      1972    3    0    1
 -2      1725      1542      1873      2283
 -1      1973    3    0    1
 -2        14        16       464       905
 -1      1974    3    0    1
 -2      1968      1258      1436      2912
 -1      1975    3    0    1
 -2       487       479       486      2939
 -1      1976    3    0    1
 -2       462       451       463       905
 -1      1977    3    0    1
 -2       461       899       897       905
 -1      1978    3    0    1
 -2       463       905      1333      2078
 -1      1979    3    0    1
 -2       240       235      2950      2955
 -1      1980    3    0    1
 -2      1447       376      3090      3096
 -1      1981    3    0    1
 -2       451      1160       905       462
 -1      1982    3    0    1
 -2       899       451       897       905
 -1      1983    3    0    1
 -2       451      1160       897       905
 -1      1984    3    0    1
 -2       460        13       465       907
 -1      1985    3    0    1
 -2       469        17       400       907
 -1      1986    3    0    1
 -2        17       469       465       907
 -1      1987    3    0    1
 -2       454      1163       453       471
 -1      1988    3    0    1
 -2       468        14       419       909
 -1      1989    3    0    1
 -2        14       468       461       909
 -1      1990    3    0    1
 -2       481       915      1164      1167
 -1      1991    3    0    1
 -2        33       484       489       912
 -1      1992    3    0    1
 -2      1768      2800      1850      2747
 -1      1993    3    0    1
 -2      1611      1102      1665      2000
 -1      1994    3    0    1
 -2       523       935       942      1191
 -1      1995    3    0    1
 -2        56        57       532      1191
 -1      1996    3    0    1
 -2        22        19       484      1166
 -1      1997    3    0    1
 -2      1900      1522      1916      2005
 -1      1998    3    0    1
 -2       393        41       513      1190
 -1      1999    3    0    1
 -2      2077      1042      2694      2802
 -1      2000    3    0    1
 -2      1530      1623      1793      1903
 -1      2001    3    0    1
 -2       682      1014      2148      2236
 -1      2002    3    0    1
 -2       992      2548      2729      2815
 -1      2003    3    0    1
 -2       482        25       390       915
 -1      2004    3    0    1
 -2        25       482       481       915
 -1      2005    3    0    1
 -2      1597      1725      1765      2109
 -1      2006    3    0    1
 -2       493       489       916      1168
 -1      2007    3    0    1
 -2      1776      1028      1886      1940
 -1      2008    3    0    1
 -2        41       393       513       928
 -1      2009    3    0    1
 -2       870      1632      1688      1779
 -1      2010    3    0    1
 -2       493        33       418       916
 -1      2011    3    0    1
 -2        33       493       489       916
 -1      2012    3    0    1
 -2       477       495       496       917
 -1      2013    3    0    1
 -2        34        35       484       917
 -1      2014    3    0    1
 -2        34       484       494       917
 -1      2015    3    0    1
 -2      1653      1823      1830      2469
 -1      2016    3    0    1
 -2       495       477       916       917
 -1      2017    3    0    1
 -2       478       918      1169      1170
 -1      2018    3    0    1
 -2       492        29       427       918
 -1      2019    3    0    1
 -2        29       492       485       918
 -1      2020    3    0    1
 -2        48        49       509       920
 -1      2021    3    0    1
 -2       546      2968      2997      3000
 -1      2022    3    0    1
 -2       507      1190       514       499
 -1      2023    3    0    1
 -2       537       532       942      1191
 -1      2024    3    0    1
 -2      1591      2280      2488      2517
 -1      2025    3    0    1
 -2       579      1223      2046      2334
 -1      2026    3    0    1
 -2       499      1181       923      1180
 -1      2027    3    0    1
 -2       499       500       507       923
 -1      2028    3    0    1
 -2      1332       396      2346      2495
 -1      2029    3    0    1
 -2      1990      1901      2370      2748
 -1      2030    3    0    1
 -2      1562      1612      1709      2478
 -1      2031    3    0    1
 -2       539       535       934      1201
 -1      2032    3    0    1
 -2       413      1594      1720      2058
 -1      2033    3    0    1
 -2       537       532      1193      1200
 -1      2034    3    0    1
 -2      2954       810      2981      3007
 -1      2035    3    0    1
 -2      1829      1843      1921      1952
 -1      2036    3    0    1
 -2      1450       361      3069      2979
 -1      2037    3    0    1
 -2      1683      2003      2161      2866
 -1      2038    3    0    1
 -2        47      1186       509       921
 -1      2039    3    0    1
 -2       506        39       391       926
 -1      2040    3    0    1
 -2        39       506       505       926
 -1      2041    3    0    1
 -2      1753      1731      1956      2205
 -1      2042    3    0    1
 -2       500      1187      1182       499
 -1      2043    3    0    1
 -2       523       943       544       543
 -1      2044    3    0    1
 -2      1051       748      1704      2521
 -1      2045    3    0    1
 -2       502       930       501       920
 -1      2046    3    0    1
 -2        53       426       511       927
 -1      2047    3    0    1
 -2        53       511       515       927
 -1      2048    3    0    1
 -2      1190      2687      2764      2780
 -1      2049    3    0    1
 -2       502       929       501       520
 -1      2050    3    0    1
 -2       393       392       513       928
 -1      2051    3    0    1
 -2       513       392       517       928
 -1      2052    3    0    1
 -2        41       518        54       929
 -1      2053    3    0    1
 -2       518        41       508       929
 -1      2054    3    0    1
 -2       519       501       928       929
 -1      2055    3    0    1
 -2        43       516       509       930
 -1      2056    3    0    1
 -2       501       519       927       930
 -1      2057    3    0    1
 -2       527      1198      1197       939
 -1      2058    3    0    1
 -2       939       527      1195      1197
 -1      2059    3    0    1
 -2      1431      2969      3094      3097
 -1      2060    3    0    1
 -2       539        58        68       934
 -1      2061    3    0    1
 -2        58       539       535       934
 -1      2062    3    0    1
 -2      1961      1949      2144      2304
 -1      2063    3    0    1
 -2       528       941       523       935
 -1      2064    3    0    1
 -2        56       541        69       935
 -1      2065    3    0    1
 -2       541        56       537       935
 -1      2066    3    0    1
 -2      1574      1595      1644      1687
 -1      2067    3    0    1
 -2      2902      3035      1450      2938
 -1      2068    3    0    1
 -2      1685      1842      1888      1942
 -1      2069    3    0    1
 -2        62        66       529       936
 -1      2070    3    0    1
 -2        62       529       530       936
 -1      2071    3    0    1
 -2       537       541       935       941
 -1      2072    3    0    1
 -2      2629      1558      2644      2779
 -1      2073    3    0    1
 -2       524       531       538       937
 -1      2074    3    0    1
 -2      1596      1568      1721      1939
 -1      2075    3    0    1
 -2       529       530       936      1194
 -1      2076    3    0    1
 -2      1431      1499      3002      3097
 -1      2077    3    0    1
 -2      1476       362      1500      1517
 -1      2078    3    0    1
 -2       534       527       526       939
 -1      2079    3    0    1
 -2       497      2966      1518      2999
 -1      2080    3    0    1
 -2      2642      1189      2781      3072
 -1      2081    3    0    1
 -2      2257      2839      2840      2861
 -1      2082    3    0    1
 -2       531       525       524       940
 -1      2083    3    0    1
 -2       525       531       936       940
 -1      2084    3    0    1
 -2       561       565       947       953
 -1      2085    3    0    1
 -2       326       308      1352      1781
 -1      2086    3    0    1
 -2      1700      1566      1825      2149
 -1      2087    3    0    1
 -2       523       543       544       941
 -1      2088    3    0    1
 -2       241      1842      1942      1973
 -1      2089    3    0    1
 -2        85       557       952       955
 -1      2090    3    0    1
 -2       541       366       424       941
 -1      2091    3    0    1
 -2       366       541       537       941
 -1      2092    3    0    1
 -2      1631      1341      1849      2745
 -1      2093    3    0    1
 -2      1322      1073       797      1314
 -1      2094    3    0    1
 -2       935       537       941       942
 -1      2095    3    0    1
 -2       380       381       532       942
 -1      2096    3    0    1
 -2       380       532       542       942
 -1      2097    3    0    1
 -2       540        67       364       943
 -1      2098    3    0    1
 -2        67       540       533       943
 -1      2099    3    0    1
 -2       528       943       523       543
 -1      2100    3    0    1
 -2        71       556       561       947
 -1      2101    3    0    1
 -2       552       953       547       947
 -1      2102    3    0    1
 -2        87       565        88       947
 -1      2103    3    0    1
 -2       565        87       561       947
 -1      2104    3    0    1
 -2       571       576       963      1214
 -1      2105    3    0    1
 -2       595      1230       971       596
 -1      2106    3    0    1
 -2       605       112       607      1231
 -1      2107    3    0    1
 -2       548       549       555       948
 -1      2108    3    0    1
 -2       555      1213       562       548
 -1      2109    3    0    1
 -2      1622      1985      2208      2215
 -1      2110    3    0    1
 -2      1378       444      1756      1774
 -1      2111    3    0    1
 -2       963       576       958      1214
 -1      2112    3    0    1
 -2       556        71      1204      1205
 -1      2113    3    0    1
 -2        80       556       561      1213
 -1      2114    3    0    1
 -2      2405      2882      3048      2935
 -1      2115    3    0    1
 -2      1837       486      2424      2425
 -1      2116    3    0    1
 -2      2068      2224      2311      2371
 -1      2117    3    0    1
 -2      1829      1813      2075      2493
 -1      2118    3    0    1
 -2        42      1464      1502      1518
 -1      2119    3    0    1
 -2        73      1208       557       945
 -1      2120    3    0    1
 -2      1712      1574      1767      1855
 -1      2121    3    0    1
 -2       549      1210       548       555
 -1      2122    3    0    1
 -2        75        79       553       951
 -1      2123    3    0    1
 -2       549      1210      1206       548
 -1      2124    3    0    1
 -2       604       123       977       978
 -1      2125    3    0    1
 -2       547      1209       952       552
 -1      2126    3    0    1
 -2       552       547       567       952
 -1      2127    3    0    1
 -2       547       955       952       944
 -1      2128    3    0    1
 -2       567       955       952       547
 -1      2129    3    0    1
 -2        81       365       559       952
 -1      2130    3    0    1
 -2        81       559       563       952
 -1      2131    3    0    1
 -2       547      1209       944       952
 -1      2132    3    0    1
 -2       565        80        86       953
 -1      2133    3    0    1
 -2        80       565       561       953
 -1      2134    3    0    1
 -2       947       556       953       954
 -1      2135    3    0    1
 -2       953       547       947       954
 -1      2136    3    0    1
 -2       382       566       384       954
 -1      2137    3    0    1
 -2       566       382       556       954
 -1      2138    3    0    1
 -2      1340       291      1341      1849
 -1      2139    3    0    1
 -2      1067      1782      2154      2190
 -1      2140    3    0    1
 -2        94       588        97       958
 -1      2141    3    0    1
 -2       588        94       581       958
 -1      2142    3    0    1
 -2       200       728      1037      1280
 -1      2143    3    0    1
 -2      1645      1628      1991      2271
 -1      2144    3    0    1
 -2      2140      1592      2260      2262
 -1      2145    3    0    1
 -2       595      1229       596       972
 -1      2146    3    0    1
 -2       361       231      3046      3069
 -1      2147    3    0    1
 -2      1767      1574      1822      1855
 -1      2148    3    0    1
 -2       604       123       972      1237
 -1      2149    3    0    1
 -2      2436      2257      2553      2872
 -1      2150    3    0    1
 -2      1739      2863      2864      2901
 -1      2151    3    0    1
 -2      1633      1603      2147      2292
 -1      2152    3    0    1
 -2      1498      1438      1501      3011
 -1      2153    3    0    1
 -2      2873      2861      1475      3097
 -1      2154    3    0    1
 -2      1475      1431      1499      3025
 -1      2155    3    0    1
 -2       577       578       962      1219
 -1      2156    3    0    1
 -2       101       578       336       962
 -1      2157    3    0    1
 -2       578       101       577       962
 -1      2158    3    0    1
 -2       581       961      1218      1224
 -1      2159    3    0    1
 -2      2994      3014      3022      3024
 -1      2160    3    0    1
 -2        14      1889      2101      2545
 -1      2161    3    0    1
 -2       114       110       609       967
 -1      2162    3    0    1
 -2       591       571       592       963
 -1      2163    3    0    1
 -2       990       622       981       991
 -1      2164    3    0    1
 -2       576       966       963       958
 -1      2165    3    0    1
 -2       571       576       592       963
 -1      2166    3    0    1
 -2       104       587       383       963
 -1      2167    3    0    1
 -2       587       104       583       963
 -1      2168    3    0    1
 -2       576       966       592       963
 -1      2169    3    0    1
 -2       334      1876      2018      2104
 -1      2170    3    0    1
 -2       385       106       585       964
 -1      2171    3    0    1
 -2       585       106       589       964
 -1      2172    3    0    1
 -2      1976      1846      2386      2696
 -1      2173    3    0    1
 -2       847      1362      1359      1690
 -1      2174    3    0    1
 -2       590       102       580       965
 -1      2175    3    0    1
 -2       956       571       957       965
 -1      2176    3    0    1
 -2       571       964       591       965
 -1      2177    3    0    1
 -2       964       571       956       965
 -1      2178    3    0    1
 -2       607       611       976      1231
 -1      2179    3    0    1
 -2       149      1255       150       652
 -1      2180    3    0    1
 -2       924      1199      1881      2380
 -1      2181    3    0    1
 -2      2453      1643      2540      2665
 -1      2182    3    0    1
 -2       596       595       603       971
 -1      2183    3    0    1
 -2       118       601       602       971
 -1      2184    3    0    1
 -2       976      1232       597       979
 -1      2185    3    0    1
 -2       153      1252       154       650
 -1      2186    3    0    1
 -2       595       596       603       972
 -1      2187    3    0    1
 -2       603      1237       610       595
 -1      2188    3    0    1
 -2       841      1350      2075      2493
 -1      2189    3    0    1
 -2       381       942      2197      2743
 -1      2190    3    0    1
 -2       980      1248       628       985
 -1      2191    3    0    1
 -2       604       110      1228      1229
 -1      2192    3    0    1
 -2       831      1336      1907      2072
 -1      2193    3    0    1
 -2      2950      1065      2992      3016
 -1      2194    3    0    1
 -2      1247      3015      3017      3018
 -1      2195    3    0    1
 -2       241      1799      1842      1959
 -1      2196    3    0    1
 -2      1422      1421      2891      3029
 -1      2197    3    0    1
 -2      1146      1708      1954      1971
 -1      2198    3    0    1
 -2       112      1234       605       969
 -1      2199    3    0    1
 -2      2115      2593      2691      2700
 -1      2200    3    0    1
 -2       603       595       610       975
 -1      2201    3    0    1
 -2       118       389       601       975
 -1      2202    3    0    1
 -2       133       139       629      1244
 -1      2203    3    0    1
 -2       620       985       627       619
 -1      2204    3    0    1
 -2      1451      1413      1496      2974
 -1      2205    3    0    1
 -2       988       620      1238      1240
 -1      2206    3    0    1
 -2       119       611       120       976
 -1      2207    3    0    1
 -2       611       119       607       976
 -1      2208    3    0    1
 -2       604       614       978      1233
 -1      2209    3    0    1
 -2       613       123       338       977
 -1      2210    3    0    1
 -2       123       613       609       977
 -1      2211    3    0    1
 -2      1602      1794      2254      2256
 -1      2212    3    0    1
 -2       597      1233       978       598
 -1      2213    3    0    1
 -2       597       615       616       978
 -1      2214    3    0    1
 -2       261       269      2378      2683
 -1      2215    3    0    1
 -2       264      1083      1325      1636
 -1      2216    3    0    1
 -2      2115      1591      2593      2766
 -1      2217    3    0    1
 -2       125       604       614       978
 -1      2218    3    0    1
 -2       125       126       604       978
 -1      2219    3    0    1
 -2      1799      1575      1959      2107
 -1      2220    3    0    1
 -2       597       977       615       978
 -1      2221    3    0    1
 -2       977       597       967       978
 -1      2222    3    0    1
 -2       597      1233       967       978
 -1      2223    3    0    1
 -2       122       612       605       979
 -1      2224    3    0    1
 -2       597       615       976       979
 -1      2225    3    0    1
 -2      1722      2189      2523      2745
 -1      2226    3    0    1
 -2      1578      1787      2206      2558
 -1      2227    3    0    1
 -2       271      1082      1945      2683
 -1      2228    3    0    1
 -2      1620      1720      1899      2058
 -1      2229    3    0    1
 -2      1810      1681      2295      2531
 -1      2230    3    0    1
 -2       619       627       634       985
 -1      2231    3    0    1
 -2      1001       650       997      1249
 -1      2232    3    0    1
 -2      1571      2244      2360      2682
 -1      2233    3    0    1
 -2      1780      2568      2626      2773
 -1      2234    3    0    1
 -2       643      1252       997       644
 -1      2235    3    0    1
 -2      1409      2915      1509      3093
 -1      2236    3    0    1
 -2       138       315       628      1248
 -1      2237    3    0    1
 -2      1493      1458      2962      2973
 -1      2238    3    0    1
 -2      1896      1661      2467      2501
 -1      2239    3    0    1
 -2       843      1102      1856      2000
 -1      2240    3    0    1
 -2      1704       748      1795      2521
 -1      2241    3    0    1
 -2      2950      2955      2989      3016
 -1      2242    3    0    1
 -2       624       987       623       630
 -1      2243    3    0    1
 -2      1426       999      1436      3065
 -1      2244    3    0    1
 -2      1085       811      2954      3008
 -1      2245    3    0    1
 -2       627       620       619       988
 -1      2246    3    0    1
 -2       620      1245       988       627
 -1      2247    3    0    1
 -2       706       700      1029      2133
 -1      2248    3    0    1
 -2       177       174       676      1016
 -1      2249    3    0    1
 -2       996       151      2927      2930
 -1      2250    3    0    1
 -2       149       652       657       993
 -1      2251    3    0    1
 -2       137       635       347       989
 -1      2252    3    0    1
 -2       635       137       632       989
 -1      2253    3    0    1
 -2       637       138       146       990
 -1      2254    3    0    1
 -2       138       637       633       990
 -1      2255    3    0    1
 -2       622       990       621       640
 -1      2256    3    0    1
 -2      2498       941      2502      2761
 -1      2257    3    0    1
 -2      1815      2427      2604      2701
 -1      2258    3    0    1
 -2       633       138       990       991
 -1      2259    3    0    1
 -2       981       633       990       991
 -1      2260    3    0    1
 -2       142       315       628       991
 -1      2261    3    0    1
 -2       142       628       638       991
 -1      2262    3    0    1
 -2       636       140       327       992
 -1      2263    3    0    1
 -2       140       636       629       992
 -1      2264    3    0    1
 -2       621       639       989       992
 -1      2265    3    0    1
 -2       305      1398      1121      1930
 -1      2266    3    0    1
 -2       643      1251       644       998
 -1      2267    3    0    1
 -2       644       643       651       997
 -1      2268    3    0    1
 -2       343       653       656      1002
 -1      2269    3    0    1
 -2       652       149       657      1250
 -1      2270    3    0    1
 -2      1002      1254       645      1005
 -1      2271    3    0    1
 -2       643       644       651       998
 -1      2272    3    0    1
 -2       998       652      1250      1251
 -1      2273    3    0    1
 -2       651      1259       658       643
 -1      2274    3    0    1
 -2      2901      2884      3047      1479
 -1      2275    3    0    1
 -2      1442       155      3038      3065
 -1      2276    3    0    1
 -2      1684       437      2303      2659
 -1      2277    3    0    1
 -2      1442       155      1443      1477
 -1      2278    3    0    1
 -2       147      1256       653       995
 -1      2279    3    0    1
 -2      1549      1676      1722      2739
 -1      2280    3    0    1
 -2       651       643       658      1001
 -1      2281    3    0    1
 -2       320       322       649      1001
 -1      2282    3    0    1
 -2      1008      1018       677      1262
 -1      2283    3    0    1
 -2       677       171       680      1013
 -1      2284    3    0    1
 -2       677      1015      1008       680
 -1      2285    3    0    1
 -2       684       677      1018      1262
 -1      2286    3    0    1
 -2       342       343       656      1002
 -1      2287    3    0    1
 -2       342       656       659      1002
 -1      2288    3    0    1
 -2      1740      1684      2028      2317
 -1      2289    3    0    1
 -2       661       157       328      1003
 -1      2290    3    0    1
 -2       157       661       657      1003
 -1      2291    3    0    1
 -2      1857      1758      1976      2667
 -1      2292    3    0    1
 -2       373      1333      1818      2129
 -1      2293    3    0    1
 -2       646       645       664      1004
 -1      2294    3    0    1
 -2       993       652      1003      1004
 -1      2295    3    0    1
 -2       149      1255       652       993
 -1      2296    3    0    1
 -2       318       662       319      1004
 -1      2297    3    0    1
 -2       662       318       652      1004
 -1      2298    3    0    1
 -2       645      1003       663      1004
 -1      2299    3    0    1
 -2      1003       645       993      1004
 -1      2300    3    0    1
 -2       645      1255       993      1004
 -1      2301    3    0    1
 -2       645       663      1002      1005
 -1      2302    3    0    1
 -2       680       164       683      1008
 -1      2303    3    0    1
 -2       165       164       680      1008
 -1      2304    3    0    1
 -2       166       685       168      1009
 -1      2305    3    0    1
 -2       685       166       681      1009
 -1      2306    3    0    1
 -2       715      1037      1042      1280
 -1      2307    3    0    1
 -2       174       676       681      1011
 -1      2308    3    0    1
 -2       643      1252      1249       997
 -1      2309    3    0    1
 -2       200       725       728      1281
 -1      2310    3    0    1
 -2       728      1037      1042       725
 -1      2311    3    0    1
 -2       170       674      1010      1265
 -1      2312    3    0    1
 -2       674       329      1014      1267
 -1      2313    3    0    1
 -2      1597      1811      2125      2283
 -1      2314    3    0    1
 -2      1677      1635      1707      2166
 -1      2315    3    0    1
 -2       184       710       699      1273
 -1      2316    3    0    1
 -2       204      1045      2077      2102
 -1      2317    3    0    1
 -2       695      1276      1026      1279
 -1      2318    3    0    1
 -2       171       175       680      1013
 -1      2319    3    0    1
 -2      1556      1892      2577      2631
 -1      2320    3    0    1
 -2      1528      1832      1947      2223
 -1      2321    3    0    1
 -2      1420      1053      1424      3057
 -1      2322    3    0    1
 -2      2870      2676      3036      3061
 -1      2323    3    0    1
 -2       681       174      1011      1270
 -1      2324    3    0    1
 -2       171       677       680      1015
 -1      2325    3    0    1
 -2       179       192       701      1019
 -1      2326    3    0    1
 -2       175       683       358      1015
 -1      2327    3    0    1
 -2       683       175       680      1015
 -1      2328    3    0    1
 -2       685       174       317      1016
 -1      2329    3    0    1
 -2       174       685       681      1016
 -1      2330    3    0    1
 -2      1595      1574      1644      1653
 -1      2331    3    0    1
 -2       177       686       330      1017
 -1      2332    3    0    1
 -2       686       177       676      1017
 -1      2333    3    0    1
 -2       670      1016       687      1017
 -1      2334    3    0    1
 -2      1016       670      1009      1017
 -1      2335    3    0    1
 -2       171       684       677      1018
 -1      2336    3    0    1
 -2       701       179       704      1022
 -1      2337    3    0    1
 -2       179      1272      1022       701
 -1      2338    3    0    1
 -2       819      1090      1783      2026
 -1      2339    3    0    1
 -2       939      1188      1881      2100
 -1      2340    3    0    1
 -2       694      1030       693       711
 -1      2341    3    0    1
 -2       707       179       180      1022
 -1      2342    3    0    1
 -2       179       707       704      1022
 -1      2343    3    0    1
 -2       182       709       183      1023
 -1      2344    3    0    1
 -2       709       182       705      1023
 -1      2345    3    0    1
 -2      1902       271      2408      2414
 -1      2346    3    0    1
 -2      1731      1057      1733      1956
 -1      2347    3    0    1
 -2      1036      1289       728      1040
 -1      2348    3    0    1
 -2      1568      1596      1721      1822
 -1      2349    3    0    1
 -2      1613      1634      1825      2019
 -1      2350    3    0    1
 -2       696      1029       695      1024
 -1      2351    3    0    1
 -2       185       697       698      1025
 -1      2352    3    0    1
 -2      1236      2061      1409      2915
 -1      2353    3    0    1
 -2       696      1279       695       706
 -1      2354    3    0    1
 -2       924       512      2781       510
 -1      2355    3    0    1
 -2       620       619       988      1238
 -1      2356    3    0    1
 -2       459      2420      2632      2757
 -1      2357    3    0    1
 -2       200       728      1036      1281
 -1      2358    3    0    1
 -2       701       353      1028      1277
 -1      2359    3    0    1
 -2      1814      1649      1897      2021
 -1      2360    3    0    1
 -2      1641      1648      1970      2018
 -1      2361    3    0    1
 -2       353       355       704      1028
 -1      2362    3    0    1
 -2       723      1038      1286      1291
 -1      2363    3    0    1
 -2       702       691       703      1028
 -1      2364    3    0    1
 -2      1019       701      1021      1028
 -1      2365    3    0    1
 -2       938      1431      2925      2969
 -1      2366    3    0    1
 -2      1451      1440      1491      3075
 -1      2367    3    0    1
 -2       986      1258      2486      2912
 -1      2368    3    0    1
 -2      1021       691      1019      1028
 -1      2369    3    0    1
 -2       691      1277      1019      1028
 -1      2370    3    0    1
 -2       695       700      1025      1029
 -1      2371    3    0    1
 -2       409       222       747      1057
 -1      2372    3    0    1
 -2       191       355       704      1030
 -1      2373    3    0    1
 -2       191       704       707      1030
 -1      2374    3    0    1
 -2      1120      1142      2468      2641
 -1      2375    3    0    1
 -2      1988      1663      2012      2237
 -1      2376    3    0    1
 -2       709       190       335      1031
 -1      2377    3    0    1
 -2       190       709       705      1031
 -1      2378    3    0    1
 -2       182      1273       699      1023
 -1      2379    3    0    1
 -2      1023       699      1031      1032
 -1      2380    3    0    1
 -2      1031       693      1023      1032
 -1      2381    3    0    1
 -2       195       699       710      1032
 -1      2382    3    0    1
 -2       195       416       699      1032
 -1      2383    3    0    1
 -2       701       193       708      1033
 -1      2384    3    0    1
 -2       733       198       729      1034
 -1      2385    3    0    1
 -2      1443      3065      2949      2958
 -1      2386    3    0    1
 -2      2930       641      1480      2958
 -1      2387    3    0    1
 -2       725       200       728      1037
 -1      2388    3    0    1
 -2      2953      1439      2856      3090
 -1      2389    3    0    1
 -2       301       398      1926      2369
 -1      2390    3    0    1
 -2      1000       343      2043      2516
 -1      2391    3    0    1
 -2       208       725       732      1037
 -1      2392    3    0    1
 -2       208       209       725      1037
 -1      2393    3    0    1
 -2       323      1758      1976      2696
 -1      2394    3    0    1
 -2      1759      1528      1832      1947
 -1      2395    3    0    1
 -2       739      1297      1058      1292
 -1      2396    3    0    1
 -2       536      1199      2282      2380
 -1      2397    3    0    1
 -2       749       216       752      1292
 -1      2398    3    0    1
 -2       719       718       730      1038
 -1      2399    3    0    1
 -2       333       414      1291      1535
 -1      2400    3    0    1
 -2       747      1296       753      1301
 -1      2401    3    0    1
 -2       411       222      1646      1863
 -1      2402    3    0    1
 -2       726       716       727      1040
 -1      2403    3    0    1
 -2      2723      1065      1417      3077
 -1      2404    3    0    1
 -2      3065      1426      2949      2958
 -1      2405    3    0    1
 -2      1447      3060      3084      3090
 -1      2406    3    0    1
 -2      1700      1565      1744      1958
 -1      2407    3    0    1
 -2       999      1426      1436      2958
 -1      2408    3    0    1
 -2       407      1069      1965      2205
 -1      2409    3    0    1
 -2       216      1297      1292       749
 -1      2410    3    0    1
 -2        85       955      2470      2731
 -1      2411    3    0    1
 -2       218       747       753      1046
 -1      2412    3    0    1
 -2       225       218       753      1046
 -1      2413    3    0    1
 -2      1063       771      1069      1070
 -1      2414    3    0    1
 -2       212       728       731      1042
 -1      2415    3    0    1
 -2       212       351       728      1042
 -1      2416    3    0    1
 -2       733       333       334      1043
 -1      2417    3    0    1
 -2       333       733       729      1043
 -1      2418    3    0    1
 -2       720      1043       715       736
 -1      2419    3    0    1
 -2      1598      1828      1880      1917
 -1      2420    3    0    1
 -2       883      1139      1872      2479
 -1      2421    3    0    1
 -2       729       333      1043      1044
 -1      2422    3    0    1
 -2      1034       729      1043      1044
 -1      2423    3    0    1
 -2       412       414       723      1044
 -1      2424    3    0    1
 -2       412       723       734      1044
 -1      2425    3    0    1
 -2      1058       228      1894      2008
 -1      2426    3    0    1
 -2       732       204       207      1045
 -1      2427    3    0    1
 -2       204       732       725      1045
 -1      2428    3    0    1
 -2       715       735      1042      1045
 -1      2429    3    0    1
 -2       870      1394       882      1779
 -1      2430    3    0    1
 -2       221       756       229      1297
 -1      2431    3    0    1
 -2       756       749      1058      1297
 -1      2432    3    0    1
 -2       755       752      1292      1302
 -1      2433    3    0    1
 -2       294      1366      1383      1670
 -1      2434    3    0    1
 -2       748      1052      1795      1841
 -1      2435    3    0    1
 -2       243       248       773      1068
 -1      2436    3    0    1
 -2      1869       883      1872      2479
 -1      2437    3    0    1
 -2       219      1295       746      1050
 -1      2438    3    0    1
 -2       753       757      1046      1056
 -1      2439    3    0    1
 -2       963       955      2484      2731
 -1      2440    3    0    1
 -2       743      1055       742      1050
 -1      2441    3    0    1
 -2      1054       227      1289      1583
 -1      2442    3    0    1
 -2       746      1055       408       745
 -1      2443    3    0    1
 -2       782       237       250      1303
 -1      2444    3    0    1
 -2      1225       960       582      2364
 -1      2445    3    0    1
 -2       958       583       963      1214
 -1      2446    3    0    1
 -2       838       837      2219      2327
 -1      2447    3    0    1
 -2       743      1301       742       754
 -1      2448    3    0    1
 -2      1528      1759      1832      1930
 -1      2449    3    0    1
 -2       973      1409      1428      3080
 -1      2450    3    0    1
 -2      1574      1712      1822      1855
 -1      2451    3    0    1
 -2      1655      1352      1781      1856
 -1      2452    3    0    1
 -2      1436      1443      1467      2958
 -1      2453    3    0    1
 -2      2034      1096      2201      2372
 -1      2454    3    0    1
 -2      1344      1343      1853      2163
 -1      2455    3    0    1
 -2       216      1293       749      1048
 -1      2456    3    0    1
 -2       742       748      1051      1055
 -1      2457    3    0    1
 -2      1055       746       408      1051
 -1      2458    3    0    1
 -2       771       238       777      1069
 -1      2459    3    0    1
 -2       757       222       411      1056
 -1      2460    3    0    1
 -2       222       757       753      1056
 -1      2461    3    0    1
 -2       747       758      1057      1298
 -1      2462    3    0    1
 -2       744       739       760      1057
 -1      2463    3    0    1
 -2      1046       747      1056      1057
 -1      2464    3    0    1
 -2       739      1298      1057       744
 -1      2465    3    0    1
 -2       739       759       760      1057
 -1      2466    3    0    1
 -2       226       747       758      1057
 -1      2467    3    0    1
 -2       226       409       747      1057
 -1      2468    3    0    1
 -2       739      1056       759      1057
 -1      2469    3    0    1
 -2      1056       739      1046      1057
 -1      2470    3    0    1
 -2       739      1298      1046      1057
 -1      2471    3    0    1
 -2       363       228       749      1058
 -1      2472    3    0    1
 -2       749       228       756      1058
 -1      2473    3    0    1
 -2       348       104      2463      2482
 -1      2474    3    0    1
 -2       779       234       244      1062
 -1      2475    3    0    1
 -2       234       779       776      1062
 -1      2476    3    0    1
 -2       768      1068       763       783
 -1      2477    3    0    1
 -2       781       233       777      1063
 -1      2478    3    0    1
 -2       797      1318       800      1325
 -1      2479    3    0    1
 -2      1593      1611      1665      2000
 -1      2480    3    0    1
 -2       796      1317      1081       801
 -1      2481    3    0    1
 -2       239       773      1061      1308
 -1      2482    3    0    1
 -2       789      1081      1082      1316
 -1      2483    3    0    1
 -2      1560      1890      1982      2152
 -1      2484    3    0    1
 -2      2051      1546      2132      2237
 -1      2485    3    0    1
 -2       248       243       773      1066
 -1      2486    3    0    1
 -2        25       390      2127      2177
 -1      2487    3    0    1
 -2      1417      1459      1468      3077
 -1      2488    3    0    1
 -2       777       407      1064      1313
 -1      2489    3    0    1
 -2      1823       859      2074      2469
 -1      2490    3    0    1
 -2      3051      3037      3071      3078
 -1      2491    3    0    1
 -2      1145      1682      2149      2562
 -1      2492    3    0    1
 -2      1419      2857      3027      3077
 -1      2493    3    0    1
 -2      1093       826      1746      2081
 -1      2494    3    0    1
 -2      1052      1301      1795      1841
 -1      2495    3    0    1
 -2       241       770       404      1067
 -1      2496    3    0    1
 -2       770       241       769      1067
 -1      2497    3    0    1
 -2       765      1067      1305      1306
 -1      2498    3    0    1
 -2      2983      1072      3004      3005
 -1      2499    3    0    1
 -2       783       763       784      1068
 -1      2500    3    0    1
 -2       776      1059      1062      1068
 -1      2501    3    0    1
 -2      2708      3060      3084      3086
 -1      2502    3    0    1
 -2       763      1071      1068      1059
 -1      2503    3    0    1
 -2       243       779       245      1068
 -1      2504    3    0    1
 -2       779       243       776      1068
 -1      2505    3    0    1
 -2      1059       763      1062      1068
 -1      2506    3    0    1
 -2       763      1071       784      1068
 -1      2507    3    0    1
 -2       387       432      1116      2330
 -1      2508    3    0    1
 -2       407       249       777      1069
 -1      2509    3    0    1
 -2       777       249       781      1069
 -1      2510    3    0    1
 -2       389      1541      1701      2079
 -1      2511    3    0    1
 -2       238       782       251      1070
 -1      2512    3    0    1
 -2       782       238       771      1070
 -1      2513    3    0    1
 -2       768      1069       783      1070
 -1      2514    3    0    1
 -2      1069       768      1063      1070
 -1      2515    3    0    1
 -2      1356      1357      1834      1930
 -1      2516    3    0    1
 -2      1076      1321       793      1080
 -1      2517    3    0    1
 -2       252      1318       262       800
 -1      2518    3    0    1
 -2      3040      3039      1478      3091
 -1      2519    3    0    1
 -2       252       804       267      1074
 -1      2520    3    0    1
 -2       804       252       797      1074
 -1      2521    3    0    1
 -2       258      1319       260       793
 -1      2522    3    0    1
 -2       792      1080       791      1076
 -1      2523    3    0    1
 -2       803       800      1318      1325
 -1      2524    3    0    1
 -2      1321       259      1675      1806
 -1      2525    3    0    1
 -2       730       724      1816      2392
 -1      2526    3    0    1
 -2      1793      1530      2114      2135
 -1      2527    3    0    1
 -2       264       797       800      1325
 -1      2528    3    0    1
 -2       264       803       265      1325
 -1      2529    3    0    1
 -2       797       264      1083      1325
 -1      2530    3    0    1
 -2       822      1091      1883      2157
 -1      2531    3    0    1
 -2       827       824      1329      1336
 -1      2532    3    0    1
 -2      2170      1016      2518      2627
 -1      2533    3    0    1
 -2      1318       797      1074      1325
 -1      2534    3    0    1
 -2       302      1132      1110      2628
 -1      2535    3    0    1
 -2      1094       832      1095      1610
 -1      2536    3    0    1
 -2       261       796       801      1324
 -1      2537    3    0    1
 -2       253       785      3004      3005
 -1      2538    3    0    1
 -2      2358       606      2452      2619
 -1      2539    3    0    1
 -2       825       820      1331      1335
 -1      2540    3    0    1
 -2      1039      1290      1423      3088
 -1      2541    3    0    1
 -2      3036      2676      1478      3091
 -1      2542    3    0    1
 -2      2857      2613      3027      3077
 -1      2543    3    0    1
 -2      2476       963      2484      2731
 -1      2544    3    0    1
 -2      1693      1576      1702      1762
 -1      2545    3    0    1
 -2      1662      2095      2685      2805
 -1      2546    3    0    1
 -2       259       794       793      1080
 -1      2547    3    0    1
 -2       928       392      2811      2835
 -1      2548    3    0    1
 -2       258      1319       793      1076
 -1      2549    3    0    1
 -2      1596      1568      1604      1822
 -1      2550    3    0    1
 -2       264       268       797      1083
 -1      2551    3    0    1
 -2       796       261       801      1081
 -1      2552    3    0    1
 -2       805       801      1081      1317
 -1      2553    3    0    1
 -2       135       988      1245      2616
 -1      2554    3    0    1
 -2      2087      1884      2315      2331
 -1      2555    3    0    1
 -2       805       269       371      1081
 -1      2556    3    0    1
 -2       269       805       801      1081
 -1      2557    3    0    1
 -2       261       806       271      1082
 -1      2558    3    0    1
 -2       806       261       796      1082
 -1      2559    3    0    1
 -2       790      1325       789       807
 -1      2560    3    0    1
 -2       268       266       797      1083
 -1      2561    3    0    1
 -2       797       266       804      1083
 -1      2562    3    0    1
 -2       821       274       824      1087
 -1      2563    3    0    1
 -2      1089      1332      1093       815
 -1      2564    3    0    1
 -2       274       281       824      1087
 -1      2565    3    0    1
 -2       274       828       290      1087
 -1      2566    3    0    1
 -2       828       274       821      1087
 -1      2567    3    0    1
 -2      1335      1088       820      1331
 -1      2568    3    0    1
 -2      1744      1700      1825      2149
 -1      2569    3    0    1
 -2      1088      1335      1090       816
 -1      2570    3    0    1
 -2       816      1093       815      1089
 -1      2571    3    0    1
 -2       816      1335      1090       826
 -1      2572    3    0    1
 -2       839      1793      1903      2114
 -1      2573    3    0    1
 -2      1094       403      2056      2269
 -1      2574    3    0    1
 -2       700      2013      2133      2137
 -1      2575    3    0    1
 -2      1652      1650      2227      2228
 -1      2576    3    0    1
 -2      2204      2318      2458      2851
 -1      2577    3    0    1
 -2      1533       336      1570      2224
 -1      2578    3    0    1
 -2       816      1090       815       826
 -1      2579    3    0    1
 -2      2148       682      2439      2450
 -1      2580    3    0    1
 -2       227      1908      2102      2389
 -1      2581    3    0    1
 -2       822       811       823      1092
 -1      2582    3    0    1
 -2      1928      1932      1971      2221
 -1      2583    3    0    1
 -2      1711      1564      1843      2178
 -1      2584    3    0    1
 -2      1927      2313      2631      1892
 -1      2585    3    0    1
 -2       226      1733      1956      2505
 -1      2586    3    0    1
 -2      2387      1933      2878      2879
 -1      2587    3    0    1
 -2       833      1338       834      1828
 -1      2588    3    0    1
 -2       811      1084      1086      1092
 -1      2589    3    0    1
 -2       811      1333      1084      1092
 -1      2590    3    0    1
 -2       316      1819      1988      2012
 -1      2591    3    0    1
 -2       462      1889      2040      2424
 -1      2592    3    0    1
 -2       263      1080      1675      1785
 -1      2593    3    0    1
 -2       813       831       832      1094
 -1      2594    3    0    1
 -2       387      1116      1141      2330
 -1      2595    3    0    1
 -2      1310       778       772      2190
 -1      2596    3    0    1
 -2       829       285       403      1094
 -1      2597    3    0    1
 -2       285       829       825      1094
 -1      2598    3    0    1
 -2      1764      1523      1771      2231
 -1      2599    3    0    1
 -2       288       830       289      1095
 -1      2600    3    0    1
 -2       830       288       820      1095
 -1      2601    3    0    1
 -2      1028       703      1776      2070
 -1      2602    3    0    1
 -2       373       372       821      1096
 -1      2603    3    0    1
 -2       821       372       828      1096
 -1      2604    3    0    1
 -2       814      1096       813       831
 -1      2605    3    0    1
 -2      1555      2349      2678      2790
 -1      2606    3    0    1
 -2       123      1237      2403      2603
 -1      2607    3    0    1
 -2      1701      1560      1982      2151
 -1      2608    3    0    1
 -2      1649      1723      1899      1955
 -1      2609    3    0    1
 -2      1056       222      1863      1893
 -1      2610    3    0    1
 -2       567       943       952      2554
 -1      2611    3    0    1
 -2      2386      1630      1552      1824
 -1      2612    3    0    1
 -2       867      1134       878      1754
 -1      2613    3    0    1
 -2      2233       118      2489      2569
 -1      2614    3    0    1
 -2      1592      1537      1698      1794
 -1      2615    3    0    1
 -2      1925      1689      2029      2182
 -1      2616    3    0    1
 -2      1640      1528      1674      1834
 -1      2617    3    0    1
 -2      1267       329      2440      2709
 -1      2618    3    0    1
 -2      1924      1659      2321      2494
 -1      2619    3    0    1
 -2      1730      1566      1861      1958
 -1      2620    3    0    1
 -2       976       119       979      2823
 -1      2621    3    0    1
 -2      2420       459      2666      2757
 -1      2622    3    0    1
 -2       789      1083       807      1325
 -1      2623    3    0    1
 -2        40       506        46      1179
 -1      2624    3    0    1
 -2       919       501       928      1183
 -1      2625    3    0    1
 -2       506       505       926      1179
 -1      2626    3    0    1
 -2      1090      1783      2014      2165
 -1      2627    3    0    1
 -2      1604      1596      1764      1939
 -1      2628    3    0    1
 -2      1145      1365      1682      2562
 -1      2629    3    0    1
 -2      1434      2642      2893      2914
 -1      2630    3    0    1
 -2      1692      1123      1693      1756
 -1      2631    3    0    1
 -2       223       363      1058      2008
 -1      2632    3    0    1
 -2      1083       283      1336      2316
 -1      2633    3    0    1
 -2      1639      1543      1715      2036
 -1      2634    3    0    1
 -2      1399       297       437      1684
 -1      2635    3    0    1
 -2        43       426      2496      2634
 -1      2636    3    0    1
 -2      1613      1728      2017      2019
 -1      2637    3    0    1
 -2       467       464      1156      1163
 -1      2638    3    0    1
 -2      2397      2437      2477      2490
 -1      2639    3    0    1
 -2       997       320      1791      2146
 -1      2640    3    0    1
 -2      1410       960      3081      3085
 -1      2641    3    0    1
 -2       811      1333      1092       822
 -1      2642    3    0    1
 -2      3039      2976      2676      2912
 -1      2643    3    0    1
 -2      1717      1747      2158      1966
 -1      2644    3    0    1
 -2      1567      1616      1619      2090
 -1      2645    3    0    1
 -2       291       311      1381      2044
 -1      2646    3    0    1
 -2      1602       320      2139      2160
 -1      2647    3    0    1
 -2      2976      3039      2676      3091
 -1      2648    3    0    1
 -2       413      1540      1720      2023
 -1      2649    3    0    1
 -2      1795      1893       409      1733
 -1      2650    3    0    1
 -2       584       558      2326      2514
 -1      2651    3    0    1
 -2       268       266      1083      1636
 -1      2652    3    0    1
 -2      1524      1567      2335      2462
 -1      2653    3    0    1
 -2       832       831      1907      2172
 -1      2654    3    0    1
 -2       791      1321      1080       795
 -1      2655    3    0    1
 -2      1664      2418      2508      2667
 -1      2656    3    0    1
 -2      1539      2227      2395      2426
 -1      2657    3    0    1
 -2      1269      1935      2298      2342
 -1      2658    3    0    1
 -2      1605      1586      2030      2065
 -1      2659    3    0    1
 -2      1819      1135      2091      2345
 -1      2660    3    0    1
 -2      1845      2013      2018      2251
 -1      2661    3    0    1
 -2      1436      1426      3065      2958
 -1      2662    3    0    1
 -2      1736      1637      1790      2073
 -1      2663    3    0    1
 -2      1094       825      1095      1327
 -1      2664    3    0    1
 -2      1258      1435      1436      2912
 -1      2665    3    0    1
 -2      1134       867      1125      1754
 -1      2666    3    0    1
 -2      1103      1584      1684      1777
 -1      2667    3    0    1
 -2      1585      1548      1781      1891
 -1      2668    3    0    1
 -2      1612      1547      1673      1709
 -1      2669    3    0    1
 -2      2148      1014      2357      2440
 -1      2670    3    0    1
 -2       764      1310       778       772
 -1      2671    3    0    1
 -2      1800      1820      1325      1706
 -1      2672    3    0    1
 -2       904      1176      2119      1413
 -1      2673    3    0    1
 -2      1043       334      1876      2422
 -1      2674    3    0    1
 -2       766      1311       775       774
 -1      2675    3    0    1
 -2       415      1604      1798      1844
 -1      2676    3    0    1
 -2       495       496       917      2825
 -1      2677    3    0    1
 -2       190      1026      1279      1845
 -1      2678    3    0    1
 -2      1667      1739      2294      2430
 -1      2679    3    0    1
 -2      1981      1679      2321      2391
 -1      2680    3    0    1
 -2      1657      1674      2447      2607
 -1      2681    3    0    1
 -2      1530      1735      1901      1990
 -1      2682    3    0    1
 -2      2781       924      3062      3072
 -1      2683    3    0    1
 -2      1659      1678      1867      1924
 -1      2684    3    0    1
 -2      1375       417       440      2385
 -1      2685    3    0    1
 -2        18       372      1333      2078
 -1      2686    3    0    1
 -2      1884       447      2315      2331
 -1      2687    3    0    1
 -2      1016      2207      2281      2518
 -1      2688    3    0    1
 -2      1615      1624      1884      2089
 -1      2689    3    0    1
 -2      1847       337      2399      2415
 -1      2690    3    0    1
 -2       759       760      1057      1745
 -1      2691    3    0    1
 -2       173      1444      1446      1452
 -1      2692    3    0    1
 -2      1131       299       312      1952
 -1      2693    3    0    1
 -2      1335      1746      2196      2408
 -1      2694    3    0    1
 -2      1983       369      2100      2527
 -1      2695    3    0    1
 -2       365        81      2356      2470
 -1      2696    3    0    1
 -2       724      1288      1816      1840
 -1      2697    3    0    1
 -2      1541       389      1686      2130
 -1      2698    3    0    1
 -2       556       566       954      1202
 -1      2699    3    0    1
 -2      1564      1589      1628      1726
 -1      2700    3    0    1
 -2      2412       943      2681      2742
 -1      2701    3    0    1
 -2      1825      1566      2019      2149
 -1      2702    3    0    1
 -2      1268       679       678      2423
 -1      2703    3    0    1
 -2       123      2403      2584      2603
 -1      2704    3    0    1
 -2      2051      1581      2084      2091
 -1      2705    3    0    1
 -2      2144      2245      2435      2608
 -1      2706    3    0    1
 -2       760       759      1058      1745
 -1      2707    3    0    1
 -2       283       266      1978      2316
 -1      2708    3    0    1
 -2      2213       603      2580      2677
 -1      2709    3    0    1
 -2      2063       802      2336      2398
 -1      2710    3    0    1
 -2       799      1538      1974      2248
 -1      2711    3    0    1
 -2       943       544       543      2374
 -1      2712    3    0    1
 -2       583       587       963      1214
 -1      2713    3    0    1
 -2       445       444      1137      1774
 -1      2714    3    0    1
 -2      1854      1694      2141      2241
 -1      2715    3    0    1
 -2       527      1198       939       534
 -1      2716    3    0    1
 -2        45      1185      2944      2966
 -1      2717    3    0    1
 -2      3043      1433      1462      3071
 -1      2718    3    0    1
 -2      2367      1711      2535      2578
 -1      2719    3    0    1
 -2      2300      1550      2475      2636
 -1      2720    3    0    1
 -2      3026      1426      1441      1442
 -1      2721    3    0    1
 -2      2769      2778      2786      2787
 -1      2722    3    0    1
 -2      1772      2010      2323      2468
 -1      2723    3    0    1
 -2      1666      1686      1891      1967
 -1      2724    3    0    1
 -2      1367      1146      1954      1971
 -1      2725    3    0    1
 -2      1267      1014      2236      2440
 -1      2726    3    0    1
 -2      1721      1619      1862      1909
 -1      2727    3    0    1
 -2      1599      1661      1804      1934
 -1      2728    3    0    1
 -2      1561       483      1727      2706
 -1      2729    3    0    1
 -2       740      1299      1054       750
 -1      2730    3    0    1
 -2      1563      1521      1805      1963
 -1      2731    3    0    1
 -2      1531       930      2502      2721
 -1      2732    3    0    1
 -2       870       882      1632      1779
 -1      2733    3    0    1
 -2       718      1288      1041       724
 -1      2734    3    0    1
 -2      1693      1756      1774      2187
 -1      2735    3    0    1
 -2       914       420      1889      2697
 -1      2736    3    0    1
 -2      1000       654      1257      1852
 -1      2737    3    0    1
 -2       716      1289      1040       726
 -1      2738    3    0    1
 -2      1426       999      2949      2958
 -1      2739    3    0    1
 -2       574      1226       579       586
 -1      2740    3    0    1
 -2      1147      1790      1937      1969
 -1      2741    3    0    1
 -2      1626      1867      1929      1962
 -1      2742    3    0    1
 -2       117       111       601      1227
 -1      2743    3    0    1
 -2       289       288      2088      2165
 -1      2744    3    0    1
 -2      1362       847       848      1690
 -1      2745    3    0    1
 -2       863      1408       896      2049
 -1      2746    3    0    1
 -2       304      1406      1115      1619
 -1      2747    3    0    1
 -2       784      1580      1820      1948
 -1      2748    3    0    1
 -2      1152      1860      1918      2385
 -1      2749    3    0    1
 -2      1028       355      1886      1940
 -1      2750    3    0    1
 -2      2146       997      2168      2460
 -1      2751    3    0    1
 -2       807      1071      1325      1820
 -1      2752    3    0    1
 -2      1248      2105      2655      2820
 -1      2753    3    0    1
 -2      2112      1032      2288      2528
 -1      2754    3    0    1
 -2      1571      1738      1755      2181
 -1      2755    3    0    1
 -2      1713      2230      2232      2410
 -1      2756    3    0    1
 -2      1323      1065      2203      2248
 -1      2757    3    0    1
 -2       126       978      1716      2584
 -1      2758    3    0    1
 -2      2069      2195      2353      2501
 -1      2759    3    0    1
 -2        66      2174      2688      2800
 -1      2760    3    0    1
 -2       974      1656      2788      2801
 -1      2761    3    0    1
 -2      1069      1057      1731      1956
 -1      2762    3    0    1
 -2      1123      1692      1693      1702
 -1      2763    3    0    1
 -2       410      1372      1149      2331
 -1      2764    3    0    1
 -2      1605       263      1715      1913
 -1      2765    3    0    1
 -2      2227      2395      2426      2669
 -1      2766    3    0    1
 -2       703      1028      1886      2070
 -1      2767    3    0    1
 -2      1853      1642      2163      2219
 -1      2768    3    0    1
 -2      1769      1766      2171      2180
 -1      2769    3    0    1
 -2       413       205      1288      2037
 -1      2770    3    0    1
 -2      2120       317      2170      2306
 -1      2771    3    0    1
 -2       291      1391      1878      2044
 -1      2772    3    0    1
 -2      1803      1865      2032      2617
 -1      2773    3    0    1
 -2      1987      1890      2371      2534
 -1      2774    3    0    1
 -2      1712      1150      1770      2289
 -1      2775    3    0    1
 -2       131       143       628      1243
 -1      2776    3    0    1
 -2      2202      1555      2370      2610
 -1      2777    3    0    1
 -2      1404      2087      2315      2331
 -1      2778    3    0    1
 -2      2963      2565      3081      3085
 -1      2779    3    0    1
 -2       414      1038      1291      1535
 -1      2780    3    0    1
 -2      2849      2614      2917      3069
 -1      2781    3    0    1
 -2      1812      1339      1828      2220
 -1      2782    3    0    1
 -2      2013      1025      2041      2047
 -1      2783    3    0    1
 -2      2193       971      2233      2569
 -1      2784    3    0    1
 -2       977      2050      2403      2684
 -1      2785    3    0    1
 -2       384       948      2561      2590
 -1      2786    3    0    1
 -2      1029       706      2133      2355
 -1      2787    3    0    1
 -2      2384      1376      2401      2669
 -1      2788    3    0    1
 -2      1652      1650      2228      2337
 -1      2789    3    0    1
 -2      2127        25      2177      2600
 -1      2790    3    0    1
 -2      2313      1927      2631      2630
 -1      2791    3    0    1
 -2      1715      1639      2036      2597
 -1      2792    3    0    1
 -2      2153      2142      2394      2507
 -1      2793    3    0    1
 -2       610       975      2066      2193
 -1      2794    3    0    1
 -2      1760      1572      1992      2192
 -1      2795    3    0    1
 -2      1540      1717      1966      2023
 -1      2796    3    0    1
 -2       387      2273      2330      2623
 -1      2797    3    0    1
 -2      1876      1043      2288      2344
 -1      2798    3    0    1
 -2       974       120      1224      1656
 -1      2799    3    0    1
 -2      1542      1725      1873      1919
 -1      2800    3    0    1
 -2      1911      1572      2214      2325
 -1      2801    3    0    1
 -2       667      1268       679       678
 -1      2802    3    0    1
 -2      1151       304      1374      1619
 -1      2803    3    0    1
 -2      1405      1830      2074      2469
 -1      2804    3    0    1
 -2      1685      1951      2359      2360
 -1      2805    3    0    1
 -2       822       463      1333      2078
 -1      2806    3    0    1
 -2      2222        79      2296      2532
 -1      2807    3    0    1
 -2       310       316      1819      1988
 -1      2808    3    0    1
 -2       416       195      1026      1845
 -1      2809    3    0    1
 -2      2955      1459      2989      3016
 -1      2810    3    0    1
 -2      1708      1689      1928      1998
 -1      2811    3    0    1
 -2      1724      1569      2017      2198
 -1      2812    3    0    1
 -2      1523      1594      1720      1771
 -1      2813    3    0    1
 -2      1920      1713      1972      2230
 -1      2814    3    0    1
 -2       560      2326      1211      2409
 -1      2815    3    0    1
 -2      1975      1064      2361      2602
 -1      2816    3    0    1
 -2      1703      1870      1982      2324
 -1      2817    3    0    1
 -2       871      1391      1381      2044
 -1      2818    3    0    1
 -2      1981      1924      2321      2494
 -1      2819    3    0    1
 -2       831      1094      2072      2269
 -1      2820    3    0    1
 -2       724       730      1038      2392
 -1      2821    3    0    1
 -2      2140      2120      2262      2291
 -1      2822    3    0    1
 -2      2884      3047      1479      3067
 -1      2823    3    0    1
 -2      1339       834      1812      1828
 -1      2824    3    0    1
 -2      1818      1333      2078      2129
 -1      2825    3    0    1
 -2       699       190      1026      1279
 -1      2826    3    0    1
 -2       337       102       965      2406
 -1      2827    3    0    1
 -2       263      1675      1715      1785
 -1      2828    3    0    1
 -2      1746      1748      2081      2524
 -1      2829    3    0    1
 -2       700      1025      2013      2047
 -1      2830    3    0    1
 -2       783      1731      1922      2466
 -1      2831    3    0    1
 -2      1550      1734      2475      2636
 -1      2832    3    0    1
 -2      2029      1586      2032      2123
 -1      2833    3    0    1
 -2        18        16      1163      2201
 -1      2834    3    0    1
 -2      1850      2688      2747      2800
 -1      2835    3    0    1
 -2      1711      1813      2367      2535
 -1      2836    3    0    1
 -2      1159      2124      2538      2552
 -1      2837    3    0    1
 -2       678      1012      1278      2070
 -1      2838    3    0    1
 -2      1569      1724      2017      2564
 -1      2839    3    0    1
 -2      1847      1237      1858      2403
 -1      2840    3    0    1
 -2      1709      1547      2254      2457
 -1      2841    3    0    1
 -2       380       937      2653      2703
 -1      2842    3    0    1
 -2      1526      1666      1967      2324
 -1      2843    3    0    1
 -2      1595       408      1622      1644
 -1      2844    3    0    1
 -2       675      1011      2236      2240
 -1      2845    3    0    1
 -2      2855      2872      2897      2909
 -1      2846    3    0    1
 -2      1082       808      2072      2368
 -1      2847    3    0    1
 -2      2333      2173      2746      2822
 -1      2848    3    0    1
 -2      2650      1200      2652      2795
 -1      2849    3    0    1
 -2      2218        80      2633      2699
 -1      2850    3    0    1
 -2      1534      1631      1695      2189
 -1      2851    3    0    1
 -2       197       352      2910      3049
 -1      2852    3    0    1
 -2       514      1190      2687      2798
 -1      2853    3    0    1
 -2        32        29      2441      2697
 -1      2854    3    0    1
 -2       342       343      1002      1714
 -1      2855    3    0    1
 -2      2645       424      2769      2778
 -1      2856    3    0    1
 -2      1635      1677      1707      1732
 -1      2857    3    0    1
 -2      1670      1645      1991      2185
 -1      2858    3    0    1
 -2       778      2190      2675      2768
 -1      2859    3    0    1
 -2      1555      1719      2202      2370
 -1      2860    3    0    1
 -2      1543      1639      1785      1992
 -1      2861    3    0    1
 -2      1338       833      1337      1828
 -1      2862    3    0    1
 -2      3036      1479      2948      3080
 -1      2863    3    0    1
 -2      1334      1437      1439      3090
 -1      2864    3    0    1
 -2       453      1155       907      1154
 -1      2865    3    0    1
 -2       476      1177       483       475
 -1      2866    3    0    1
 -2       453      1155       454       907
 -1      2867    3    0    1
 -2       460         3       470      1154
 -1      2868    3    0    1
 -2        10         3       460      1154
 -1      2869    3    0    1
 -2       454      1163      1156       453
 -1      2870    3    0    1
 -2      2017      1807      2156      2186
 -1      2871    3    0    1
 -2       456      1162       455       466
 -1      2872    3    0    1
 -2      1057       783      1069      1731
 -1      2873    3    0    1
 -2       902      1159       455      1157
 -1      2874    3    0    1
 -2       118      1796      1797      2233
 -1      2875    3    0    1
 -2       408      1622      1644      1844
 -1      2876    3    0    1
 -2      2438      2869      2923      3074
 -1      2877    3    0    1
 -2      2061      1410      2915      3085
 -1      2878    3    0    1
 -2      2886      2116      3037      3051
 -1      2879    3    0    1
 -2      3074      3045      3075      3096
 -1      2880    3    0    1
 -2      1447      2438      2923      3074
 -1      2881    3    0    1
 -2      1447      2438      3074      3090
 -1      2882    3    0    1
 -2        13       460       465      1162
 -1      2883    3    0    1
 -2       455       459       466      1162
 -1      2884    3    0    1
 -2       460       901      1158      1162
 -1      2885    3    0    1
 -2       460        13       903      1162
 -1      2886    3    0    1
 -2       455       903       459      1162
 -1      2887    3    0    1
 -2       903       455       901      1162
 -1      2888    3    0    1
 -2       455      1158       901      1162
 -1      2889    3    0    1
 -2       901       460       903      1162
 -1      2890    3    0    1
 -2       900       461       909      1163
 -1      2891    3    0    1
 -2      1156       461       900      1163
 -1      2892    3    0    1
 -2        16       467        18      1163
 -1      2893    3    0    1
 -2       467        16       464      1163
 -1      2894    3    0    1
 -2        19       484       489      1168
 -1      2895    3    0    1
 -2       453      1156       900      1163
 -1      2896    3    0    1
 -2       909       453       900      1163
 -1      2897    3    0    1
 -2      2061       960      1410      3085
 -1      2898    3    0    1
 -2      1685      1942      2360      2410
 -1      2899    3    0    1
 -2        19       493        21      1168
 -1      2900    3    0    1
 -2       493        19       489      1168
 -1      2901    3    0    1
 -2       478      1178       496       477
 -1      2902    3    0    1
 -2       488        23       491      1169
 -1      2903    3    0    1
 -2        31        23       488      1169
 -1      2904    3    0    1
 -2       478      1178       918       496
 -1      2905    3    0    1
 -2        22       494       484      1171
 -1      2906    3    0    1
 -2       916       477      1168      1171
 -1      2907    3    0    1
 -2       374      3075      3089      3096
 -1      2908    3    0    1
 -2       480      1175       479       486
 -1      2909    3    0    1
 -2      1119      2049      2384      2401
 -1      2910    3    0    1
 -2      1586      1536      1605      2030
 -1      2911    3    0    1
 -2       483       475       490      1174
 -1      2912    3    0    1
 -2       915       475      1167      1174
 -1      2913    3    0    1
 -2       490       475       915      1174
 -1      2914    3    0    1
 -2      3073      2024      2986      3088
 -1      2915    3    0    1
 -2       485       910      1173      1175
 -1      2916    3    0    1
 -2       910       485       914      1175
 -1      2917    3    0    1
 -2        80       948      1213      2218
 -1      2918    3    0    1
 -2       479       487       486      1175
 -1      2919    3    0    1
 -2       724      1288      1840      1899
 -1      2920    3    0    1
 -2       479       914       487      1175
 -1      2921    3    0    1
 -2       910       479      1173      1175
 -1      2922    3    0    1
 -2       914       479       910      1175
 -1      2923    3    0    1
 -2      1588        79      1629      2296
 -1      2924    3    0    1
 -2       476      1177       475      1165
 -1      2925    3    0    1
 -2      1136       307      1377      2180
 -1      2926    3    0    1
 -2      1988      1546      2012      2542
 -1      2927    3    0    1
 -2       560       949      2900      1212
 -1      2928    3    0    1
 -2       488       918        29       485
 -1      2929    3    0    1
 -2       918       488        29      1178
 -1      2930    3    0    1
 -2        32       491       420      1178
 -1      2931    3    0    1
 -2       491        32       488      1178
 -1      2932    3    0    1
 -2       478      1178       477      1169
 -1      2933    3    0    1
 -2       508       919       928      1183
 -1      2934    3    0    1
 -2       513       508       928      1183
 -1      2935    3    0    1
 -2        37       517        50      1183
 -1      2936    3    0    1
 -2       517        37       513      1183
 -1      2937    3    0    1
 -2        47       515       511      1184
 -1      2938    3    0    1
 -2      1102       388      1611      1665
 -1      2939    3    0    1
 -2       634       988      2284      2670
 -1      2940    3    0    1
 -2      1247       973      2358      2619
 -1      2941    3    0    1
 -2       505       926      1182      1187
 -1      2942    3    0    1
 -2       927       426      2634      2831
 -1      2943    3    0    1
 -2      2387      1933      2656      2868
 -1      2944    3    0    1
 -2       499      1182       926      1187
 -1      2945    3    0    1
 -2       507       499       926      1187
 -1      2946    3    0    1
 -2      1528      1944      1947      2299
 -1      2947    3    0    1
 -2       289      1090      1783      1896
 -1      2948    3    0    1
 -2       503       925       510      1188
 -1      2949    3    0    1
 -2      1186       509       921      1188
 -1      2950    3    0    1
 -2       921       509       925      1188
 -1      2951    3    0    1
 -2      1943      1902      2196      2524
 -1      2952    3    0    1
 -2       925       503       921      1188
 -1      2953    3    0    1
 -2       503      1186       921      1188
 -1      2954    3    0    1
 -2      1189      2642      1434      3072
 -1      2955    3    0    1
 -2      2568      2225      2626      2773
 -1      2956    3    0    1
 -2      1555      1719      2111      2628
 -1      2957    3    0    1
 -2       508       923      1180      1190
 -1      2958    3    0    1
 -2       513       508      1180      1190
 -1      2959    3    0    1
 -2        41       508       513      1190
 -1      2960    3    0    1
 -2      2131      1585      2166      2481
 -1      2961    3    0    1
 -2       844       843      1655      2000
 -1      2962    3    0    1
 -2      1357      1759      1834      1930
 -1      2963    3    0    1
 -2       507      1190       499       923
 -1      2964    3    0    1
 -2       508        41       923      1190
 -1      2965    3    0    1
 -2        61       529      1192      1194
 -1      2966    3    0    1
 -2      2934      1207      2968      2997
 -1      2967    3    0    1
 -2      2934       560       949       558
 -1      2968    3    0    1
 -2        78       546      2968      2997
 -1      2969    3    0    1
 -2        58       533       535      1197
 -1      2970    3    0    1
 -2       535       939      1195      1197
 -1      2971    3    0    1
 -2        58       535      1195      1197
 -1      2972    3    0    1
 -2       533        67       535      1198
 -1      2973    3    0    1
 -2       784      1580      1948      2103
 -1      2974    3    0    1
 -2       915       390      1775      2025
 -1      2975    3    0    1
 -2       535       939      1197      1198
 -1      2976    3    0    1
 -2       533       535      1197      1198
 -1      2977    3    0    1
 -2        67       369       535      1198
 -1      2978    3    0    1
 -2      2068      1851      2224      2411
 -1      2979    3    0    1
 -2      1814       411      1986      2021
 -1      2980    3    0    1
 -2       679      1013      2083      2661
 -1      2981    3    0    1
 -2       535       369       939      1198
 -1      2982    3    0    1
 -2       366       381       532      1200
 -1      2983    3    0    1
 -2       932      1200       524      1193
 -1      2984    3    0    1
 -2       532       381       937      1200
 -1      2985    3    0    1
 -2       943       535       931       533
 -1      2986    3    0    1
 -2       535       943       931      1201
 -1      2987    3    0    1
 -2       369       539       370      1201
 -1      2988    3    0    1
 -2       539       369       535      1201
 -1      2989    3    0    1
 -2       931      1201       528       934
 -1      2990    3    0    1
 -2      1071       246      1325      1706
 -1      2991    3    0    1
 -2       548      1205       948      1204
 -1      2992    3    0    1
 -2      1410      1474      3081      3021
 -1      2993    3    0    1
 -2       944       557       952      1209
 -1      2994    3    0    1
 -2       563        73        89      1209
 -1      2995    3    0    1
 -2        73       563       559      1209
 -1      2996    3    0    1
 -2       391      1735      1990      2138
 -1      2997    3    0    1
 -2      1917      1598      1923      2308
 -1      2998    3    0    1
 -2       205      1854      2037      2609
 -1      2999    3    0    1
 -2      1822      1721      1855      1862
 -1      3000    3    0    1
 -2       548      1206       951      1210
 -1      3001    3    0    1
 -2       555       548       951      1210
 -1      3002    3    0    1
 -2       553      1206       554      1210
 -1      3003    3    0    1
 -2      1206       553       951      1210
 -1      3004    3    0    1
 -2        75       553       554      1210
 -1      3005    3    0    1
 -2       557        85       950      1211
 -1      3006    3    0    1
 -2      1208       557       945      1211
 -1      3007    3    0    1
 -2       945       557       950      1211
 -1      3008    3    0    1
 -2      2063       802      2398      2575
 -1      3009    3    0    1
 -2       379      1384      1809      1927
 -1      3010    3    0    1
 -2       950       550       945      1211
 -1      3011    3    0    1
 -2       550      1208       945      1211
 -1      3012    3    0    1
 -2      1376       439      2384      2401
 -1      3013    3    0    1
 -2       556       948      1204      1213
 -1      3014    3    0    1
 -2       561       556      1204      1213
 -1      3015    3    0    1
 -2       555      1213       548       948
 -1      3016    3    0    1
 -2      1690      1627      1807      2563
 -1      3017    3    0    1
 -2        92       587       583      1214
 -1      3018    3    0    1
 -2      1334      1091      1439      3009
 -1      3019    3    0    1
 -2       573       582      2936      3010
 -1      3020    3    0    1
 -2      1615      1595      1653      1830
 -1      3021    3    0    1
 -2      1739      2258      2430      2863
 -1      3022    3    0    1
 -2       961       572      1215      1218
 -1      3023    3    0    1
 -2       573      1224       572       582
 -1      3024    3    0    1
 -2       381       937      1200      2650
 -1      3025    3    0    1
 -2       575      1226       579       574
 -1      3026    3    0    1
 -2      1226       575       959      1220
 -1      3027    3    0    1
 -2       575      1226       959       579
 -1      3028    3    0    1
 -2       575      1223       574       579
 -1      3029    3    0    1
 -2       962       574      1219      1222
 -1      3030    3    0    1
 -2       581       348       961      1224
 -1      3031    3    0    1
 -2       578       962      1222      1223
 -1      3032    3    0    1
 -2       962       574      1222      1223
 -1      3033    3    0    1
 -2       579       574       586      1223
 -1      3034    3    0    1
 -2       586       574       962      1223
 -1      3035    3    0    1
 -2       331      2337      1729       185
 -1      3036    3    0    1
 -2        86      1213      2572      2699
 -1      3037    3    0    1
 -2      1736      2027      2055      2073
 -1      3038    3    0    1
 -2       582       572       584      1224
 -1      3039    3    0    1
 -2       961       572      1218      1224
 -1      3040    3    0    1
 -2       584       572       961      1224
 -1      3041    3    0    1
 -2       867      1732      1754      1994
 -1      3042    3    0    1
 -2      1623      1645      2134      2185
 -1      3043    3    0    1
 -2      1162      2448      2666      2711
 -1      3044    3    0    1
 -2      1761      2181      2229      2491
 -1      3045    3    0    1
 -2       991       640      2432      2729
 -1      3046    3    0    1
 -2       575      1226       574      1220
 -1      3047    3    0    1
 -2      1553      1544      1740      1864
 -1      3048    3    0    1
 -2       605       607       976      1231
 -1      3049    3    0    1
 -2       112      1232      1231       605
 -1      3050    3    0    1
 -2      1232       976       605       979
 -1      3051    3    0    1
 -2       597      1232       598       979
 -1      3052    3    0    1
 -2       976      1232      1231       597
 -1      3053    3    0    1
 -2       976      1232       605      1231
 -1      3054    3    0    1
 -2       611       112       113      1231
 -1      3055    3    0    1
 -2       112       611       607      1231
 -1      3056    3    0    1
 -2      1704      1622      1725      2109
 -1      3057    3    0    1
 -2       122       119       605      1235
 -1      3058    3    0    1
 -2       605       119       974      1235
 -1      3059    3    0    1
 -2       288      1095      2088      2165
 -1      3060    3    0    1
 -2       599       974       606      1235
 -1      3061    3    0    1
 -2      1234       605       969      1235
 -1      3062    3    0    1
 -2       969       605       974      1235
 -1      3063    3    0    1
 -2      1649      1620      1898      1899
 -1      3064    3    0    1
 -2       974       599       969      1235
 -1      3065    3    0    1
 -2       599      1234       969      1235
 -1      3066    3    0    1
 -2      1710      1801      1802      2290
 -1      3067    3    0    1
 -2       604       972      1228      1237
 -1      3068    3    0    1
 -2       609       604      1228      1237
 -1      3069    3    0    1
 -2       351      1040      2200      2402
 -1      3070    3    0    1
 -2       603      1237       595       972
 -1      3071    3    0    1
 -2       129       625      1238      1240
 -1      3072    3    0    1
 -2       628       638       991      1243
 -1      3073    3    0    1
 -2       632       132       635      1241
 -1      3074    3    0    1
 -2       133       132       632      1241
 -1      3075    3    0    1
 -2       139       636       141      1242
 -1      3076    3    0    1
 -2       636       139       629      1242
 -1      3077    3    0    1
 -2       621       989      1241      1242
 -1      3078    3    0    1
 -2      1982      1541      2066      2079
 -1      3079    3    0    1
 -2       625       988      1240      1245
 -1      3080    3    0    1
 -2       626       625      1240      1245
 -1      3081    3    0    1
 -2       135       626       136      1245
 -1      3082    3    0    1
 -2       625       135       988      1245
 -1      3083    3    0    1
 -2       626       135       625      1245
 -1      3084    3    0    1
 -2       678       703      1886      2423
 -1      3085    3    0    1
 -2      1626      1553      1929      2028
 -1      3086    3    0    1
 -2       629       632      1244      1246
 -1      3087    3    0    1
 -2       629       137       632      1246
 -1      3088    3    0    1
 -2       912       483      2216      2549
 -1      3089    3    0    1
 -2       983      1246       624      1244
 -1      3090    3    0    1
 -2       632       137       987      1246
 -1      3091    3    0    1
 -2       243       245      1066      2106
 -1      3092    3    0    1
 -2       762      2955      2992      3016
 -1      3093    3    0    1
 -2      1617      1678      1867      2110
 -1      3094    3    0    1
 -2      1765      1597      1985      2215
 -1      3095    3    0    1
 -2       980      1248       619      1239
 -1      3096    3    0    1
 -2       628       315       985      1248
 -1      3097    3    0    1
 -2       662       150       160      1255
 -1      3098    3    0    1
 -2       653       656      1002      1253
 -1      3099    3    0    1
 -2       147      1254      1253       653
 -1      3100    3    0    1
 -2      1254      1002       653      1005
 -1      3101    3    0    1
 -2       645      1254       646      1005
 -1      3102    3    0    1
 -2      1002      1254      1253       645
 -1      3103    3    0    1
 -2      1002      1254       653      1253
 -1      3104    3    0    1
 -2       659       147       148      1253
 -1      3105    3    0    1
 -2       147       659       656      1253
 -1      3106    3    0    1
 -2      1804      1661      1896      2195
 -1      3107    3    0    1
 -2       954       568      2476      2624
 -1      3108    3    0    1
 -2       118       389       975      2233
 -1      3109    3    0    1
 -2       357       343       653      1257
 -1      3110    3    0    1
 -2       653       343      1000      1257
 -1      3111    3    0    1
 -2       843      1354      1102      2000
 -1      3112    3    0    1
 -2      1746       826      2196      2524
 -1      3113    3    0    1
 -2      1599      1835      1934      1996
 -1      3114    3    0    1
 -2       647      1000       654      1257
 -1      3115    3    0    1
 -2      1256       653       995      1257
 -1      3116    3    0    1
 -2       995       653      1000      1257
 -1      3117    3    0    1
 -2      1764      1647      1798      2341
 -1      3118    3    0    1
 -2      1000       647       995      1257
 -1      3119    3    0    1
 -2       647      1256       995      1257
 -1      3120    3    0    1
 -2       652       998      1250      1259
 -1      3121    3    0    1
 -2       657       652      1250      1259
 -1      3122    3    0    1
 -2      1302      1045      2102      2340
 -1      3123    3    0    1
 -2       651      1259       643       998
 -1      3124    3    0    1
 -2       668      1268      1013       679
 -1      3125    3    0    1
 -2      2864      2175      2871      3040
 -1      3126    3    0    1
 -2       324      1380      1138      1691
 -1      3127    3    0    1
 -2       163       684       176      1262
 -1      3128    3    0    1
 -2       684       163       677      1262
 -1      3129    3    0    1
 -2       686       167       178      1263
 -1      3130    3    0    1
 -2       167       686       676      1263
 -1      3131    3    0    1
 -2      1581      1695      1817      1838
 -1      3132    3    0    1
 -2       677       171      1013      1268
 -1      3133    3    0    1
 -2       672      1267       682       671
 -1      3134    3    0    1
 -2      1010      1267      1014       672
 -1      3135    3    0    1
 -2       672      1267      1014       682
 -1      3136    3    0    1
 -2      1491       374      3075      3089
 -1      3137    3    0    1
 -2      1011       671      1264      1266
 -1      3138    3    0    1
 -2       672      1270       671       682
 -1      3139    3    0    1
 -2        86      1827      2544      2572
 -1      3140    3    0    1
 -2      1391       871       879      2044
 -1      3141    3    0    1
 -2       971       975      2193      2233
 -1      3142    3    0    1
 -2      1625      1663      2012      2052
 -1      3143    3    0    1
 -2      2086      1299      2389      2525
 -1      3144    3    0    1
 -2      1353      1655      1781      1997
 -1      3145    3    0    1
 -2       672      1267       671      1265
 -1      3146    3    0    1
 -2      1010      1267       672      1265
 -1      3147    3    0    1
 -2       748       754      1301      1841
 -1      3148    3    0    1
 -2       668      1268       667      1260
 -1      3149    3    0    1
 -2      1007      1268       668      1260
 -1      3150    3    0    1
 -2      1797      1585      2131      2481
 -1      3151    3    0    1
 -2      1445      1421      1455      2990
 -1      3152    3    0    1
 -2       374       376      2988      3096
 -1      3153    3    0    1
 -2      1424      1420      1450      2961
 -1      3154    3    0    1
 -2       682       671       675      1270
 -1      3155    3    0    1
 -2      1011       671      1266      1270
 -1      3156    3    0    1
 -2       675       671      1011      1270
 -1      3157    3    0    1
 -2      2066      1890      2079      2419
 -1      3158    3    0    1
 -2       699      1026      1274      1276
 -1      3159    3    0    1
 -2       728       731      1042      1280
 -1      3160    3    0    1
 -2      1388      1127      2162      2520
 -1      3161    3    0    1
 -2       251       238      1070      1975
 -1      3162    3    0    1
 -2      1043       735       736      2210
 -1      3163    3    0    1
 -2      1019       701      1028      1277
 -1      3164    3    0    1
 -2       700       706      1279      2137
 -1      3165    3    0    1
 -2      1092       823      1979      2255
 -1      3166    3    0    1
 -2      2908      2897      1451      3074
 -1      3167    3    0    1
 -2      2892      2856      3045      3090
 -1      3168    3    0    1
 -2       738       214      2942      2943
 -1      3169    3    0    1
 -2      2614      2771      2851      2876
 -1      3170    3    0    1
 -2      3061      1428      1495      3080
 -1      3171    3    0    1
 -2      2942      2943      2951      2975
 -1      3172    3    0    1
 -2      1153         1      2918      2946
 -1      3173    3    0    1
 -2       699      1026      1276      1279
 -1      3174    3    0    1
 -2       705       699      1276      1279
 -1      3175    3    0    1
 -2        39       391      1579      1901
 -1      3176    3    0    1
 -2      1571      1888      1942      2360
 -1      3177    3    0    1
 -2       695       700       706      1279
 -1      3178    3    0    1
 -2       700       695      1026      1279
 -1      3179    3    0    1
 -2       719      1291      1286      1038
 -1      3180    3    0    1
 -2      1038       719      1284      1286
 -1      3181    3    0    1
 -2       729       723      1044      1287
 -1      3182    3    0    1
 -2       198       210       723      1287
 -1      3183    3    0    1
 -2       202       201       721      1285
 -1      3184    3    0    1
 -2       721      1041      1283      1285
 -1      3185    3    0    1
 -2       202       721      1283      1285
 -1      3186    3    0    1
 -2       210       198       723      1286
 -1      3187    3    0    1
 -2       723      1038      1284      1286
 -1      3188    3    0    1
 -2       210       723      1284      1286
 -1      3189    3    0    1
 -2       198       723       729      1287
 -1      3190    3    0    1
 -2       198       729      1034      1287
 -1      3191    3    0    1
 -2       734       210       211      1287
 -1      3192    3    0    1
 -2       210       734       723      1287
 -1      3193    3    0    1
 -2       721      1041      1285      1288
 -1      3194    3    0    1
 -2       722       721      1285      1288
 -1      3195    3    0    1
 -2       205       722       413      1288
 -1      3196    3    0    1
 -2       721       205      1041      1288
 -1      3197    3    0    1
 -2       722       205       721      1288
 -1      3198    3    0    1
 -2      2123      2029      2182      2264
 -1      3199    3    0    1
 -2       725       728      1281      1289
 -1      3200    3    0    1
 -2      1093       278      1748      2668
 -1      3201    3    0    1
 -2      1036      1289       716      1281
 -1      3202    3    0    1
 -2       728       351      1040      1289
 -1      3203    3    0    1
 -2       282       373      1096      2372
 -1      3204    3    0    1
 -2       729       723      1286      1291
 -1      3205    3    0    1
 -2       333       414       723      1291
 -1      3206    3    0    1
 -2       723       414      1038      1291
 -1      3207    3    0    1
 -2       216       755       752      1292
 -1      3208    3    0    1
 -2       756       221       749      1297
 -1      3209    3    0    1
 -2       216      1297       749       221
 -1      3210    3    0    1
 -2       218       758       747      1298
 -1      3211    3    0    1
 -2      1964       915      2025      2465
 -1      3212    3    0    1
 -2      1693      1702      1751      2243
 -1      3213    3    0    1
 -2       363       223       749      1299
 -1      3214    3    0    1
 -2       749       223      1054      1299
 -1      3215    3    0    1
 -2      1174        25      2025      2225
 -1      3216    3    0    1
 -2      1889       914      2697      2804
 -1      3217    3    0    1
 -2      2397      2437      2591      2750
 -1      3218    3    0    1
 -2      1048      1299       740      1293
 -1      3219    3    0    1
 -2      2015      2397      2537      2750
 -1      3220    3    0    1
 -2      1290      2024      1412      3088
 -1      3221    3    0    1
 -2      1412      2024      3028      3073
 -1      3222    3    0    1
 -2       344      1479      3070      3080
 -1      3223    3    0    1
 -2      2940      2977      2978      2984
 -1      3224    3    0    1
 -2       742       748       754      1301
 -1      3225    3    0    1
 -2      1296       747      1049      1301
 -1      3226    3    0    1
 -2       742      1052       748      1301
 -1      3227    3    0    1
 -2      1052       742      1049      1301
 -1      3228    3    0    1
 -2       742      1296      1049      1301
 -1      3229    3    0    1
 -2      1049       747      1052      1301
 -1      3230    3    0    1
 -2       223       755       227      1302
 -1      3231    3    0    1
 -2       755       223       752      1302
 -1      3232    3    0    1
 -2      1081       796      1082      1316
 -1      3233    3    0    1
 -2       765      1310      1067       778
 -1      3234    3    0    1
 -2       252       797      1073      1314
 -1      3235    3    0    1
 -2      2126      1564      2177      2178
 -1      3236    3    0    1
 -2      1064       764      1304      1307
 -1      3237    3    0    1
 -2       765      1313       764       778
 -1      3238    3    0    1
 -2       767      1311       775       766
 -1      3239    3    0    1
 -2      1061      1311      1066       767
 -1      3240    3    0    1
 -2       767      1311      1066       775
 -1      3241    3    0    1
 -2      2945      2947      2971      2990
 -1      3242    3    0    1
 -2      1712      1770      1855      2289
 -1      3243    3    0    1
 -2      1658      1617      1678      1679
 -1      3244    3    0    1
 -2      1795      1893      1646       409
 -1      3245    3    0    1
 -2      1028      1776      1886      2070
 -1      3246    3    0    1
 -2       288       285      1095      1610
 -1      3247    3    0    1
 -2       765      1310       764      1305
 -1      3248    3    0    1
 -2      1322       268      1718      2255
 -1      3249    3    0    1
 -2       767      1311       766      1308
 -1      3250    3    0    1
 -2      1061      1311       767      1308
 -1      3251    3    0    1
 -2      2195      1896      2353      2501
 -1      3252    3    0    1
 -2      1312      2857      1419      3077
 -1      3253    3    0    1
 -2      2203      2723      1417      3077
 -1      3254    3    0    1
 -2      2972      1247      3015      3017
 -1      3255    3    0    1
 -2       388      1611      1665      2468
 -1      3256    3    0    1
 -2      2087      1884      2263      2315
 -1      3257    3    0    1
 -2       318       319      2291      2774
 -1      3258    3    0    1
 -2       241      1799      1959      1973
 -1      3259    3    0    1
 -2       778       764       772      1313
 -1      3260    3    0    1
 -2      1064       764      1307      1313
 -1      3261    3    0    1
 -2       772       764      1064      1313
 -1      3262    3    0    1
 -2       789      1317       790      1081
 -1      3263    3    0    1
 -2       796       255       806      1316
 -1      3264    3    0    1
 -2       256       255       796      1316
 -1      3265    3    0    1
 -2      1445      1455      1505      2990
 -1      3266    3    0    1
 -2       790      1325      1318       789
 -1      3267    3    0    1
 -2      1998      1989      2030      2065
 -1      3268    3    0    1
 -2      1564      1813      1829      2493
 -1      3269    3    0    1
 -2      1623      2271      2287      2622
 -1      3270    3    0    1
 -2      1076      1321       791      1319
 -1      3271    3    0    1
 -2       222      1646      1863      1893
 -1      3272    3    0    1
 -2      1073      1322       787      1314
 -1      3273    3    0    1
 -2      3060      1486      3084      3086
 -1      3274    3    0    1
 -2      1469       428      1486      3086
 -1      3275    3    0    1
 -2       344      3070      1495      3080
 -1      3276    3    0    1
 -2      2250      1312      2857      1419
 -1      3277    3    0    1
 -2       376       374      1491      3089
 -1      3278    3    0    1
 -2      1451      1413      2974      3013
 -1      3279    3    0    1
 -2      1323      1078      2847      3086
 -1      3280    3    0    1
 -2      3031      3050      1469      3086
 -1      3281    3    0    1
 -2      1418      2203      3031      3086
 -1      3282    3    0    1
 -2      1698      2147      2270      2417
 -1      3283    3    0    1
 -2      1708      1928      1954      1971
 -1      3284    3    0    1
 -2       791       795       802      1324
 -1      3285    3    0    1
 -2      1320       796      1075      1324
 -1      3286    3    0    1
 -2       796       261      1077      1324
 -1      3287    3    0    1
 -2       791      1077       795      1324
 -1      3288    3    0    1
 -2      1077       791      1075      1324
 -1      3289    3    0    1
 -2       791      1320      1075      1324
 -1      3290    3    0    1
 -2      1075       796      1077      1324
 -1      3291    3    0    1
 -2       789      1318      1074      1325
 -1      3292    3    0    1
 -2      1083       789      1074      1325
 -1      3293    3    0    1
 -2       827       281       284      1329
 -1      3294    3    0    1
 -2       281       827       824      1329
 -1      3295    3    0    1
 -2      1089      1332       818      1093
 -1      3296    3    0    1
 -2       277       818      1089      1330
 -1      3297    3    0    1
 -2       279       275       820      1331
 -1      3298    3    0    1
 -2      1088      1335       820      1090
 -1      3299    3    0    1
 -2       279       820      1088      1331
 -1      3300    3    0    1
 -2       136       135      1245      2616
 -1      3301    3    0    1
 -2      2453       936      2540      2583
 -1      3302    3    0    1
 -2       817       818      1330      1332
 -1      3303    3    0    1
 -2       396       278       817      1332
 -1      3304    3    0    1
 -2      1089      1332       815      1330
 -1      3305    3    0    1
 -2       818       278      1093      1332
 -1      3306    3    0    1
 -2       817       278       818      1332
 -1      3307    3    0    1
 -2      1084       824      1092      1333
 -1      3308    3    0    1
 -2       821       282       824      1333
 -1      3309    3    0    1
 -2       802      1785      2336      2398
 -1      3310    3    0    1
 -2      1623      2287      1875      2622
 -1      3311    3    0    1
 -2       824       282      1092      1333
 -1      3312    3    0    1
 -2       285       288       820      1335
 -1      3313    3    0    1
 -2      1088      1335       816      1331
 -1      3314    3    0    1
 -2       820       288      1090      1335
 -1      3315    3    0    1
 -2       824      1096      1087      1336
 -1      3316    3    0    1
 -2      1096       824      1087       821
 -1      3317    3    0    1
 -2       282       827       283      1336
 -1      3318    3    0    1
 -2       827       282       824      1336
 -1      3319    3    0    1
 -2      1087      1336       814      1329
 -1      3320    3    0    1
 -2       440       417      1747      2385
 -1      3321    3    0    1
 -2      1530      1623      1735      2135
 -1      3322    3    0    1
 -2      2105       634      2655      2664
 -1      3323    3    0    1
 -2      1334       822       823      2157
 -1      3324    3    0    1
 -2      1722      2189      2506      2523
 -1      3325    3    0    1
 -2      1706       248      2106      2293
 -1      3326    3    0    1
 -2      1570      1533      2224      2411
 -1      3327    3    0    1
 -2       364      2412      2681      2751
 -1      3328    3    0    1
 -2      2018      2104      2112      2251
 -1      3329    3    0    1
 -2        12       397      1529      1659
 -1      3330    3    0    1
 -2      1560      1982      2151      2152
 -1      3331    3    0    1
 -2      1057      1733      1893      1953
 -1      3332    3    0    1
 -2      2173      2002      2333      2821
 -1      3333    3    0    1
 -2      1647       415      1798      1844
 -1      3334    3    0    1
 -2      2194      2054      2390      2421
 -1      3335    3    0    1
 -2      1773      1730      1958      2212
 -1      3336    3    0    1
 -2      1775      1805      2555      2576
 -1      3337    3    0    1
 -2      1698      2357      2450      2698
 -1      3338    3    0    1
 -2      1710      1802      1964      2595
 -1      3339    3    0    1
 -2       471       832      2034      2690
 -1      3340    3    0    1
 -2       839       840      1793      2114
 -1      3341    3    0    1
 -2      1523      1620      1720      1899
 -1      3342    3    0    1
 -2       191       355      1030      1848
 -1      3343    3    0    1
 -2       759       736      1826      1868
 -1      3344    3    0    1
 -2       857      1148      1371      2259
 -1      3345    3    0    1
 -2      1322      1079       798      1538
 -1      3346    3    0    1
 -2       917      2763      2777      2799
 -1      3347    3    0    1
 -2       832      2034      2172      2372
 -1      3348    3    0    1
 -2      1998      1536      2030      2221
 -1      3349    3    0    1
 -2      1672       754      1898      2143
 -1      3350    3    0    1
 -2      1177       912      2216      2689
 -1      3351    3    0    1
 -2      1788      1741      2253      2836
 -1      3352    3    0    1
 -2      1032      2104      2288      2344
 -1      3353    3    0    1
 -2      1851      1870      2199      2323
 -1      3354    3    0    1
 -2      1730      1544      1773      1833
 -1      3355    3    0    1
 -2       962      1941      2499      2588
 -1      3356    3    0    1
 -2       567       568       954      2038
 -1      3357    3    0    1
 -2      1071      1706      1820      2293
 -1      3358    3    0    1
 -2       937      2583      2653      2703
 -1      3359    3    0    1
 -2      1672      1898      2007      2143
 -1      3360    3    0    1
 -2      2151      1560      2152      2311
 -1      3361    3    0    1
 -2      1594      1567      1705      1524
 -1      3362    3    0    1
 -2      1033      1590      2400      2824
 -1      3363    3    0    1
 -2       751      1054      1289      1583
 -1      3364    3    0    1
 -2      2663        41      2780      2786
 -1      3365    3    0    1
 -2      1786      1985      2208      2620
 -1      3366    3    0    1
 -2      1706      1311      1974      2106
 -1      3367    3    0    1
 -2      1536      1586      1689      1998
 -1      3368    3    0    1
 -2      2236      2054      2581      2709
 -1      3369    3    0    1
 -2      1223      2046      2334      2534
 -1      3370    3    0    1
 -2      1602      1562      1869      2480
 -1      3371    3    0    1
 -2      1546      1988      2012      2237
 -1      3372    3    0    1
 -2       819       826      2026      2343
 -1      3373    3    0    1
 -2        43       423       930      1531
 -1      3374    3    0    1
 -2       868       881      2446      2507
 -1      3375    3    0    1
 -2      3091      1427      3017      3018
 -1      3376    3    0    1
 -2      1931      1838      2724      2759
 -1      3377    3    0    1
 -2      1684      1584      1737      1777
 -1      3378    3    0    1
 -2      1067      1811      1873      2283
 -1      3379    3    0    1
 -2      1359      1362      1689      1690
 -1      3380    3    0    1
 -2       122       345       979      2758
 -1      3381    3    0    1
 -2      1399      1103      1684      1777
 -1      3382    3    0    1
 -2      1870      1526      2151      2199
 -1      3383    3    0    1
 -2       285       403      1094      1610
 -1      3384    3    0    1
 -2      1394       870      1128      1779
 -1      3385    3    0    1
 -2      1226       579       586      1941
 -1      3386    3    0    1
 -2      1895      1926      2114      2369
 -1      3387    3    0    1
 -2       386       305      1356      1930
 -1      3388    3    0    1
 -2      1445      1455      3058      3076
 -1      3389    3    0    1
 -2      2260      2148      2262      2439
 -1      3390    3    0    1
 -2       439      1119      2384      2401
 -1      3391    3    0    1
 -2       610      1847      1858      2066
 -1      3392    3    0    1
 -2      2093       926      2812      2813
 -1      3393    3    0    1
 -2      1522      2047      2082      2279
 -1      3394    3    0    1
 -2      1594      1523      1720      1899
 -1      3395    3    0    1
 -2       248      1311      1706      2106
 -1      3396    3    0    1
 -2      1624      1615      1823      1830
 -1      3397    3    0    1
 -2       329      2194      2421      2709
 -1      3398    3    0    1
 -2      1095      1610      2088      2165
 -1      3399    3    0    1
 -2      2236       675      2581      2608
 -1      3400    3    0    1
 -2       761      2950      2955      2989
 -1      3401    3    0    1
 -2      1547      1612      1673      2478
 -1      3402    3    0    1
 -2       687      2396      2518      2775
 -1      3403    3    0    1
 -2       413      1288      1899      2058
 -1      3404    3    0    1
 -2      1697      1638      2167      2187
 -1      3405    3    0    1
 -2       608      1236      2452      2651
 -1      3406    3    0    1
 -2       334       333      2184      2422
 -1      3407    3    0    1
 -2      2872      2853      2913      3041
 -1      3408    3    0    1
 -2       137       347      2772      2829
 -1      3409    3    0    1
 -2       177      2045      2281      2433
 -1      3410    3    0    1
 -2       413       205      1540      2023
 -1      3411    3    0    1
 -2       560       938      1212      1839
 -1      3412    3    0    1
 -2      1025       185      2041      2279
 -1      3413    3    0    1
 -2       409       226      1052      1733
 -1      3414    3    0    1
 -2      1380       324       446      1691
 -1      3415    3    0    1
 -2      2003      1683      2161      2848
 -1      3416    3    0    1
 -2       610       975      2193      2302
 -1      3417    3    0    1
 -2      1945      1082      2072      2368
 -1      3418    3    0    1
 -2      1025       185      1029      1729
 -1      3419    3    0    1
 -2      2319      1977      2352      2707
 -1      3420    3    0    1
 -2      1541      1666      1686      1701
 -1      3421    3    0    1
 -2       436      1128      1612      1673
 -1      3422    3    0    1
 -2      1547      1562      1709      2478
 -1      3423    3    0    1
 -2      1581      1838      2051      2084
 -1      3424    3    0    1
 -2      1235       122      2801      2838
 -1      3425    3    0    1
 -2      2565      2895      3053      1474
 -1      3426    3    0    1
 -2      1052       748      1301      1841
 -1      3427    3    0    1
 -2      1406       304       442      1619
 -1      3428    3    0    1
 -2      1941       579      2499      2529
 -1      3429    3    0    1
 -2        17       907      2448      2711
 -1      3430    3    0    1
 -2      1342       835       836      1778
 -1      3431    3    0    1
 -2      1799       241      1811      1973
 -1      3432    3    0    1
 -2      2544        86      2699      2803
 -1      3433    3    0    1
 -2      1619      1616      1909      2090
 -1      3434    3    0    1
 -2      1571      1738      1888      2244
 -1      3435    3    0    1
 -2       248       243      2106      2293
 -1      3436    3    0    1
 -2      1761      1942      1959      1973
 -1      3437    3    0    1
 -2       303      1385      1113      1927
 -1      3438    3    0    1
 -2       860      1150      1373      1770
 -1      3439    3    0    1
 -2       333      1043      1044      2210
 -1      3440    3    0    1
 -2      1783       289      1896      2674
 -1      3441    3    0    1
 -2      1628      1645      1670      1726
 -1      3442    3    0    1
 -2       278      1748      1887      2455
 -1      3443    3    0    1
 -2       847       848      1690      2563
 -1      3444    3    0    1
 -2      1796      1614      2300      2489
 -1      3445    3    0    1
 -2      1790      2027      2073      2117
 -1      3446    3    0    1
 -2       190       416      1026      1845
 -1      3447    3    0    1
 -2      1979      1092      1980      2129
 -1      3448    3    0    1
 -2      2204      2249      2319      2352
 -1      3449    3    0    1
 -2      1553      1833      1864      1882
 -1      3450    3    0    1
 -2       417       440      1747      2297
 -1      3451    3    0    1
 -2      1635      2131      2166      2266
 -1      3452    3    0    1
 -2      1353       843      1352      1655
 -1      3453    3    0    1
 -2      1601      1539      1694      1750
 -1      3454    3    0    1
 -2      1603      1688      1824      2211
 -1      3455    3    0    1
 -2      1051       408      1622      1765
 -1      3456    3    0    1
 -2      1267      1014       682      2236
 -1      3457    3    0    1
 -2      1642      1681      2327      2531
 -1      3458    3    0    1
 -2      1805      1742      2555      2576
 -1      3459    3    0    1
 -2      1667      1554      1739      1792
 -1      3460    3    0    1
 -2      1333       372      1818      2078
 -1      3461    3    0    1
 -2       212       351      1042      2694
 -1      3462    3    0    1
 -2      1553      1584      1740      2011
 -1      3463    3    0    1
 -2      1544      1833      1864      2011
 -1      3464    3    0    1
 -2      1358      1355      2273      2330
 -1      3465    3    0    1
 -2      1627      1690      1807      2264
 -1      3466    3    0    1
 -2       527       534       526      3020
 -1      3467    3    0    1
 -2      1593      1526      1856      1891
 -1      3468    3    0    1
 -2      1821      1525      1865      1936
 -1      3469    3    0    1
 -2       462       487      1889      2424
 -1      3470    3    0    1
 -2      1870      1851      2199      2311
 -1      3471    3    0    1
 -2       268      1322      1978      2255
 -1      3472    3    0    1
 -2      1677      1707      1732      1994
 -1      3473    3    0    1
 -2       894      1150      1770      2033
 -1      3474    3    0    1
 -2      1568      1767      1822      1855
 -1      3475    3    0    1
 -2      1674      1609      2607      2640
 -1      3476    3    0    1
 -2       679       654      2298      2661
 -1      3477    3    0    1
 -2       855      1147      1369      1969
 -1      3478    3    0    1
 -2      1902      1600      1943      2354
 -1      3479    3    0    1
 -2       404      2381      2434      2601
 -1      3480    3    0    1
 -2      1596      1705      1909      2231
 -1      3481    3    0    1
 -2      1757      1762      2377      2404
 -1      3482    3    0    1
 -2       798      1538      2035      2255
 -1      3483    3    0    1
 -2      1815      2276      2427      2428
 -1      3484    3    0    1
 -2      1138      1380      1632      1691
 -1      3485    3    0    1
 -2      2176       964      2476      2485
 -1      3486    3    0    1
 -2      1584      1544      1684      1740
 -1      3487    3    0    1
 -2       560      1839      2326      2409
 -1      3488    3    0    1
 -2      1692      1763      2150      2500
 -1      3489    3    0    1
 -2      1905      2128      2259      2329
 -1      3490    3    0    1
 -2      1652      2337      2382      2395
 -1      3491    3    0    1
 -2       227       207      1289      1583
 -1      3492    3    0    1
 -2       908       377      2449      2809
 -1      3493    3    0    1
 -2       866      1136      1377      2243
 -1      3494    3    0    1
 -2      1657      1640      1674      1834
 -1      3495    3    0    1
 -2      1648      1641      1916      2047
 -1      3496    3    0    1
 -2      1705      1721      1909      2090
 -1      3497    3    0    1
 -2      1693      1123      1702      2243
 -1      3498    3    0    1
 -2         2       449      2918      2946
 -1      3499    3    0    1
 -2      1335      1090       826      2026
 -1      3500    3    0    1
 -2       264       265      1718      1800
 -1      3501    3    0    1
 -2       939       423      1188      2100
 -1      3502    3    0    1
 -2      1002       342      1714      2733
 -1      3503    3    0    1
 -2      1783      1896      2467      2501
 -1      3504    3    0    1
 -2      1646      1301      1814      1841
 -1      3505    3    0    1
 -2       288      1090      1335      2014
 -1      3506    3    0    1
 -2      1067      1310      1782      2190
 -1      3507    3    0    1
 -2      1247       986       631      1699
 -1      3508    3    0    1
 -2       331      1029      2144      2245
 -1      3509    3    0    1
 -2      1877       819      2026      2343
 -1      3510    3    0    1
 -2      1970       730      2039      2392
 -1      3511    3    0    1
 -2      2428       586      2588      2807
 -1      3512    3    0    1
 -2       759      1826      2340      2660
 -1      3513    3    0    1
 -2       849      1399       887      1777
 -1      3514    3    0    1
 -2      1772      1851      2224      2311
 -1      3515    3    0    1
 -2      1144      1364      2339      2659
 -1      3516    3    0    1
 -2      2406       977      2415      2684
 -1      3517    3    0    1
 -2       311       291      1849      2044
 -1      3518    3    0    1
 -2       318       998      2278      2291
 -1      3519    3    0    1
 -2      1949      1757      2500      2736
 -1      3520    3    0    1
 -2      1612      1128      1688      1779
 -1      3521    3    0    1
 -2       107       348      1656      2482
 -1      3522    3    0    1
 -2      1609      1960      2097      2299
 -1      3523    3    0    1
 -2       851       889      1145      1682
 -1      3524    3    0    1
 -2      1045       207      1302      2102
 -1      3525    3    0    1
 -2      2144      2054      2245      2608
 -1      3526    3    0    1
 -2      2069      2501      2674      2735
 -1      3527    3    0    1
 -2       826      1746      2026      2343
 -1      3528    3    0    1
 -2      3026      1426      1442      3065
 -1      3529    3    0    1
 -2       288       289      1783      2165
 -1      3530    3    0    1
 -2       655      2298      2310      2486
 -1      3531    3    0    1
 -2      1369      1147      1937      1969
 -1      3532    3    0    1
 -2      2616      1245      2664      2670
 -1      3533    3    0    1
 -2      1620      1649      1672      1723
 -1      3534    3    0    1
 -2      1607       396      2268      2277
 -1      3535    3    0    1
 -2      1064       238      1975      2361
 -1      3536    3    0    1
 -2      1860       896      2191      2385
 -1      3537    3    0    1
 -2      3044      3029      3064      3076
 -1      3538    3    0    1
 -2      1525      1865      1806      2557
 -1      3539    3    0    1
 -2      1875      1780      1879      2622
 -1      3540    3    0    1
 -2       923       507      2526      2822
 -1      3541    3    0    1
 -2      2397      2015      2437      2750
 -1      3542    3    0    1
 -2      1448      1460      1496      2974
 -1      3543    3    0    1
 -2      1223       579      2046      2499
 -1      3544    3    0    1
 -2      2222      2076      2596      2637
 -1      3545    3    0    1
 -2      1332      1877      1938      2495
 -1      3546    3    0    1
 -2       735       736      2210      2546
 -1      3547    3    0    1
 -2       222       409      1052      1646
 -1      3548    3    0    1
 -2       310       316      1988      2012
 -1      3549    3    0    1
 -2      2213      1621      2589      2677
 -1      3550    3    0    1
 -2       265      1325      1706      1800
 -1      3551    3    0    1
 -2      2068       336      2224      2371
 -1      3552    3    0    1
 -2      1731      1069      1956      2205
 -1      3553    3    0    1
 -2      1038       412      1955      1986
 -1      3554    3    0    1
 -2      2226       383      2463      2514
 -1      3555    3    0    1
 -2       712      1032      1590      2288
 -1      3556    3    0    1
 -2      1586      1536      1689      1925
 -1      3557    3    0    1
 -2      1637      1984      2232      2242
 -1      3558    3    0    1
 -2      2147      1537      2270      2417
 -1      3559    3    0    1
 -2       925      2351      2425      2496
 -1      3560    3    0    1
 -2      1550      1677      2725      2817
 -1      3561    3    0    1
 -2       351      1040      1289      2200
 -1      3562    3    0    1
 -2       423      1188      2100      2792
 -1      3563    3    0    1
 -2       851      1145      1365      1682
 -1      3564    3    0    1
 -2      1012       678      1935      2070
 -1      3565    3    0    1
 -2      1979      1333      2129      2157
 -1      3566    3    0    1
 -2      1741      1788      2253      2585
 -1      3567    3    0    1
 -2      1619      1616      1862      1909
 -1      3568    3    0    1
 -2      1661      1896      2195      2501
 -1      3569    3    0    1
 -2      1691      1630      2142      2153
 -1      3570    3    0    1
 -2       826      1746      2081      2524
 -1      3571    3    0    1
 -2      1355      1358      1657      1834
 -1      3572    3    0    1
 -2      1796      1797      2131      2481
 -1      3573    3    0    1
 -2      1392      1693      1756      1774
 -1      3574    3    0    1
 -2       634      2284      2664      2670
 -1      3575    3    0    1
 -2      1547      1537      1794      2270
 -1      3576    3    0    1
 -2       414       333      1044      2210
 -1      3577    3    0    1
 -2      2181      1905      2229      2491
 -1      3578    3    0    1
 -2      2025        25      2127      2225
 -1      3579    3    0    1
 -2      2532        75      2541      2686
 -1      3580    3    0    1
 -2      1339      1097      1828      2618
 -1      3581    3    0    1
 -2      1746      1335      2014      2408
 -1      3582    3    0    1
 -2      1647      1055      2057      2143
 -1      3583    3    0    1
 -2      2214       772      2602      2826
 -1      3584    3    0    1
 -2       783      1069      1731      2466
 -1      3585    3    0    1
 -2      1041       730      2039      2366
 -1      3586    3    0    1
 -2       483       490      2216      2465
 -1      3587    3    0    1
 -2       120       107      1224      1656
 -1      3588    3    0    1
 -2      1310      1067       778      2190
 -1      3589    3    0    1
 -2      1662      2169      2530      2797
 -1      3590    3    0    1
 -2      1620      1523      1898      1899
 -1      3591    3    0    1
 -2       412      1955      1986      2021
 -1      3592    3    0    1
 -2      1867      1527      2028      2110
 -1      3593    3    0    1
 -2      2383      2305      2454      2638
 -1      3594    3    0    1
 -2      1671      1549      1676      2160
 -1      3595    3    0    1
 -2      1267      2236      2581      2709
 -1      3596    3    0    1
 -2       259      1675      1806      2113
 -1      3597    3    0    1
 -2      1268      1013       679      2423
 -1      3598    3    0    1
 -2        85      1211      2226      2365
 -1      3599    3    0    1
 -2      1618      1530      2114      2252
 -1      3600    3    0    1
 -2      2041       185      2337      2382
 -1      3601    3    0    1
 -2       954      2476      2485      2624
 -1      3602    3    0    1
 -2      1301       411      1646      1814
 -1      3603    3    0    1
 -2      1596      1705      1721      1909
 -1      3604    3    0    1
 -2       879       871      1878      2044
 -1      3605    3    0    1
 -2      1733      1052      1795      2022
 -1      3606    3    0    1
 -2      1626      1553      1740      1864
 -1      3607    3    0    1
 -2      1658      1679      1812      2220
 -1      3608    3    0    1
 -2      1524      1151      1567      1616
 -1      3609    3    0    1
 -2       849      1143      1363      1737
 -1      3610    3    0    1
 -2      2240      1270      2262      2439
 -1      3611    3    0    1
 -2        18      1818      2078      2101
 -1      3612    3    0    1
 -2      1995      1691      2142      2394
 -1      3613    3    0    1
 -2      1628      1564      1726      2492
 -1      3614    3    0    1
 -2      1617      1679      2220      2391
 -1      3615    3    0    1
 -2      1560      1701      1982      2079
 -1      3616    3    0    1
 -2      1655      1593      1856      1967
 -1      3617    3    0    1
 -2       925       510      1188      2497
 -1      3618    3    0    1
 -2      1589      1628      1726      2271
 -1      3619    3    0    1
 -2      1237       610      1847      1858
 -1      3620    3    0    1
 -2      1643      1827      2544      2703
 -1      3621    3    0    1
 -2      1417      1418      3031      1468
 -1      3622    3    0    1
 -2      2284      2558      2594      2615
 -1      3623    3    0    1
 -2       409       222      1057      1893
 -1      3624    3    0    1
 -2       799      1323      1538      2248
 -1      3625    3    0    1
 -2      1860       896      2049      2191
 -1      3626    3    0    1
 -2      1829       299      1921      2493
 -1      3627    3    0    1
 -2      1159      1801      2124      2552
 -1      3628    3    0    1
 -2      1577      1780      2062      2267
 -1      3629    3    0    1
 -2      1534      1671      1957      2004
 -1      3630    3    0    1
 -2      1892      1385      1927      2313
 -1      3631    3    0    1
 -2        75       951      1210      2686
 -1      3632    3    0    1
 -2      1835      1929      1962      1996
 -1      3633    3    0    1
 -2      1663      1680      1743      2108
 -1      3634    3    0    1
 -2      1237      1858      2403      2603
 -1      3635    3    0    1
 -2      1302      1058       759      1745
 -1      3636    3    0    1
 -2      1533       336      2068      2737
 -1      3637    3    0    1
 -2      2413       592      2509      2543
 -1      3638    3    0    1
 -2      2332      2188      2644      2832
 -1      3639    3    0    1
 -2      1270      2120      2262      2439
 -1      3640    3    0    1
 -2      2858      2179      2877      3058
 -1      3641    3    0    1
 -2      1598      1981      2085      2308
 -1      3642    3    0    1
 -2       415      1647      1764      2341
 -1      3643    3    0    1
 -2      1884      1624      2087      2089
 -1      3644    3    0    1
 -2       404       241      1067      2154
 -1      3645    3    0    1
 -2      2145      1358      2273      2330
 -1      3646    3    0    1
 -2      1809      2136      2579      2833
 -1      3647    3    0    1
 -2      1793      1530      1903      2114
 -1      3648    3    0    1
 -2       306      1142       388      1665
 -1      3649    3    0    1
 -2      1735       391      2093      2138
 -1      3650    3    0    1
 -2       961       584      1224      2247
 -1      3651    3    0    1
 -2       320      1001       997      1791
 -1      3652    3    0    1
 -2       306      1102      1354      1665
 -1      3653    3    0    1
 -2       951      1210      2686      2789
 -1      3654    3    0    1
 -2      1857      1638      1995      2142
 -1      3655    3    0    1
 -2      1567      1966      2335      2462
 -1      3656    3    0    1
 -2      1785      1992      2192      2336
 -1      3657    3    0    1
 -2      1681      1810      2327      2531
 -1      3658    3    0    1
 -2      1987      2046      2334      2399
 -1      3659    3    0    1
 -2      1564      1589      1726      1843
 -1      3660    3    0    1
 -2      1719      1555      2111      2437
 -1      3661    3    0    1
 -2      2188      2332      2791      2832
 -1      3662    3    0    1
 -2      1523      1594      1771      2231
 -1      3663    3    0    1
 -2      2128      1905      2259      2315
 -1      3664    3    0    1
 -2      1612      1547      1709      2478
 -1      3665    3    0    1
 -2       371       269      1324      2063
 -1      3666    3    0    1
 -2      1554      1739      2257      2294
 -1      3667    3    0    1
 -2      2594      1621      2615      2767
 -1      3668    3    0    1
 -2        25       915      1174      2025
 -1      3669    3    0    1
 -2      1781      1655      1856      1891
 -1      3670    3    0    1
 -2      1211      2226      2365      2514
 -1      3671    3    0    1
 -2       416       195      1845      2112
 -1      3672    3    0    1
 -2       823      1979      2035      2157
 -1      3673    3    0    1
 -2      2300      1582      2489      2605
 -1      3674    3    0    1
 -2      1257      1000      1852      2516
 -1      3675    3    0    1
 -2      2164      1065      2248      2723
 -1      3676    3    0    1
 -2      2656      2868      2869      2889
 -1      3677    3    0    1
 -2       312       299      1921      1952
 -1      3678    3    0    1
 -2      1705      1524      1909      2231
 -1      3679    3    0    1
 -2      1640      1657      1759      1834
 -1      3680    3    0    1
 -2      1564      1843      2126      2177
 -1      3681    3    0    1
 -2      1593      1526      1891      1967
 -1      3682    3    0    1
 -2       878      1134      1707      1754
 -1      3683    3    0    1
 -2      2374       941      2498      2743
 -1      3684    3    0    1
 -2      1604      1764      1798      1939
 -1      3685    3    0    1
 -2       413      1540      2037      2058
 -1      3686    3    0    1
 -2      1614      1550      1871      2350
 -1      3687    3    0    1
 -2       125       126       978      1716
 -1      3688    3    0    1
 -2      1678      1617      1867      1924
 -1      3689    3    0    1
 -2      1575      1761      2229      2491
 -1      3690    3    0    1
 -2      1291       730      1970      2392
 -1      3691    3    0    1
 -2      1800      1820      1749      1325
 -1      3692    3    0    1
 -2       520       929      2673      2761
 -1      3693    3    0    1
 -2       136      2431      2464      2474
 -1      3694    3    0    1
 -2      2184       333      2210      2422
 -1      3695    3    0    1
 -2      1854      1900      2037      2314
 -1      3696    3    0    1
 -2       268       264      1322      1718
 -1      3697    3    0    1
 -2       784       783      2293      2720
 -1      3698    3    0    1
 -2       371      2416      2611      2796
 -1      3699    3    0    1
 -2       241      1067      1799      1811
 -1      3700    3    0    1
 -2      2351      1175      2425      2804
 -1      3701    3    0    1
 -2       259      1806      1808      2032
 -1      3702    3    0    1
 -2      2519      2554      2744      2803
 -1      3703    3    0    1
 -2      1914      1677      2162      2725
 -1      3704    3    0    1
 -2       259       263      1675      2113
 -1      3705    3    0    1
 -2       431      1397      2716      2814
 -1      3706    3    0    1
 -2      1849       291      1878      2044
 -1      3707    3    0    1
 -2       265      1706      1718      1800
 -1      3708    3    0    1
 -2      2381      1942      2410      2601
 -1      3709    3    0    1
 -2       407      1064      1313      2361
 -1      3710    3    0    1
 -2       446      1380      1691      2153
 -1      3711    3    0    1
 -2      2076      1606      2596      2637
 -1      3712    3    0    1
 -2      1725      1622      1765      2109
 -1      3713    3    0    1
 -2       248       243      1066      2106
 -1      3714    3    0    1
 -2       772      1310      2768      2826
 -1      3715    3    0    1
 -2      1763      1551      2150      2500
 -1      3716    3    0    1
 -2      2436      2060      2586      2853
 -1      3717    3    0    1
 -2       495      2441      2719      2834
 -1      3718    3    0    1
 -2       711       688      1018      2513
 -1      3719    3    0    1
 -2      2136      1654      2234      2579
 -1      3720    3    0    1
 -2      1575      1573      2263      2487
 -1      3721    3    0    1
 -2      1653      1574      1712      1830
 -1      3722    3    0    1
 -2      1609      2096      2607      2640
 -1      3723    3    0    1
 -2      1392       444       445      1774
 -1      3724    3    0    1
 -2      1345       837       838      2327
 -1      3725    3    0    1
 -2      1579      1901      1990      2748
 -1      3726    3    0    1
 -2       512       925      2425      2497
 -1      3727    3    0    1
 -2      1888      1685      1942      2360
 -1      3728    3    0    1
 -2      2041      2013      2047      2082
 -1      3729    3    0    1
 -2      2104      1876      2288      2344
 -1      3730    3    0    1
 -2      1842       241      1959      1973
 -1      3731    3    0    1
 -2       924      3062      1199      2380
 -1      3732    3    0    1
 -2      1614      1796      2350      2481
 -1      3733    3    0    1
 -2       205       413      1540      2037
 -1      3734    3    0    1
 -2      2095      2541      2685      2805
 -1      3735    3    0    1
 -2      1756      1697      1774      2187
 -1      3736    3    0    1
 -2      1542       778      2190      2675
 -1      3737    3    0    1
 -2      1678      1527      1867      2110
 -1      3738    3    0    1
 -2       226      1052      1733      2022
 -1      3739    3    0    1
 -2      1053      1312      2250      1419
 -1      3740    3    0    1
 -2       560       534       938      1839
 -1      3741    3    0    1
 -2      1043      1876      2104      2344
 -1      3742    3    0    1
 -2      1339       833       834      1828
 -1      3743    3    0    1
 -2       285      1094      1095      1610
 -1      3744    3    0    1
 -2       870       882      1138      1632
 -1      3745    3    0    1
 -2      1658      1812      1828      2220
 -1      3746    3    0    1
 -2      1386      1810       293      1112
 -1      3747    3    0    1
 -2      2029      1690      2182      2264
 -1      3748    3    0    1
 -2      1584      1684      1737      2317
 -1      3749    3    0    1
 -2      1352       308      1353      1781
 -1      3750    3    0    1
 -2      1698      2147      2417      2698
 -1      3751    3    0    1
 -2      1623      1875      1991      2138
 -1      3752    3    0    1
 -2      1730      1566      1958      2212
 -1      3753    3    0    1
 -2      1875      1879      2062      2138
 -1      3754    3    0    1
 -2       754      1672      1841      2143
 -1      3755    3    0    1
 -2      1083       808       807      1749
 -1      3756    3    0    1
 -2      1016      2170      2306      2639
 -1      3757    3    0    1
 -2      1881       536      2282      2380
 -1      3758    3    0    1
 -2      1649      1672      1897      1898
 -1      3759    3    0    1
 -2      1752      1989      2030      2031
 -1      3760    3    0    1
 -2      1366      1383      1670      2492
 -1      3761    3    0    1
 -2      1594       413      1899      2058
 -1      3762    3    0    1
 -2      1112      1386      1810      2285
 -1      3763    3    0    1
 -2       610       603       975      2302
 -1      3764    3    0    1
 -2      1586      1536      1925      2029
 -1      3765    3    0    1
 -2       989       992      2728      2729
 -1      3766    3    0    1
 -2      1602       320      1794      2256
 -1      3767    3    0    1
 -2      1117       861      2253      2265
 -1      3768    3    0    1
 -2      1398       305       386      1930
 -1      3769    3    0    1
 -2      1606       562      1827      2076
 -1      3770    3    0    1
 -2       808      1083      1636      1749
 -1      3771    3    0    1
 -2      1589      2159      2271      2287
 -1      3772    3    0    1
 -2      2232      1685      2359      2360
 -1      3773    3    0    1
 -2       663      1002      1005      2443
 -1      3774    3    0    1
 -2      1803      1586      2032      2113
 -1      3775    3    0    1
 -2       297       437      1684      2659
 -1      3776    3    0    1
 -2      1720      1540      1966      2023
 -1      3777    3    0    1
 -2       735      2077      2210      2429
 -1      3778    3    0    1
 -2      2347       907      2560      2690
 -1      3779    3    0    1
 -2       955       963      2476      2731
 -1      3780    3    0    1
 -2      1391       879      1878      2044
 -1      3781    3    0    1
 -2      2356        81      2412      2470
 -1      3782    3    0    1
 -2      1175       486      2425      2804
 -1      3783    3    0    1
 -2       875      1385      2313      2630
 -1      3784    3    0    1
 -2      1595       408      1644      1687
 -1      3785    3    0    1
 -2      2194      2390      2418      2421
 -1      3786    3    0    1
 -2      1083       808      1636      2072
 -1      3787    3    0    1
 -2      1562      1547      1709      2457
 -1      3788    3    0    1
 -2      2046      1847      2399      2419
 -1      3789    3    0    1
 -2      3041      2782      3056      1465
 -1      3790    3    0    1
 -2      2292      1633      2696      2698
 -1      3791    3    0    1
 -2       231      2921      3069      2979
 -1      3792    3    0    1
 -2      1806      1803      1865      2032
 -1      3793    3    0    1
 -2      1649      1672      1814      1897
 -1      3794    3    0    1
 -2      2140       651      2235      2460
 -1      3795    3    0    1
 -2      1429      1430      3062      1502
 -1      3796    3    0    1
 -2       896       863      2049      2191
 -1      3797    3    0    1
 -2       390      1775      2025      2127
 -1      3798    3    0    1
 -2      1649      1620      1672      1898
 -1      3799    3    0    1
 -2       988      1245      2616      2670
 -1      3800    3    0    1
 -2      1277      1028       702      1776
 -1      3801    3    0    1
 -2      1565      1544      2011      2212
 -1      3802    3    0    1
 -2      1807      2017      2156      2564
 -1      3803    3    0    1
 -2      1861      2268      2277      2483
 -1      3804    3    0    1
 -2      1301       411      1814      1897
 -1      3805    3    0    1
 -2       965      2050      2406      2543
 -1      3806    3    0    1
 -2       850      1400       888      1744
 -1      3807    3    0    1
 -2      1843      1726      1921      1952
 -1      3808    3    0    1
 -2      1711      1564      1829      1843
 -1      3809    3    0    1
 -2       369       370       939      2100
 -1      3810    3    0    1
 -2      1541      1666      1701      1982
 -1      3811    3    0    1
 -2       203      1458      1472      1485
 -1      3812    3    0    1
 -2      1949       331      2144      2304
 -1      3813    3    0    1
 -2      2761        54      2769      2778
 -1      3814    3    0    1
 -2      1526      1593      1611      2199
 -1      3815    3    0    1
 -2      1923      1598      2085      2308
 -1      3816    3    0    1
 -2      1921      1131      1952      2492
 -1      3817    3    0    1
 -2       627       634      2105      2664
 -1      3818    3    0    1
 -2       798      1322      1538      2255
 -1      3819    3    0    1
 -2      1538      1322      1718      2255
 -1      3820    3    0    1
 -2      1012       678      1269      1935
 -1      3821    3    0    1
 -2      1991      1623      2271      2287
 -1      3822    3    0    1
 -2      1479      1428      1495      3022
 -1      3823    3    0    1
 -2      1811      1799      1973      2107
 -1      3824    3    0    1
 -2      2031      1932      2055      2221
 -1      3825    3    0    1
 -2      1258      1968      2486      2912
 -1      3826    3    0    1
 -2      1972      1713      2434      2601
 -1      3827    3    0    1
 -2       531       538      2650      2717
 -1      3828    3    0    1
 -2       531       936      2453      2583
 -1      3829    3    0    1
 -2       972       126      1716      2362
 -1      3830    3    0    1
 -2      2059      1685      2067      2359
 -1      3831    3    0    1
 -2      1057      1731      1733      1953
 -1      3832    3    0    1
 -2      1847      2066      2399      2419
 -1      3833    3    0    1
 -2       123       338       977      2403
 -1      3834    3    0    1
 -2      1200       937       538      2650
 -1      3835    3    0    1
 -2       264       268      1636      1800
 -1      3836    3    0    1
 -2       463      2078      2098      2545
 -1      3837    3    0    1
 -2       331      1949      2377      2404
 -1      3838    3    0    1
 -2      2425       512      2497      2893
 -1      3839    3    0    1
 -2       342       327      2043      2733
 -1      3840    3    0    1
 -2      2104       195      2112      2251
 -1      3841    3    0    1
 -2      3045      1440      3075      3089
 -1      3842    3    0    1
 -2      1726      1564      1921      2492
 -1      3843    3    0    1
 -2       866       880      1136      2243
 -1      3844    3    0    1
 -2      1733      1753      1956      2505
 -1      3845    3    0    1
 -2      1568      1604      1644      1844
 -1      3846    3    0    1
 -2      1544      1730      1773      2212
 -1      3847    3    0    1
 -2      2843      2676      2912      3039
 -1      3848    3    0    1
 -2      1041      1816      2039      2392
 -1      3849    3    0    1
 -2      1826      1056      1863      2660
 -1      3850    3    0    1
 -2       297      1399      1103      1684
 -1      3851    3    0    1
 -2      2238       331      2337      2377
 -1      3852    3    0    1
 -2      1615      1653      1823      1830
 -1      3853    3    0    1
 -2       389      1541      2193      2233
 -1      3854    3    0    1
 -2      1775      2126      2127      2576
 -1      3855    3    0    1
 -2      1593      1655      1856      2000
 -1      3856    3    0    1
 -2      1613      1728      1887      1915
 -1      3857    3    0    1
 -2      1145       889      1634      1682
 -1      3858    3    0    1
 -2       408      1644      1687      1844
 -1      3859    3    0    1
 -2      1566      1700      1958      2212
 -1      3860    3    0    1
 -2       294      1349       295      1670
 -1      3861    3    0    1
 -2      1400       850      1104      1744
 -1      3862    3    0    1
 -2      1814       411      1863      1986
 -1      3863    3    0    1
 -2      1890      2068      2371      2534
 -1      3864    3    0    1
 -2      1551      1763      2376      2500
 -1      3865    3    0    1
 -2       426        53      2496      2831
 -1      3866    3    0    1
 -2      1083      1325      1636      1749
 -1      3867    3    0    1
 -2      1627       848      1690      2182
 -1      3868    3    0    1
 -2      1653      1712      1767      1855
 -1      3869    3    0    1
 -2       840       839      1793      1903
 -1      3870    3    0    1
 -2      1762      1576      1766      2320
 -1      3871    3    0    1
 -2      2674       400      2735      2793
 -1      3872    3    0    1
 -2       120       119      2567      2801
 -1      3873    3    0    1
 -2      1065      1323      2203      1417
 -1      3874    3    0    1
 -2      2213       603      2302      2580
 -1      3875    3    0    1
 -2      1322      1079      1538      1718
 -1      3876    3    0    1
 -2      1528      1640      1759      1834
 -1      3877    3    0    1
 -2       584       582      1224      2247
 -1      3878    3    0    1
 -2       318       157      1004      1696
 -1      3879    3    0    1
 -2       849       887      1143      1737
 -1      3880    3    0    1
 -2      1321       259      1806      1808
 -1      3881    3    0    1
 -2      1014      2148      2236      2440
 -1      3882    3    0    1
 -2      1666      1548      1686      1967
 -1      3883    3    0    1
 -2      1333      2078      2129      2157
 -1      3884    3    0    1
 -2       377      2449      2606      2632
 -1      3885    3    0    1
 -2      1604      1568      1767      1822
 -1      3886    3    0    1
 -2      1666      1703      1982      2324
 -1      3887    3    0    1
 -2      1960      2096      2097      2712
 -1      3888    3    0    1
 -2      1673      1612      1688      1779
 -1      3889    3    0    1
 -2      1679      1658      1812      1828
 -1      3890    3    0    1
 -2      1093      1746      1748      2081
 -1      3891    3    0    1
 -2      1604      1644      1687      1767
 -1      3892    3    0    1
 -2      1806      1808      1865      1936
 -1      3893    3    0    1
 -2      1811      1799      2125      2283
 -1      3894    3    0    1
 -2      1574      1604      1687      1767
 -1      3895    3    0    1
 -2      2268      1607      2277      2483
 -1      3896    3    0    1
 -2       291      1381      1391      2044
 -1      3897    3    0    1
 -2       687       688      1017      2207
 -1      3898    3    0    1
 -2      1411      1455      1456      3058
 -1      3899    3    0    1
 -2      1591      2488      2692      2766
 -1      3900    3    0    1
 -2      1393      1126      2394      2507
 -1      3901    3    0    1
 -2       930      1531      2502      2673
 -1      3902    3    0    1
 -2       928       917      2777      2799
 -1      3903    3    0    1
 -2       953       567       954      2038
 -1      3904    3    0    1
 -2      2454      2453      2540      2665
 -1      3905    3    0    1
 -2       915      1775      1964      2025
 -1      3906    3    0    1
 -2       191      1848      1886      1940
 -1      3907    3    0    1
 -2       313       293      1831      2531
 -1      3908    3    0    1
 -2      1654      1555      1885      2111
 -1      3909    3    0    1
 -2      1725      1597      1873      2109
 -1      3910    3    0    1
 -2        29       427       918      2351
 -1      3911    3    0    1
 -2      1660      1838      2051      2132
 -1      3912    3    0    1
 -2       390      2126      2127      2177
 -1      3913    3    0    1
 -2      1885      2111      2437      2672
 -1      3914    3    0    1
 -2      2161      2003      2848      2905
 -1      3915    3    0    1
 -2      1937      1790      1951      1969
 -1      3916    3    0    1
 -2      1114       441      1405      2469
 -1      3917    3    0    1
 -2       355      1030      1848      1940
 -1      3918    3    0    1
 -2      1773      1553      1833      2011
 -1      3919    3    0    1
 -2       285       403      1610      2056
 -1      3920    3    0    1
 -2      1150      1712      1770      2033
 -1      3921    3    0    1
 -2      1358       846      1657      1834
 -1      3922    3    0    1
 -2      1787      1578      2471      2558
 -1      3923    3    0    1
 -2      1569      1865      2557      2617
 -1      3924    3    0    1
 -2       243      1894      2106      2293
 -1      3925    3    0    1
 -2      2420      1162       459       903
 -1      3926    3    0    1
 -2      1288      1816      1840      2058
 -1      3927    3    0    1
 -2      1521      1801      1866      2124
 -1      3928    3    0    1
 -2      1944      1528      1947      2348
 -1      3929    3    0    1
 -2      2360      2232      2410      2601
 -1      3930    3    0    1
 -2       355       191      1886      1940
 -1      3931    3    0    1
 -2      1376       435       439      2401
 -1      3932    3    0    1
 -2      1539      1860      2049      2191
 -1      3933    3    0    1
 -2      1833      1553      1864      2011
 -1      3934    3    0    1
 -2      1790      1369      1937      2027
 -1      3935    3    0    1
 -2      1880      1598      1917      2308
 -1      3936    3    0    1
 -2      2296      1588      2539      2599
 -1      3937    3    0    1
 -2       831      2072      2172      2269
 -1      3938    3    0    1
 -2      1674      1640      2447      2607
 -1      3939    3    0    1
 -2       890      1932      1971      2407
 -1      3940    3    0    1
 -2      1928       853      1971      2407
 -1      3941    3    0    1
 -2      1042       351      2077      2694
 -1      3942    3    0    1
 -2      1069       783      1965      2466
 -1      3943    3    0    1
 -2      1011      2045      2236      2240
 -1      3944    3    0    1
 -2      2059      1637      2232      2359
 -1      3945    3    0    1
 -2       138       990       991      2732
 -1      3946    3    0    1
 -2      1335      1746      2014      2026
 -1      3947    3    0    1
 -2      1588      1559      1629      2020
 -1      3948    3    0    1
 -2      1377      1136      2180      2243
 -1      3949    3    0    1
 -2      1993      1860      2158      2393
 -1      3950    3    0    1
 -2       907      2445      2448      2560
 -1      3951    3    0    1
 -2      1524      1784      2246      2297
 -1      3952    3    0    1
 -2      1622      1725      1765      2215
 -1      3953    3    0    1
 -2      2156      1105      2186      2563
 -1      3954    3    0    1
 -2      1851      1772      2010      2323
 -1      3955    3    0    1
 -2      1907       832      2172      2372
 -1      3956    3    0    1
 -2      1984      1713      2232      2242
 -1      3957    3    0    1
 -2      1135       310       316      1819
 -1      3958    3    0    1
 -2       288       289      1090      1783
 -1      3959    3    0    1
 -2       278      1093      1748      2081
 -1      3960    3    0    1
 -2       703       678      1278      2070
 -1      3961    3    0    1
 -2       332       307      1136      2180
 -1      3962    3    0    1
 -2      1080       263      1639      1785
 -1      3963    3    0    1
 -2       490      2216      2465      2595
 -1      3964    3    0    1
 -2      1628      1645      1726      2271
 -1      3965    3    0    1
 -2      2627       664      2639      2775
 -1      3966    3    0    1
 -2      2146      1794      2168      2254
 -1      3967    3    0    1
 -2      2046      2334      2399      2529
 -1      3968    3    0    1
 -2      1810      1681      2217      2295
 -1      3969    3    0    1
 -2       798      1092      1322      2255
 -1      3970    3    0    1
 -2      1681      1588      2217      2295
 -1      3971    3    0    1
 -2      1710      1521      1801      1963
 -1      3972    3    0    1
 -2      1277      1028      1776      1940
 -1      3973    3    0    1
 -2      1536      1586      1605      2029
 -1      3974    3    0    1
 -2       405       300      1147      1790
 -1      3975    3    0    1
 -2      1584      1553      1740      2028
 -1      3976    3    0    1
 -2      1867      1929      1962      2118
 -1      3977    3    0    1
 -2       397      1529      1659      2118
 -1      3978    3    0    1
 -2      1147       300      1369      1790
 -1      3979    3    0    1
 -2      1592      1537      1794      2260
 -1      3980    3    0    1
 -2      2454      1606      2540      2637
 -1      3981    3    0    1
 -2      1766      1576      1769      2320
 -1      3982    3    0    1
 -2       884      1396      1769      2171
 -1      3983    3    0    1
 -2      1870      1703      1982      2151
 -1      3984    3    0    1
 -2      1001      2517      2550      2582
 -1      3985    3    0    1
 -2      1813       841      2075      2493
 -1      3986    3    0    1
 -2      1575      1905      2229      2263
 -1      3987    3    0    1
 -2       350      3042      1450      1473
 -1      3988    3    0    1
 -2      1797      1585      2130      2131
 -1      3989    3    0    1
 -2      1796      1797      2130      2131
 -1      3990    3    0    1
 -2      1058      1894      1922      2008
 -1      3991    3    0    1
 -2      1333      1092       822      1979
 -1      3992    3    0    1
 -2      1358      1355      1657      2145
 -1      3993    3    0    1
 -2       560      1211       550       950
 -1      3994    3    0    1
 -2      1572      1760      1911      2214
 -1      3995    3    0    1
 -2      1695      1631      1849      2523
 -1      3996    3    0    1
 -2       415      1604      1764      1798
 -1      3997    3    0    1
 -2      1799      1575      2107      2556
 -1      3998    3    0    1
 -2      1081      1580      2611      2695
 -1      3999    3    0    1
 -2      1000      2043      2310      2516
 -1      4000    3    0    1
 -2      2244      1951      2360      2682
 -1      4001    3    0    1
 -2       266      1083      1636      2316
 -1      4002    3    0    1
 -2       487       486      1175      2804
 -1      4003    3    0    1
 -2      1589      2159      2287      2622
 -1      4004    3    0    1
 -2      1759      1528      1834      1930
 -1      4005    3    0    1
 -2      1586      1803      2032      2123
 -1      4006    3    0    1
 -2      1278      2070      2080      2312
 -1      4007    3    0    1
 -2      2257      2436      2586      2872
 -1      4008    3    0    1
 -2      1683      1792      2175      2183
 -1      4009    3    0    1
 -2      1586      1605      2029      2032
 -1      4010    3    0    1
 -2      2390      2376      2418      2421
 -1      4011    3    0    1
 -2      1689      1359      1690      1925
 -1      4012    3    0    1
 -2      1524      1567      1784      2335
 -1      4013    3    0    1
 -2       754      1301      1672      1897
 -1      4014    3    0    1
 -2      1301      1814      1841      1897
 -1      4015    3    0    1
 -2      1814      1672      1841      1897
 -1      4016    3    0    1
 -2      1700       888      1744      2339
 -1      4017    3    0    1
 -2      2437      1555      2591      2750
 -1      4018    3    0    1
 -2      2663       393      2764      2780
 -1      4019    3    0    1
 -2      1530      1735      1990      2135
 -1      4020    3    0    1
 -2      1081      1580      2378      2611
 -1      4021    3    0    1
 -2       293       313      1099      2531
 -1      4022    3    0    1
 -2      1199      3062      1430      2380
 -1      4023    3    0    1
 -2      2078       822      2098      2157
 -1      4024    3    0    1
 -2      1551      1638      1763      2187
 -1      4025    3    0    1
 -2      1627      1807      2563      2564
 -1      4026    3    0    1
 -2       822      1883      2098      2157
 -1      4027    3    0    1
 -2      1333       822      2078      2157
 -1      4028    3    0    1
 -2      1807      1627      2264      2564
 -1      4029    3    0    1
 -2      2121      1569      2264      2564
 -1      4030    3    0    1
 -2       353      1028      1277      1940
 -1      4031    3    0    1
 -2      1731      1069      2205      2466
 -1      4032    3    0    1
 -2       226       409      1057      1893
 -1      4033    3    0    1
 -2       226      1057      1733      1893
 -1      4034    3    0    1
 -2      1745      1056      1863      1893
 -1      4035    3    0    1
 -2       409       226      1733      1893
 -1      4036    3    0    1
 -2      1904      1937      1951      1969
 -1      4037    3    0    1
 -2      1347       301      1348      2369
 -1      4038    3    0    1
 -2       285       288      1335      2014
 -1      4039    3    0    1
 -2       370       423       939      2100
 -1      4040    3    0    1
 -2      2866      2860      3033      1443
 -1      4041    3    0    1
 -2       398      1347      2114      2369
 -1      4042    3    0    1
 -2      1639      1543      2036      2597
 -1      4043    3    0    1
 -2      1711      1564      1813      1829
 -1      4044    3    0    1
 -2       760      1057      1745      1953
 -1      4045    3    0    1
 -2      1689      1708      1928      1954
 -1      4046    3    0    1
 -2      2120      2170      2262      2291
 -1      4047    3    0    1
 -2      1902      1600      2354      2524
 -1      4048    3    0    1
 -2       953       567      2038      2554
 -1      4049    3    0    1
 -2      1975      1760      2416      2695
 -1      4050    3    0    1
 -2       583        94      1215        92
 -1      4051    3    0    1
 -2      1390       867       878      1994
 -1      4052    3    0    1
 -2       823       822      1092      1979
 -1      4053    3    0    1
 -2       867      1124      1732      1994
 -1      4054    3    0    1
 -2       736      1044      2210      2546
 -1      4055    3    0    1
 -2      1632      1824      2211      2386
 -1      4056    3    0    1
 -2      1732      1707      1754      1994
 -1      4057    3    0    1
 -2      1545      1906      2095      2096
 -1      4058    3    0    1
 -2      1721      1619      1770      1862
 -1      4059    3    0    1
 -2       320      2146      2168      2256
 -1      4060    3    0    1
 -2      1546      1660      2132      2272
 -1      4061    3    0    1
 -2      1655      1856      1891      1967
 -1      4062    3    0    1
 -2       283       282      1336      1980
 -1      4063    3    0    1
 -2      2076      1608      2540      2637
 -1      4064    3    0    1
 -2      1690      1627      2182      2264
 -1      4065    3    0    1
 -2       207      1289      1583      2102
 -1      4066    3    0    1
 -2      1042      2077      2429      2802
 -1      4067    3    0    1
 -2      1616      1524      1909      2090
 -1      4068    3    0    1
 -2      1523      1764      2007      2341
 -1      4069    3    0    1
 -2       406      1403      2329      2379
 -1      4070    3    0    1
 -2      1679      1812      2220      2391
 -1      4071    3    0    1
 -2        35        34      2689      2825
 -1      4072    3    0    1
 -2       397      1659      1962      2118
 -1      4073    3    0    1
 -2      1654      1132      2136      2234
 -1      4074    3    0    1
 -2      1807      1569      2017      2564
 -1      4075    3    0    1
 -2      1092      1978      1979      1980
 -1      4076    3    0    1
 -2       330      2435      2045      2515
 -1      4077    3    0    1
 -2       383       104      2463      2514
 -1      4078    3    0    1
 -2       227       223      1302      1908
 -1      4079    3    0    1
 -2      1521      1563      1742      1923
 -1      4080    3    0    1
 -2      1898      2007      2143      2341
 -1      4081    3    0    1
 -2      1837      1176      2119      2424
 -1      4082    3    0    1
 -2       396       278      1607      2268
 -1      4083    3    0    1
 -2      1845      1026      2013      2251
 -1      4084    3    0    1
 -2       908      2449      2704      2809
 -1      4085    3    0    1
 -2      2305       936      2453      2717
 -1      4086    3    0    1
 -2       823       798      1078      2035
 -1      4087    3    0    1
 -2      1663      1988      2012      2052
 -1      4088    3    0    1
 -2      2158      1860      2241      2385
 -1      4089    3    0    1
 -2      2167      1551      2376      2418
 -1      4090    3    0    1
 -2       289       288      1095      2088
 -1      4091    3    0    1
 -2      2291      2306      2627      2774
 -1      4092    3    0    1
 -2      1563      1923      2085      2308
 -1      4093    3    0    1
 -2       774       799      1974      2248
 -1      4094    3    0    1
 -2       245       243      1068      1894
 -1      4095    3    0    1
 -2      2435       330      2045      2760
 -1      4096    3    0    1
 -2       102       385       964      2176
 -1      4097    3    0    1
 -2      1943      1077      2414      2575
 -1      4098    3    0    1
 -2       372       373      1333      1818
 -1      4099    3    0    1
 -2       990       639       640      2728
 -1      4100    3    0    1
 -2      2438      2892      3045      3090
 -1      4101    3    0    1
 -2      2027      1932      2073      2117
 -1      4102    3    0    1
 -2      1560      1890      1987      2079
 -1      4103    3    0    1
 -2      3062       924      1199      1429
 -1      4104    3    0    1
 -2      1984      1752      1989      2036
 -1      4105    3    0    1
 -2      1550      1587      1871      2350
 -1      4106    3    0    1
 -2      2018      2013      2047      2251
 -1      4107    3    0    1
 -2      1661      1804      1896      1938
 -1      4108    3    0    1
 -2       187      2945      2947      2952
 -1      4109    3    0    1
 -2      1039      1300      2328      3032
 -1      4110    3    0    1
 -2      1660      1581      1838      1931
 -1      4111    3    0    1
 -2       212       193      2402      2694
 -1      4112    3    0    1
 -2      1867      1626      1929      2028
 -1      4113    3    0    1
 -2       371      1081      2611      2695
 -1      4114    3    0    1
 -2      2139      2160      2256      2309
 -1      4115    3    0    1
 -2      1581      1534      1838      1931
 -1      4116    3    0    1
 -2       846      1357      1759      1834
 -1      4117    3    0    1
 -2       845      1357       846      1834
 -1      4118    3    0    1
 -2      1358       845       846      1834
 -1      4119    3    0    1
 -2       845      1358      1355      1834
 -1      4120    3    0    1
 -2      1585      1548      1635      1997
 -1      4121    3    0    1
 -2      1655      1548      1781      1997
 -1      4122    3    0    1
 -2       174      1011      1270      2240
 -1      4123    3    0    1
 -2      1057      1056      1745      1893
 -1      4124    3    0    1
 -2      1618      1895      2114      2369
 -1      4125    3    0    1
 -2       317      1016      2170      2306
 -1      4126    3    0    1
 -2      2384      2049      2426      2574
 -1      4127    3    0    1
 -2       135       988      2616      2670
 -1      4128    3    0    1
 -2       293      1810      1831      2531
 -1      4129    3    0    1
 -2       466       906      1804      1836
 -1      4130    3    0    1
 -2      1721      1619      1909      2090
 -1      4131    3    0    1
 -2      1633      2147      2270      2698
 -1      4132    3    0    1
 -2      1626      1599      1835      1882
 -1      4133    3    0    1
 -2      1700      1565      2212      2303
 -1      4134    3    0    1
 -2       336      1533      2499      2737
 -1      4135    3    0    1
 -2      1741      1559      2169      2530
 -1      4136    3    0    1
 -2      1615      1624      1823      1884
 -1      4137    3    0    1
 -2       191       356      1268      1886
 -1      4138    3    0    1
 -2      2384      2401      2574      2669
 -1      4139    3    0    1
 -2       703      1028      1268      1886
 -1      4140    3    0    1
 -2      2024      1290      2239      2275
 -1      4141    3    0    1
 -2      1028       191      1268      1886
 -1      4142    3    0    1
 -2       320      1791      2256      2309
 -1      4143    3    0    1
 -2      1522      1694      1854      1900
 -1      4144    3    0    1
 -2       415       408      1687      1844
 -1      4145    3    0    1
 -2      1288       413      2037      2058
 -1      4146    3    0    1
 -2       311       291      1340      1849
 -1      4147    3    0    1
 -2      1748      1821      1887      2455
 -1      4148    3    0    1
 -2       678       703      1268      1886
 -1      4149    3    0    1
 -2      2214      1911      2325      2826
 -1      4150    3    0    1
 -2       759      1056      1868      2660
 -1      4151    3    0    1
 -2      1038      1535      2307      2392
 -1      4152    3    0    1
 -2      1833      1599      1864      1882
 -1      4153    3    0    1
 -2      1694       205      1854      1900
 -1      4154    3    0    1
 -2      1671      1676      1957      2309
 -1      4155    3    0    1
 -2      1604      1568      1798      1844
 -1      4156    3    0    1
 -2      1627      2121      2264      2564
 -1      4157    3    0    1
 -2      1137       881      1697      2446
 -1      4158    3    0    1
 -2      1458      1472      1485      2991
 -1      4159    3    0    1
 -2      2213      1621      2615      2643
 -1      4160    3    0    1
 -2      1667      1739      2430      2864
 -1      4161    3    0    1
 -2      1902      1943      2196      2408
 -1      4162    3    0    1
 -2      1402       300       405      2117
 -1      4163    3    0    1
 -2      2464      1591      2570      2692
 -1      4164    3    0    1
 -2      1651      2285      2313      2631
 -1      4165    3    0    1
 -2      2245      2144      2435      2657
 -1      4166    3    0    1
 -2       416      1032      2112      2528
 -1      4167    3    0    1
 -2      1931      1789      2064      2759
 -1      4168    3    0    1
 -2      2305      2383      2454      2540
 -1      4169    3    0    1
 -2      1988      1379      2012      2052
 -1      4170    3    0    1
 -2      2160       320      2256      2309
 -1      4171    3    0    1
 -2       222      1056      1057      1893
 -1      4172    3    0    1
 -2       355       191      1028      1886
 -1      4173    3    0    1
 -2      1937      1904      1951      2067
 -1      4174    3    0    1
 -2      1475        65      1503      1504
 -1      4175    3    0    1
 -2      1553      1773      1833      1882
 -1      4176    3    0    1
 -2       855       891      1147      1969
 -1      4177    3    0    1
 -2      1960      1609      2096      2607
 -1      4178    3    0    1
 -2      1905      2229      2263      2315
 -1      4179    3    0    1
 -2      1819      1546      2084      2542
 -1      4180    3    0    1
 -2      2435      2045      2608      2760
 -1      4181    3    0    1
 -2      1662      2095      2444      2685
 -1      4182    3    0    1
 -2      1537      1794      2146      2254
 -1      4183    3    0    1
 -2      1621      2213      2615      2767
 -1      4184    3    0    1
 -2       438       399      1104      2149
 -1      4185    3    0    1
 -2      1548      1585      1686      1891
 -1      4186    3    0    1
 -2      2247       584      2326      2514
 -1      4187    3    0    1
 -2      1018       356      1030      1848
 -1      4188    3    0    1
 -2       356       191      1030      1848
 -1      4189    3    0    1
 -2       323      2357      2696      2698
 -1      4190    3    0    1
 -2      1369      1147      1790      1937
 -1      4191    3    0    1
 -2       382       384      2218      2511
 -1      4192    3    0    1
 -2       819      1332      1877      1938
 -1      4193    3    0    1
 -2       299      1350       312      2493
 -1      4194    3    0    1
 -2      1716      2362      2589      2677
 -1      4195    3    0    1
 -2       353       355      1028      1940
 -1      4196    3    0    1
 -2      1901       391      1990      2138
 -1      4197    3    0    1
 -2      1674      1640      1960      2299
 -1      4198    3    0    1
 -2      1845       416      2112      2528
 -1      4199    3    0    1
 -2      1661      1599      1804      1938
 -1      4200    3    0    1
 -2       663      1003      2432      2443
 -1      4201    3    0    1
 -2      1851      2068      2224      2311
 -1      4202    3    0    1
 -2       330      1011      2045      2760
 -1      4203    3    0    1
 -2      1848      1018      2001      2658
 -1      4204    3    0    1
 -2      2199      1772      2323      2468
 -1      4205    3    0    1
 -2       603      1237       972      1858
 -1      4206    3    0    1
 -2      1699       630      2310      2486
 -1      4207    3    0    1
 -2       584       558      2155      2326
 -1      4208    3    0    1
 -2      2554       953      2744      2803
 -1      4209    3    0    1
 -2      1949       331      2304      2404
 -1      4210    3    0    1
 -2       748      1051      1055      2521
 -1      4211    3    0    1
 -2      1735      1901      1990      2138
 -1      4212    3    0    1
 -2      1692      1693      1762      2736
 -1      4213    3    0    1
 -2      1985      1597      2125      2215
 -1      4214    3    0    1
 -2      1177       912       483      2216
 -1      4215    3    0    1
 -2      1762      1757      2238      2404
 -1      4216    3    0    1
 -2       841      1813      2075      2535
 -1      4217    3    0    1
 -2       299      1131      1106      1952
 -1      4218    3    0    1
 -2      1761      1571      1888      1942
 -1      4219    3    0    1
 -2      1631      1695      2189      2523
 -1      4220    3    0    1
 -2      1579       391      1735      1990
 -1      4221    3    0    1
 -2       146       125      2589      2677
 -1      4222    3    0    1
 -2      1809      1892      1927      2577
 -1      4223    3    0    1
 -2       865      1396       884      2171
 -1      4224    3    0    1
 -2      1790       300      2027      2117
 -1      4225    3    0    1
 -2      1642      1681      2163      2219
 -1      4226    3    0    1
 -2       227       223      1908      2389
 -1      4227    3    0    1
 -2      1794      2168      2254      2256
 -1      4228    3    0    1
 -2       837      1344       838      2219
 -1      4229    3    0    1
 -2       412      1038      1535      1986
 -1      4230    3    0    1
 -2      1641      1648      2018      2047
 -1      4231    3    0    1
 -2      1535      1038      1955      1986
 -1      4232    3    0    1
 -2      1843      1589      2126      2177
 -1      4233    3    0    1
 -2       948       555      2561      2590
 -1      4234    3    0    1
 -2       584      2247      2326      2364
 -1      4235    3    0    1
 -2        13       907       908      2445
 -1      4236    3    0    1
 -2      1345      1099      2327      2531
 -1      4237    3    0    1
 -2      1148      1371      2259      2329
 -1      4238    3    0    1
 -2      1014       682      2148      2450
 -1      4239    3    0    1
 -2      1541       389      2130      2233
 -1      4240    3    0    1
 -2      2121      1569      2557      2617
 -1      4241    3    0    1
 -2      1710      1802      1963      1964
 -1      4242    3    0    1
 -2      2396      1015      2718      2775
 -1      4243    3    0    1
 -2       726       751      1583      2512
 -1      4244    3    0    1
 -2        32        29      1178      2441
 -1      4245    3    0    1
 -2       278      1607      2483      2668
 -1      4246    3    0    1
 -2      1592      2260      2439      2450
 -1      4247    3    0    1
 -2      1525      1821      1865      2557
 -1      4248    3    0    1
 -2       783       784      1965      2466
 -1      4249    3    0    1
 -2      1043       736      1044      2210
 -1      4250    3    0    1
 -2      1527      1659      1678      1867
 -1      4251    3    0    1
 -2      1521      1710      1802      1963
 -1      4252    3    0    1
 -2       872      1395       883      1869
 -1      4253    3    0    1
 -2       778      1313      1542      1873
 -1      4254    3    0    1
 -2       872      1869      1872      2480
 -1      4255    3    0    1
 -2      1395       872      1130      1869
 -1      4256    3    0    1
 -2       863      1119      2049      2191
 -1      4257    3    0    1
 -2      1796      2131      2350      2481
 -1      4258    3    0    1
 -2       883       872      1869      1872
 -1      4259    3    0    1
 -2       872      1139      1382      1872
 -1      4260    3    0    1
 -2       872       883      1139      1872
 -1      4261    3    0    1
 -2      1549      1676      2139      2480
 -1      4262    3    0    1
 -2      1602      2139      2457      2480
 -1      4263    3    0    1
 -2      2386      2006      2322      1552
 -1      4264    3    0    1
 -2      1564      1711      1813      2178
 -1      4265    3    0    1
 -2       560       534      1839      2409
 -1      4266    3    0    1
 -2      1704      1725      1919      2109
 -1      4267    3    0    1
 -2      2159      1628      2271      2287
 -1      4268    3    0    1
 -2       961       383      2226      2514
 -1      4269    3    0    1
 -2      1704      1919      2022      2109
 -1      4270    3    0    1
 -2      3042      3032      2917      3057
 -1      4271    3    0    1
 -2       748      1051      1704      2109
 -1      4272    3    0    1
 -2      2257      1739      2258      2294
 -1      4273    3    0    1
 -2       248      1066      1311      2106
 -1      4274    3    0    1
 -2      1372      1884      2074      2331
 -1      4275    3    0    1
 -2       568      2038      2470      2624
 -1      4276    3    0    1
 -2       832      1907      1096      2372
 -1      4277    3    0    1
 -2      1605      1586      2065      2113
 -1      4278    3    0    1
 -2      1312      1065      2164      2723
 -1      4279    3    0    1
 -2      1562      1612      2478      2479
 -1      4280    3    0    1
 -2      2594      2284      2643      2734
 -1      4281    3    0    1
 -2      2383      1608      2454      2540
 -1      4282    3    0    1
 -2       751       726      1039      2275
 -1      4283    3    0    1
 -2      1634      1613      2017      2019
 -1      4284    3    0    1
 -2      1985      1786      2208      2215
 -1      4285    3    0    1
 -2       952        85       955      2470
 -1      4286    3    0    1
 -2      2002      2015      2397      2537
 -1      4287    3    0    1
 -2      1151      1524      1567      2297
 -1      4288    3    0    1
 -2      1951      1904      1969      2379
 -1      4289    3    0    1
 -2      1707       878      1754      1994
 -1      4290    3    0    1
 -2      1947      1832      2010      2223
 -1      4291    3    0    1
 -2       330      2433      2472      2515
 -1      4292    3    0    1
 -2      1747       417      1784      1918
 -1      4293    3    0    1
 -2      1717      1540      1993      2023
 -1      4294    3    0    1
 -2        67      2527       943       369
 -1      4295    3    0    1
 -2      1542      1668      1753      1919
 -1      4296    3    0    1
 -2      1052       748      1704      2022
 -1      4297    3    0    1
 -2      1826      1863      1868      1986
 -1      4298    3    0    1
 -2       349      1474      1510      1519
 -1      4299    3    0    1
 -2      2629      1850      2644      2832
 -1      4300    3    0    1
 -2       536       510       924      1881
 -1      4301    3    0    1
 -2       510       536       939      1881
 -1      4302    3    0    1
 -2       510       939      1188      1881
 -1      4303    3    0    1
 -2      1693      1692      1756      2187
 -1      4304    3    0    1
 -2       536       924      1199      1881
 -1      4305    3    0    1
 -2       538      2680      2784      2795
 -1      4306    3    0    1
 -2      2249      1554      2319      2352
 -1      4307    3    0    1
 -2      1977      2204      2319      2352
 -1      4308    3    0    1
 -2      1987      2046      2419      2534
 -1      4309    3    0    1
 -2       228       245      1058      1894
 -1      4310    3    0    1
 -2       855      1369      1937      1969
 -1      4311    3    0    1
 -2      1607       396      2277      2346
 -1      4312    3    0    1
 -2       205      1854      1900      2037
 -1      4313    3    0    1
 -2      1983        67      2681      2751
 -1      4314    3    0    1
 -2      1537      1698      2270      2417
 -1      4315    3    0    1
 -2       463       822      1091      1883
 -1      4316    3    0    1
 -2       463      1091      1161      1883
 -1      4317    3    0    1
 -2      2473      1312      2723      2857
 -1      4318    3    0    1
 -2       975       610      2066      2079
 -1      4319    3    0    1
 -2      1890      1560      1982      2079
 -1      4320    3    0    1
 -2      1177       483       490      2216
 -1      4321    3    0    1
 -2       675      1267      2236      2581
 -1      4322    3    0    1
 -2      1643      1606      2540      2665
 -1      4323    3    0    1
 -2       101      1960      2097      2765
 -1      4324    3    0    1
 -2      1078       798      1538      2035
 -1      4325    3    0    1
 -2      1908       363      2008      2525
 -1      4326    3    0    1
 -2      1808      1600      1936      2354
 -1      4327    3    0    1
 -2       538       940      2680      2717
 -1      4328    3    0    1
 -2      1781      1707      1997      2166
 -1      4329    3    0    1
 -2       884      2171      2227      2669
 -1      4330    3    0    1
 -2      1041       205      1900      2037
 -1      4331    3    0    1
 -2        18       372      1818      2201
 -1      4332    3    0    1
 -2      1321       795      1943      2354
 -1      4333    3    0    1
 -2      1915      1887      1946      2198
 -1      4334    3    0    1
 -2      1762      1757      2377      2736
 -1      4335    3    0    1
 -2       405       300      1790      2117
 -1      4336    3    0    1
 -2      2083      2516      2042      1257
 -1      4337    3    0    1
 -2       227       207      1583      2102
 -1      4338    3    0    1
 -2      1056      1745      1863      2660
 -1      4339    3    0    1
 -2      1957      1671      2582      2741
 -1      4340    3    0    1
 -2      1761      1575      2229      2487
 -1      4341    3    0    1
 -2       630       655      2043      2310
 -1      4342    3    0    1
 -2      2120      1592      2262      2439
 -1      4343    3    0    1
 -2        16        18      2101      2201
 -1      4344    3    0    1
 -2      1554      1667      2294      2352
 -1      4345    3    0    1
 -2      1176       913      1433      2977
 -1      4346    3    0    1
 -2      2197       380      2544      2803
 -1      4347    3    0    1
 -2       333       414      2184      2210
 -1      4348    3    0    1
 -2      1890      2068      2152      2371
 -1      4349    3    0    1
 -2      1898      1523      2007      2341
 -1      4350    3    0    1
 -2       495       916      2209      2825
 -1      4351    3    0    1
 -2      1175       925      2351      2425
 -1      4352    3    0    1
 -2      1773      1958      2011      2212
 -1      4353    3    0    1
 -2      1744      1104      2149      2562
 -1      4354    3    0    1
 -2       988       634      2284      2594
 -1      4355    3    0    1
 -2      1163      2201      2560      2690
 -1      4356    3    0    1
 -2       420       419       914      1889
 -1      4357    3    0    1
 -2      1591      2280      2464      2570
 -1      4358    3    0    1
 -2       914       419      1160      1889
 -1      4359    3    0    1
 -2       419        14      1160      1889
 -1      4360    3    0    1
 -2       462       914      1160      1889
 -1      4361    3    0    1
 -2       462       487       914      1889
 -1      4362    3    0    1
 -2      1871      1614      2350      2481
 -1      4363    3    0    1
 -2      1530      1623      1903      1991
 -1      4364    3    0    1
 -2      1871      2131      2166      2481
 -1      4365    3    0    1
 -2       328      1259      2646      2783
 -1      4366    3    0    1
 -2      1708      1928      1971      2221
 -1      4367    3    0    1
 -2      1064      2361      2602      2768
 -1      4368    3    0    1
 -2      1433      3043      2941      3071
 -1      4369    3    0    1
 -2      1534      1695      1838      2064
 -1      4370    3    0    1
 -2      1029      2144      2245      2355
 -1      4371    3    0    1
 -2       706       700      2133      2355
 -1      4372    3    0    1
 -2      2133       700      2137      2355
 -1      4373    3    0    1
 -2      2177      2126      2178      2576
 -1      4374    3    0    1
 -2      1977      1933      2204      2656
 -1      4375    3    0    1
 -2      1928      1708      1998      2221
 -1      4376    3    0    1
 -2      1162       466      2353      2666
 -1      4377    3    0    1
 -2       380       381       942      2197
 -1      4378    3    0    1
 -2      1889        14      2101      2810
 -1      4379    3    0    1
 -2       881      1697      2446      2507
 -1      4380    3    0    1
 -2      1915      1613      2017      2566
 -1      4381    3    0    1
 -2      1821      1748      1887      1946
 -1      4382    3    0    1
 -2       859      1405       893      2469
 -1      4383    3    0    1
 -2      1405       441      1830      2469
 -1      4384    3    0    1
 -2      1081       807      1580      1948
 -1      4385    3    0    1
 -2      2170      2291      2306      2627
 -1      4386    3    0    1
 -2      1906      1815      2095      2096
 -1      4387    3    0    1
 -2      1946      1821      2198      2455
 -1      4388    3    0    1
 -2      1031       190      2048      2528
 -1      4389    3    0    1
 -2      1573      1786      1985      2556
 -1      4390    3    0    1
 -2      1949      1961      2144      2390
 -1      4391    3    0    1
 -2      1092       282      1980      2129
 -1      4392    3    0    1
 -2      1670      1346      2134      2185
 -1      4393    3    0    1
 -2      1890      1982      2066      2079
 -1      4394    3    0    1
 -2       784      1070      1965      2103
 -1      4395    3    0    1
 -2       372        18      1818      2078
 -1      4396    3    0    1
 -2      1890      1987      2079      2419
 -1      4397    3    0    1
 -2      2304      1949      2376      2390
 -1      4398    3    0    1
 -2      1965      1070      1975      2103
 -1      4399    3    0    1
 -2      1861      1730      1958      2277
 -1      4400    3    0    1
 -2      1017      2048      2433      2513
 -1      4401    3    0    1
 -2       593      3014      3023      3024
 -1      4402    3    0    1
 -2      1685      1888      2244      2360
 -1      4403    3    0    1
 -2      1335       826      1746      2026
 -1      4404    3    0    1
 -2      1951      1685      2244      2360
 -1      4405    3    0    1
 -2        25       390       915      2025
 -1      4406    3    0    1
 -2      2383      2305      2638      2791
 -1      4407    3    0    1
 -2      1606       562      2596      2654
 -1      4408    3    0    1
 -2      2499       962      2588      2765
 -1      4409    3    0    1
 -2      1225       584      2155      2364
 -1      4410    3    0    1
 -2       336       101       962      2499
 -1      4411    3    0    1
 -2      2771      2902      3035      1450
 -1      4412    3    0    1
 -2      1907       832      1096       831
 -1      4413    3    0    1
 -2      1961      2054      2194      2581
 -1      4414    3    0    1
 -2      1870      1703      2151      2324
 -1      4415    3    0    1
 -2      1929      1835      1962      2118
 -1      4416    3    0    1
 -2       370       369      1201      2527
 -1      4417    3    0    1
 -2      1337      1338      1828      1917
 -1      4418    3    0    1
 -2      1828      1338      1880      1917
 -1      4419    3    0    1
 -2      1529        12      2494      2538
 -1      4420    3    0    1
 -2       394       296      1337      1917
 -1      4421    3    0    1
 -2       615      2050      2567      2823
 -1      4422    3    0    1
 -2      1338       296      1880      1917
 -1      4423    3    0    1
 -2      1337       296      1338      1917
 -1      4424    3    0    1
 -2       904       462      1161      2040
 -1      4425    3    0    1
 -2      1981      1669      2085      2494
 -1      4426    3    0    1
 -2      1564      1829      1843      1921
 -1      4427    3    0    1
 -2      1726      1564      1843      1921
 -1      4428    3    0    1
 -2      1745      1057      1893      1953
 -1      4429    3    0    1
 -2       299       312      1921      2493
 -1      4430    3    0    1
 -2      1101       299      1829      2493
 -1      4431    3    0    1
 -2      1669      1866      2085      2494
 -1      4432    3    0    1
 -2      1529        12      1659      2494
 -1      4433    3    0    1
 -2      1350       299      1101      2493
 -1      4434    3    0    1
 -2      1731       760      1922      1953
 -1      4435    3    0    1
 -2      1367       402       434      1954
 -1      4436    3    0    1
 -2      1057       760      1731      1953
 -1      4437    3    0    1
 -2      1362      1359      1689      1954
 -1      4438    3    0    1
 -2       760      1058      1068      1922
 -1      4439    3    0    1
 -2       783       760      1068      1922
 -1      4440    3    0    1
 -2       997       320      2146      2168
 -1      4441    3    0    1
 -2      1812      1679      1828      2391
 -1      4442    3    0    1
 -2      1690      1925      2029      2182
 -1      4443    3    0    1
 -2      1801      1521      1866      1963
 -1      4444    3    0    1
 -2       750      1053      2942      2951
 -1      4445    3    0    1
 -2      1982      1870      2151      2152
 -1      4446    3    0    1
 -2      1736      1937      1951      2067
 -1      4447    3    0    1
 -2      1933      1977      2204      2614
 -1      4448    3    0    1
 -2      1617      1659      1679      1924
 -1      4449    3    0    1
 -2       916      2209      2704      2719
 -1      4450    3    0    1
 -2      1711      1813      2178      2367
 -1      4451    3    0    1
 -2      1783       289      2501      2735
 -1      4452    3    0    1
 -2      2038       567      2470      2554
 -1      4453    3    0    1
 -2      2845      2865      3026      3033
 -1      4454    3    0    1
 -2       301      1133      1108      1926
 -1      4455    3    0    1
 -2      1133       301       398      1926
 -1      4456    3    0    1
 -2      1133       398      1895      1926
 -1      4457    3    0    1
 -2      2583      2453      2653      2703
 -1      4458    3    0    1
 -2       373       372      1096      2372
 -1      4459    3    0    1
 -2      1890      1560      1987      2371
 -1      4460    3    0    1
 -2      1385       303       379      1927
 -1      4461    3    0    1
 -2      1384       303      1370      1927
 -1      4462    3    0    1
 -2      1385       379      1892      1927
 -1      4463    3    0    1
 -2       303      1384       379      1927
 -1      4464    3    0    1
 -2      1633      1603      2292      2386
 -1      4465    3    0    1
 -2       462      1889      2545      2040
 -1      4466    3    0    1
 -2      1378      1137      1774      2446
 -1      4467    3    0    1
 -2      2432       640      2548      2729
 -1      4468    3    0    1
 -2      1958      1565      2011      2212
 -1      4469    3    0    1
 -2       305      1121      1832      1930
 -1      4470    3    0    1
 -2      1196      2965      2998      3020
 -1      4471    3    0    1
 -2      1356       305      1357      1930
 -1      4472    3    0    1
 -2      1759      1357      1832      1930
 -1      4473    3    0    1
 -2      1357       305      1832      1930
 -1      4474    3    0    1
 -2      1259       998      2278      2783
 -1      4475    3    0    1
 -2       223      1908      2389      2525
 -1      4476    3    0    1
 -2      1553      1626      1740      2028
 -1      4477    3    0    1
 -2       986       630      1699      2486
 -1      4478    3    0    1
 -2       675      2581      2608      2760
 -1      4479    3    0    1
 -2      1603      1633      2211      2386
 -1      4480    3    0    1
 -2      2289      1830       441      2469
 -1      4481    3    0    1
 -2      2126       390      2127      2576
 -1      4482    3    0    1
 -2       288       285      1610      2165
 -1      4483    3    0    1
 -2       282      1092      1333      2129
 -1      4484    3    0    1
 -2      1090       288      1783      2165
 -1      4485    3    0    1
 -2      1070       238      1965      1975
 -1      4486    3    0    1
 -2      1527      1626      1867      2317
 -1      4487    3    0    1
 -2       868       881      1137      2446
 -1      4488    3    0    1
 -2      1736      1637      1984      2059
 -1      4489    3    0    1
 -2      1288      1041      1816      2037
 -1      4490    3    0    1
 -2       586      1226      1941      2727
 -1      4491    3    0    1
 -2      1816       724      2307      2392
 -1      4492    3    0    1
 -2      1751      1702      2180      2243
 -1      4493    3    0    1
 -2       205      1041      1288      2037
 -1      4494    3    0    1
 -2      1638      1664      1857      2167
 -1      4495    3    0    1
 -2      1888      1761      1959      2491
 -1      4496    3    0    1
 -2      1737      1527      2110      2317
 -1      4497    3    0    1
 -2      1867      1626      2028      2317
 -1      4498    3    0    1
 -2       282       283      1978      1980
 -1      4499    3    0    1
 -2      1882      1599      1934      2495
 -1      4500    3    0    1
 -2      1291      1038       730      2392
 -1      4501    3    0    1
 -2      1626      1740      2028      2317
 -1      4502    3    0    1
 -2      1629        79      2020      2532
 -1      4503    3    0    1
 -2      2168      2146      2254      2256
 -1      4504    3    0    1
 -2      1772      1851      2199      2323
 -1      4505    3    0    1
 -2      1668      1753      2022      2505
 -1      4506    3    0    1
 -2      1226       959       579      1941
 -1      4507    3    0    1
 -2      2687      2016      2798      2811
 -1      4508    3    0    1
 -2      1525      1821      1946      2533
 -1      4509    3    0    1
 -2      1589      1564      2159      2177
 -1      4510    3    0    1
 -2      1546      1819      2012      2542
 -1      4511    3    0    1
 -2       582      2247      2364      2651
 -1      4512    3    0    1
 -2      1918      1717      2158      2393
 -1      4513    3    0    1
 -2      1592      2260      2262      2439
 -1      4514    3    0    1
 -2       365        85       952      2470
 -1      4515    3    0    1
 -2      1736      1790      2027      2073
 -1      4516    3    0    1
 -2      1384      1809      2234      2579
 -1      4517    3    0    1
 -2      1698      1537      2357      2417
 -1      4518    3    0    1
 -2      1797      1796      2130      2233
 -1      4519    3    0    1
 -2      1637      1736      2055      2073
 -1      4520    3    0    1
 -2      1759      1657       846      1834
 -1      4521    3    0    1
 -2       711      1031      2048      2400
 -1      4522    3    0    1
 -2      1926       398      2114      2369
 -1      4523    3    0    1
 -2      2608      2245      2612      2760
 -1      4524    3    0    1
 -2      1679      1617      2321      2391
 -1      4525    3    0    1
 -2      1664      1857      1976      2667
 -1      4526    3    0    1
 -2      1913      1752      2036      2065
 -1      4527    3    0    1
 -2      1789      1557      2004      2064
 -1      4528    3    0    1
 -2      1752      1913      2030      2065
 -1      4529    3    0    1
 -2      1551      1638      2167      2376
 -1      4530    3    0    1
 -2      1347      1348      2114      2369
 -1      4531    3    0    1
 -2      1586      1998      2030      2065
 -1      4532    3    0    1
 -2      1884      1615      2089      2263
 -1      4533    3    0    1
 -2       397      1962      1996      2118
 -1      4534    3    0    1
 -2      2027      1932      2055      2073
 -1      4535    3    0    1
 -2      1790      1736      1937      1951
 -1      4536    3    0    1
 -2      2031      1637      2055      2073
 -1      4537    3    0    1
 -2      1918      2158      2385      2393
 -1      4538    3    0    1
 -2       724      1038      1955      2307
 -1      4539    3    0    1
 -2       261       269      1081      2378
 -1      4540    3    0    1
 -2      1884      1624      2074      2331
 -1      4541    3    0    1
 -2      1548      1585      1781      1997
 -1      4542    3    0    1
 -2      1707      1635      1754      1997
 -1      4543    3    0    1
 -2      1521      1802      1805      1963
 -1      4544    3    0    1
 -2      1259      2278      2648      2783
 -1      4545    3    0    1
 -2      2107      1985      2125      2556
 -1      4546    3    0    1
 -2      1684      1584      2028      2317
 -1      4547    3    0    1
 -2      1131       312      1921      1952
 -1      4548    3    0    1
 -2       402      1146      1708      1954
 -1      4549    3    0    1
 -2       402      1367      1146      1954
 -1      4550    3    0    1
 -2       402      1362       434      1954
 -1      4551    3    0    1
 -2      1359       402      1708      1954
 -1      4552    3    0    1
 -2      1362       402      1359      1954
 -1      4553    3    0    1
 -2      1840       724      1899      1955
 -1      4554    3    0    1
 -2      1723      1840      1899      1955
 -1      4555    3    0    1
 -2      1057       226      1733      1956
 -1      4556    3    0    1
 -2        33       418      2209      2738
 -1      4557    3    0    1
 -2      1534      1695      2064      2506
 -1      4558    3    0    1
 -2      1731      1733      1753      1956
 -1      4559    3    0    1
 -2      2394      2142      2446      2507
 -1      4560    3    0    1
 -2      1799      1067      2154      2190
 -1      4561    3    0    1
 -2       846      1358      1657      2447
 -1      4562    3    0    1
 -2      1697      2394      2446      2507
 -1      4563    3    0    1
 -2      1393       868      1126      2507
 -1      4564    3    0    1
 -2      1561      1727      2568      2706
 -1      4565    3    0    1
 -2      1757      1949      2304      2404
 -1      4566    3    0    1
 -2      1566      1700      1825      1958
 -1      4567    3    0    1
 -2      1725      1873      1919      2109
 -1      4568    3    0    1
 -2      1651      1810      1831      2285
 -1      4569    3    0    1
 -2      1570      1944      2224      2348
 -1      4570    3    0    1
 -2      1787       988      2558      2594
 -1      4571    3    0    1
 -2       106      1859      2363      2485
 -1      4572    3    0    1
 -2       925       512       510      2497
 -1      4573    3    0    1
 -2      1640      1609      1674      1960
 -1      4574    3    0    1
 -2       630       655      2310      2486
 -1      4575    3    0    1
 -2      1984      1752      2036      2242
 -1      4576    3    0    1
 -2      1609      1960      2096      2097
 -1      4577    3    0    1
 -2       463      1161      2040      2098
 -1      4578    3    0    1
 -2       335      1031      2048      2472
 -1      4579    3    0    1
 -2       822       463      2078      2098
 -1      4580    3    0    1
 -2      1011       675      1270      2240
 -1      4581    3    0    1
 -2      1624      1823      1884      2074
 -1      4582    3    0    1
 -2       826       819      1093      2343
 -1      4583    3    0    1
 -2       999      1258      1968      2298
 -1      4584    3    0    1
 -2      1567      1524      1784      2246
 -1      4585    3    0    1
 -2      2304      1551      2376      2500
 -1      4586    3    0    1
 -2      1805      1775      1963      1964
 -1      4587    3    0    1
 -2      1802      1805      1963      1964
 -1      4588    3    0    1
 -2      1268       678      1886      2423
 -1      4589    3    0    1
 -2      1810      1386      1831      2285
 -1      4590    3    0    1
 -2       915      1775      1805      1964
 -1      4591    3    0    1
 -2       490       915      1802      1964
 -1      4592    3    0    1
 -2      1653      1712      1855      2289
 -1      4593    3    0    1
 -2      1802       915      1805      1964
 -1      4594    3    0    1
 -2       977       965      2050      2406
 -1      4595    3    0    1
 -2      1758      1846      1857      1976
 -1      4596    3    0    1
 -2      1713      1920      1972      2434
 -1      4597    3    0    1
 -2       238       407      1069      1965
 -1      4598    3    0    1
 -2       238      1069      1070      1965
 -1      4599    3    0    1
 -2       459       466      1162      2666
 -1      4600    3    0    1
 -2      1093      1748      2343      2668
 -1      4601    3    0    1
 -2      1593      1611      2199      2323
 -1      4602    3    0    1
 -2      1752      1984      2031      2242
 -1      4603    3    0    1
 -2       329       323      1758      1976
 -1      4604    3    0    1
 -2       466      1836      2195      2666
 -1      4605    3    0    1
 -2      1877       819      1938      2467
 -1      4606    3    0    1
 -2      1069       783      1070      1965
 -1      4607    3    0    1
 -2       334      1043      1876      2104
 -1      4608    3    0    1
 -2       783       784      1070      1965
 -1      4609    3    0    1
 -2      1150      1373      1770      2289
 -1      4610    3    0    1
 -2      1972      1920      2325      2434
 -1      4611    3    0    1
 -2      2197       942      2519      2743
 -1      4612    3    0    1
 -2      1528      1570      1944      2299
 -1      4613    3    0    1
 -2      1960       101      2097      2299
 -1      4614    3    0    1
 -2       101      1533      1570      2299
 -1      4615    3    0    1
 -2      1609      1674      1960      2299
 -1      4616    3    0    1
 -2       328      1003      2547      2700
 -1      4617    3    0    1
 -2      1575      1761      2107      2487
 -1      4618    3    0    1
 -2       334      1291      1648      1970
 -1      4619    3    0    1
 -2      1346      1903      2134      2185
 -1      4620    3    0    1
 -2      1928      1367      1954      1971
 -1      4621    3    0    1
 -2       853      1367      1928      1971
 -1      4622    3    0    1
 -2       853      1146      1367      1971
 -1      4623    3    0    1
 -2      1258       986      1435      2912
 -1      4624    3    0    1
 -2        85       950      1211      2365
 -1      4625    3    0    1
 -2      1122      1396      2171      2180
 -1      4626    3    0    1
 -2      1985      1573      2089      2620
 -1      4627    3    0    1
 -2      1225       960      1415      3001
 -1      4628    3    0    1
 -2      2537      2397      2591      2750
 -1      4629    3    0    1
 -2      1079      1538      1718      1974
 -1      4630    3    0    1
 -2      2171      1650      2227      2669
 -1      4631    3    0    1
 -2      1135       871      1129      2091
 -1      4632    3    0    1
 -2      1333      1092      1979      2129
 -1      4633    3    0    1
 -2       936      2305      2503      2717
 -1      4634    3    0    1
 -2      1783       289      2088      2165
 -1      4635    3    0    1
 -2      1780      1875      2062      2267
 -1      4636    3    0    1
 -2      2305       936      2383      2540
 -1      4637    3    0    1
 -2      1706       265      1718      1974
 -1      4638    3    0    1
 -2      1079       799      1538      1974
 -1      4639    3    0    1
 -2       264      1079      1718      1974
 -1      4640    3    0    1
 -2       265       264      1718      1974
 -1      4641    3    0    1
 -2       246       265      1706      1974
 -1      4642    3    0    1
 -2      1311       246      1706      1974
 -1      4643    3    0    1
 -2       774       799      1311      1974
 -1      4644    3    0    1
 -2      1079       265      1311      1974
 -1      4645    3    0    1
 -2       799      1079      1311      1974
 -1      4646    3    0    1
 -2       264       265      1079      1974
 -1      4647    3    0    1
 -2       265       246      1311      1974
 -1      4648    3    0    1
 -2      1069      1965      2205      2466
 -1      4649    3    0    1
 -2      1885      2397      2437      2591
 -1      4650    3    0    1
 -2      2238       331      2377      2404
 -1      4651    3    0    1
 -2      1016       174      2170      2281
 -1      4652    3    0    1
 -2      2280      1557      2517      2741
 -1      4653    3    0    1
 -2      1885      2111      2672      2794
 -1      4654    3    0    1
 -2      2015        66      2477      2503
 -1      4655    3    0    1
 -2      1949      2304      2376      2500
 -1      4656    3    0    1
 -2       282       283      1092      1978
 -1      4657    3    0    1
 -2       320      2139      2160      2256
 -1      4658    3    0    1
 -2       266       268      1322      1978
 -1      4659    3    0    1
 -2       320      1791      2146      2256
 -1      4660    3    0    1
 -2       320      1602      2139      2256
 -1      4661    3    0    1
 -2      1666      1541      1686      2130
 -1      4662    3    0    1
 -2      1548      1666      1686      2130
 -1      4663    3    0    1
 -2       730      1041      2039      2392
 -1      4664    3    0    1
 -2      2906       428      3050      1486
 -1      4665    3    0    1
 -2      1857      1664      1976      2322
 -1      4666    3    0    1
 -2      1799      1959      1973      2107
 -1      4667    3    0    1
 -2       987      2772      2827      2830
 -1      4668    3    0    1
 -2      2006      1976      2386      2322
 -1      4669    3    0    1
 -2      1552      1995      2006      2322
 -1      4670    3    0    1
 -2       390      1775      2127      2576
 -1      4671    3    0    1
 -2      2188      2332      2638      2791
 -1      4672    3    0    1
 -2       369       939      1198      1983
 -1      4673    3    0    1
 -2        67       369      1198      1983
 -1      4674    3    0    1
 -2      1725      1597      2125      2283
 -1      4675    3    0    1
 -2      1597      1725      1873      2283
 -1      4676    3    0    1
 -2      1541       975      2066      2079
 -1      4677    3    0    1
 -2      1889       462      2545      1160
 -1      4678    3    0    1
 -2      2142      1691      2153      2394
 -1      4679    3    0    1
 -2      2083      2516      1257      1852
 -1      4680    3    0    1
 -2      1957      1534      2004      2375
 -1      4681    3    0    1
 -2       634      1248      2105      2655
 -1      4682    3    0    1
 -2      1557      2004      2064      2375
 -1      4683    3    0    1
 -2      1905      2128      2229      2315
 -1      4684    3    0    1
 -2      1041      1816      2037      2039
 -1      4685    3    0    1
 -2      2004      1534      2064      2375
 -1      4686    3    0    1
 -2       384       382       954      2511
 -1      4687    3    0    1
 -2      2229      2087      2263      2315
 -1      4688    3    0    1
 -2       342       343      1714      2733
 -1      4689    3    0    1
 -2      1529       397      2071      2118
 -1      4690    3    0    1
 -2       462       463      1161      2040
 -1      4691    3    0    1
 -2      1664      2167      2376      2418
 -1      4692    3    0    1
 -2      1789      1931      2724      2759
 -1      4693    3    0    1
 -2      1573      2229      2263      2487
 -1      4694    3    0    1
 -2      1645      1628      1670      1991
 -1      4695    3    0    1
 -2       136       135      1874      2272
 -1      4696    3    0    1
 -2      1587      1677      2266      2725
 -1      4697    3    0    1
 -2      1543      1572      1639      1992
 -1      4698    3    0    1
 -2      1572      1543      1639      1920
 -1      4699    3    0    1
 -2      1760      1572      1911      1992
 -1      4700    3    0    1
 -2      1931      1789      2004      2064
 -1      4701    3    0    1
 -2       603       971       975      2302
 -1      4702    3    0    1
 -2      1989      1752      2030      2065
 -1      4703    3    0    1
 -2       975      1541      2066      2193
 -1      4704    3    0    1
 -2      1534      1838      1931      2064
 -1      4705    3    0    1
 -2      2537      2349      2748      2790
 -1      4706    3    0    1
 -2      1589      1564      1628      2159
 -1      4707    3    0    1
 -2      1874       135      2206      2272
 -1      4708    3    0    1
 -2      1681      1853      2163      2456
 -1      4709    3    0    1
 -2      2232      1972      2410      2601
 -1      4710    3    0    1
 -2      2471      1787      2558      2615
 -1      4711    3    0    1
 -2      1620      1672      1898      2007
 -1      4712    3    0    1
 -2      1618      2114      2135      2369
 -1      4713    3    0    1
 -2       369       370      2100      2527
 -1      4714    3    0    1
 -2      1895      1618      1926      2369
 -1      4715    3    0    1
 -2       282      1907      1980      2372
 -1      4716    3    0    1
 -2      1125      1134      1754      1997
 -1      4717    3    0    1
 -2      1134      1707      1754      1997
 -1      4718    3    0    1
 -2       326       308      1781      1997
 -1      4719    3    0    1
 -2       308      1134      1125      1997
 -1      4720    3    0    1
 -2      1707      1134      1781      1997
 -1      4721    3    0    1
 -2      1134       308       326      1997
 -1      4722    3    0    1
 -2      1134       326      1781      1997
 -1      4723    3    0    1
 -2      2139      1676      2160      2309
 -1      4724    3    0    1
 -2       408      1622      1844      2057
 -1      4725    3    0    1
 -2      1341      1340      1849      2523
 -1      4726    3    0    1
 -2       228      1894      2008      2525
 -1      4727    3    0    1
 -2       754      1055      1898      2143
 -1      4728    3    0    1
 -2       802       795      1080      2398
 -1      4729    3    0    1
 -2      1622      1595      1644      2208
 -1      4730    3    0    1
 -2      1558      2188      2539      2599
 -1      4731    3    0    1
 -2      1043      1876      2288      2422
 -1      4732    3    0    1
 -2       603       610      1858      2302
 -1      4733    3    0    1
 -2      1858       610      2193      2302
 -1      4734    3    0    1
 -2      1268      1532      1886      2001
 -1      4735    3    0    1
 -2      1268       171      1532      2001
 -1      4736    3    0    1
 -2      1004      2461      2627      2774
 -1      4737    3    0    1
 -2       802       795      2398      2575
 -1      4738    3    0    1
 -2       356      1268      1886      2001
 -1      4739    3    0    1
 -2       171       356      1018      2001
 -1      4740    3    0    1
 -2      1018       356      1848      2001
 -1      4741    3    0    1
 -2      1080      1675      1785      2398
 -1      4742    3    0    1
 -2       191       356      1886      2001
 -1      4743    3    0    1
 -2       356       191      1848      2001
 -1      4744    3    0    1
 -2      1848       191      1886      2001
 -1      4745    3    0    1
 -2      2144      2245      2355      2657
 -1      4746    3    0    1
 -2       171       175      1532      2001
 -1      4747    3    0    1
 -2       356       171      1268      2001
 -1      4748    3    0    1
 -2      1107      2027      2117      2407
 -1      4749    3    0    1
 -2       591       592       965      2176
 -1      4750    3    0    1
 -2      1090      1335      2014      2026
 -1      4751    3    0    1
 -2      1751      1766      1769      2180
 -1      4752    3    0    1
 -2       407       249      1069      2205
 -1      4753    3    0    1
 -2      1677      1732      1914      2162
 -1      4754    3    0    1
 -2       890      1402      1932      2407
 -1      4755    3    0    1
 -2      1594      1705      1720      2231
 -1      4756    3    0    1
 -2      1620      1523      1771      2007
 -1      4757    3    0    1
 -2      1771      1764      1798      2007
 -1      4758    3    0    1
 -2       760      1058      1922      2008
 -1      4759    3    0    1
 -2      1058       760      1745      2008
 -1      4760    3    0    1
 -2      1745       760      1922      2008
 -1      4761    3    0    1
 -2      1302      1745      1908      2008
 -1      4762    3    0    1
 -2      1302      1058      1745      2008
 -1      4763    3    0    1
 -2       223      1058      1302      2008
 -1      4764    3    0    1
 -2       223      1302      1908      2008
 -1      4765    3    0    1
 -2      1747      1717      1918      2462
 -1      4766    3    0    1
 -2      1903      1623      2134      2185
 -1      4767    3    0    1
 -2      1044      1826      1868      2009
 -1      4768    3    0    1
 -2      1868      1826      1986      2009
 -1      4769    3    0    1
 -2      1044      1868      1986      2009
 -1      4770    3    0    1
 -2       412      1044      1986      2009
 -1      4771    3    0    1
 -2      1535       412      1986      2009
 -1      4772    3    0    1
 -2       414       412      1535      2009
 -1      4773    3    0    1
 -2       412       414      1044      2009
 -1      4774    3    0    1
 -2      1310       772      2434      2826
 -1      4775    3    0    1
 -2      1593      1526      1967      2324
 -1      4776    3    0    1
 -2      2126      1711      2178      2555
 -1      4777    3    0    1
 -2      1917      1880      2367      2535
 -1      4778    3    0    1
 -2      1666      1526      1703      2324
 -1      4779    3    0    1
 -2      1526      1593      1870      2324
 -1      4780    3    0    1
 -2      1841       754      2143      2521
 -1      4781    3    0    1
 -2       310      1389       316      2012
 -1      4782    3    0    1
 -2      1379       310      1988      2012
 -1      4783    3    0    1
 -2      1389       310      1379      2012
 -1      4784    3    0    1
 -2      1583      1054      2389      2512
 -1      4785    3    0    1
 -2      1051      1622      2057      2521
 -1      4786    3    0    1
 -2      1027      3028      1290      2024
 -1      4787    3    0    1
 -2      2428      2276      2588      2712
 -1      4788    3    0    1
 -2      1595      1622      1985      2208
 -1      4789    3    0    1
 -2      2188      1558      2217      2599
 -1      4790    3    0    1
 -2      1757      1693      2150      2736
 -1      4791    3    0    1
 -2        53      2351      2496      2831
 -1      4792    3    0    1
 -2      1696       318      2291      2774
 -1      4793    3    0    1
 -2       408      1051      1622      2057
 -1      4794    3    0    1
 -2       285      1610      2014      2056
 -1      4795    3    0    1
 -2      1160       905       462      2545
 -1      4796    3    0    1
 -2       403       285      1335      2014
 -1      4797    3    0    1
 -2       319      2120      2291      2306
 -1      4798    3    0    1
 -2      1237       338      2403      2415
 -1      4799    3    0    1
 -2      1730      1773      1958      2277
 -1      4800    3    0    1
 -2      1613      1728      1915      2017
 -1      4801    3    0    1
 -2      1334      3008       822      1091
 -1      4802    3    0    1
 -2      1091      1334      2035      2157
 -1      4803    3    0    1
 -2       822      1333      1979      2157
 -1      4804    3    0    1
 -2      1713      1984      2230      2242
 -1      4805    3    0    1
 -2      1277      1776      2402      2598
 -1      4806    3    0    1
 -2      1895      1618      2114      2252
 -1      4807    3    0    1
 -2      1618      1990      2135      2252
 -1      4808    3    0    1
 -2      1825      1566      1861      2019
 -1      4809    3    0    1
 -2      1613      1861      1887      2019
 -1      4810    3    0    1
 -2      1613      1825      1861      2019
 -1      4811    3    0    1
 -2      1099       837      2327      2531
 -1      4812    3    0    1
 -2       293      1345      2327      2531
 -1      4813    3    0    1
 -2       411      1814      1897      2021
 -1      4814    3    0    1
 -2      1723      1649      1814      2021
 -1      4815    3    0    1
 -2      1649      1723      1955      2021
 -1      4816    3    0    1
 -2      1955      1723      1986      2021
 -1      4817    3    0    1
 -2      1044       412      1986      2021
 -1      4818    3    0    1
 -2      1868      1044      1986      2021
 -1      4819    3    0    1
 -2      1863      1868      1986      2021
 -1      4820    3    0    1
 -2       411      1863      1986      2021
 -1      4821    3    0    1
 -2      1863       411      1868      2021
 -1      4822    3    0    1
 -2      1723      1814      1986      2021
 -1      4823    3    0    1
 -2      2081      1600      2196      2524
 -1      4824    3    0    1
 -2      1668      1753      1919      2022
 -1      4825    3    0    1
 -2      1704      1733      1795      2022
 -1      4826    3    0    1
 -2      1733      1704      1753      2022
 -1      4827    3    0    1
 -2      1753      1704      1919      2022
 -1      4828    3    0    1
 -2       675       682      1270      2240
 -1      4829    3    0    1
 -2       307      1396      1122      2180
 -1      4830    3    0    1
 -2       687       688      2207      2658
 -1      4831    3    0    1
 -2      1578      1582      2471      2636
 -1      4832    3    0    1
 -2      1890      1987      2419      2534
 -1      4833    3    0    1
 -2      1413      1448      3075      1496
 -1      4834    3    0    1
 -2      2206       135      2616      2670
 -1      4835    3    0    1
 -2       373      1818      1980      2129
 -1      4836    3    0    1
 -2      1524      1567      1705      2090
 -1      4837    3    0    1
 -2      1871      1587      2131      2350
 -1      4838    3    0    1
 -2      1336       283      1980      2316
 -1      4839    3    0    1
 -2      1499      1431      3002      3095
 -1      4840    3    0    1
 -2      1270       682      2148      2240
 -1      4841    3    0    1
 -2       101      1533      2299      2765
 -1      4842    3    0    1
 -2      1650      1766      1769      2320
 -1      4843    3    0    1
 -2       850      1144      1364      2339
 -1      4844    3    0    1
 -2      1689      1586      1925      2029
 -1      4845    3    0    1
 -2      1762      2238      2337      2377
 -1      4846    3    0    1
 -2      1043       735      2210      2429
 -1      4847    3    0    1
 -2       320       322      1791      2309
 -1      4848    3    0    1
 -2      1770      1712      1855      2033
 -1      4849    3    0    1
 -2      1855      1822      1862      2033
 -1      4850    3    0    1
 -2       860       894      1770      2033
 -1      4851    3    0    1
 -2      1862      1770      1855      2033
 -1      4852    3    0    1
 -2      1619      1770      1862      2033
 -1      4853    3    0    1
 -2      1616      1619      1862      2033
 -1      4854    3    0    1
 -2      1616      1406      1619      2033
 -1      4855    3    0    1
 -2      1406      1115      1619      2033
 -1      4856    3    0    1
 -2       860      1406       894      2033
 -1      4857    3    0    1
 -2      1406       860      1115      2033
 -1      4858    3    0    1
 -2      1770      1862      1855      1721
 -1      4859    3    0    1
 -2      1115       860      1770      2033
 -1      4860    3    0    1
 -2      1619      1115      1770      2033
 -1      4861    3    0    1
 -2       831       808      1336      2072
 -1      4862    3    0    1
 -2        25      2159      2600      2621
 -1      4863    3    0    1
 -2       906       397      1996      2071
 -1      4864    3    0    1
 -2      2015      2002      2592      2749
 -1      4865    3    0    1
 -2      1827      1606      2572      2654
 -1      4866    3    0    1
 -2       204       207      1045      2102
 -1      4867    3    0    1
 -2      2148       682      2236      2240
 -1      4868    3    0    1
 -2       832      1095      1610      2034
 -1      4869    3    0    1
 -2       724      1038      2307      2392
 -1      4870    3    0    1
 -2      1054       227      1583      2389
 -1      4871    3    0    1
 -2       471      1096      1163      2034
 -1      4872    3    0    1
 -2      1570      1528      1944      2348
 -1      4873    3    0    1
 -2       471       832      1096      2034
 -1      4874    3    0    1
 -2      1705      1596      1939      2231
 -1      4875    3    0    1
 -2       519       496      2776      2777
 -1      4876    3    0    1
 -2      2020        75      2530      2532
 -1      4877    3    0    1
 -2      1761      1575      1959      2491
 -1      4878    3    0    1
 -2      1543      1572      1992      2325
 -1      4879    3    0    1
 -2      1594      1720      1771      2231
 -1      4880    3    0    1
 -2      1588      1558      2539      2599
 -1      4881    3    0    1
 -2      1596      1764      1939      2231
 -1      4882    3    0    1
 -2      1711      1843      2126      2178
 -1      4883    3    0    1
 -2      1343      1853      2163      2219
 -1      4884    3    0    1
 -2       916       495      2719      2834
 -1      4885    3    0    1
 -2      1344      1343      2163      2219
 -1      4886    3    0    1
 -2       838      1344      2163      2219
 -1      4887    3    0    1
 -2       358       175      2396      2559
 -1      4888    3    0    1
 -2      1344       837      1343      2219
 -1      4889    3    0    1
 -2      1860      2191      2241      2385
 -1      4890    3    0    1
 -2      2015        66      2397      2490
 -1      4891    3    0    1
 -2      1803      1806      1865      2557
 -1      4892    3    0    1
 -2       462       463      2098      2545
 -1      4893    3    0    1
 -2      1728      1887      1915      2198
 -1      4894    3    0    1
 -2      1747      1918      2158      2385
 -1      4895    3    0    1
 -2      1564      1589      1843      2177
 -1      4896    3    0    1
 -2       161       357      1257      2042
 -1      4897    3    0    1
 -2      1838      1660      2051      2084
 -1      4898    3    0    1
 -2      1561      1174      2225      2773
 -1      4899    3    0    1
 -2      2352      1977      2656      2707
 -1      4900    3    0    1
 -2       427        53      2776      2831
 -1      4901    3    0    1
 -2      1870      2151      2152      2311
 -1      4902    3    0    1
 -2       544       943      2412      2742
 -1      4903    3    0    1
 -2       327       140      1246      2043
 -1      4904    3    0    1
 -2       655      1000      1246      2043
 -1      4905    3    0    1
 -2      1000       342      1246      2043
 -1      4906    3    0    1
 -2       342       327      1246      2043
 -1      4907    3    0    1
 -2       630       655      1246      2043
 -1      4908    3    0    1
 -2       343       342      1000      2043
 -1      4909    3    0    1
 -2       918        29      2351      2510
 -1      4910    3    0    1
 -2      1587      1550      2300      2350
 -1      4911    3    0    1
 -2      2050       592      2413      2543
 -1      4912    3    0    1
 -2      1396       865      1122      2171
 -1      4913    3    0    1
 -2       592       965      2176      2543
 -1      4914    3    0    1
 -2      1932      2031      2055      2073
 -1      4915    3    0    1
 -2      1942      1685      2381      2410
 -1      4916    3    0    1
 -2      2020      2797        75      2805
 -1      4917    3    0    1
 -2      1629      1588      2296      2599
 -1      4918    3    0    1
 -2       896       863      2191      2385
 -1      4919    3    0    1
 -2      1116      1141      2330      2623
 -1      4920    3    0    1
 -2      1984      1989      2031      2055
 -1      4921    3    0    1
 -2      1823      1624      1830      2074
 -1      4922    3    0    1
 -2      1650      1769      2227      2228
 -1      4923    3    0    1
 -2       177       330      1011      2045
 -1      4924    3    0    1
 -2      1637      1984      2031      2055
 -1      4925    3    0    1
 -2      1004       318      1696      2774
 -1      4926    3    0    1
 -2      1839       534      2282      2693
 -1      4927    3    0    1
 -2      1163       471      2034      2690
 -1      4928    3    0    1
 -2       592       615       977      2050
 -1      4929    3    0    1
 -2       271      1945      2408      2414
 -1      4930    3    0    1
 -2       965       592       977      2050
 -1      4931    3    0    1
 -2       199      1035      1282      2964
 -1      4932    3    0    1
 -2      1735      1530      1901      2138
 -1      4933    3    0    1
 -2       298       401      2186      2563
 -1      4934    3    0    1
 -2      1821      1525      1936      2533
 -1      4935    3    0    1
 -2      1668      1542      1753      2505
 -1      4936    3    0    1
 -2      1665      1611      2323      2468
 -1      4937    3    0    1
 -2      2260      2148      2439      2450
 -1      4938    3    0    1
 -2      1056       759      1745      2660
 -1      4939    3    0    1
 -2        17       907      2445      2448
 -1      4940    3    0    1
 -2      1537      1547      1794      2254
 -1      4941    3    0    1
 -2      1055       415      1647      2057
 -1      4942    3    0    1
 -2      1647       415      1844      2057
 -1      4943    3    0    1
 -2       408      1055      1051      2057
 -1      4944    3    0    1
 -2       415       408      1844      2057
 -1      4945    3    0    1
 -2       408       415      1055      2057
 -1      4946    3    0    1
 -2       975       389      2193      2233
 -1      4947    3    0    1
 -2       892      1404      2128      2259
 -1      4948    3    0    1
 -2       300      1402      1107      2117
 -1      4949    3    0    1
 -2      1842       404      1942      2381
 -1      4950    3    0    1
 -2       424      2498      2652      2769
 -1      4951    3    0    1
 -2       404      1842      2154      2381
 -1      4952    3    0    1
 -2      1659      1924      1962      2118
 -1      4953    3    0    1
 -2      1659      1529      1924      2118
 -1      4954    3    0    1
 -2      3028      3034      3049      3073
 -1      4955    3    0    1
 -2      1852      1000      2310      2516
 -1      4956    3    0    1
 -2       336      2068      2224      2411
 -1      4957    3    0    1
 -2      1588      1558      2217      2295
 -1      4958    3    0    1
 -2        29       914      1175      2697
 -1      4959    3    0    1
 -2      1791       997      2235      2550
 -1      4960    3    0    1
 -2       857      1404       892      2259
 -1      4961    3    0    1
 -2      1336      1907      2072      2316
 -1      4962    3    0    1
 -2       857       892      1148      2259
 -1      4963    3    0    1
 -2      1782       404      2154      2381
 -1      4964    3    0    1
 -2      2919      2879      2921      3069
 -1      4965    3    0    1
 -2      2078       905      2101      2545
 -1      4966    3    0    1
 -2      1788      2253      2585      2762
 -1      4967    3    0    1
 -2      1547      1602      2457      2478
 -1      4968    3    0    1
 -2      1728      1887      2198      2455
 -1      4969    3    0    1
 -2      1685      1951      2244      2067
 -1      4970    3    0    1
 -2      1685      1951      2067      2359
 -1      4971    3    0    1
 -2      1784      1567      2246      2335
 -1      4972    3    0    1
 -2       424       941      2498      2769
 -1      4973    3    0    1
 -2       373       282      1980      2372
 -1      4974    3    0    1
 -2      1710      2122      2595      2606
 -1      4975    3    0    1
 -2       404      1942      2381      2601
 -1      4976    3    0    1
 -2      1031      2048      2400      2528
 -1      4977    3    0    1
 -2      1764      1798      2007      2341
 -1      4978    3    0    1
 -2      1055      1898      2143      2341
 -1      4979    3    0    1
 -2      1947      1528      2223      2348
 -1      4980    3    0    1
 -2      1941       586      2727      2807
 -1      4981    3    0    1
 -2       420        32      1178      2441
 -1      4982    3    0    1
 -2      2855      2897      1451      3051
 -1      4983    3    0    1
 -2      2115      2593      2646      2766
 -1      4984    3    0    1
 -2      1615      1595      1624      2089
 -1      4985    3    0    1
 -2       703       678      2070      2423
 -1      4986    3    0    1
 -2      1029      1729      2144      2355
 -1      4987    3    0    1
 -2       826      1335      1746      2196
 -1      4988    3    0    1
 -2      1082       831      1094      2072
 -1      4989    3    0    1
 -2       808      1083      1336      2072
 -1      4990    3    0    1
 -2      1082      1094      1950      2072
 -1      4991    3    0    1
 -2       859       893      1149      2074
 -1      4992    3    0    1
 -2      1612      1673      2478      2479
 -1      4993    3    0    1
 -2      1823      1372      1884      2074
 -1      4994    3    0    1
 -2       859      1372      1823      2074
 -1      4995    3    0    1
 -2       859      1149      1372      2074
 -1      4996    3    0    1
 -2        67       364       943      2681
 -1      4997    3    0    1
 -2       842       841      1101      2075
 -1      4998    3    0    1
 -2       855       891      1969      2379
 -1      4999    3    0    1
 -2       380       381      2197      2653
 -1      5000    3    0    1
 -2      1529      1659      1924      2494
 -1      5001    3    0    1
 -2      1101       841      1350      2075
 -1      5002    3    0    1
 -2      1163        16      2101      2201
 -1      5003    3    0    1
 -2      1554      1667      1739      2294
 -1      5004    3    0    1
 -2      1042       351      1045      2077
 -1      5005    3    0    1
 -2       735      1042      1045      2077
 -1      5006    3    0    1
 -2      2376      1664      2418      2508
 -1      5007    3    0    1
 -2       414      2009      2184      2210
 -1      5008    3    0    1
 -2       459       466      2666      2757
 -1      5009    3    0    1
 -2        18      1818      2101      2201
 -1      5010    3    0    1
 -2       351       204      1045      2077
 -1      5011    3    0    1
 -2       415      1055      1647      2341
 -1      5012    3    0    1
 -2       736       735      1045      2077
 -1      5013    3    0    1
 -2       466      2195      2353      2666
 -1      5014    3    0    1
 -2      1804       466      2195      2353
 -1      5015    3    0    1
 -2      1070      1580      1975      2103
 -1      5016    3    0    1
 -2      2092      2258      2839      2840
 -1      5017    3    0    1
 -2      1673      1612      1709      2211
 -1      5018    3    0    1
 -2      1603      1547      1709      2211
 -1      5019    3    0    1
 -2      1096      1163      2034      2201
 -1      5020    3    0    1
 -2       372      1096      1818      2201
 -1      5021    3    0    1
 -2      2332      1850      2791      2832
 -1      5022    3    0    1
 -2      1565      1544      2212      2303
 -1      5023    3    0    1
 -2      1641      1916      2047      2082
 -1      5024    3    0    1
 -2      1916      1641      2005      2082
 -1      5025    3    0    1
 -2      1522      1916      2005      2082
 -1      5026    3    0    1
 -2      1916      1522      2047      2082
 -1      5027    3    0    1
 -2       161       358      2042      2083
 -1      5028    3    0    1
 -2        75      2541      2686      2701
 -1      5029    3    0    1
 -2      1570      1533      1944      2299
 -1      5030    3    0    1
 -2      1257       161      2042      2083
 -1      5031    3    0    1
 -2       654      1257      1852      2083
 -1      5032    3    0    1
 -2       358       161      1013      2083
 -1      5033    3    0    1
 -2      2388      2763      2799      2811
 -1      5034    3    0    1
 -2       654       679      1013      2083
 -1      5035    3    0    1
 -2      1013       161      1257      2083
 -1      5036    3    0    1
 -2       654      1013      1257      2083
 -1      5037    3    0    1
 -2      1669      1598      1981      2085
 -1      5038    3    0    1
 -2      1521      1563      1923      2085
 -1      5039    3    0    1
 -2      1521      1669      1866      2085
 -1      5040    3    0    1
 -2      1521      1866      1963      2085
 -1      5041    3    0    1
 -2      1563      1521      1963      2085
 -1      5042    3    0    1
 -2      1598      1669      1923      2085
 -1      5043    3    0    1
 -2      1669      1521      1923      2085
 -1      5044    3    0    1
 -2      2092      2258      2294      2839
 -1      5045    3    0    1
 -2      1610       285      2014      2165
 -1      5046    3    0    1
 -2      1961      2054      2144      2390
 -1      5047    3    0    1
 -2      2054      1961      2194      2390
 -1      5048    3    0    1
 -2      1739      2258      2294      2430
 -1      5049    3    0    1
 -2      1598      1812      1828      2391
 -1      5050    3    0    1
 -2      1004      1696      2443      2774
 -1      5051    3    0    1
 -2      1857      1664      1995      2167
 -1      5052    3    0    1
 -2      1638      1857      1995      2167
 -1      5053    3    0    1
 -2      1592      2120      2140      2460
 -1      5054    3    0    1
 -2      1598      1679      1981      2391
 -1      5055    3    0    1
 -2       943       364      2412      2681
 -1      5056    3    0    1
 -2      1547      1602      2254      2457
 -1      5057    3    0    1
 -2       140       137      2772      2815
 -1      5058    3    0    1
 -2       288      1090      2014      2165
 -1      5059    3    0    1
 -2      1104       438      2149      2562
 -1      5060    3    0    1
 -2       195      1845      2112      2251
 -1      5061    3    0    1
 -2      1732      1677      1914      2266
 -1      5062    3    0    1
 -2      2013       700      2047      2251
 -1      5063    3    0    1
 -2      1095       288      1610      2165
 -1      5064    3    0    1
 -2       190      2048      2528      2571
 -1      5065    3    0    1
 -2       750       775      1066      2086
 -1      5066    3    0    1
 -2       750      1066      1299      2086
 -1      5067    3    0    1
 -2       285       288      2014      2165
 -1      5068    3    0    1
 -2      1592      2146      2168      2460
 -1      5069    3    0    1
 -2       871      1135       879      2091
 -1      5070    3    0    1
 -2      1983        67      2527      2681
 -1      5071    3    0    1
 -2      2415      1847      2551      2684
 -1      5072    3    0    1
 -2       330      2435      2612      2760
 -1      5073    3    0    1
 -2      1907      1336      1980      2316
 -1      5074    3    0    1
 -2       913      1176       486      2939
 -1      5075    3    0    1
 -2      1636      1083      2072      2316
 -1      5076    3    0    1
 -2      3052      1416      1470      1471
 -1      5077    3    0    1
 -2      1761      1571      2181      2491
 -1      5078    3    0    1
 -2       962       586      1223      2499
 -1      5079    3    0    1
 -2       874       856      2136      2234
 -1      5080    3    0    1
 -2       784      2103      2466      2720
 -1      5081    3    0    1
 -2      1780      1577      2062      2093
 -1      5082    3    0    1
 -2      1198      1983      2282      2693
 -1      5083    3    0    1
 -2       391      1579      1735      2093
 -1      5084    3    0    1
 -2      2189      1722      2506      2739
 -1      5085    3    0    1
 -2      1543      1639      1920      2597
 -1      5086    3    0    1
 -2       926       391      2062      2093
 -1      5087    3    0    1
 -2      1044       736      1826      2546
 -1      5088    3    0    1
 -2       462       463      2040      2098
 -1      5089    3    0    1
 -2      1045      2077      2102      2546
 -1      5090    3    0    1
 -2      2077       735      2210      2546
 -1      5091    3    0    1
 -2      1045       736      2077      2546
 -1      5092    3    0    1
 -2       974       608       606      2099
 -1      5093    3    0    1
 -2       974       606      1235      2099
 -1      5094    3    0    1
 -2      1736      1637      2059      2359
 -1      5095    3    0    1
 -2      1790      1736      1951      2359
 -1      5096    3    0    1
 -2      1972      2325      2381      2434
 -1      5097    3    0    1
 -2      1786      1573      1985      2620
 -1      5098    3    0    1
 -2      1951      1736      2067      2359
 -1      5099    3    0    1
 -2      1005      1002      1714      2443
 -1      5100    3    0    1
 -2      1545      1662      2095      2444
 -1      5101    3    0    1
 -2      1747      1784      2335      2462
 -1      5102    3    0    1
 -2      1838      1931      2064      2759
 -1      5103    3    0    1
 -2      1789      1557      2064      2759
 -1      5104    3    0    1
 -2       640       991      2728      2729
 -1      5105    3    0    1
 -2      1002      1714      2443      2548
 -1      5106    3    0    1
 -2       912      2388      2522      2549
 -1      5107    3    0    1
 -2      2219      1642      2327      2531
 -1      5108    3    0    1
 -2       832      1095      2034      2690
 -1      5109    3    0    1
 -2      1615      2089      2263      2620
 -1      5110    3    0    1
 -2      1575      1573      2556      2620
 -1      5111    3    0    1
 -2      2474      2570      2724      2759
 -1      5112    3    0    1
 -2       664       663      1005      2443
 -1      5113    3    0    1
 -2       964       954      2476      2485
 -1      5114    3    0    1
 -2       929        54      2663      2761
 -1      5115    3    0    1
 -2        16        18       905      2101
 -1      5116    3    0    1
 -2       207       227      1302      2102
 -1      5117    3    0    1
 -2       345      2827      2829      2838
 -1      5118    3    0    1
 -2      1070       784      1948      2103
 -1      5119    3    0    1
 -2      1648       334      2018      2104
 -1      5120    3    0    1
 -2      2325      1782      2381      2434
 -1      5121    3    0    1
 -2      1782       404      2381      2434
 -1      5122    3    0    1
 -2      1827      1606      2544      2572
 -1      5123    3    0    1
 -2       952      2412      2470      2554
 -1      5124    3    0    1
 -2        39      2349      2748      2821
 -1      5125    3    0    1
 -2      1003       991      2432      2700
 -1      5126    3    0    1
 -2       322      1791      2309      2582
 -1      5127    3    0    1
 -2      1310       404      1782      2434
 -1      5128    3    0    1
 -2       627       634       985      2105
 -1      5129    3    0    1
 -2      1248       985       634      2105
 -1      5130    3    0    1
 -2       439       435      1119      2401
 -1      5131    3    0    1
 -2      1880      2367      2535      2578
 -1      5132    3    0    1
 -2       837      2219      2327      2531
 -1      5133    3    0    1
 -2       177       330      2045      2433
 -1      5134    3    0    1
 -2      1017       177      2281      2433
 -1      5135    3    0    1
 -2       251      1760      1975      2695
 -1      5136    3    0    1
 -2       534       938      1839      2282
 -1      5137    3    0    1
 -2       772      1064      2602      2768
 -1      5138    3    0    1
 -2      1786      1985      2125      2215
 -1      5139    3    0    1
 -2      1563      1923      2367      2578
 -1      5140    3    0    1
 -2      1734      2300      2475      2636
 -1      5141    3    0    1
 -2      1734      1578      2300      2636
 -1      5142    3    0    1
 -2       858       875      2313      2630
 -1      5143    3    0    1
 -2      1563      1742      1923      2578
 -1      5144    3    0    1
 -2      1806      1803      2032      2113
 -1      5145    3    0    1
 -2       259      1806      2032      2113
 -1      5146    3    0    1
 -2      1586      1605      2032      2113
 -1      5147    3    0    1
 -2       263      1605      1715      2113
 -1      5148    3    0    1
 -2      1605       259      2032      2113
 -1      5149    3    0    1
 -2       263       259      1605      2113
 -1      5150    3    0    1
 -2      1348       839      1347      2114
 -1      5151    3    0    1
 -2      2537      2591      2678      2750
 -1      5152    3    0    1
 -2       839      1348       840      2114
 -1      5153    3    0    1
 -2      2526       514      2687      2715
 -1      5154    3    0    1
 -2      2250      1312      2473      2857
 -1      5155    3    0    1
 -2       972       603      2362      2677
 -1      5156    3    0    1
 -2      2148      2240      2262      2439
 -1      5157    3    0    1
 -2      2860      2175      2862      2871
 -1      5158    3    0    1
 -2      1176      2119      1413      1414
 -1      5159    3    0    1
 -2      1545      2338      2607      2640
 -1      5160    3    0    1
 -2      1694      1522      1854      2141
 -1      5161    3    0    1
 -2      2869      2438      2887      3074
 -1      5162    3    0    1
 -2      1014       323      2357      2440
 -1      5163    3    0    1
 -2      1657      2145      2338      2447
 -1      5164    3    0    1
 -2      1995      1552      2006      2142
 -1      5165    3    0    1
 -2      1522      1999      2005      2141
 -1      5166    3    0    1
 -2      1522      1750      1999      2141
 -1      5167    3    0    1
 -2       404      1067      1310      2154
 -1      5168    3    0    1
 -2      1522      1694      1750      2141
 -1      5169    3    0    1
 -2      1794      1592      2146      2168
 -1      5170    3    0    1
 -2      1630      1552      1691      2142
 -1      5171    3    0    1
 -2       989       137       992      2815
 -1      5172    3    0    1
 -2       382        80       954      2633
 -1      5173    3    0    1
 -2      1669      1521      1866      2124
 -1      5174    3    0    1
 -2      1859       384      2511      2590
 -1      5175    3    0    1
 -2      1821      1525      1946      2557
 -1      5176    3    0    1
 -2      1811      1799      2107      2125
 -1      5177    3    0    1
 -2       175      2001      2396      2559
 -1      5178    3    0    1
 -2      2036      2230      2242      2597
 -1      5179    3    0    1
 -2      1865      1525      1806      1936
 -1      5180    3    0    1
 -2      1597      1811      2107      2125
 -1      5181    3    0    1
 -2      1985      1597      2107      2125
 -1      5182    3    0    1
 -2       664      1004      2443      2461
 -1      5183    3    0    1
 -2      1716       972      2677       125
 -1      5184    3    0    1
 -2      1738      1755      2329      2379
 -1      5185    3    0    1
 -2      1573      2107      2487      2556
 -1      5186    3    0    1
 -2      1004      2443      2461      2774
 -1      5187    3    0    1
 -2      1799      2107      2125      2556
 -1      5188    3    0    1
 -2      2274       555      2561      2789
 -1      5189    3    0    1
 -2      2229      1575      2263      2487
 -1      5190    3    0    1
 -2      1592      1794      2146      2260
 -1      5191    3    0    1
 -2       282       373      1980      2129
 -1      5192    3    0    1
 -2       373       282      1333      2129
 -1      5193    3    0    1
 -2      1585      1548      1686      2130
 -1      5194    3    0    1
 -2       418      2704      2808      2809
 -1      5195    3    0    1
 -2      1370      1384      1809      2234
 -1      5196    3    0    1
 -2      1686       389      1797      2130
 -1      5197    3    0    1
 -2      1585      1686      1797      2130
 -1      5198    3    0    1
 -2      2397      2002      2537      2678
 -1      5199    3    0    1
 -2      1585      1548      2130      2131
 -1      5200    3    0    1
 -2      2034      1095      2347      2690
 -1      5201    3    0    1
 -2      2051      1660      1546      2084
 -1      5202    3    0    1
 -2        13        17       907      2445
 -1      5203    3    0    1
 -2      1660      2051      1546      2132
 -1      5204    3    0    1
 -2      1025       700      2013      2133
 -1      5205    3    0    1
 -2      1025      2013      2041      2133
 -1      5206    3    0    1
 -2       700      1025      1029      2133
 -1      5207    3    0    1
 -2      1029      1025      1729      2133
 -1      5208    3    0    1
 -2       185      1025      2041      2133
 -1      5209    3    0    1
 -2      1025       185      1729      2133
 -1      5210    3    0    1
 -2      1729       185      2041      2133
 -1      5211    3    0    1
 -2      1793       840      1903      2134
 -1      5212    3    0    1
 -2       295      1645      1670      2134
 -1      5213    3    0    1
 -2      1349       295      1670      2134
 -1      5214    3    0    1
 -2      1349      1346      1903      2134
 -1      5215    3    0    1
 -2      1346      1349      1670      2134
 -1      5216    3    0    1
 -2      2041      1999      2082      2279
 -1      5217    3    0    1
 -2      1132       856      1110      2136
 -1      5218    3    0    1
 -2       177      2045      2240      2281
 -1      5219    3    0    1
 -2       856      1132       874      2136
 -1      5220    3    0    1
 -2       174       177      2240      2281
 -1      5221    3    0    1
 -2      1159       906       459      2573
 -1      5222    3    0    1
 -2       399      1145      2149      2562
 -1      5223    3    0    1
 -2      1026      1845      2013      2137
 -1      5224    3    0    1
 -2       700      1026      2013      2137
 -1      5225    3    0    1
 -2      1026      1279      1845      2137
 -1      5226    3    0    1
 -2      1026       700      1279      2137
 -1      5227    3    0    1
 -2      1532      1013      2423      2661
 -1      5228    3    0    1
 -2      1875      1623      1879      2138
 -1      5229    3    0    1
 -2      2062      1879      2093      2138
 -1      5230    3    0    1
 -2      1623      1735      1879      2138
 -1      5231    3    0    1
 -2      1879      1735      2093      2138
 -1      5232    3    0    1
 -2      1738      1905      2181      2491
 -1      5233    3    0    1
 -2      1751      1702      1766      2180
 -1      5234    3    0    1
 -2       289      1783      2501      2674
 -1      5235    3    0    1
 -2      1743      1663      2108      2237
 -1      5236    3    0    1
 -2      1766      1650      1769      2171
 -1      5237    3    0    1
 -2       366       381      2498      2743
 -1      5238    3    0    1
 -2      2713       519      2777      2835
 -1      5239    3    0    1
 -2      1750      1652      1999      2395
 -1      5240    3    0    1
 -2      1067       241      1799      2154
 -1      5241    3    0    1
 -2      1799       241      1842      2154
 -1      5242    3    0    1
 -2      2337      1999      2382      2395
 -1      5243    3    0    1
 -2      1691      1552      1995      2142
 -1      5244    3    0    1
 -2      2431      1245      2464      2702
 -1      5245    3    0    1
 -2      2544        86      2572      2699
 -1      5246    3    0    1
 -2      1887      1821      1946      2455
 -1      5247    3    0    1
 -2       331      1729      1949      2144
 -1      5248    3    0    1
 -2       331      1029      1729      2144
 -1      5249    3    0    1
 -2      1746      1093      1748      2343
 -1      5250    3    0    1
 -2      1374      1151      1567      2246
 -1      5251    3    0    1
 -2       802      1785      2192      2336
 -1      5252    3    0    1
 -2      1831      1810      2295      2531
 -1      5253    3    0    1
 -2      1700      1565      2303      2339
 -1      5254    3    0    1
 -2      1013      1532      2083      2661
 -1      5255    3    0    1
 -2       293      1099      1345      2531
 -1      5256    3    0    1
 -2       366       381      2650      2652
 -1      5257    3    0    1
 -2      1621      2213      2580      2677
 -1      5258    3    0    1
 -2      1703      1701      1982      2151
 -1      5259    3    0    1
 -2      1380      1630      1691      2153
 -1      5260    3    0    1
 -2      1652      1650      2337      2395
 -1      5261    3    0    1
 -2      1682      1825      2149      2562
 -1      5262    3    0    1
 -2       278       396      1607      2668
 -1      5263    3    0    1
 -2       446       324      1126      2153
 -1      5264    3    0    1
 -2      1393       324      1691      2153
 -1      5265    3    0    1
 -2      1126       324      1393      2153
 -1      5266    3    0    1
 -2      1650      1652      2227      2395
 -1      5267    3    0    1
 -2      1310      1067      1782      2154
 -1      5268    3    0    1
 -2       404      1310      1782      2154
 -1      5269    3    0    1
 -2      1747       417      1918      2385
 -1      5270    3    0    1
 -2       863      1152      1375      2385
 -1      5271    3    0    1
 -2      1600      2354      2524      2533
 -1      5272    3    0    1
 -2       271      1902      1943      2414
 -1      5273    3    0    1
 -2      1613      1634      2017      2566
 -1      5274    3    0    1
 -2       740       750      2942      2951
 -1      5275    3    0    1
 -2       340       341      3059      3066
 -1      5276    3    0    1
 -2      1634      1682      2156      2566
 -1      5277    3    0    1
 -2      2017      2156      2564      2566
 -1      5278    3    0    1
 -2      3059      3040      1478      3066
 -1      5279    3    0    1
 -2      1529        12      2538      2573
 -1      5280    3    0    1
 -2      1650      1769      2171      2227
 -1      5281    3    0    1
 -2      1245       988      2664      2670
 -1      5282    3    0    1
 -2       417      1375      1152      2385
 -1      5283    3    0    1
 -2       584       558      1225      2155
 -1      5284    3    0    1
 -2       558       949      1225      2155
 -1      5285    3    0    1
 -2      3028      1457      1456      1412
 -1      5286    3    0    1
 -2      1807      2156      2563      2564
 -1      5287    3    0    1
 -2      1638      1551      2167      2187
 -1      5288    3    0    1
 -2      1676      1549      2139      2160
 -1      5289    3    0    1
 -2      1000       655      1852      2310
 -1      5290    3    0    1
 -2       655      1000      2043      2310
 -1      5291    3    0    1
 -2       190       335      2048      2571
 -1      5292    3    0    1
 -2      1734      1550      2475      2726
 -1      5293    3    0    1
 -2      2108      1680      2726      2818
 -1      5294    3    0    1
 -2      2052      1625      2053      2162
 -1      5295    3    0    1
 -2      1390      1124      1994      2162
 -1      5296    3    0    1
 -2      1124      1732      1994      2162
 -1      5297    3    0    1
 -2      1388       309       314      2162
 -1      5298    3    0    1
 -2       309      1390       314      2162
 -1      5299    3    0    1
 -2       309      1388      1127      2162
 -1      5300    3    0    1
 -2      1732       309      1914      2162
 -1      5301    3    0    1
 -2      1914      2052      2053      2162
 -1      5302    3    0    1
 -2      1914      1127      2052      2162
 -1      5303    3    0    1
 -2       309      1127      1914      2162
 -1      5304    3    0    1
 -2      1390       309      1124      2162
 -1      5305    3    0    1
 -2      1124       309      1732      2162
 -1      5306    3    0    1
 -2       774       775      1312      2164
 -1      5307    3    0    1
 -2      1311      1066       775      2459
 -1      5308    3    0    1
 -2      1162       400      2069      2353
 -1      5309    3    0    1
 -2      2453       531      2653      2717
 -1      5310    3    0    1
 -2      1648      2018      2047      2251
 -1      5311    3    0    1
 -2      1635      1677      1732      2266
 -1      5312    3    0    1
 -2      1311      1974      2106      2164
 -1      5313    3    0    1
 -2      1311       774      1974      2164
 -1      5314    3    0    1
 -2      1845      2018      2112      2251
 -1      5315    3    0    1
 -2      2146      1592      2260      2460
 -1      5316    3    0    1
 -2      1592      2140      2260      2460
 -1      5317    3    0    1
 -2       651       997      2235      2460
 -1      5318    3    0    1
 -2      1977      2204      2318      2319
 -1      5319    3    0    1
 -2      1602      2139      2254      2457
 -1      5320    3    0    1
 -2       195      1026      1845      2251
 -1      5321    3    0    1
 -2      1026       700      2013      2251
 -1      5322    3    0    1
 -2       392      2764      2811      2835
 -1      5323    3    0    1
 -2      1068       783      1922      2720
 -1      5324    3    0    1
 -2      1110      1132      2136      2628
 -1      5325    3    0    1
 -2      2225        25      2600      2621
 -1      5326    3    0    1
 -2      1615      1595      2089      2208
 -1      5327    3    0    1
 -2       174       317      1016      2170
 -1      5328    3    0    1
 -2       872      1130      1869      2480
 -1      5329    3    0    1
 -2      2015      2002      2397      2592
 -1      5330    3    0    1
 -2      1539      1601      1694      2241
 -1      5331    3    0    1
 -2       266      1636      1978      2316
 -1      5332    3    0    1
 -2      2602       772      2768      2826
 -1      5333    3    0    1
 -2      1595      1985      2089      2208
 -1      5334    3    0    1
 -2      1201       930      1531      2721
 -1      5335    3    0    1
 -2      1595      1615      1644      2208
 -1      5336    3    0    1
 -2      1860      1993      2158      2241
 -1      5337    3    0    1
 -2      1524      1594      1966      2462
 -1      5338    3    0    1
 -2      1601      1539      2191      2241
 -1      5339    3    0    1
 -2      2772       347      2827      2829
 -1      5340    3    0    1
 -2      2087      1884      2089      2263
 -1      5341    3    0    1
 -2      1723      1840      1955      2307
 -1      5342    3    0    1
 -2       953       567      2554      2744
 -1      5343    3    0    1
 -2      1840       724      1955      2307
 -1      5344    3    0    1
 -2       567       544      2554      2744
 -1      5345    3    0    1
 -2      2067      1951      2244      2682
 -1      5346    3    0    1
 -2      1590       712      2400      2528
 -1      5347    3    0    1
 -2       370      1201      1531      2527
 -1      5348    3    0    1
 -2      2068       336      2371      2737
 -1      5349    3    0    1
 -2      1738      1571      1755      2682
 -1      5350    3    0    1
 -2      1032       712      1590      2528
 -1      5351    3    0    1
 -2       832      1096      2034      2372
 -1      5352    3    0    1
 -2      2850      2881      3034      2910
 -1      5353    3    0    1
 -2       370       423      2100      2792
 -1      5354    3    0    1
 -2      2120      2140      2460      2714
 -1      5355    3    0    1
 -2      1291      1535      1970      2184
 -1      5356    3    0    1
 -2      1535       414      2009      2184
 -1      5357    3    0    1
 -2       334      1291      1970      2184
 -1      5358    3    0    1
 -2        66      2174      2477      2688
 -1      5359    3    0    1
 -2        54        41       929      2663
 -1      5360    3    0    1
 -2       603      2213      2362      2677
 -1      5361    3    0    1
 -2      2362      2213      2589      2677
 -1      5362    3    0    1
 -2      2347       907      2448      2560
 -1      5363    3    0    1
 -2      1936      1525      2354      2533
 -1      5364    3    0    1
 -2      1402       853      1107      2407
 -1      5365    3    0    1
 -2       853       890      1971      2407
 -1      5366    3    0    1
 -2      1928      1932      2055      2407
 -1      5367    3    0    1
 -2      1932      2027      2055      2407
 -1      5368    3    0    1
 -2      1769       884      2171      2227
 -1      5369    3    0    1
 -2      2015      2397      2437      2477
 -1      5370    3    0    1
 -2       249      1753      1956      2205
 -1      5371    3    0    1
 -2       712       711      2400      2528
 -1      5372    3    0    1
 -2       819      1877      2026      2467
 -1      5373    3    0    1
 -2       332      1136      1751      2180
 -1      5374    3    0    1
 -2      1396       307       332      2180
 -1      5375    3    0    1
 -2      1396       332      1751      2180
 -1      5376    3    0    1
 -2      1396      1751      1769      2180
 -1      5377    3    0    1
 -2      1726      1921      1952      2492
 -1      5378    3    0    1
 -2      1645      1670      1726      2492
 -1      5379    3    0    1
 -2      2032      2029      2123      2617
 -1      5380    3    0    1
 -2      1739      1667      1792      2183
 -1      5381    3    0    1
 -2      1792      1667      2175      2183
 -1      5382    3    0    1
 -2      1693      1757      1762      2736
 -1      5383    3    0    1
 -2      1453      3027      3046      3077
 -1      5384    3    0    1
 -2       678      1935      2070      2423
 -1      5385    3    0    1
 -2      2003      1683      2175      2662
 -1      5386    3    0    1
 -2      1612      1603      1709      2211
 -1      5387    3    0    1
 -2      1603      1612      1688      2211
 -1      5388    3    0    1
 -2      1661      1804      1934      2504
 -1      5389    3    0    1
 -2      1688      1673      1779      2211
 -1      5390    3    0    1
 -2      1688      1632      1824      2211
 -1      5391    3    0    1
 -2      2218       382      2511      2633
 -1      5392    3    0    1
 -2       334       333      1291      2184
 -1      5393    3    0    1
 -2       889      1634      1682      2186
 -1      5394    3    0    1
 -2      1682      1634      2156      2186
 -1      5395    3    0    1
 -2       851       889      1682      2186
 -1      5396    3    0    1
 -2      1401       298       401      2186
 -1      5397    3    0    1
 -2       851      1401       889      2186
 -1      5398    3    0    1
 -2       298      1401      1105      2186
 -1      5399    3    0    1
 -2       851      1682      2156      2186
 -1      5400    3    0    1
 -2      1105       851      2156      2186
 -1      5401    3    0    1
 -2      1401       851      1105      2186
 -1      5402    3    0    1
 -2      1763      1692      2150      2187
 -1      5403    3    0    1
 -2      1638      1756      1763      2187
 -1      5404    3    0    1
 -2      1756      1692      1763      2187
 -1      5405    3    0    1
 -2      1832      1528      1930      2223
 -1      5406    3    0    1
 -2      2120      2170      2291      2306
 -1      5407    3    0    1
 -2      1555      2202      2286      2587
 -1      5408    3    0    1
 -2      1972      2381      2410      2601
 -1      5409    3    0    1
 -2      1385      1113      1927      2630
 -1      5410    3    0    1
 -2       923      2780      2786      2822
 -1      5411    3    0    1
 -2      1859      2094      2363      2590
 -1      5412    3    0    1
 -2      2285      1651      2577      2631
 -1      5413    3    0    1
 -2      1762      2238      2377      2404
 -1      5414    3    0    1
 -2      2276      1815      2427      2604
 -1      5415    3    0    1
 -2       483      1561      2549      2706
 -1      5416    3    0    1
 -2      2048      1017      2433      2472
 -1      5417    3    0    1
 -2      2121      2123      2264      2617
 -1      5418    3    0    1
 -2      1385      1927      2313      2630
 -1      5419    3    0    1
 -2       778      1067      1873      2190
 -1      5420    3    0    1
 -2      1858       610      2066      2193
 -1      5421    3    0    1
 -2      1597      1725      2125      2215
 -1      5422    3    0    1
 -2       603       971      2302      2580
 -1      5423    3    0    1
 -2       975       389      1541      2193
 -1      5424    3    0    1
 -2       558       560      1839      2326
 -1      5425    3    0    1
 -2       363       228      2008      2525
 -1      5426    3    0    1
 -2       950      1211      2365      2409
 -1      5427    3    0    1
 -2      2077       351      2200      2694
 -1      5428    3    0    1
 -2      2402       193      2598      2694
 -1      5429    3    0    1
 -2      2356       950      2365      2409
 -1      5430    3    0    1
 -2      2326       560      1211       558
 -1      5431    3    0    1
 -2      2409      1211       560       950
 -1      5432    3    0    1
 -2      1389       869       877      2520
 -1      5433    3    0    1
 -2      1379      1389      2012      2520
 -1      5434    3    0    1
 -2      1544      1584      1684      2659
 -1      5435    3    0    1
 -2      2258      2092      2294      2430
 -1      5436    3    0    1
 -2       579       586      1941      2499
 -1      5437    3    0    1
 -2      2004      1557      2280      2375
 -1      5438    3    0    1
 -2      1534      1957      2064      2375
 -1      5439    3    0    1
 -2      2561      1859      2590      2705
 -1      5440    3    0    1
 -2      2608       675      1011      2236
 -1      5441    3    0    1
 -2      2012      1625      2052      2520
 -1      5442    3    0    1
 -2       463       905      2078      2545
 -1      5443    3    0    1
 -2      2306      2170      2627      2639
 -1      5444    3    0    1
 -2      1379      2012      2052      2520
 -1      5445    3    0    1
 -2      2332      2383      2638      2791
 -1      5446    3    0    1
 -2       204       351      1289      2200
 -1      5447    3    0    1
 -2      1289      1583      2102      2200
 -1      5448    3    0    1
 -2       204      1289      2102      2200
 -1      5449    3    0    1
 -2       330      2435      2515      2612
 -1      5450    3    0    1
 -2      2142      1697      2394      2446
 -1      5451    3    0    1
 -2      1772      2010      2223      2348
 -1      5452    3    0    1
 -2      1944      1947      2223      2348
 -1      5453    3    0    1
 -2       372        18      1163      2201
 -1      5454    3    0    1
 -2      1096       372      1163      2201
 -1      5455    3    0    1
 -2      1628      1991      2271      2287
 -1      5456    3    0    1
 -2      1623      1875      1879      2622
 -1      5457    3    0    1
 -2       606       973      2358      2452
 -1      5458    3    0    1
 -2       381       937      2650      2653
 -1      5459    3    0    1
 -2       393      1190      2687      2764
 -1      5460    3    0    1
 -2       273      1085      2954      3008
 -1      5461    3    0    1
 -2      1066      1311      2106      2459
 -1      5462    3    0    1
 -2      1053      1300      1424      3057
 -1      5463    3    0    1
 -2      1769      1576      2228      2320
 -1      5464    3    0    1
 -2      2228      1576      2238      2320
 -1      5465    3    0    1
 -2      1554      1792      2249      2319
 -1      5466    3    0    1
 -2      1677      1914      2266      2725
 -1      5467    3    0    1
 -2       329      1758      2421      2667
 -1      5468    3    0    1
 -2      1858       603      2302      2362
 -1      5469    3    0    1
 -2       603      2213      2302      2362
 -1      5470    3    0    1
 -2      1069       249      1956      2205
 -1      5471    3    0    1
 -2      2763      2799      2811      2835
 -1      5472    3    0    1
 -2       135      1734      1787      2206
 -1      5473    3    0    1
 -2       135      1680      1734      2206
 -1      5474    3    0    1
 -2      1685      1842      1942      2381
 -1      5475    3    0    1
 -2       775      1312      2164      2473
 -1      5476    3    0    1
 -2      1016       687      1017      2207
 -1      5477    3    0    1
 -2      1321       795      1675      2398
 -1      5478    3    0    1
 -2       802      1080      1785      2398
 -1      5479    3    0    1
 -2      1321      1080       795      2398
 -1      5480    3    0    1
 -2       104       961      2463      2514
 -1      5481    3    0    1
 -2      2326      1211      2365      2514
 -1      5482    3    0    1
 -2      2041      1999      2279      2382
 -1      5483    3    0    1
 -2       534       536       938      2282
 -1      5484    3    0    1
 -2       726      1583      2239      2275
 -1      5485    3    0    1
 -2      2126      2127      2177      2600
 -1      5486    3    0    1
 -2      2656      2553      2707      2869
 -1      5487    3    0    1
 -2       861      1141      1116      2762
 -1      5488    3    0    1
 -2       336       962      1223      2499
 -1      5489    3    0    1
 -2      1560      2152      2311      2371
 -1      5490    3    0    1
 -2      1621      2594      2643      2734
 -1      5491    3    0    1
 -2      1532      1268      1886      2423
 -1      5492    3    0    1
 -2        25      2127      2225      2600
 -1      5493    3    0    1
 -2      2076      1608      2222      2296
 -1      5494    3    0    1
 -2      1667      1554      2249      2352
 -1      5495    3    0    1
 -2      1808      1321      1943      2354
 -1      5496    3    0    1
 -2       706      1029      2245      2355
 -1      5497    3    0    1
 -2       372       373      1818      2372
 -1      5498    3    0    1
 -2       269       371      1081      2611
 -1      5499    3    0    1
 -2       146      2643      2655      2734
 -1      5500    3    0    1
 -2      2593      1591      2692      2766
 -1      5501    3    0    1
 -2      1748      2081      2524      2533
 -1      5502    3    0    1
 -2      1211      2326      2365      2409
 -1      5503    3    0    1
 -2      1413      1161      1440      3075
 -1      5504    3    0    1
 -2      1600      1808      1943      2354
 -1      5505    3    0    1
 -2      2449       377      2606      2809
 -1      5506    3    0    1
 -2      1279      2435      2571      2657
 -1      5507    3    0    1
 -2       615       616      2584      2754
 -1      5508    3    0    1
 -2      1756      1378      1774      2446
 -1      5509    3    0    1
 -2       483      1561      2465      2549
 -1      5510    3    0    1
 -2      1299       750      2086      2389
 -1      5511    3    0    1
 -2      1299      1054       750      2389
 -1      5512    3    0    1
 -2        39      1187      2746      2812
 -1      5513    3    0    1
 -2        41       923      2780      2786
 -1      5514    3    0    1
 -2      2222      1608      2454      2638
 -1      5515    3    0    1
 -2      2202       854      1387       876
 -1      5516    3    0    1
 -2       223       227      1054      2389
 -1      5517    3    0    1
 -2      1032      1590      2288      2528
 -1      5518    3    0    1
 -2       363       223      1299      2389
 -1      5519    3    0    1
 -2      1525      1806      1936      2354
 -1      5520    3    0    1
 -2      2776       519      2625       927
 -1      5521    3    0    1
 -2        80       382       948      2218
 -1      5522    3    0    1
 -2       322      1001      2582      2741
 -1      5523    3    0    1
 -2       520       930      2502      2673
 -1      5524    3    0    1
 -2      1865      1803      2557      2617
 -1      5525    3    0    1
 -2      1300       751      2275      2512
 -1      5526    3    0    1
 -2      1258      1968      2298      2486
 -1      5527    3    0    1
 -2       382       384       948      2218
 -1      5528    3    0    1
 -2      2538      1159      2552      2573
 -1      5529    3    0    1
 -2       606      2099      2452      2619
 -1      5530    3    0    1
 -2      1465      1462      1487      2977
 -1      5531    3    0    1
 -2      1932      1928      2055      2221
 -1      5532    3    0    1
 -2      1989      2030      2031      2221
 -1      5533    3    0    1
 -2      1989      1998      2030      2221
 -1      5534    3    0    1
 -2      1989      2031      2055      2221
 -1      5535    3    0    1
 -2      1989      1928      1998      2221
 -1      5536    3    0    1
 -2      1928      1989      2055      2221
 -1      5537    3    0    1
 -2      2207      1017      2433      2513
 -1      5538    3    0    1
 -2      1905      1738      2181      2329
 -1      5539    3    0    1
 -2       735      1042      2077      2429
 -1      5540    3    0    1
 -2       727       726      2239      2275
 -1      5541    3    0    1
 -2      1290       727      2239      2275
 -1      5542    3    0    1
 -2      1290      1039       727      2275
 -1      5543    3    0    1
 -2      1784      1747      2246      2297
 -1      5544    3    0    1
 -2      1151      1567      2246      2297
 -1      5545    3    0    1
 -2      1955      1535      1986      2307
 -1      5546    3    0    1
 -2      1776       702      2239      2312
 -1      5547    3    0    1
 -2      2437      1885      2477      2490
 -1      5548    3    0    1
 -2      1543      1920      2230      2597
 -1      5549    3    0    1
 -2      1592      1537      2260      2357
 -1      5550    3    0    1
 -2      1985      2089      2208      2620
 -1      5551    3    0    1
 -2      1469      1418      1486      3012
 -1      5552    3    0    1
 -2       337      2415      2551      2684
 -1      5553    3    0    1
 -2      1650      1769      2228      2320
 -1      5554    3    0    1
 -2      2123      2029      2264      2617
 -1      5555    3    0    1
 -2       972      1716      2677      2362
 -1      5556    3    0    1
 -2      2163       838      2219      2327
 -1      5557    3    0    1
 -2      1578      1582      1787      2471
 -1      5558    3    0    1
 -2      2010      2323      2468      2641
 -1      5559    3    0    1
 -2      1178       918       496      2510
 -1      5560    3    0    1
 -2        82        85      1211      2226
 -1      5561    3    0    1
 -2       591      2176      2476      2509
 -1      5562    3    0    1
 -2       383        82       961      2226
 -1      5563    3    0    1
 -2       961        82      1211      2226
 -1      5564    3    0    1
 -2      2433      2048      2472      2515
 -1      5565    3    0    1
 -2      2464       136      2474      2724
 -1      5566    3    0    1
 -2       774      1065      1323      2248
 -1      5567    3    0    1
 -2       651      2140      2278      2714
 -1      5568    3    0    1
 -2      1720      1705      1771      2231
 -1      5569    3    0    1
 -2      1771      1705      1798      2231
 -1      5570    3    0    1
 -2      1798      1705      1939      2231
 -1      5571    3    0    1
 -2      1136      1751      2180      2243
 -1      5572    3    0    1
 -2      1637      1984      2059      2232
 -1      5573    3    0    1
 -2      1984      1713      2230      2232
 -1      5574    3    0    1
 -2       336      1533      2068      2411
 -1      5575    3    0    1
 -2      1533       336      2224      2411
 -1      5576    3    0    1
 -2      2238      2228      2337      2382
 -1      5577    3    0    1
 -2       389       118      1797      2233
 -1      5578    3    0    1
 -2      1370      1809      2136      2234
 -1      5579    3    0    1
 -2      1384       856       874      2234
 -1      5580    3    0    1
 -2       856      1370      2136      2234
 -1      5581    3    0    1
 -2       856      1384      1370      2234
 -1      5582    3    0    1
 -2      1791       997      2146      2235
 -1      5583    3    0    1
 -2      1025      2041      2047      2279
 -1      5584    3    0    1
 -2       177       174      1016      2281
 -1      5585    3    0    1
 -2       463       462       905      2545
 -1      5586    3    0    1
 -2      1571      1738      2181      2491
 -1      5587    3    0    1
 -2      2047      2041      2082      2279
 -1      5588    3    0    1
 -2       651       997      1001      2235
 -1      5589    3    0    1
 -2       640       639       992      2728
 -1      5590    3    0    1
 -2      1652      1750      1999      2279
 -1      5591    3    0    1
 -2       118      1796      2233      2489
 -1      5592    3    0    1
 -2      1750      1522      1999      2279
 -1      5593    3    0    1
 -2      1663      1743      2012      2237
 -1      5594    3    0    1
 -2      1565      1700      1744      2339
 -1      5595    3    0    1
 -2      1355      1657      2145      2273
 -1      5596    3    0    1
 -2      1743      1546      2012      2237
 -1      5597    3    0    1
 -2       888       850      1744      2339
 -1      5598    3    0    1
 -2      1659      1679      1924      2321
 -1      5599    3    0    1
 -2      1598      1669      1981      2321
 -1      5600    3    0    1
 -2      2027      1932      2117      2407
 -1      5601    3    0    1
 -2      1289      1040       726      2239
 -1      5602    3    0    1
 -2      1289       726      1583      2239
 -1      5603    3    0    1
 -2      1608      2222      2454      2637
 -1      5604    3    0    1
 -2       702       727      1040      2239
 -1      5605    3    0    1
 -2      1386      1651      2285      2313
 -1      5606    3    0    1
 -2       702      1040      1277      2239
 -1      5607    3    0    1
 -2      1694      1601      1750      2241
 -1      5608    3    0    1
 -2      1750      1601      2141      2241
 -1      5609    3    0    1
 -2      1694      1750      2141      2241
 -1      5610    3    0    1
 -2      1539      1860      2191      2241
 -1      5611    3    0    1
 -2      1860      1694      1993      2241
 -1      5612    3    0    1
 -2      1539      1694      1860      2241
 -1      5613    3    0    1
 -2      1760       371      2416      2695
 -1      5614    3    0    1
 -2      1277       353      1940      2598
 -1      5615    3    0    1
 -2       193      1277      2402      2598
 -1      5616    3    0    1
 -2      1984      2036      2230      2242
 -1      5617    3    0    1
 -2      2689        34      2763      2825
 -1      5618    3    0    1
 -2      1123       866      1702      2243
 -1      5619    3    0    1
 -2       866      1377      1702      2243
 -1      5620    3    0    1
 -2      1702      1377      2180      2243
 -1      5621    3    0    1
 -2      2054      1961      2144      2245
 -1      5622    3    0    1
 -2      1621      2594      2615      2643
 -1      5623    3    0    1
 -2      2148      1270      2240      2439
 -1      5624    3    0    1
 -2      1030      1018      1848      2513
 -1      5625    3    0    1
 -2      2519       544      2554      2742
 -1      5626    3    0    1
 -2       322      1001      2550      2582
 -1      5627    3    0    1
 -2      1671       322      2309      2582
 -1      5628    3    0    1
 -2      2517      2488      2550      2582
 -1      5629    3    0    1
 -2      2294      1554      2352      2436
 -1      5630    3    0    1
 -2      2170      1016      2627      2639
 -1      5631    3    0    1
 -2       146      2589      2635      2643
 -1      5632    3    0    1
 -2       826      1093      1746      2343
 -1      5633    3    0    1
 -2      1279       190      1845      2571
 -1      5634    3    0    1
 -2      2232      1685      2360      2410
 -1      5635    3    0    1
 -2        54       923      2786      2787
 -1      5636    3    0    1
 -2       960       582      2364      2651
 -1      5637    3    0    1
 -2      2015      2397      2477      2490
 -1      5638    3    0    1
 -2       357      1005      1714      2718
 -1      5639    3    0    1
 -2      1210       555      2274      2789
 -1      5640    3    0    1
 -2      1642      1681      2219      2327
 -1      5641    3    0    1
 -2       343       342      2043      2733
 -1      5642    3    0    1
 -2      1738      1755      2181      2329
 -1      5643    3    0    1
 -2      1550      1587      2475      2725
 -1      5644    3    0    1
 -2      1409      2061      1410      2915
 -1      5645    3    0    1
 -2      1177       418      2738      2808
 -1      5646    3    0    1
 -2      2259      1148      2128       892
 -1      5647    3    0    1
 -2      2128      1905      2181      2329
 -1      5648    3    0    1
 -2      2397      2537      2591      2678
 -1      5649    3    0    1
 -2      2891      1422      3029      3044
 -1      5650    3    0    1
 -2       416       190      2528      2571
 -1      5651    3    0    1
 -2      1185      2944      2966      2996
 -1      5652    3    0    1
 -2       429      1459      1468      1506
 -1      5653    3    0    1
 -2      2131      1871      2166      2266
 -1      5654    3    0    1
 -2      1713      1972      2232      2601
 -1      5655    3    0    1
 -2      1677      1635      2166      2266
 -1      5656    3    0    1
 -2      1587      1871      2131      2266
 -1      5657    3    0    1
 -2      1322      1978       283       266
 -1      5658    3    0    1
 -2       798       823      1092      2255
 -1      5659    3    0    1
 -2       283      2255      1322      1092
 -1      5660    3    0    1
 -2      1794       320      2168      2256
 -1      5661    3    0    1
 -2        33        35       912      2689
 -1      5662    3    0    1
 -2      2853      2586      2913      3041
 -1      5663    3    0    1
 -2      2258      2257      2294      2840
 -1      5664    3    0    1
 -2      1554      2352      2436      2553
 -1      5665    3    0    1
 -2      1083      1336      2072      2316
 -1      5666    3    0    1
 -2      1621      2213      2589      2643
 -1      5667    3    0    1
 -2      1654      1555      2111      2587
 -1      5668    3    0    1
 -2      1562      1547      2457      2478
 -1      5669    3    0    1
 -2       952       943      2412      2554
 -1      5670    3    0    1
 -2      1805      1563      1963      2555
 -1      5671    3    0    1
 -2       567       544       943      2554
 -1      5672    3    0    1
 -2      1902      1943      2414      2575
 -1      5673    3    0    1
 -2      1896      1804      2195      2353
 -1      5674    3    0    1
 -2      1748      1821      2081      2533
 -1      5675    3    0    1
 -2      2175      1683      2860      2862
 -1      5676    3    0    1
 -2       973       606      2358      2619
 -1      5677    3    0    1
 -2      1737      1363      2110      2261
 -1      5678    3    0    1
 -2      1527      1737      2110      2261
 -1      5679    3    0    1
 -2      1678      1527      2110      2261
 -1      5680    3    0    1
 -2      1658      1617      1912      2261
 -1      5681    3    0    1
 -2      1617      1658      1678      2261
 -1      5682    3    0    1
 -2      1617      1678      2110      2261
 -1      5683    3    0    1
 -2      1363      1912      2110      2261
 -1      5684    3    0    1
 -2      1912      1617      2110      2261
 -1      5685    3    0    1
 -2      2276      2094      2428      2807
 -1      5686    3    0    1
 -2      1270       317      2240      2262
 -1      5687    3    0    1
 -2      2541        75      2797      2805
 -1      5688    3    0    1
 -2       317      1270      2120      2262
 -1      5689    3    0    1
 -2      1859      2094      2705      2807
 -1      5690    3    0    1
 -2      1573      2087      2089      2263
 -1      5691    3    0    1
 -2      2087      1573      2229      2263
 -1      5692    3    0    1
 -2      1912      1658      2261      2618
 -1      5693    3    0    1
 -2      1143      1363      1912      2618
 -1      5694    3    0    1
 -2      1143      1912      2261      2618
 -1      5695    3    0    1
 -2      1627      2121      2123      2264
 -1      5696    3    0    1
 -2      1627      2123      2182      2264
 -1      5697    3    0    1
 -2      1658      1912      2220      2618
 -1      5698    3    0    1
 -2       140      2043      2733      2815
 -1      5699    3    0    1
 -2       936       531      2453      2717
 -1      5700    3    0    1
 -2      2287      1623      1875      1991
 -1      5701    3    0    1
 -2       651      2140      2235      2278
 -1      5702    3    0    1
 -2      1887      1728      2019      2268
 -1      5703    3    0    1
 -2      2432       991      2728      2732
 -1      5704    3    0    1
 -2      1566      1861      2019      2268
 -1      5705    3    0    1
 -2      1566      1730      1861      2268
 -1      5706    3    0    1
 -2      2173      1187      2746      2821
 -1      5707    3    0    1
 -2      1950      1945      2072      2269
 -1      5708    3    0    1
 -2      1094      1950      2072      2269
 -1      5709    3    0    1
 -2      1950      1094      2056      2269
 -1      5710    3    0    1
 -2      1945      1950      2056      2269
 -1      5711    3    0    1
 -2      1603      1547      2211      2270
 -1      5712    3    0    1
 -2      1633      1603      2211      2270
 -1      5713    3    0    1
 -2      1537      1547      1709      2270
 -1      5714    3    0    1
 -2      1547      1603      1709      2270
 -1      5715    3    0    1
 -2      1537      1709      2147      2270
 -1      5716    3    0    1
 -2      1709      1603      2147      2270
 -1      5717    3    0    1
 -2      1623      1645      1991      2271
 -1      5718    3    0    1
 -2      2104      1876      2112      2288
 -1      5719    3    0    1
 -2      1628      1589      2159      2271
 -1      5720    3    0    1
 -2      1419      2250      1420      3027
 -1      5721    3    0    1
 -2      1032      2104      2112      2288
 -1      5722    3    0    1
 -2       606      1236       973      2452
 -1      5723    3    0    1
 -2      1743      1546      2237      2272
 -1      5724    3    0    1
 -2      1680      1743      2108      2272
 -1      5725    3    0    1
 -2      2108      1743      2237      2272
 -1      5726    3    0    1
 -2      2108      1874      2206      2272
 -1      5727    3    0    1
 -2      2132      1874      2237      2272
 -1      5728    3    0    1
 -2      1874      2108      2237      2272
 -1      5729    3    0    1
 -2      1372       447      1884      2331
 -1      5730    3    0    1
 -2      1149      1372      2074      2331
 -1      5731    3    0    1
 -2      2547       328      2593      2646
 -1      5732    3    0    1
 -2      2051      1546      2237      2542
 -1      5733    3    0    1
 -2      1819      2084      2091      2542
 -1      5734    3    0    1
 -2      1913      1715      2036      2597
 -1      5735    3    0    1
 -2      1365       399       438      2562
 -1      5736    3    0    1
 -2      1582      2300      2471      2636
 -1      5737    3    0    1
 -2       961      1224      2463      2649
 -1      5738    3    0    1
 -2        54        41      2663      2786
 -1      5739    3    0    1
 -2      1130      1869      2480      2730
 -1      5740    3    0    1
 -2      1645      1366      1670      2492
 -1      5741    3    0    1
 -2      1738      1571      1888      2491
 -1      5742    3    0    1
 -2      1905      1575      2229      2491
 -1      5743    3    0    1
 -2        29      1175      2351      2697
 -1      5744    3    0    1
 -2      1941       959      2529      2816
 -1      5745    3    0    1
 -2      2054      1961      2245      2581
 -1      5746    3    0    1
 -2      2300      1582      2471      2489
 -1      5747    3    0    1
 -2       140      2043      2815      2830
 -1      5748    3    0    1
 -2       177      1016      1017      2281
 -1      5749    3    0    1
 -2      1017      1016      2207      2281
 -1      5750    3    0    1
 -2      1572      2214      2325      2434
 -1      5751    3    0    1
 -2      1199       938       536      2282
 -1      5752    3    0    1
 -2      1851      1772      2224      2411
 -1      5753    3    0    1
 -2       939      1983      2100      2282
 -1      5754    3    0    1
 -2       536       939      1881      2282
 -1      5755    3    0    1
 -2      1881       939      2100      2282
 -1      5756    3    0    1
 -2       939      1198      1983      2282
 -1      5757    3    0    1
 -2      1198       939       534      2282
 -1      5758    3    0    1
 -2      1811      1597      1873      2283
 -1      5759    3    0    1
 -2       483       912      2522      2549
 -1      5760    3    0    1
 -2      2352      2436      2553      2656
 -1      5761    3    0    1
 -2      2553      2352      2656      2707
 -1      5762    3    0    1
 -2      2656      2387      2868      2889
 -1      5763    3    0    1
 -2      1549      1671      1676      2739
 -1      5764    3    0    1
 -2      1964       490      2465      2595
 -1      5765    3    0    1
 -2      1609      1640      1674      2607
 -1      5766    3    0    1
 -2      1017       330      2433      2472
 -1      5767    3    0    1
 -2      1641      1916      2005      2314
 -1      5768    3    0    1
 -2      1742      1563      2555      2578
 -1      5769    3    0    1
 -2      1916      1900      2005      2314
 -1      5770    3    0    1
 -2      1386      1651      1831      2285
 -1      5771    3    0    1
 -2       658      1259      2646      2766
 -1      5772    3    0    1
 -2       658      2488      2517      2766
 -1      5773    3    0    1
 -2       962       586      1941      2588
 -1      5774    3    0    1
 -2      1135       879      2091      2345
 -1      5775    3    0    1
 -2       441      1150      1712      2289
 -1      5776    3    0    1
 -2       441      1373      1150      2289
 -1      5777    3    0    1
 -2      1809      1384      1892      2579
 -1      5778    3    0    1
 -2      1696       318      2278      2291
 -1      5779    3    0    1
 -2      1005      2461      2718      2775
 -1      5780    3    0    1
 -2       318       319       998      2291
 -1      5781    3    0    1
 -2      1071       248      1706      2293
 -1      5782    3    0    1
 -2       243      1068      1894      2293
 -1      5783    3    0    1
 -2       243       248      1068      2293
 -1      5784    3    0    1
 -2      1068       248      1071      2293
 -1      5785    3    0    1
 -2      1896      1661      1938      2467
 -1      5786    3    0    1
 -2       784      1820      2103      2293
 -1      5787    3    0    1
 -2      1661      1877      1938      2467
 -1      5788    3    0    1
 -2      1090       819      1783      2467
 -1      5789    3    0    1
 -2      1783       819      2026      2467
 -1      5790    3    0    1
 -2       784      1071      1820      2293
 -1      5791    3    0    1
 -2      1071       784      1068      2293
 -1      5792    3    0    1
 -2       784       783      1068      2293
 -1      5793    3    0    1
 -2      1090      1783      1896      2467
 -1      5794    3    0    1
 -2      2592       538      2680      2784
 -1      5795    3    0    1
 -2      1752      2036      2242      2597
 -1      5796    3    0    1
 -2      1374      1151      2246      2297
 -1      5797    3    0    1
 -2       862      1407       895      2297
 -1      5798    3    0    1
 -2       862       895      1151      2297
 -1      5799    3    0    1
 -2      1118       417      1407      2297
 -1      5800    3    0    1
 -2      1407       862      1118      2297
 -1      5801    3    0    1
 -2      1118       862      2246      2297
 -1      5802    3    0    1
 -2       862      1151      1374      2297
 -1      5803    3    0    1
 -2       440       417      1118      2297
 -1      5804    3    0    1
 -2       440      1118      2246      2297
 -1      5805    3    0    1
 -2      1747       440      2246      2297
 -1      5806    3    0    1
 -2       862      1374      2246      2297
 -1      5807    3    0    1
 -2      1247      2358      1427      3091
 -1      5808    3    0    1
 -2       654       999      1269      2298
 -1      5809    3    0    1
 -2       679       654      1269      2298
 -1      5810    3    0    1
 -2      1528      1640      1674      2299
 -1      5811    3    0    1
 -2       101      1570      2097      2299
 -1      5812    3    0    1
 -2      1609      1570      1674      2299
 -1      5813    3    0    1
 -2      1570      1609      2097      2299
 -1      5814    3    0    1
 -2      1570      1528      1674      2299
 -1      5815    3    0    1
 -2       726      1583      2275      2512
 -1      5816    3    0    1
 -2      1178       496       495      2510
 -1      5817    3    0    1
 -2       319       998      2291      2714
 -1      5818    3    0    1
 -2      1031      1017      2048      2472
 -1      5819    3    0    1
 -2      1608      2076      2222      2637
 -1      5820    3    0    1
 -2      2174        66      2477      2490
 -1      5821    3    0    1
 -2      1332       819      1877      2343
 -1      5822    3    0    1
 -2      1332      1093       819      2343
 -1      5823    3    0    1
 -2       975       971      2193      2302
 -1      5824    3    0    1
 -2        66      2015      2477      2490
 -1      5825    3    0    1
 -2       227      1302      2102      2340
 -1      5826    3    0    1
 -2      1826       759      1868      2660
 -1      5827    3    0    1
 -2      1745      1302      1908      2340
 -1      5828    3    0    1
 -2      1745       759      2340      2660
 -1      5829    3    0    1
 -2       759      1302      1745      2340
 -1      5830    3    0    1
 -2      1908       227      2102      2340
 -1      5831    3    0    1
 -2       906      1804      1836      2504
 -1      5832    3    0    1
 -2      1562      1869      1872      2478
 -1      5833    3    0    1
 -2      1836      1804      2195      2504
 -1      5834    3    0    1
 -2      1835      1934      1996      2504
 -1      5835    3    0    1
 -2      2216       912      2549      2689
 -1      5836    3    0    1
 -2      1927      2631      2630      2577
 -1      5837    3    0    1
 -2      1835      1996      2071      2504
 -1      5838    3    0    1
 -2      1804      1661      2195      2504
 -1      5839    3    0    1
 -2       555      1210      2274      2427
 -1      5840    3    0    1
 -2       322       320      2160      2309
 -1      5841    3    0    1
 -2      1671       322      2160      2309
 -1      5842    3    0    1
 -2      2420      2552      2632      2757
 -1      5843    3    0    1
 -2       654       655      2298      2310
 -1      5844    3    0    1
 -2       655       654      1852      2310
 -1      5845    3    0    1
 -2      1852       654      2298      2310
 -1      5846    3    0    1
 -2      2151      1870      2199      2311
 -1      5847    3    0    1
 -2      1851      1870      2152      2311
 -1      5848    3    0    1
 -2      2068      1851      2152      2311
 -1      5849    3    0    1
 -2      1027      1278      2080      2312
 -1      5850    3    0    1
 -2      1027       702      1278      2312
 -1      5851    3    0    1
 -2      1290      2024      2239      2312
 -1      5852    3    0    1
 -2      1290      1027      2024      2312
 -1      5853    3    0    1
 -2       702       727      2239      2312
 -1      5854    3    0    1
 -2       702       703      1278      2312
 -1      5855    3    0    1
 -2      1278       703      2070      2312
 -1      5856    3    0    1
 -2       727      1290      2239      2312
 -1      5857    3    0    1
 -2       727       702      1027      2312
 -1      5858    3    0    1
 -2       727      1027      1290      2312
 -1      5859    3    0    1
 -2       858      1112      2285      2313
 -1      5860    3    0    1
 -2       858      1386      1112      2313
 -1      5861    3    0    1
 -2      1900      1041      2037      2314
 -1      5862    3    0    1
 -2      2037      1041      2039      2314
 -1      5863    3    0    1
 -2      1404      2128      2259      2315
 -1      5864    3    0    1
 -2      1111      1404      2259      2315
 -1      5865    3    0    1
 -2      2285       858      2313      2630
 -1      5866    3    0    1
 -2      2128      2087      2229      2315
 -1      5867    3    0    1
 -2      1404      2087      2128      2315
 -1      5868    3    0    1
 -2      2290      2122      2606      2632
 -1      5869    3    0    1
 -2      1111       410      1404      2315
 -1      5870    3    0    1
 -2       447       410      1111      2315
 -1      5871    3    0    1
 -2       266       283      1083      2316
 -1      5872    3    0    1
 -2      1527      1867      2028      2317
 -1      5873    3    0    1
 -2      1777      1737      2110      2317
 -1      5874    3    0    1
 -2      1584      1737      1777      2317
 -1      5875    3    0    1
 -2      2028      1777      2110      2317
 -1      5876    3    0    1
 -2      1584      1777      2028      2317
 -1      5877    3    0    1
 -2      2442       137      2772      2829
 -1      5878    3    0    1
 -2      1226      1941      2727      2816
 -1      5879    3    0    1
 -2      1447      1490      1492      3009
 -1      5880    3    0    1
 -2      1431      1432      3002      3095
 -1      5881    3    0    1
 -2      2995      1478      3017      3018
 -1      5882    3    0    1
 -2      2106      1311      2164      2459
 -1      5883    3    0    1
 -2      1030       353      1033      2824
 -1      5884    3    0    1
 -2       396      1833      2346      2495
 -1      5885    3    0    1
 -2      1924      1617      1981      2321
 -1      5886    3    0    1
 -2      1661      1599      1938      2495
 -1      5887    3    0    1
 -2      1877      1332      2346      2495
 -1      5888    3    0    1
 -2      1870      1593      2199      2323
 -1      5889    3    0    1
 -2      2936       570      2980      3001
 -1      5890    3    0    1
 -2       441       443      2289      2469
 -1      5891    3    0    1
 -2      1830      1823      2074      2469
 -1      5892    3    0    1
 -2       443       441      1114      2469
 -1      5893    3    0    1
 -2      1405       859      1114      2469
 -1      5894    3    0    1
 -2      1653      1830      2289      2469
 -1      5895    3    0    1
 -2       859       893      2074      2469
 -1      5896    3    0    1
 -2      1972      1920      2230      2325
 -1      5897    3    0    1
 -2      1572      1543      1920      2325
 -1      5898    3    0    1
 -2      2228      1652      2337      2382
 -1      5899    3    0    1
 -2       205      1540      1993      2609
 -1      5900    3    0    1
 -2      1694      1993      2241      2609
 -1      5901    3    0    1
 -2      2704       908      2809      2834
 -1      5902    3    0    1
 -2      2589      1621      2643      2734
 -1      5903    3    0    1
 -2      2207       688      2513      2658
 -1      5904    3    0    1
 -2      1993      2158      2241      2609
 -1      5905    3    0    1
 -2      1018      1848      2513      2658
 -1      5906    3    0    1
 -2      1474      2980      3001      3021
 -1      5907    3    0    1
 -2      3004      3005      3011      3012
 -1      5908    3    0    1
 -2       263      1639      1715      2597
 -1      5909    3    0    1
 -2       837      1345      1099      2327
 -1      5910    3    0    1
 -2        79      1629      2296      2532
 -1      5911    3    0    1
 -2      2558      1787      2594      2615
 -1      5912    3    0    1
 -2      3042      3032      1450      1473
 -1      5913    3    0    1
 -2       631      1699      2619      2976
 -1      5914    3    0    1
 -2      1371       406       448      2329
 -1      5915    3    0    1
 -2       448       406      1109      2329
 -1      5916    3    0    1
 -2       406      1371      1148      2329
 -1      5917    3    0    1
 -2       406      1148      1755      2329
 -1      5918    3    0    1
 -2      1109       406      1403      2329
 -1      5919    3    0    1
 -2      1471      1416      1476      3068
 -1      5920    3    0    1
 -2      1755      2128      2181      2329
 -1      5921    3    0    1
 -2      1755      1148      2128      2329
 -1      5922    3    0    1
 -2      1148      2259      2128      2329
 -1      5923    3    0    1
 -2      2060      2257      2436      2586
 -1      5924    3    0    1
 -2       387      1358       432      2330
 -1      5925    3    0    1
 -2      1355       387      2273      2330
 -1      5926    3    0    1
 -2      1358       387      1355      2330
 -1      5927    3    0    1
 -2      2173      2333      2752      2822
 -1      5928    3    0    1
 -2       531       937      2583      2653
 -1      5929    3    0    1
 -2      1787      2594      2615      2767
 -1      5930    3    0    1
 -2       328      2115      2593      2646
 -1      5931    3    0    1
 -2      2428      2097      2712      2765
 -1      5932    3    0    1
 -2      2019      1887      2268      2483
 -1      5933    3    0    1
 -2      2432       991      2691      2700
 -1      5934    3    0    1
 -2      2048       335      2472      2515
 -1      5935    3    0    1
 -2      1911      1760      1992      2336
 -1      5936    3    0    1
 -2      1614      2300      2605      2636
 -1      5937    3    0    1
 -2       802      1324      2063      2336
 -1      5938    3    0    1
 -2      1324      1760      2063      2336
 -1      5939    3    0    1
 -2      1324       802      2192      2336
 -1      5940    3    0    1
 -2      1760      1324      2192      2336
 -1      5941    3    0    1
 -2      2238      2228      2320      2337
 -1      5942    3    0    1
 -2       185      1729      2041      2337
 -1      5943    3    0    1
 -2       338      2403      2415      2684
 -1      5944    3    0    1
 -2       383      2226      2463      2484
 -1      5945    3    0    1
 -2       936        62      2305      2383
 -1      5946    3    0    1
 -2      2567       119      2758      2801
 -1      5947    3    0    1
 -2       331       185      2238      2337
 -1      5948    3    0    1
 -2      1144       888      2303      2339
 -1      5949    3    0    1
 -2       850       888      1144      2339
 -1      5950    3    0    1
 -2       888      1700      2303      2339
 -1      5951    3    0    1
 -2       988      2284      2558      2594
 -1      5952    3    0    1
 -2      1874       136      2474      2616
 -1      5953    3    0    1
 -2       736       759      1826      2340
 -1      5954    3    0    1
 -2      1013       679      2423      2661
 -1      5955    3    0    1
 -2       759      1045      1302      2340
 -1      5956    3    0    1
 -2       759       736      1045      2340
 -1      5957    3    0    1
 -2      2007      1647      2143      2341
 -1      5958    3    0    1
 -2      1798      1647      2007      2341
 -1      5959    3    0    1
 -2      1662      1741      2444      2753
 -1      5960    3    0    1
 -2      2145      1545      2444      2753
 -1      5961    3    0    1
 -2        62        66      2503      2688
 -1      5962    3    0    1
 -2      3052      2565      3054      3081
 -1      5963    3    0    1
 -2      1444      1446      1452      2932
 -1      5964    3    0    1
 -2      1443      1436      3065      2958
 -1      5965    3    0    1
 -2       999      1269      2298      2342
 -1      5966    3    0    1
 -2      1968       999      2298      2342
 -1      5967    3    0    1
 -2      2179      2877      1455      3064
 -1      5968    3    0    1
 -2      2438      1447      3079      3084
 -1      5969    3    0    1
 -2      2227      2426      2574      2669
 -1      5970    3    0    1
 -2      1581      2084      2091      2345
 -1      5971    3    0    1
 -2      1817      1581      2091      2345
 -1      5972    3    0    1
 -2      1581      1817      1878      2345
 -1      5973    3    0    1
 -2       871      1878      2044      2345
 -1      5974    3    0    1
 -2      1878      1817      2044      2345
 -1      5975    3    0    1
 -2       871      2044      2091      2345
 -1      5976    3    0    1
 -2      2044      1817      2091      2345
 -1      5977    3    0    1
 -2      1773      1833      1882      2346
 -1      5978    3    0    1
 -2       978       125      1716      2635
 -1      5979    3    0    1
 -2      1332       396      1877      2346
 -1      5980    3    0    1
 -2       396      1730      2277      2346
 -1      5981    3    0    1
 -2      1730      1773      2277      2346
 -1      5982    3    0    1
 -2      1773      1730      1833      2346
 -1      5983    3    0    1
 -2      2621      2267      2622      2626
 -1      5984    3    0    1
 -2       925        53      2351      2496
 -1      5985    3    0    1
 -2      2267      1780      2622      2626
 -1      5986    3    0    1
 -2      1730       396      1833      2346
 -1      5987    3    0    1
 -2      2274       555      2427      2561
 -1      5988    3    0    1
 -2      1886       703      2070      2423
 -1      5989    3    0    1
 -2      1697      1756      1774      2446
 -1      5990    3    0    1
 -2      2034      1095      2088      2347
 -1      5991    3    0    1
 -2      2388      2522      2549      2706
 -1      5992    3    0    1
 -2      1783      1896      2501      2674
 -1      5993    3    0    1
 -2       985       142      2593      2691
 -1      5994    3    0    1
 -2      1313      1542      2505      2675
 -1      5995    3    0    1
 -2       101       336      1533      2499
 -1      5996    3    0    1
 -2      1535      1291      1970      2392
 -1      5997    3    0    1
 -2       289      2674      2735      2793
 -1      5998    3    0    1
 -2      1885      2437      2477      2672
 -1      5999    3    0    1
 -2      2663       393      2713      2764
 -1      6000    3    0    1
 -2       675      2608      1011      2760
 -1      6001    3    0    1
 -2      2147      1698      2270      2698
 -1      6002    3    0    1
 -2      2147      1633      2292      2698
 -1      6003    3    0    1
 -2      2089      1573      2263      2620
 -1      6004    3    0    1
 -2      1976       323      2696      2698
 -1      6005    3    0    1
 -2        75      2541      2701      2805
 -1      6006    3    0    1
 -2      2049      1539      2191      2426
 -1      6007    3    0    1
 -2      2049      2191      2384      2426
 -1      6008    3    0    1
 -2       347       137       989      2442
 -1      6009    3    0    1
 -2      1601      1539      2395      2426
 -1      6010    3    0    1
 -2      1741      1559      2456      2836
 -1      6011    3    0    1
 -2      1896      2353      2501      2674
 -1      6012    3    0    1
 -2       519      2625      2713      2777
 -1      6013    3    0    1
 -2        53       427      1175      2351
 -1      6014    3    0    1
 -2      1859      2363      2485      2511
 -1      6015    3    0    1
 -2       925        53      1175      2351
 -1      6016    3    0    1
 -2      2425       925      2496      2497
 -1      6017    3    0    1
 -2       427        29      1175      2351
 -1      6018    3    0    1
 -2       135      2206      2558      2670
 -1      6019    3    0    1
 -2       988       135      2558      2670
 -1      6020    3    0    1
 -2      2625       927      2634      2831
 -1      6021    3    0    1
 -2      2271      1589      2287      2622
 -1      6022    3    0    1
 -2      1713      1972      2230      2410
 -1      6023    3    0    1
 -2      1984      2059      2232      2410
 -1      6024    3    0    1
 -2       424      1910      2645      2769
 -1      6025    3    0    1
 -2       365        81       950      2356
 -1      6026    3    0    1
 -2      1788      2585      2623      2762
 -1      6027    3    0    1
 -2      1033       193      2802      2824
 -1      6028    3    0    1
 -2      1116      1141      2623      2762
 -1      6029    3    0    1
 -2      2287      2159      2621      2626
 -1      6030    3    0    1
 -2      2230      1984      2232      2410
 -1      6031    3    0    1
 -2       486      1176       487      2939
 -1      6032    3    0    1
 -2      1573      1575      2263      2620
 -1      6033    3    0    1
 -2      1858       972      2362      2603
 -1      6034    3    0    1
 -2       463       452       451      2918
 -1      6035    3    0    1
 -2      1237       972      1858      2603
 -1      6036    3    0    1
 -2      1716       126      2584      2603
 -1      6037    3    0    1
 -2       126       123      2584      2603
 -1      6038    3    0    1
 -2       407       238      1064      2361
 -1      6039    3    0    1
 -2      2645      1910      2752      2769
 -1      6040    3    0    1
 -2      3043      1462      3056      1465
 -1      6041    3    0    1
 -2       238       407      1965      2361
 -1      6042    3    0    1
 -2      1965       407      2205      2361
 -1      6043    3    0    1
 -2       126      1716      2362      2603
 -1      6044    3    0    1
 -2      1934      1804      1996      2504
 -1      6045    3    0    1
 -2      1300      1053      2740      3057
 -1      6046    3    0    1
 -2        85       365       950      2365
 -1      6047    3    0    1
 -2       950       365      2356      2365
 -1      6048    3    0    1
 -2      1916      1900      2314      2366
 -1      6049    3    0    1
 -2      1641      1648      1916      2366
 -1      6050    3    0    1
 -2       730      1970      2039      2366
 -1      6051    3    0    1
 -2      1641      1916      2314      2366
 -1      6052    3    0    1
 -2      1648      1641      1970      2366
 -1      6053    3    0    1
 -2      1291      1648      1970      2366
 -1      6054    3    0    1
 -2       730      1291      1970      2366
 -1      6055    3    0    1
 -2      2039      1641      2314      2366
 -1      6056    3    0    1
 -2      1970      1641      2039      2366
 -1      6057    3    0    1
 -2      2488       658      2550      2648
 -1      6058    3    0    1
 -2      2280      1557      2570      2692
 -1      6059    3    0    1
 -2      1563      1923      2308      2367
 -1      6060    3    0    1
 -2      1923      1917      2308      2367
 -1      6061    3    0    1
 -2      1917      1880      2308      2367
 -1      6062    3    0    1
 -2      1259       651       658      2648
 -1      6063    3    0    1
 -2      1555      1719      2678      2750
 -1      6064    3    0    1
 -2      1582      2471      2580      2767
 -1      6065    3    0    1
 -2      1556      1809      1892      2579
 -1      6066    3    0    1
 -2      1755       406      2329      2379
 -1      6067    3    0    1
 -2       398       301      1347      2369
 -1      6068    3    0    1
 -2      2536      2015      2592      2749
 -1      6069    3    0    1
 -2      2002      2015      2537      2749
 -1      6070    3    0    1
 -2      2169      1741      2530      2797
 -1      6071    3    0    1
 -2      2403      1847      2415      2684
 -1      6072    3    0    1
 -2      2002      2173      2333      2749
 -1      6073    3    0    1
 -2       269      1081      2378      2611
 -1      6074    3    0    1
 -2      1741      1662      2444      2797
 -1      6075    3    0    1
 -2      1096       372      1818      2372
 -1      6076    3    0    1
 -2      1096      1907       831      1336
 -1      6077    3    0    1
 -2       282      1096      1336      2372
 -1      6078    3    0    1
 -2       282      1336      1907      2372
 -1      6079    3    0    1
 -2       137       140       992      2815
 -1      6080    3    0    1
 -2      1880      1598      2308      2391
 -1      6081    3    0    1
 -2      1812      1598      1880      2391
 -1      6082    3    0    1
 -2       688      1017      2207      2513
 -1      6083    3    0    1
 -2       370      1531      2100      2527
 -1      6084    3    0    1
 -2      1904      1951      2067      2682
 -1      6085    3    0    1
 -2      1853      2163      2456      2716
 -1      6086    3    0    1
 -2      1017      1031      2048      2513
 -1      6087    3    0    1
 -2       190      1031      1032      2528
 -1      6088    3    0    1
 -2      1654      2111      2136      2628
 -1      6089    3    0    1
 -2      1583       227      2102      2389
 -1      6090    3    0    1
 -2      1901      2349      2370      2748
 -1      6091    3    0    1
 -2       223      1054      1299      2389
 -1      6092    3    0    1
 -2        39      1579      2746      2748
 -1      6093    3    0    1
 -2      1137      1697      1774      2446
 -1      6094    3    0    1
 -2      1987      2046      2399      2419
 -1      6095    3    0    1
 -2      2079      1987      2399      2419
 -1      6096    3    0    1
 -2      2066      2079      2399      2419
 -1      6097    3    0    1
 -2      1443       155      3038      2922
 -1      6098    3    0    1
 -2       807      1749      2368      2378
 -1      6099    3    0    1
 -2       807      1580      1749      2378
 -1      6100    3    0    1
 -2       807      1081      1580      2378
 -1      6101    3    0    1
 -2       261      1081      1082      2378
 -1      6102    3    0    1
 -2      1081       807      1082      2378
 -1      6103    3    0    1
 -2       808       807      2368      2378
 -1      6104    3    0    1
 -2       807       808      1082      2378
 -1      6105    3    0    1
 -2      1082       808      2368      2378
 -1      6106    3    0    1
 -2       261       271      2414      2683
 -1      6107    3    0    1
 -2      1904      1738      2329      2379
 -1      6108    3    0    1
 -2      1109      1904      2329      2379
 -1      6109    3    0    1
 -2       271      1945      2414      2683
 -1      6110    3    0    1
 -2      1109       855      1904      2379
 -1      6111    3    0    1
 -2      1403       855      1109      2379
 -1      6112    3    0    1
 -2       855      1403       891      2379
 -1      6113    3    0    1
 -2      1629      1559      2456      2530
 -1      6114    3    0    1
 -2      2594      2284      2615      2643
 -1      6115    3    0    1
 -2      1999      2041      2337      2382
 -1      6116    3    0    1
 -2       998      2278      2291      2714
 -1      6117    3    0    1
 -2       988       634      2664      2670
 -1      6118    3    0    1
 -2      1825      1744      2149      2562
 -1      6119    3    0    1
 -2      2431      2464      2692      2702
 -1      6120    3    0    1
 -2      1558      1588      2217      2599
 -1      6121    3    0    1
 -2      1588      1629      1681      2599
 -1      6122    3    0    1
 -2      1580      1070      1975      2695
 -1      6123    3    0    1
 -2      2416       371      2611      2695
 -1      6124    3    0    1
 -2      1588      1681      2217      2599
 -1      6125    3    0    1
 -2      1152       896      1860      2385
 -1      6126    3    0    1
 -2       863       896      1152      2385
 -1      6127    3    0    1
 -2       417      1152      1918      2385
 -1      6128    3    0    1
 -2      1603      1824      1846      2386
 -1      6129    3    0    1
 -2      1603      1846      2292      2386
 -1      6130    3    0    1
 -2       486      2424      2425      2804
 -1      6131    3    0    1
 -2       943       544      2412      2554
 -1      6132    3    0    1
 -2      1742      1563      1805      2555
 -1      6133    3    0    1
 -2      1555      1885      2111      2437
 -1      6134    3    0    1
 -2      1768      1556      2794      2833
 -1      6135    3    0    1
 -2        62        66       936      2503
 -1      6136    3    0    1
 -2       471      1163      2560      2690
 -1      6137    3    0    1
 -2       586       962      1941      2499
 -1      6138    3    0    1
 -2      1996       906      2071      2504
 -1      6139    3    0    1
 -2       582      1224      2247      2651
 -1      6140    3    0    1
 -2       990       639      2728      2756
 -1      6141    3    0    1
 -2      2189      1695      2506      2523
 -1      6142    3    0    1
 -2       322      1001      1791      2550
 -1      6143    3    0    1
 -2      1001       997      1791      2550
 -1      6144    3    0    1
 -2       123       977       978      2584
 -1      6145    3    0    1
 -2      1859       384      2363      2511
 -1      6146    3    0    1
 -2       907       471      2560      2690
 -1      6147    3    0    1
 -2      1778      1722      2506      2523
 -1      6148    3    0    1
 -2      1038      1291      1535      2392
 -1      6149    3    0    1
 -2      1691      1393      2153      2394
 -1      6150    3    0    1
 -2      1657      1358      2145      2447
 -1      6151    3    0    1
 -2      1393      1126      2153      2394
 -1      6152    3    0    1
 -2      1664      1638      1857      2508
 -1      6153    3    0    1
 -2      1999      1652      2382      2395
 -1      6154    3    0    1
 -2      1601      1539      1750      2395
 -1      6155    3    0    1
 -2      1750      1999      2141      2395
 -1      6156    3    0    1
 -2      1601      1750      2141      2395
 -1      6157    3    0    1
 -2      1652      1539      2227      2395
 -1      6158    3    0    1
 -2      1539      1652      1750      2395
 -1      6159    3    0    1
 -2      1544      1565      2011      2659
 -1      6160    3    0    1
 -2      1717      1747      1966      2462
 -1      6161    3    0    1
 -2       175      2658      2001       171
 -1      6162    3    0    1
 -2      1565      2303      2339      2659
 -1      6163    3    0    1
 -2       358       175      1015      2396
 -1      6164    3    0    1
 -2      1594      1717      1966      2462
 -1      6165    3    0    1
 -2      1784      1747      1918      2462
 -1      6166    3    0    1
 -2      2613      2888      3030      3031
 -1      6167    3    0    1
 -2      1906      1545      2095      2444
 -1      6168    3    0    1
 -2      1966      1747      2335      2462
 -1      6169    3    0    1
 -2      1681      1642      2295      2531
 -1      6170    3    0    1
 -2      2642      2874      2914      3043
 -1      6171    3    0    1
 -2      1784      1524      2335      2462
 -1      6172    3    0    1
 -2       610      1847      2399      2415
 -1      6173    3    0    1
 -2      1657      1759       846      2447
 -1      6174    3    0    1
 -2       610      1847      2066      2399
 -1      6175    3    0    1
 -2      1821      1748      1946      2533
 -1      6176    3    0    1
 -2      1129       310      1819      2542
 -1      6177    3    0    1
 -2      1559      1741      2456      2530
 -1      6178    3    0    1
 -2        80       953      2633      2699
 -1      6179    3    0    1
 -2       610      2066      2079      2399
 -1      6180    3    0    1
 -2      1847      2046      2399      2529
 -1      6181    3    0    1
 -2       496       495      2510      2825
 -1      6182    3    0    1
 -2       712      1033      1590      2400
 -1      6183    3    0    1
 -2       712       711      1033      2400
 -1      6184    3    0    1
 -2      2510       495      2719      2825
 -1      6185    3    0    1
 -2        34        35       917      2825
 -1      6186    3    0    1
 -2       579      2046      2499      2529
 -1      6187    3    0    1
 -2      1629      2296      2532      2599
 -1      6188    3    0    1
 -2      1040      1277      2239      2402
 -1      6189    3    0    1
 -2      2239      1277      1776      2402
 -1      6190    3    0    1
 -2      1277      2239      1776       702
 -1      6191    3    0    1
 -2       212       193      1040      2402
 -1      6192    3    0    1
 -2      2296      2222      2532      2599
 -1      6193    3    0    1
 -2       351       212      1040      2402
 -1      6194    3    0    1
 -2      1040       193      1277      2402
 -1      6195    3    0    1
 -2      1932      1928      1971      2407
 -1      6196    3    0    1
 -2       338       123      1237      2403
 -1      6197    3    0    1
 -2      2863      1739      2875      2901
 -1      6198    3    0    1
 -2      2183      1739      2864      2901
 -1      6199    3    0    1
 -2      2119      2116      1413      3037
 -1      6200    3    0    1
 -2      2864      2676      3040      1478
 -1      6201    3    0    1
 -2       479       480       486      2939
 -1      6202    3    0    1
 -2      2451      2863      2875      2901
 -1      6203    3    0    1
 -2       368       367      1498      3084
 -1      6204    3    0    1
 -2      1819      1988      2012      2542
 -1      6205    3    0    1
 -2      2435       335      2515      2612
 -1      6206    3    0    1
 -2       853      1402       890      2407
 -1      6207    3    0    1
 -2      1932      1402      2117      2407
 -1      6208    3    0    1
 -2      1299       363      2389      2525
 -1      6209    3    0    1
 -2      1950      1945      2056      2408
 -1      6210    3    0    1
 -2      1335       403      2014      2408
 -1      6211    3    0    1
 -2      2014       403      2056      2408
 -1      6212    3    0    1
 -2       403      1950      2056      2408
 -1      6213    3    0    1
 -2      1902       271      1943      2408
 -1      6214    3    0    1
 -2       271      1945      1950      2408
 -1      6215    3    0    1
 -2       965       337      2406      2415
 -1      6216    3    0    1
 -2      1943      1950      2196      2408
 -1      6217    3    0    1
 -2       403      1335      2196      2408
 -1      6218    3    0    1
 -2      1950       403      2196      2408
 -1      6219    3    0    1
 -2      1943       271      1950      2408
 -1      6220    3    0    1
 -2      1533      1570      1944      2411
 -1      6221    3    0    1
 -2      1944      1570      2224      2411
 -1      6222    3    0    1
 -2      1944      2224      2348      2411
 -1      6223    3    0    1
 -2      1772      1851      2010      2411
 -1      6224    3    0    1
 -2      2010      1944      2348      2411
 -1      6225    3    0    1
 -2      1772      2010      2348      2411
 -1      6226    3    0    1
 -2      2224      1772      2348      2411
 -1      6227    3    0    1
 -2      1951      1904      2379      2682
 -1      6228    3    0    1
 -2       869      1388       877      2520
 -1      6229    3    0    1
 -2      1738      1755      2379      2682
 -1      6230    3    0    1
 -2       943       364       952      2412
 -1      6231    3    0    1
 -2       520       519      2625      2673
 -1      6232    3    0    1
 -2       364        81       952      2412
 -1      6233    3    0    1
 -2      2048       335      2515      2571
 -1      6234    3    0    1
 -2      1861      1887      2019      2483
 -1      6235    3    0    1
 -2      1861      2019      2268      2483
 -1      6236    3    0    1
 -2      2268      1887      2455      2483
 -1      6237    3    0    1
 -2      2050       977      2406      2684
 -1      6238    3    0    1
 -2       261       271      1077      2414
 -1      6239    3    0    1
 -2      1077       271      1943      2414
 -1      6240    3    0    1
 -2      1190       392      2687      2798
 -1      6241    3    0    1
 -2      1324       371      2063      2416
 -1      6242    3    0    1
 -2      1760      1324      2063      2416
 -1      6243    3    0    1
 -2      1760      2063      2336      2416
 -1      6244    3    0    1
 -2      1911      1760      2336      2416
 -1      6245    3    0    1
 -2       486       487      2424      2804
 -1      6246    3    0    1
 -2      1846      2292      2386      2696
 -1      6247    3    0    1
 -2       371      1324      1760      2416
 -1      6248    3    0    1
 -2        29      2351      2441      2697
 -1      6249    3    0    1
 -2      1961      2194      2390      2418
 -1      6250    3    0    1
 -2      2376      2304      2390      2418
 -1      6251    3    0    1
 -2      2304      1961      2390      2418
 -1      6252    3    0    1
 -2       333      1043      2210      2422
 -1      6253    3    0    1
 -2      1876       334      2184      2422
 -1      6254    3    0    1
 -2       333       334      1043      2422
 -1      6255    3    0    1
 -2      1638      1697      2142      2446
 -1      6256    3    0    1
 -2      1697      1638      2187      2446
 -1      6257    3    0    1
 -2      1977      2352      2656      2204
 -1      6258    3    0    1
 -2      1016       687      2518      2639
 -1      6259    3    0    1
 -2      1857      1664      2508      2667
 -1      6260    3    0    1
 -2        79       951      2532      2596
 -1      6261    3    0    1
 -2      1640      1609      1960      2607
 -1      6262    3    0    1
 -2       647       994      2927      2937
 -1      6263    3    0    1
 -2      2351       918      2510      2776
 -1      6264    3    0    1
 -2       687      1015      2396      2775
 -1      6265    3    0    1
 -2      2194       329      2421      2667
 -1      6266    3    0    1
 -2      2418      2421      2508      2667
 -1      6267    3    0    1
 -2      2145      2338      2447      2607
 -1      6268    3    0    1
 -2      1016      2518      2627      2639
 -1      6269    3    0    1
 -2      1592      1537      2357      2450
 -1      6270    3    0    1
 -2      2260      1592      2357      2450
 -1      6271    3    0    1
 -2       904       462      2040      2424
 -1      6272    3    0    1
 -2       904      2040      2119      2424
 -1      6273    3    0    1
 -2      1176       904      2119      2424
 -1      6274    3    0    1
 -2       487       462      1176      2424
 -1      6275    3    0    1
 -2       462       904      1176      2424
 -1      6276    3    0    1
 -2       512       925      1175      2425
 -1      6277    3    0    1
 -2       486       512      1175      2425
 -1      6278    3    0    1
 -2       795      1675      2398      2575
 -1      6279    3    0    1
 -2      1077      2063      2414      2575
 -1      6280    3    0    1
 -2      1129      1819      2091      2542
 -1      6281    3    0    1
 -2      2300      1582      2605      2636
 -1      6282    3    0    1
 -2       136      2431      2474      2616
 -1      6283    3    0    1
 -2      1608      2454      2540      2637
 -1      6284    3    0    1
 -2      1582      1578      1734      2636
 -1      6285    3    0    1
 -2      2288       712      2344      2429
 -1      6286    3    0    1
 -2      2288      1043      2422      2429
 -1      6287    3    0    1
 -2      1043      2288      2344      2429
 -1      6288    3    0    1
 -2       953      2633      2699      2803
 -1      6289    3    0    1
 -2       712       735      2344      2429
 -1      6290    3    0    1
 -2       735      1043      2344      2429
 -1      6291    3    0    1
 -2      2708      2889      3030      1486
 -1      6292    3    0    1
 -2       783       784      2466      2720
 -1      6293    3    0    1
 -2      2089      1615      2208      2620
 -1      6294    3    0    1
 -2      1236       606       608      2452
 -1      6295    3    0    1
 -2      1803      2032      2123      2617
 -1      6296    3    0    1
 -2       118      1614      1796      2489
 -1      6297    3    0    1
 -2      2176       385      2485      2727
 -1      6298    3    0    1
 -2       106      1859      2485      2727
 -1      6299    3    0    1
 -2       175      1532      2001      2559
 -1      6300    3    0    1
 -2       426      2496      2634      2831
 -1      6301    3    0    1
 -2      2103       784      2293      2720
 -1      6302    3    0    1
 -2      1606      1643      1827      2665
 -1      6303    3    0    1
 -2      1606      2454      2540      2665
 -1      6304    3    0    1
 -2      1827      1643      2544      2665
 -1      6305    3    0    1
 -2       490       915      1964      2465
 -1      6306    3    0    1
 -2      1001       658      2235      2550
 -1      6307    3    0    1
 -2      2216       483      2465      2549
 -1      6308    3    0    1
 -2      2432       663      2443      2548
 -1      6309    3    0    1
 -2      1003       663      1004      2443
 -1      6310    3    0    1
 -2      1003      1004      1696      2443
 -1      6311    3    0    1
 -2       991       640      1003      2432
 -1      6312    3    0    1
 -2      1977      2387      2656      2707
 -1      6313    3    0    1
 -2       640       663      1003      2432
 -1      6314    3    0    1
 -2      1248       146      2655      2734
 -1      6315    3    0    1
 -2      1312      1053      2250      2473
 -1      6316    3    0    1
 -2      1775      1805      1963      2555
 -1      6317    3    0    1
 -2      2977      1176      2978      2984
 -1      6318    3    0    1
 -2      1096      1907      1336      2372
 -1      6319    3    0    1
 -2      3045      1439      3089      3090
 -1      6320    3    0    1
 -2      2003      2458      2848      2867
 -1      6321    3    0    1
 -2       381      2197      2498      2743
 -1      6322    3    0    1
 -2       323       329      1758      2440
 -1      6323    3    0    1
 -2       329       323      1014      2440
 -1      6324    3    0    1
 -2      2016      2687      2755      2811
 -1      6325    3    0    1
 -2        29        32       914      2697
 -1      6326    3    0    1
 -2      1662      2685      2797      2805
 -1      6327    3    0    1
 -2      2376      2418      2421      2508
 -1      6328    3    0    1
 -2       278      1093      1332      2668
 -1      6329    3    0    1
 -2      2363       954      2485      2511
 -1      6330    3    0    1
 -2        13       903      1162      2448
 -1      6331    3    0    1
 -2       323      1014      2357      2450
 -1      6332    3    0    1
 -2      2245      2054      2581      2608
 -1      6333    3    0    1
 -2       868      1137      1378      2446
 -1      6334    3    0    1
 -2      2054      2236      2581      2608
 -1      6335    3    0    1
 -2      1162       903      2420      2448
 -1      6336    3    0    1
 -2      2363      1859      2727      2807
 -1      6337    3    0    1
 -2      1757      1949      2377      2736
 -1      6338    3    0    1
 -2      2006      2386      1630      1552
 -1      6339    3    0    1
 -2      1638      1756      2187      2446
 -1      6340    3    0    1
 -2      1573      1786      2556      2620
 -1      6341    3    0    1
 -2      2581      2245      2608      2760
 -1      6342    3    0    1
 -2       534      1198      2282      2693
 -1      6343    3    0    1
 -2      1557      1789      2280      2570
 -1      6344    3    0    1
 -2      2045      1011      2608      2760
 -1      6345    3    0    1
 -2      1838      2132      2724      2759
 -1      6346    3    0    1
 -2       639       616       989      2442
 -1      6347    3    0    1
 -2       616       979       989      2442
 -1      6348    3    0    1
 -2      1614      1550      2300      2636
 -1      6349    3    0    1
 -2      2300      1578      2471      2636
 -1      6350    3    0    1
 -2      1246       140      2772      2830
 -1      6351    3    0    1
 -2      1174        25      2225      2773
 -1      6352    3    0    1
 -2      2094      2427      2590      2705
 -1      6353    3    0    1
 -2      2427      2276      2604      2705
 -1      6354    3    0    1
 -2      2148      2260      2357      2450
 -1      6355    3    0    1
 -2        17       400       907      2711
 -1      6356    3    0    1
 -2      2522       483      2549      2706
 -1      6357    3    0    1
 -2      1537      1698      2357      2450
 -1      6358    3    0    1
 -2      1014      2148      2357      2450
 -1      6359    3    0    1
 -2       384      2218      2511      2561
 -1      6360    3    0    1
 -2      1555      1885      2437      2591
 -1      6361    3    0    1
 -2       384       948      2218      2561
 -1      6362    3    0    1
 -2      2427      2274      2561      2705
 -1      6363    3    0    1
 -2      2274      2427      2604      2705
 -1      6364    3    0    1
 -2      1537      1592      1698      2450
 -1      6365    3    0    1
 -2      2445        13      2448      2449
 -1      6366    3    0    1
 -2      1577      2373      2568      2706
 -1      6367    3    0    1
 -2      1727      1577      2568      2706
 -1      6368    3    0    1
 -2       377        13       908      2449
 -1      6369    3    0    1
 -2       908        13      2445      2449
 -1      6370    3    0    1
 -2       903      2420      2448      2449
 -1      6371    3    0    1
 -2        13       903      2448      2449
 -1      6372    3    0    1
 -2      1859      2094      2590      2705
 -1      6373    3    0    1
 -2      1545      2145      2444      2607
 -1      6374    3    0    1
 -2      2094      2276      2427      2705
 -1      6375    3    0    1
 -2        13       377       903      2449
 -1      6376    3    0    1
 -2       217      1047      2942      2951
 -1      6377    3    0    1
 -2      1435      1436      2912      3039
 -1      6378    3    0    1
 -2       366       424      2498      2652
 -1      6379    3    0    1
 -2      1200       366      2650      2652
 -1      6380    3    0    1
 -2       948      2218      2561      2789
 -1      6381    3    0    1
 -2       951      2596      2654      2789
 -1      6382    3    0    1
 -2       126       123       978      2584
 -1      6383    3    0    1
 -2      1887      1728      2268      2455
 -1      6384    3    0    1
 -2      2593       985      2647      2702
 -1      6385    3    0    1
 -2      1004      2306      2627      2639
 -1      6386    3    0    1
 -2      2120       319      2291      2714
 -1      6387    3    0    1
 -2      1887      1946      2198      2455
 -1      6388    3    0    1
 -2      1821      1748      2081      2455
 -1      6389    3    0    1
 -2      1748       278      2081      2455
 -1      6390    3    0    1
 -2       940       936      2503      2717
 -1      6391    3    0    1
 -2       940      2503      2680      2717
 -1      6392    3    0    1
 -2       531       936       940      2717
 -1      6393    3    0    1
 -2       538       531       940      2717
 -1      6394    3    0    1
 -2      1629      1588      1681      2456
 -1      6395    3    0    1
 -2      1588      1642      1681      2456
 -1      6396    3    0    1
 -2      1681      1642      1853      2456
 -1      6397    3    0    1
 -2      1588      1559      1853      2456
 -1      6398    3    0    1
 -2      1642      1588      1853      2456
 -1      6399    3    0    1
 -2      2318      2249      2319      2458
 -1      6400    3    0    1
 -2      2204      2318      2319      2458
 -1      6401    3    0    1
 -2      2249      2204      2319      2458
 -1      6402    3    0    1
 -2      1683      2249      2318      2458
 -1      6403    3    0    1
 -2      1683      2003      2249      2458
 -1      6404    3    0    1
 -2       245      1066      2106      2459
 -1      6405    3    0    1
 -2      1894       245      2106      2459
 -1      6406    3    0    1
 -2      1311       775       774      2459
 -1      6407    3    0    1
 -2       774       775      2164      2459
 -1      6408    3    0    1
 -2      1311       774      2164      2459
 -1      6409    3    0    1
 -2      1162      2420       459      2666
 -1      6410    3    0    1
 -2       137      2442      2772      2815
 -1      6411    3    0    1
 -2      1066      1299      2086      2459
 -1      6412    3    0    1
 -2      2159      1589      2600      2626
 -1      6413    3    0    1
 -2      2496        43      2634      2792
 -1      6414    3    0    1
 -2       926       514      2526      2715
 -1      6415    3    0    1
 -2       997      2146      2235      2460
 -1      6416    3    0    1
 -2      2140      2146      2260      2460
 -1      6417    3    0    1
 -2      2146      2140      2235      2460
 -1      6418    3    0    1
 -2      2587       302      1132       378
 -1      6419    3    0    1
 -2       916       495      2209      2719
 -1      6420    3    0    1
 -2      1005       664      2443      2461
 -1      6421    3    0    1
 -2      1714      1005      2443      2461
 -1      6422    3    0    1
 -2      2094      1859      2363      2807
 -1      6423    3    0    1
 -2      2094      2363      2727      2807
 -1      6424    3    0    1
 -2      2688      1850      2747      2832
 -1      6425    3    0    1
 -2       937       531      2650      2653
 -1      6426    3    0    1
 -2       348       104       961      2463
 -1      6427    3    0    1
 -2      2325      1782      2434      2826
 -1      6428    3    0    1
 -2       348       961      1224      2463
 -1      6429    3    0    1
 -2       358      2042      2559      2718
 -1      6430    3    0    1
 -2      1174      1561      2025      2465
 -1      6431    3    0    1
 -2      1174       483      1561      2465
 -1      6432    3    0    1
 -2       490       483      1174      2465
 -1      6433    3    0    1
 -2       997      1001      2235      2550
 -1      6434    3    0    1
 -2      2016      2373      2706      2755
 -1      6435    3    0    1
 -2       915       490      1174      2465
 -1      6436    3    0    1
 -2       915      1174      2025      2465
 -1      6437    3    0    1
 -2      1965       784      2103      2466
 -1      6438    3    0    1
 -2      1201      1531      2527      2721
 -1      6439    3    0    1
 -2      2374      1201      2527      2721
 -1      6440    3    0    1
 -2      1031       711      1032      2528
 -1      6441    3    0    1
 -2       819      1090      1896      2467
 -1      6442    3    0    1
 -2       819      1896      1938      2467
 -1      6443    3    0    1
 -2      1120      1142      1665      2468
 -1      6444    3    0    1
 -2       157       998      1259      2783
 -1      6445    3    0    1
 -2      2676      3040      1478      3091
 -1      6446    3    0    1
 -2       157       328      2547      2783
 -1      6447    3    0    1
 -2      1696       157      2547      2783
 -1      6448    3    0    1
 -2       893      1405      2074      2469
 -1      6449    3    0    1
 -2      1830      2289       441      1712
 -1      6450    3    0    1
 -2       955       567       952      2470
 -1      6451    3    0    1
 -2      1809      2136      2234      2579
 -1      6452    3    0    1
 -2      2140      2120      2291      2714
 -1      6453    3    0    1
 -2       567       955       568      2470
 -1      6454    3    0    1
 -2      1872      1562      2478      2479
 -1      6455    3    0    1
 -2      1869      1562      1872      2480
 -1      6456    3    0    1
 -2        81       365       952      2470
 -1      6457    3    0    1
 -2        81       952      2412      2470
 -1      6458    3    0    1
 -2       750       775      2086      2473
 -1      6459    3    0    1
 -2       775      2164      2459      2473
 -1      6460    3    0    1
 -2      2086       775      2459      2473
 -1      6461    3    0    1
 -2      1977      2204      2771      2850
 -1      6462    3    0    1
 -2      1030      1848      2400      2513
 -1      6463    3    0    1
 -2      1565      1544      2303      2659
 -1      6464    3    0    1
 -2      1584      1544      2011      2659
 -1      6465    3    0    1
 -2      2048       711      2400      2513
 -1      6466    3    0    1
 -2       711      1030      2400      2513
 -1      6467    3    0    1
 -2       750      1053      1312      2473
 -1      6468    3    0    1
 -2       775       750      1312      2473
 -1      6469    3    0    1
 -2        14        16      2101      2810
 -1      6470    3    0    1
 -2      1587      1550      1677      2725
 -1      6471    3    0    1
 -2      1578      1734      2300      2475
 -1      6472    3    0    1
 -2      1734      1578      2108      2475
 -1      6473    3    0    1
 -2      2108      1734      2475      2726
 -1      6474    3    0    1
 -2      1676      2480      2730      2819
 -1      6475    3    0    1
 -2      2122      2595      2606      2808
 -1      6476    3    0    1
 -2      2704       916      2719      2834
 -1      6477    3    0    1
 -2       751      1054      1583      2512
 -1      6478    3    0    1
 -2       989       639      2442      2728
 -1      6479    3    0    1
 -2      1178       495      2441      2510
 -1      6480    3    0    1
 -2       385       964      2176      2485
 -1      6481    3    0    1
 -2      2351        29      2441      2510
 -1      6482    3    0    1
 -2       385       106       964      2485
 -1      6483    3    0    1
 -2       568       591       954      2476
 -1      6484    3    0    1
 -2       954       591       964      2476
 -1      6485    3    0    1
 -2       591       568       963      2476
 -1      6486    3    0    1
 -2       568       955       963      2476
 -1      6487    3    0    1
 -2       436       321      1612      2479
 -1      6488    3    0    1
 -2       321      1382      1139      2479
 -1      6489    3    0    1
 -2      1382      1612      1872      2479
 -1      6490    3    0    1
 -2      1382       321       436      2479
 -1      6491    3    0    1
 -2      1612      1562      1872      2479
 -1      6492    3    0    1
 -2      1382       436      1612      2479
 -1      6493    3    0    1
 -2      1562      1602      2457      2480
 -1      6494    3    0    1
 -2      1602      1549      2139      2480
 -1      6495    3    0    1
 -2        85      2470      2722      2731
 -1      6496    3    0    1
 -2      2470       568      2624      2731
 -1      6497    3    0    1
 -2       138       146      2635      2820
 -1      6498    3    0    1
 -2       955       568      2470      2731
 -1      6499    3    0    1
 -2      1549      1602      1869      2480
 -1      6500    3    0    1
 -2       568       955      2476      2731
 -1      6501    3    0    1
 -2        82      2226      2484      2731
 -1      6502    3    0    1
 -2      1554      2352      2553      2707
 -1      6503    3    0    1
 -2      1554      2319      2352      2707
 -1      6504    3    0    1
 -2      2426      2384      2574      2669
 -1      6505    3    0    1
 -2       278      1607      2268      2483
 -1      6506    3    0    1
 -2      1887       278      2455      2483
 -1      6507    3    0    1
 -2       278      2268      2455      2483
 -1      6508    3    0    1
 -2        29       918      2441      2510
 -1      6509    3    0    1
 -2      1904      1738      2379      2682
 -1      6510    3    0    1
 -2      1190      2526      2687      2780
 -1      6511    3    0    1
 -2       104       383      2463      2484
 -1      6512    3    0    1
 -2       383       104       963      2484
 -1      6513    3    0    1
 -2      1163      2034      2201      2690
 -1      6514    3    0    1
 -2      2105       315      2691      2732
 -1      6515    3    0    1
 -2       383        82      2226      2484
 -1      6516    3    0    1
 -2       955       383       963      2484
 -1      6517    3    0    1
 -2        82       383       955      2484
 -1      6518    3    0    1
 -2      1054       751      2389      2512
 -1      6519    3    0    1
 -2       751       726      2275      2512
 -1      6520    3    0    1
 -2       750      2086      2389      2512
 -1      6521    3    0    1
 -2      1226       959      1941      2816
 -1      6522    3    0    1
 -2      1130      1395      1869      2730
 -1      6523    3    0    1
 -2       954       964      2363      2485
 -1      6524    3    0    1
 -2       964       106      2363      2485
 -1      6525    3    0    1
 -2       751       750      2389      2512
 -1      6526    3    0    1
 -2       146      1248      2655      2820
 -1      6527    3    0    1
 -2       655       986      1258      2486
 -1      6528    3    0    1
 -2      1290      1039      2986      3088
 -1      6529    3    0    1
 -2       655       630       986      2486
 -1      6530    3    0    1
 -2         1         2      2918      2946
 -1      6531    3    0    1
 -2       135      1874      2206      2616
 -1      6532    3    0    1
 -2      1869      1549      2480      2730
 -1      6533    3    0    1
 -2      2589       146      2677      2734
 -1      6534    3    0    1
 -2       639       989       992      2728
 -1      6535    3    0    1
 -2      1782      1310      2434      2826
 -1      6536    3    0    1
 -2       663      1002      2443      2548
 -1      6537    3    0    1
 -2       640       663      2432      2548
 -1      6538    3    0    1
 -2      2471      1787      2615      2767
 -1      6539    3    0    1
 -2       928      2713      2764      2835
 -1      6540    3    0    1
 -2      1016       687      2207      2518
 -1      6541    3    0    1
 -2       345       979      2758      2823
 -1      6542    3    0    1
 -2      1131      1106      1952      2492
 -1      6543    3    0    1
 -2       852      1726      1952      2492
 -1      6544    3    0    1
 -2       852      1131       873      2492
 -1      6545    3    0    1
 -2      1383       852       873      2492
 -1      6546    3    0    1
 -2      1131       852      1106      2492
 -1      6547    3    0    1
 -2      1366      1645      1726      2492
 -1      6548    3    0    1
 -2       852      1366      1726      2492
 -1      6549    3    0    1
 -2       852      1383      1366      2492
 -1      6550    3    0    1
 -2      1106       852      1952      2492
 -1      6551    3    0    1
 -2      1558      2188      2332      2539
 -1      6552    3    0    1
 -2      1659        12      2321      2494
 -1      6553    3    0    1
 -2        12      1669      2321      2494
 -1      6554    3    0    1
 -2      1599      1661      1934      2495
 -1      6555    3    0    1
 -2      1833      1599      1882      2495
 -1      6556    3    0    1
 -2      1833      1882      2346      2495
 -1      6557    3    0    1
 -2      1877      1661      1938      2495
 -1      6558    3    0    1
 -2      1934      1661      2346      2495
 -1      6559    3    0    1
 -2      1882      1934      2346      2495
 -1      6560    3    0    1
 -2      1661      1877      2346      2495
 -1      6561    3    0    1
 -2      1804       906      1996      2504
 -1      6562    3    0    1
 -2        43       426       925      2496
 -1      6563    3    0    1
 -2      1313      1542      1873      2505
 -1      6564    3    0    1
 -2       936        66       940      2503
 -1      6565    3    0    1
 -2        43       925      1188      2496
 -1      6566    3    0    1
 -2       426        53       925      2496
 -1      6567    3    0    1
 -2      1188       510      1881      2497
 -1      6568    3    0    1
 -2       951       555      1210      2789
 -1      6569    3    0    1
 -2      1714      1005      2461      2718
 -1      6570    3    0    1
 -2        62       936      2305      2503
 -1      6571    3    0    1
 -2       119       976      2758      2823
 -1      6572    3    0    1
 -2       366       424       941      2498
 -1      6573    3    0    1
 -2      2197       381      2650      2653
 -1      6574    3    0    1
 -2       544      2519      2554      2744
 -1      6575    3    0    1
 -2       914      1889      2424      2804
 -1      6576    3    0    1
 -2       487       914      2424      2804
 -1      6577    3    0    1
 -2      2253      1788      2265      2762
 -1      6578    3    0    1
 -2      2596       951      2686      2789
 -1      6579    3    0    1
 -2      2330      1116      2623      2762
 -1      6580    3    0    1
 -2      2150      1551      2304      2500
 -1      6581    3    0    1
 -2      1693      1692      2150      2736
 -1      6582    3    0    1
 -2      1313       407      2361      2675
 -1      6583    3    0    1
 -2       249      1753      2205      2675
 -1      6584    3    0    1
 -2       407      2205      2361      2675
 -1      6585    3    0    1
 -2       416       190      1032      2528
 -1      6586    3    0    1
 -2       711      1031      2400      2528
 -1      6587    3    0    1
 -2       941      2374      2498      2502
 -1      6588    3    0    1
 -2       941       543      2374      2502
 -1      6589    3    0    1
 -2      1077       795      1324      2575
 -1      6590    3    0    1
 -2       711       712      1032      2528
 -1      6591    3    0    1
 -2      2124      1866      2538      2552
 -1      6592    3    0    1
 -2      1141       885      2623      2762
 -1      6593    3    0    1
 -2      2353      2069      2501      2674
 -1      6594    3    0    1
 -2       861      2253      2265      2762
 -1      6595    3    0    1
 -2       543       520      1201      2502
 -1      6596    3    0    1
 -2       520       930      1201      2502
 -1      6597    3    0    1
 -2      1753      1733      2022      2505
 -1      6598    3    0    1
 -2      1733       226      2022      2505
 -1      6599    3    0    1
 -2      1671      1534      1957      2506
 -1      6600    3    0    1
 -2      2676      2870      2903      3061
 -1      6601    3    0    1
 -2      2275      1300      2512      2740
 -1      6602    3    0    1
 -2       881      1393      2394      2507
 -1      6603    3    0    1
 -2       868      1393       881      2507
 -1      6604    3    0    1
 -2      1697       881      2394      2507
 -1      6605    3    0    1
 -2      1664      1638      2376      2167
 -1      6606    3    0    1
 -2      1638      1664      2376      2508
 -1      6607    3    0    1
 -2      2176       591      2476       964
 -1      6608    3    0    1
 -2       592       591       963      2509
 -1      6609    3    0    1
 -2       963      2476      2484      2509
 -1      6610    3    0    1
 -2       963       591      2476      2509
 -1      6611    3    0    1
 -2       592       966      2413      2509
 -1      6612    3    0    1
 -2       966       592       963      2509
 -1      6613    3    0    1
 -2      2413       966      2482      2509
 -1      6614    3    0    1
 -2       963       348       966      2509
 -1      6615    3    0    1
 -2       966       348      2482      2509
 -1      6616    3    0    1
 -2       104       963      2484      2509
 -1      6617    3    0    1
 -2      2463       104      2484      2509
 -1      6618    3    0    1
 -2       104      2463      2482      2509
 -1      6619    3    0    1
 -2       348       104      2482      2509
 -1      6620    3    0    1
 -2       104       348       963      2509
 -1      6621    3    0    1
 -2      2600      2225      2621      2626
 -1      6622    3    0    1
 -2      1654      1132      2587      2628
 -1      6623    3    0    1
 -2      2338      1674      2607      2640
 -1      6624    3    0    1
 -2       302      2587      1132      2628
 -1      6625    3    0    1
 -2      2111      1654      2587      2628
 -1      6626    3    0    1
 -2      2226        85      2365      2722
 -1      6627    3    0    1
 -2       392       393      2687      2764
 -1      6628    3    0    1
 -2       393       392       928      2764
 -1      6629    3    0    1
 -2      1671       322      2582      2741
 -1      6630    3    0    1
 -2      2280      2004      2375      2741
 -1      6631    3    0    1
 -2      1671      1957      2004      2741
 -1      6632    3    0    1
 -2       711      1018      1030      2513
 -1      6633    3    0    1
 -2       688       711      1031      2513
 -1      6634    3    0    1
 -2      1017       688      1031      2513
 -1      6635    3    0    1
 -2       558       584       961      2514
 -1      6636    3    0    1
 -2       104       383       961      2514
 -1      6637    3    0    1
 -2       330      2045      2433      2515
 -1      6638    3    0    1
 -2      1752      1913      2036      2597
 -1      6639    3    0    1
 -2       343      1000      1257      2516
 -1      6640    3    0    1
 -2       343       357      1714      2516
 -1      6641    3    0    1
 -2       357       343      1257      2516
 -1      6642    3    0    1
 -2       357      1257      2042      2516
 -1      6643    3    0    1
 -2      1714       357      2042      2516
 -1      6644    3    0    1
 -2      2218      1213      2572      2654
 -1      6645    3    0    1
 -2      2280      1557      2488      2517
 -1      6646    3    0    1
 -2      1643      2453      2540      2583
 -1      6647    3    0    1
 -2      1213      1827      2572      2654
 -1      6648    3    0    1
 -2      2170      1016      2281      2518
 -1      6649    3    0    1
 -2      1555      2111      2587      2628
 -1      6650    3    0    1
 -2       302      1368      2587      2628
 -1      6651    3    0    1
 -2      1368      2286      2587      2628
 -1      6652    3    0    1
 -2       538      2650      2717      2795
 -1      6653    3    0    1
 -2      1341      1340      2523      2745
 -1      6654    3    0    1
 -2      1849      1341      2523      2745
 -1      6655    3    0    1
 -2      1631      1849      2523      2745
 -1      6656    3    0    1
 -2       869      1389      1379      2520
 -1      6657    3    0    1
 -2      1127       869      2052      2520
 -1      6658    3    0    1
 -2      1388       869      1127      2520
 -1      6659    3    0    1
 -2      1704      1051      1622      2109
 -1      6660    3    0    1
 -2      1051      1704      1622      2521
 -1      6661    3    0    1
 -2       754       748      1055      2521
 -1      6662    3    0    1
 -2      1055      2057      2143      2521
 -1      6663    3    0    1
 -2       754      1055      2143      2521
 -1      6664    3    0    1
 -2      2062       926      2093      2813
 -1      6665    3    0    1
 -2      2002      2536      2592      2749
 -1      6666    3    0    1
 -2      1600      1943      2196      2524
 -1      6667    3    0    1
 -2       826      2081      2196      2524
 -1      6668    3    0    1
 -2       223       363      1908      2525
 -1      6669    3    0    1
 -2      1299      2086      2459      2525
 -1      6670    3    0    1
 -2       228       245      1894      2525
 -1      6671    3    0    1
 -2      1894       245      2459      2525
 -1      6672    3    0    1
 -2      1066      1299      2459      2525
 -1      6673    3    0    1
 -2       245      1066      2459      2525
 -1      6674    3    0    1
 -2       228       363      1299      2525
 -1      6675    3    0    1
 -2      1066       228      1299      2525
 -1      6676    3    0    1
 -2       245       228      1066      2525
 -1      6677    3    0    1
 -2       634       627       988      2664
 -1      6678    3    0    1
 -2      1531       370      2100      2792
 -1      6679    3    0    1
 -2      2174      1768      2477      2688
 -1      6680    3    0    1
 -2      2291       319      2306      2774
 -1      6681    3    0    1
 -2      2585      1788      2623      2753
 -1      6682    3    0    1
 -2       507      1190       923      2526
 -1      6683    3    0    1
 -2      1190       507       514      2526
 -1      6684    3    0    1
 -2       514       507       926      2526
 -1      6685    3    0    1
 -2      1188        43      2671      2792
 -1      6686    3    0    1
 -2       423        43      1188      2792
 -1      6687    3    0    1
 -2       926       507      1187      2526
 -1      6688    3    0    1
 -2        43       423      1531      2792
 -1      6689    3    0    1
 -2      1188        43      2496      2671
 -1      6690    3    0    1
 -2      2145      1545      2338      2607
 -1      6691    3    0    1
 -2       795      1321      1675      2575
 -1      6692    3    0    1
 -2       579       959      2399      2529
 -1      6693    3    0    1
 -2      2334       579      2399      2529
 -1      6694    3    0    1
 -2      1866      1801      1963      2552
 -1      6695    3    0    1
 -2      1546      1988      2237      2542
 -1      6696    3    0    1
 -2      2688      1850      2791      2800
 -1      6697    3    0    1
 -2      2020      1662      2169      2530
 -1      6698    3    0    1
 -2      1559      2020      2169      2530
 -1      6699    3    0    1
 -2      1810       293      2327      2531
 -1      6700    3    0    1
 -2      2084      2051      2091      2542
 -1      6701    3    0    1
 -2        79        75      2020      2532
 -1      6702    3    0    1
 -2      2081      1600      2524      2533
 -1      6703    3    0    1
 -2      1821      1936      2081      2533
 -1      6704    3    0    1
 -2      1936      1600      2081      2533
 -1      6705    3    0    1
 -2      2046      1987      2334      2534
 -1      6706    3    0    1
 -2      2606      2122      2808      2809
 -1      6707    3    0    1
 -2      1223      2334      2371      2534
 -1      6708    3    0    1
 -2      2334      1987      2371      2534
 -1      6709    3    0    1
 -2       842       841      2075      2535
 -1      6710    3    0    1
 -2       296      1880      1917      2535
 -1      6711    3    0    1
 -2       394       296      1917      2535
 -1      6712    3    0    1
 -2      1813       841      2367      2535
 -1      6713    3    0    1
 -2      1351       841       842      2535
 -1      6714    3    0    1
 -2       296      1100      1351      2535
 -1      6715    3    0    1
 -2      1100      1917      2367      2535
 -1      6716    3    0    1
 -2       841      1351      1100      2535
 -1      6717    3    0    1
 -2       841      1100      2367      2535
 -1      6718    3    0    1
 -2       296       394      1100      2535
 -1      6719    3    0    1
 -2      1100       394      1917      2535
 -1      6720    3    0    1
 -2      1651      1850      2629      2747
 -1      6721    3    0    1
 -2      2209        35      2689      2825
 -1      6722    3    0    1
 -2      1669      1866      2494      2538
 -1      6723    3    0    1
 -2        12      1669      2494      2538
 -1      6724    3    0    1
 -2        12      1159      2124      2538
 -1      6725    3    0    1
 -2      2257      1554      2436      2553
 -1      6726    3    0    1
 -2      1669        12      2124      2538
 -1      6727    3    0    1
 -2      1643      1606      2076      2540
 -1      6728    3    0    1
 -2       912      2388      2549      2689
 -1      6729    3    0    1
 -2       639      2442      2728      2756
 -1      6730    3    0    1
 -2       977       123      2403      2584
 -1      6731    3    0    1
 -2       936      2305      2453      2540
 -1      6732    3    0    1
 -2      2050       977      2403      2584
 -1      6733    3    0    1
 -2      2453      2305      2454      2540
 -1      6734    3    0    1
 -2      1591      2593      2702      2115
 -1      6735    3    0    1
 -2      2678      2537      2750      2790
 -1      6736    3    0    1
 -2       951      2532      2596      2686
 -1      6737    3    0    1
 -2      1606      2076      2540      2637
 -1      6738    3    0    1
 -2       118      1614      2489      2605
 -1      6739    3    0    1
 -2      2464      1591      2692      2702
 -1      6740    3    0    1
 -2      2647      2431      2692      2702
 -1      6741    3    0    1
 -2       627      2431      2647      2702
 -1      6742    3    0    1
 -2      2420      1162      2448      2666
 -1      6743    3    0    1
 -2      2195      2069      2353      2666
 -1      6744    3    0    1
 -2        12      1159      2538      2573
 -1      6745    3    0    1
 -2      2418      2194      2421      2667
 -1      6746    3    0    1
 -2      2122       418      2808      2809
 -1      6747    3    0    1
 -2        14      1160      1889      2545
 -1      6748    3    0    1
 -2        14       905      1160      2545
 -1      6749    3    0    1
 -2        16        14      2101      2545
 -1      6750    3    0    1
 -2        14        16       905      2545
 -1      6751    3    0    1
 -2       905        16      2101      2545
 -1      6752    3    0    1
 -2      1044      1826      2009      2546
 -1      6753    3    0    1
 -2      1044      2009      2210      2546
 -1      6754    3    0    1
 -2      1003      2432      2443      2547
 -1      6755    3    0    1
 -2      1696      1003      2443      2547
 -1      6756    3    0    1
 -2       985       627      2105      2647
 -1      6757    3    0    1
 -2       355       353      1030      2824
 -1      6758    3    0    1
 -2       157      1003      1696      2547
 -1      6759    3    0    1
 -2      1643      2544      2665      2703
 -1      6760    3    0    1
 -2       157       328      1003      2547
 -1      6761    3    0    1
 -2      2253      2716      2814      2836
 -1      6762    3    0    1
 -2      1850      1651      2629      2644
 -1      6763    3    0    1
 -2      1210        75      2686      2701
 -1      6764    3    0    1
 -2       392       928      2764      2835
 -1      6765    3    0    1
 -2       663       992      1002      2548
 -1      6766    3    0    1
 -2       634      1248      2655      2734
 -1      6767    3    0    1
 -2       663       640       992      2548
 -1      6768    3    0    1
 -2      2488      1001      2517      2550
 -1      6769    3    0    1
 -2        14      1889      2710      2810
 -1      6770    3    0    1
 -2      2095      1906      2444      2685
 -1      6771    3    0    1
 -2      1847       337      2415      2551
 -1      6772    3    0    1
 -2       343      2043      2516      2733
 -1      6773    3    0    1
 -2      1714       343      2516      2733
 -1      6774    3    0    1
 -2      2399      1847      2529      2551
 -1      6775    3    0    1
 -2       959      2399      2529      2551
 -1      6776    3    0    1
 -2       337      1847      2399      2551
 -1      6777    3    0    1
 -2       102       337       959      2551
 -1      6778    3    0    1
 -2       959       337      2399      2551
 -1      6779    3    0    1
 -2      1801      2757      1159       459
 -1      6780    3    0    1
 -2      1236      1409      2885      2915
 -1      6781    3    0    1
 -2      1444      3026      3038      3044
 -1      6782    3    0    1
 -2      3043      1462      1463      3056
 -1      6783    3    0    1
 -2      2202      1387      2286      2587
 -1      6784    3    0    1
 -2       706      2137      2355      2657
 -1      6785    3    0    1
 -2      2553      2887      2897      2908
 -1      6786    3    0    1
 -2       706      1279      2137      2657
 -1      6787    3    0    1
 -2      1809      1556      1892      2577
 -1      6788    3    0    1
 -2       858      1385       875      2630
 -1      6789    3    0    1
 -2      1556      1809      2579      2833
 -1      6790    3    0    1
 -2      1573      1985      2107      2556
 -1      6791    3    0    1
 -2      1828      1658      2220      2618
 -1      6792    3    0    1
 -2      1821      1946      2198      2557
 -1      6793    3    0    1
 -2      1569      1724      2121      2557
 -1      6794    3    0    1
 -2      1724      1569      1946      2557
 -1      6795    3    0    1
 -2      1946      1569      2198      2557
 -1      6796    3    0    1
 -2      1865      1821      2198      2557
 -1      6797    3    0    1
 -2      1569      1865      2198      2557
 -1      6798    3    0    1
 -2       988       135      1787      2558
 -1      6799    3    0    1
 -2       358      2042      2083      2559
 -1      6800    3    0    1
 -2       495      2441      2510      2719
 -1      6801    3    0    1
 -2       175      1013      1532      2559
 -1      6802    3    0    1
 -2      1532      1013      2083      2559
 -1      6803    3    0    1
 -2      1013       358      2083      2559
 -1      6804    3    0    1
 -2       175       358      1013      2559
 -1      6805    3    0    1
 -2       909       471      1163      2560
 -1      6806    3    0    1
 -2       907       471       908      2560
 -1      6807    3    0    1
 -2       907       908      2445      2560
 -1      6808    3    0    1
 -2       400        17      1162      2711
 -1      6809    3    0    1
 -2      2716      2456      2814      2836
 -1      6810    3    0    1
 -2       400      1162      2069      2711
 -1      6811    3    0    1
 -2      1815      1906      2604      2712
 -1      6812    3    0    1
 -2       909       472       471      2560
 -1      6813    3    0    1
 -2       471       472       908      2560
 -1      6814    3    0    1
 -2       908       472      2445      2560
 -1      6815    3    0    1
 -2      2276      1815      2604      2712
 -1      6816    3    0    1
 -2      2069      1162      2666      2711
 -1      6817    3    0    1
 -2       907      2347      2448      2711
 -1      6818    3    0    1
 -2      2687       392      2764      2811
 -1      6819    3    0    1
 -2      2094      2276      2705      2807
 -1      6820    3    0    1
 -2       847      1361       848      2563
 -1      6821    3    0    1
 -2      1360       298      1361      2563
 -1      6822    3    0    1
 -2       847      1690      1807      2563
 -1      6823    3    0    1
 -2      1360       847      1807      2563
 -1      6824    3    0    1
 -2      1361       847      1360      2563
 -1      6825    3    0    1
 -2       401      1807      2186      2563
 -1      6826    3    0    1
 -2       401      1360      1807      2563
 -1      6827    3    0    1
 -2       401       298      1360      2563
 -1      6828    3    0    1
 -2      2927       994      2930      2937
 -1      6829    3    0    1
 -2       339      1441      1444      1481
 -1      6830    3    0    1
 -2      2156      2017      2186      2566
 -1      6831    3    0    1
 -2      1634      2156      2186      2566
 -1      6832    3    0    1
 -2      2017      1634      2186      2566
 -1      6833    3    0    1
 -2       120       119       976      2567
 -1      6834    3    0    1
 -2       510       924      1881      2781
 -1      6835    3    0    1
 -2       193       353      2598      2824
 -1      6836    3    0    1
 -2       592      2050      2413      2567
 -1      6837    3    0    1
 -2       592       615      2050      2567
 -1      6838    3    0    1
 -2       966      2413      2482      2567
 -1      6839    3    0    1
 -2       120       107      1656      2567
 -1      6840    3    0    1
 -2      1656       107      2482      2567
 -1      6841    3    0    1
 -2       966       592      2413      2567
 -1      6842    3    0    1
 -2       107       966      2482      2567
 -1      6843    3    0    1
 -2       615       966       976      2567
 -1      6844    3    0    1
 -2       107       120       976      2567
 -1      6845    3    0    1
 -2       615       592       966      2567
 -1      6846    3    0    1
 -2       966       107       976      2567
 -1      6847    3    0    1
 -2      2280      1789      2464      2570
 -1      6848    3    0    1
 -2       190       416      1845      2571
 -1      6849    3    0    1
 -2      1845       416      2528      2571
 -1      6850    3    0    1
 -2       688      1018      2513      2658
 -1      6851    3    0    1
 -2      1018       171      2001      2658
 -1      6852    3    0    1
 -2       688      1015      1018      2658
 -1      6853    3    0    1
 -2       335      1279      2435      2571
 -1      6854    3    0    1
 -2       335       190      1279      2571
 -1      6855    3    0    1
 -2      1768      2174      2477      2672
 -1      6856    3    0    1
 -2      1885      1654      2111      2794
 -1      6857    3    0    1
 -2        86      1213      1827      2572
 -1      6858    3    0    1
 -2       991       142      2691      2700
 -1      6859    3    0    1
 -2      1836       906      2071      2573
 -1      6860    3    0    1
 -2       466       906      1836      2573
 -1      6861    3    0    1
 -2       466       459       906      2573
 -1      6862    3    0    1
 -2        12       906      1159      2573
 -1      6863    3    0    1
 -2       397      1529      2071      2573
 -1      6864    3    0    1
 -2       906       397      2071      2573
 -1      6865    3    0    1
 -2       397        12      1529      2573
 -1      6866    3    0    1
 -2        12       397       906      2573
 -1      6867    3    0    1
 -2      1077      1324      2063      2575
 -1      6868    3    0    1
 -2       795       802      1324      2575
 -1      6869    3    0    1
 -2      1324       802      2063      2575
 -1      6870    3    0    1
 -2      1943      1902      2354      2575
 -1      6871    3    0    1
 -2       795      1943      2354      2575
 -1      6872    3    0    1
 -2      1321       795      2354      2575
 -1      6873    3    0    1
 -2      1675      1321      1806      2575
 -1      6874    3    0    1
 -2      1806      1321      2354      2575
 -1      6875    3    0    1
 -2       795      1077      1943      2575
 -1      6876    3    0    1
 -2      1710      2290      2606      2632
 -1      6877    3    0    1
 -2       377       903      2449      2632
 -1      6878    3    0    1
 -2      1710      1801      2290      2632
 -1      6879    3    0    1
 -2      2178      1742      2555      2578
 -1      6880    3    0    1
 -2      1711      2178      2555      2578
 -1      6881    3    0    1
 -2      2308      1563      2367      2578
 -1      6882    3    0    1
 -2      1880      2308      2367      2578
 -1      6883    3    0    1
 -2      2178      1711      2367      2578
 -1      6884    3    0    1
 -2      1923      1742      2367      2578
 -1      6885    3    0    1
 -2      1742      2178      2367      2578
 -1      6886    3    0    1
 -2      2122      1710      2290      2606
 -1      6887    3    0    1
 -2      2302       971      2569      2580
 -1      6888    3    0    1
 -2      1177      2216      2595      2808
 -1      6889    3    0    1
 -2      2209       418      2704      2808
 -1      6890    3    0    1
 -2      2471      2213      2489      2580
 -1      6891    3    0    1
 -2      2213      2302      2489      2580
 -1      6892    3    0    1
 -2      2489      2302      2569      2580
 -1      6893    3    0    1
 -2      1993      1540      2158      2609
 -1      6894    3    0    1
 -2       205      1694      1854      2609
 -1      6895    3    0    1
 -2      1540       205      2037      2609
 -1      6896    3    0    1
 -2      1854      1694      2241      2609
 -1      6897    3    0    1
 -2      1957      1671      2309      2582
 -1      6898    3    0    1
 -2       544       942      2519      2744
 -1      6899    3    0    1
 -2       544      2412      2554      2742
 -1      6900    3    0    1
 -2       978       990      2635      2756
 -1      6901    3    0    1
 -2      2388      2522      2706      2755
 -1      6902    3    0    1
 -2       615       977      2050      2584
 -1      6903    3    0    1
 -2       977       615       978      2584
 -1      6904    3    0    1
 -2      2388      2016      2522      2755
 -1      6905    3    0    1
 -2       615       616       978      2584
 -1      6906    3    0    1
 -2      1590      1033      2802      2824
 -1      6907    3    0    1
 -2      2214      2325      2434      2826
 -1      6908    3    0    1
 -2       496       917      2510      2763
 -1      6909    3    0    1
 -2       315       138       991      2732
 -1      6910    3    0    1
 -2       568       954      2038      2624
 -1      6911    3    0    1
 -2       978      1716      2584      2754
 -1      6912    3    0    1
 -2       930        43      1531      2634
 -1      6913    3    0    1
 -2       954      2485      2511      2624
 -1      6914    3    0    1
 -2       302      1387       378      2587
 -1      6915    3    0    1
 -2      1651      2285      2577      2629
 -1      6916    3    0    1
 -2      1387       302      1368      2587
 -1      6917    3    0    1
 -2       664      1004      2627      2639
 -1      6918    3    0    1
 -2      1558      2188      2217      2629
 -1      6919    3    0    1
 -2        35        34       912      2689
 -1      6920    3    0    1
 -2        33       912      1177      2689
 -1      6921    3    0    1
 -2       586       962      2428      2588
 -1      6922    3    0    1
 -2       962      2428      2588      2765
 -1      6923    3    0    1
 -2      1618      1895      1926      2679
 -1      6924    3    0    1
 -2      2511       384      2561      2590
 -1      6925    3    0    1
 -2      1859      2511      2561      2590
 -1      6926    3    0    1
 -2        81      2356      2412      2751
 -1      6927    3    0    1
 -2      2463       348      2482      2649
 -1      6928    3    0    1
 -2        66      2015      2397      2592
 -1      6929    3    0    1
 -2        66       940      2015      2592
 -1      6930    3    0    1
 -2      2583      1643      2665      2703
 -1      6931    3    0    1
 -2       534      1839      2409      2693
 -1      6932    3    0    1
 -2       651      1259       998      2648
 -1      6933    3    0    1
 -2      1449      3037      1448      3078
 -1      6934    3    0    1
 -2       658      2488      2646      2648
 -1      6935    3    0    1
 -2      1259       658      2646      2648
 -1      6936    3    0    1
 -2       658      2235      2550      2648
 -1      6937    3    0    1
 -2       985       142      2115      2593
 -1      6938    3    0    1
 -2       560       534      2409      2693
 -1      6939    3    0    1
 -2      1827        86      2544      2703
 -1      6940    3    0    1
 -2      2235       651      2278      2648
 -1      6941    3    0    1
 -2      2536      2592      2680      2784
 -1      6942    3    0    1
 -2       658       651      2235      2648
 -1      6943    3    0    1
 -2      1802       490      1964      2595
 -1      6944    3    0    1
 -2      1710      2122      2290      2595
 -1      6945    3    0    1
 -2      1802      1710      2290      2595
 -1      6946    3    0    1
 -2      1671      1534      2506      2739
 -1      6947    3    0    1
 -2      1177       490      2122      2595
 -1      6948    3    0    1
 -2       490      1802      2122      2595
 -1      6949    3    0    1
 -2      2122      1802      2290      2595
 -1      6950    3    0    1
 -2      1606       562      2076      2596
 -1      6951    3    0    1
 -2      1187      2173      2333      2821
 -1      6952    3    0    1
 -2      1606      1827      2544      2665
 -1      6953    3    0    1
 -2      2222      2076      2296      2596
 -1      6954    3    0    1
 -2        79      2222      2296      2596
 -1      6955    3    0    1
 -2       562       951      2076      2596
 -1      6956    3    0    1
 -2      2076       951      2296      2596
 -1      6957    3    0    1
 -2       951        79      2296      2596
 -1      6958    3    0    1
 -2      1920      1713      2230      2597
 -1      6959    3    0    1
 -2      2230      1713      2242      2597
 -1      6960    3    0    1
 -2      2036      1543      2230      2597
 -1      6961    3    0    1
 -2      1070       251      1975      2695
 -1      6962    3    0    1
 -2      1580      1081      1948      2695
 -1      6963    3    0    1
 -2      1070      1580      1948      2695
 -1      6964    3    0    1
 -2       193       353      1277      2598
 -1      6965    3    0    1
 -2      2159      1589      2177      2600
 -1      6966    3    0    1
 -2      1589      2126      2177      2600
 -1      6967    3    0    1
 -2      1015      1005      2718      2775
 -1      6968    3    0    1
 -2       427       918      2351      2776
 -1      6969    3    0    1
 -2        25      2159      2177      2600
 -1      6970    3    0    1
 -2      1780      1875      2267      2622
 -1      6971    3    0    1
 -2      1911      1760      1975      2602
 -1      6972    3    0    1
 -2      1760      1911      2214      2602
 -1      6973    3    0    1
 -2       251      1064      1975      2602
 -1      6974    3    0    1
 -2      1760       251      1975      2602
 -1      6975    3    0    1
 -2       772      1064      2214      2602
 -1      6976    3    0    1
 -2      1064      1760      2214      2602
 -1      6977    3    0    1
 -2      1064       251      1760      2602
 -1      6978    3    0    1
 -2       123       126       972      2603
 -1      6979    3    0    1
 -2       972       126      2362      2603
 -1      6980    3    0    1
 -2      2115       985      2593      2702
 -1      6981    3    0    1
 -2       985       627      2647      2702
 -1      6982    3    0    1
 -2      1614      2300      2489      2605
 -1      6983    3    0    1
 -2      2471      1582      2580      2605
 -1      6984    3    0    1
 -2      1582      2471      2489      2605
 -1      6985    3    0    1
 -2      2489      2471      2580      2605
 -1      6986    3    0    1
 -2      2569      2489      2580      2605
 -1      6987    3    0    1
 -2       971      2569      2580      2605
 -1      6988    3    0    1
 -2       118      2489      2569      2605
 -1      6989    3    0    1
 -2       971       118      2569      2605
 -1      6990    3    0    1
 -2        80       382      2218      2633
 -1      6991    3    0    1
 -2       382       954      2511      2633
 -1      6992    3    0    1
 -2       954      2038      2624      2633
 -1      6993    3    0    1
 -2      1003      2432      2547      2700
 -1      6994    3    0    1
 -2        80       953       954      2633
 -1      6995    3    0    1
 -2       954       953      2038      2633
 -1      6996    3    0    1
 -2      2511       954      2624      2633
 -1      6997    3    0    1
 -2      2338      1657      2447      2607
 -1      6998    3    0    1
 -2      1930      1832      2010      2641
 -1      6999    3    0    1
 -2      1674      1657      2338      2607
 -1      7000    3    0    1
 -2      1694       205      1993      2609
 -1      7001    3    0    1
 -2      2286      2202      2370      2610
 -1      7002    3    0    1
 -2      2378       269      2611      2796
 -1      7003    3    0    1
 -2      2536      2002      2592      2785
 -1      7004    3    0    1
 -2      2645      2333      2752      2785
 -1      7005    3    0    1
 -2       371       269      2063      2796
 -1      7006    3    0    1
 -2       357      1714      2042      2718
 -1      7007    3    0    1
 -2      2015      2536      2592      2680
 -1      7008    3    0    1
 -2      2472       330      2515      2612
 -1      7009    3    0    1
 -2       854       876      2202      2770
 -1      7010    3    0    1
 -2       929      2663      2673      2761
 -1      7011    3    0    1
 -2      2245      2435      2608      2612
 -1      7012    3    0    1
 -2      2502       520      2673      2761
 -1      7013    3    0    1
 -2       854      2202      2286      2770
 -1      7014    3    0    1
 -2      1838      1660      1931      2724
 -1      7015    3    0    1
 -2      3036      2904      1479      2931
 -1      7016    3    0    1
 -2      2438      1447      2923      3079
 -1      7017    3    0    1
 -2      2857      2250      1419      3027
 -1      7018    3    0    1
 -2      2204      2614      2771      2851
 -1      7019    3    0    1
 -2      1450      1420      1454      2961
 -1      7020    3    0    1
 -2      1968      3026       999      2342
 -1      7021    3    0    1
 -2      2328      2876      3035      2917
 -1      7022    3    0    1
 -2       137       987      1246      2772
 -1      7023    3    0    1
 -2       385       959      1226      2816
 -1      7024    3    0    1
 -2       630      1699      2310      2830
 -1      7025    3    0    1
 -2       927      2625      2776      2831
 -1      7026    3    0    1
 -2      1803      2121      2557      2617
 -1      7027    3    0    1
 -2      2121      1803      2123      2617
 -1      7028    3    0    1
 -2       395      1363      1143      2618
 -1      7029    3    0    1
 -2      1339       395      1097      2618
 -1      7030    3    0    1
 -2      1912       433      2220      2618
 -1      7031    3    0    1
 -2      1363       395       433      2618
 -1      7032    3    0    1
 -2       395      1339       433      2618
 -1      7033    3    0    1
 -2       433      1339      2220      2618
 -1      7034    3    0    1
 -2      1363       433      1912      2618
 -1      7035    3    0    1
 -2      1557      1789      2570      2759
 -1      7036    3    0    1
 -2      2570      1789      2724      2759
 -1      7037    3    0    1
 -2      1005       664      2461      2775
 -1      7038    3    0    1
 -2      2461       664      2627      2775
 -1      7039    3    0    1
 -2       687      2518      2639      2775
 -1      7040    3    0    1
 -2       631       606       973      2619
 -1      7041    3    0    1
 -2       631       973      1247      2619
 -1      7042    3    0    1
 -2       102      2551      2816      2828
 -1      7043    3    0    1
 -2       319       318      1004      2774
 -1      7044    3    0    1
 -2      1141       387      2330      2623
 -1      7045    3    0    1
 -2       664      1004      2461      2627
 -1      7046    3    0    1
 -2      1875      2287      2621      2622
 -1      7047    3    0    1
 -2      2518      2627      2639      2775
 -1      7048    3    0    1
 -2      2267      1875      2621      2622
 -1      7049    3    0    1
 -2        34      2388      2689      2763
 -1      7050    3    0    1
 -2       929        54      2761      2778
 -1      7051    3    0    1
 -2      2800      1768      1850      2174
 -1      7052    3    0    1
 -2      1561      2225      2568      2773
 -1      7053    3    0    1
 -2      1245       988       627      2664
 -1      7054    3    0    1
 -2      1579        39      2746      2812
 -1      7055    3    0    1
 -2      2529       959      2551      2816
 -1      7056    3    0    1
 -2      1758      1857      2508      2667
 -1      7057    3    0    1
 -2      2421      1758      2508      2667
 -1      7058    3    0    1
 -2       634      2284      2655      2664
 -1      7059    3    0    1
 -2       519       927       930      2625
 -1      7060    3    0    1
 -2      1245      2431      2616      2664
 -1      7061    3    0    1
 -2       520       519       930      2625
 -1      7062    3    0    1
 -2       138       146       990      2635
 -1      7063    3    0    1
 -2       519      2776      2625      2777
 -1      7064    3    0    1
 -2      1187      2526      2746      2812
 -1      7065    3    0    1
 -2      2373      2016      2715      2755
 -1      7066    3    0    1
 -2      1224       974      1656      2788
 -1      7067    3    0    1
 -2      2522      2016      2706      2755
 -1      7068    3    0    1
 -2       496      2510      2776      2777
 -1      7069    3    0    1
 -2       393      1190      2764      2780
 -1      7070    3    0    1
 -2      2585      2330      2623      2762
 -1      7071    3    0    1
 -2      1190       923      2526      2780
 -1      7072    3    0    1
 -2      1801      1710      2552      2632
 -1      7073    3    0    1
 -2       903       459      2420      2632
 -1      7074    3    0    1
 -2       903      2420      2449      2632
 -1      7075    3    0    1
 -2      2267      1780      2626      2773
 -1      7076    3    0    1
 -2      1030      1033      2400      2824
 -1      7077    3    0    1
 -2      2552      1710      2606      2632
 -1      7078    3    0    1
 -2      2449      2420      2606      2632
 -1      7079    3    0    1
 -2      2420      2552      2606      2632
 -1      7080    3    0    1
 -2       142      2115      2691      2700
 -1      7081    3    0    1
 -2       927       930      2625      2634
 -1      7082    3    0    1
 -2       927        43       930      2634
 -1      7083    3    0    1
 -2       426        43       927      2634
 -1      7084    3    0    1
 -2      2510       496      2763      2777
 -1      7085    3    0    1
 -2      1850      2629      2747      2832
 -1      7086    3    0    1
 -2       917        34      2763      2799
 -1      7087    3    0    1
 -2      2553      2869      2887      2908
 -1      7088    3    0    1
 -2      1716       125      2589      2635
 -1      7089    3    0    1
 -2       125       146      2589      2635
 -1      7090    3    0    1
 -2      2188      1558      2332      2644
 -1      7091    3    0    1
 -2       640       992      2548      2729
 -1      7092    3    0    1
 -2      1002      1714      2548      2733
 -1      7093    3    0    1
 -2      1558      2188      2629      2644
 -1      7094    3    0    1
 -2       146      2589      2643      2734
 -1      7095    3    0    1
 -2      2758       345      2823      2829
 -1      7096    3    0    1
 -2      2588      2428      2712      2765
 -1      7097    3    0    1
 -2       125       978       990      2635
 -1      7098    3    0    1
 -2       146       125       990      2635
 -1      7099    3    0    1
 -2       912        34      2388      2689
 -1      7100    3    0    1
 -2      1608      2383      2454      2638
 -1      7101    3    0    1
 -2      2188      2332      2539      2638
 -1      7102    3    0    1
 -2      2539      2222      2599      2638
 -1      7103    3    0    1
 -2      2188      2539      2599      2638
 -1      7104    3    0    1
 -2      1608      2222      2296      2638
 -1      7105    3    0    1
 -2      2296      2222      2539      2638
 -1      7106    3    0    1
 -2      1608      2332      2383      2638
 -1      7107    3    0    1
 -2      2332      1608      2539      2638
 -1      7108    3    0    1
 -2      1608      2296      2539      2638
 -1      7109    3    0    1
 -2      1545      1906      2096      2640
 -1      7110    3    0    1
 -2      2096      1906      2607      2640
 -1      7111    3    0    1
 -2      1906      1545      2444      2640
 -1      7112    3    0    1
 -2      2444      1545      2607      2640
 -1      7113    3    0    1
 -2      1906      2444      2607      2640
 -1      7114    3    0    1
 -2      1665      1120      2468      2641
 -1      7115    3    0    1
 -2      2323      1665      2468      2641
 -1      7116    3    0    1
 -2      1930      2010      2223      2641
 -1      7117    3    0    1
 -2      2223      2010      2468      2641
 -1      7118    3    0    1
 -2      1121      1832      1930      2641
 -1      7119    3    0    1
 -2      1398      1121      1930      2641
 -1      7120    3    0    1
 -2       864      1142      1120      2641
 -1      7121    3    0    1
 -2      1930      2223      2468      2641
 -1      7122    3    0    1
 -2       886      1930      2468      2641
 -1      7123    3    0    1
 -2      1142       864       886      2641
 -1      7124    3    0    1
 -2      1398       864      1121      2641
 -1      7125    3    0    1
 -2      1142       886      2468      2641
 -1      7126    3    0    1
 -2       886      1398      1930      2641
 -1      7127    3    0    1
 -2       864      1398       886      2641
 -1      7128    3    0    1
 -2       318       157      1696      2783
 -1      7129    3    0    1
 -2       318      1696      2278      2783
 -1      7130    3    0    1
 -2      2547       328      2646      2783
 -1      7131    3    0    1
 -2      3054      3052      1470      1471
 -1      7132    3    0    1
 -2      2853      2841      1464      3072
 -1      7133    3    0    1
 -2      2061      1236      2452      2885
 -1      7134    3    0    1
 -2        54      2761      2769      2786
 -1      7135    3    0    1
 -2      2431       627      2647      2664
 -1      7136    3    0    1
 -2      2333      2002      2749      2785
 -1      7137    3    0    1
 -2      2002      2536      2749      2785
 -1      7138    3    0    1
 -2        54      2663      2761      2786
 -1      7139    3    0    1
 -2      1910      2536      2784      2785
 -1      7140    3    0    1
 -2      2333      2173      2752      2785
 -1      7141    3    0    1
 -2      2145      2273      2338      2753
 -1      7142    3    0    1
 -2      1910       424      2645      2784
 -1      7143    3    0    1
 -2      2752      2645      2769      2786
 -1      7144    3    0    1
 -2       998      1259      2278      2648
 -1      7145    3    0    1
 -2       651       998      2278      2648
 -1      7146    3    0    1
 -2       348      1656      2482      2649
 -1      7147    3    0    1
 -2       107      1224      1656      2649
 -1      7148    3    0    1
 -2       348       107      1656      2649
 -1      7149    3    0    1
 -2       961      2463      2514      2649
 -1      7150    3    0    1
 -2      2247       961      2514      2649
 -1      7151    3    0    1
 -2       418       916      2209      2704
 -1      7152    3    0    1
 -2       381       366      2498      2652
 -1      7153    3    0    1
 -2      1210      2274      2686      2789
 -1      7154    3    0    1
 -2       381       380       937      2653
 -1      7155    3    0    1
 -2      2445       908      2449      2704
 -1      7156    3    0    1
 -2      2197       381      2498      2652
 -1      7157    3    0    1
 -2       107       348      1224      2649
 -1      7158    3    0    1
 -2       381      2197      2650      2652
 -1      7159    3    0    1
 -2      2610      2252      2679      2770
 -1      7160    3    0    1
 -2       531       538       937      2650
 -1      7161    3    0    1
 -2       366       381      1200      2650
 -1      7162    3    0    1
 -2      2061       960      2364      2651
 -1      7163    3    0    1
 -2      1236       960      2061      2651
 -1      7164    3    0    1
 -2      1236      2061      2452      2651
 -1      7165    3    0    1
 -2       608       582      1236      2651
 -1      7166    3    0    1
 -2       582       960      1236      2651
 -1      7167    3    0    1
 -2      1894      1068      1922      2720
 -1      7168    3    0    1
 -2      2305        62      2688      2791
 -1      7169    3    0    1
 -2        62      2305      2383      2791
 -1      7170    3    0    1
 -2      1719      2678      2750      2790
 -1      7171    3    0    1
 -2      1343      1344      1853      2716
 -1      7172    3    0    1
 -2      1719      1555      2678      2790
 -1      7173    3    0    1
 -2       562       951      2596      2654
 -1      7174    3    0    1
 -2      2349      2370      2748      2790
 -1      7175    3    0    1
 -2      1555      1719      2370      2790
 -1      7176    3    0    1
 -2      2278      2140      2291      2714
 -1      7177    3    0    1
 -2      2349      1555      2370      2790
 -1      7178    3    0    1
 -2      1213       562      1827      2654
 -1      7179    3    0    1
 -2      1683      2003      2458      2848
 -1      7180    3    0    1
 -2      1933      1977      2387      2656
 -1      7181    3    0    1
 -2      2119      1413      1414      3037
 -1      7182    3    0    1
 -2      3028      1027      1290      1411
 -1      7183    3    0    1
 -2      2301      2891      3029      3044
 -1      7184    3    0    1
 -2      2245       706      2355      2657
 -1      7185    3    0    1
 -2      2435      1279      2612      2657
 -1      7186    3    0    1
 -2      1845      1279      2571      2657
 -1      7187    3    0    1
 -2      1279      1845      2137      2657
 -1      7188    3    0    1
 -2      2245      2435      2612      2657
 -1      7189    3    0    1
 -2      1279       706      2612      2657
 -1      7190    3    0    1
 -2       706      2245      2612      2657
 -1      7191    3    0    1
 -2       687      2207      2518      2658
 -1      7192    3    0    1
 -2      2396       687      2518      2658
 -1      7193    3    0    1
 -2       688       687      1015      2658
 -1      7194    3    0    1
 -2      1015       687      2396      2658
 -1      7195    3    0    1
 -2       175      1015      2396      2658
 -1      7196    3    0    1
 -2      2658       175      2001      2396
 -1      7197    3    0    1
 -2       175       171      1015      2658
 -1      7198    3    0    1
 -2      1144       297      1364      2659
 -1      7199    3    0    1
 -2       437      1144      2303      2659
 -1      7200    3    0    1
 -2       437       297      1144      2659
 -1      7201    3    0    1
 -2       654      1852      2298      2661
 -1      7202    3    0    1
 -2      1852       654      2083      2661
 -1      7203    3    0    1
 -2       678      1935      2423      2661
 -1      7204    3    0    1
 -2       679       678      2423      2661
 -1      7205    3    0    1
 -2       678       679      1935      2661
 -1      7206    3    0    1
 -2      1269       679      2298      2661
 -1      7207    3    0    1
 -2       679      1269      1935      2661
 -1      7208    3    0    1
 -2      1935      1269      2298      2661
 -1      7209    3    0    1
 -2      1515      1479      3014      3024
 -1      7210    3    0    1
 -2       350       203      3042      1473
 -1      7211    3    0    1
 -2       151       642      2927      2930
 -1      7212    3    0    1
 -2      1419      3027      1453      3077
 -1      7213    3    0    1
 -2      2844      2850      2851      3034
 -1      7214    3    0    1
 -2      3028      3049      3055      3073
 -1      7215    3    0    1
 -2      1065      2203      2723      1417
 -1      7216    3    0    1
 -2      2140       651      2460      2714
 -1      7217    3    0    1
 -2      2305        62      2503      2688
 -1      7218    3    0    1
 -2      2875      2863      3047      3053
 -1      7219    3    0    1
 -2      1881       924      2380      2781
 -1      7220    3    0    1
 -2       400      2069      2353      2674
 -1      7221    3    0    1
 -2      2265      1788      2623      2762
 -1      7222    3    0    1
 -2       885      2265      2623      2762
 -1      7223    3    0    1
 -2      1815      2276      2428      2712
 -1      7224    3    0    1
 -2       472      2445      2806      2834
 -1      7225    3    0    1
 -2       885       861      2265      2762
 -1      7226    3    0    1
 -2        66      2477      2503      2688
 -1      7227    3    0    1
 -2      1579        39      1901      2748
 -1      7228    3    0    1
 -2      1545      1662      2444      2753
 -1      7229    3    0    1
 -2      2330      2585      2623      2753
 -1      7230    3    0    1
 -2      2273      2330      2623      2753
 -1      7231    3    0    1
 -2      1545      2145      2338      2753
 -1      7232    3    0    1
 -2      2752      2645      2786      2787
 -1      7233    3    0    1
 -2      1332      1093      2343      2668
 -1      7234    3    0    1
 -2       396       278      1332      2668
 -1      7235    3    0    1
 -2      1748       278      1887      2668
 -1      7236    3    0    1
 -2      1887       278      2483      2668
 -1      7237    3    0    1
 -2       396      1877      2346      2668
 -1      7238    3    0    1
 -2      1607       396      2346      2668
 -1      7239    3    0    1
 -2       396      1332      1877      2668
 -1      7240    3    0    1
 -2      1877      1332      2343      2668
 -1      7241    3    0    1
 -2       884       865      2171      2669
 -1      7242    3    0    1
 -2      2401      2227      2574      2669
 -1      7243    3    0    1
 -2      1140      2227      2401      2669
 -1      7244    3    0    1
 -2       865      1140      1376      2669
 -1      7245    3    0    1
 -2      1140       884      2227      2669
 -1      7246    3    0    1
 -2       865       884      1140      2669
 -1      7247    3    0    1
 -2       925      2496      2497      2671
 -1      7248    3    0    1
 -2      1188       925      2497      2671
 -1      7249    3    0    1
 -2       925      1188      2496      2671
 -1      7250    3    0    1
 -2       832      1095      2690      2793
 -1      7251    3    0    1
 -2      2536      1910      2784      2795
 -1      7252    3    0    1
 -2      2477      2174      2490      2672
 -1      7253    3    0    1
 -2      1885      2477      2490      2672
 -1      7254    3    0    1
 -2      2680       538      2717      2795
 -1      7255    3    0    1
 -2      2680      2536      2784      2795
 -1      7256    3    0    1
 -2      1200      1910      2652      2795
 -1      7257    3    0    1
 -2      2174      1885      2490      2672
 -1      7258    3    0    1
 -2       538      1200      2650      2795
 -1      7259    3    0    1
 -2       930      2625      2634      2673
 -1      7260    3    0    1
 -2       930       520      2625      2673
 -1      7261    3    0    1
 -2      1531       930      2634      2673
 -1      7262    3    0    1
 -2      2150      1692      2500      2736
 -1      7263    3    0    1
 -2      1757      2150      2500      2736
 -1      7264    3    0    1
 -2      2068      2371      2534      2737
 -1      7265    3    0    1
 -2      1753       249      2505      2675
 -1      7266    3    0    1
 -2       407       249      2205      2675
 -1      7267    3    0    1
 -2       249      1313      2505      2675
 -1      7268    3    0    1
 -2       249       407      1313      2675
 -1      7269    3    0    1
 -2      3033      1443      3038      2922
 -1      7270    3    0    1
 -2      2358       973      1427      1428
 -1      7271    3    0    1
 -2      2451      2864      2901      3036
 -1      7272    3    0    1
 -2      2852      2840      2882      3048
 -1      7273    3    0    1
 -2      1433      1462      1465      2977
 -1      7274    3    0    1
 -2      1436      1968      2912      3039
 -1      7275    3    0    1
 -2       156       641      2930      2937
 -1      7276    3    0    1
 -2      2286      2202      2610      2679
 -1      7277    3    0    1
 -2      1618      1990      2252      2679
 -1      7278    3    0    1
 -2      2252      1990      2610      2679
 -1      7279    3    0    1
 -2      1895      1618      2252      2679
 -1      7280    3    0    1
 -2      1977      2204      2614      2771
 -1      7281    3    0    1
 -2      2878      1933      2889      3030
 -1      7282    3    0    1
 -2       940      2015      2592      2680
 -1      7283    3    0    1
 -2        66       940      2503      2680
 -1      7284    3    0    1
 -2       940        66      2015      2680
 -1      7285    3    0    1
 -2      2015        66      2503      2680
 -1      7286    3    0    1
 -2       538       940      2592      2680
 -1      7287    3    0    1
 -2      2527        67       943      2681
 -1      7288    3    0    1
 -2      2527       943      2374      2681
 -1      7289    3    0    1
 -2       943      2527      2374      1201
 -1      7290    3    0    1
 -2      1738      1904      2244      2682
 -1      7291    3    0    1
 -2      1904      2067      2244      2682
 -1      7292    3    0    1
 -2      1945      1082      2368      2683
 -1      7293    3    0    1
 -2      1082       261      2378      2683
 -1      7294    3    0    1
 -2      2368      1082      2378      2683
 -1      7295    3    0    1
 -2      2444      1662      2685      2797
 -1      7296    3    0    1
 -2        75      2530      2541      2797
 -1      7297    3    0    1
 -2      1662      1741      2169      2797
 -1      7298    3    0    1
 -2      2020      1662      2530      2797
 -1      7299    3    0    1
 -2      2406       337      2551      2684
 -1      7300    3    0    1
 -2       337      2406      2415      2684
 -1      7301    3    0    1
 -2       977       338      2415      2684
 -1      7302    3    0    1
 -2      2456      1853      2716      2814
 -1      7303    3    0    1
 -2       514      2687      2715      2798
 -1      7304    3    0    1
 -2      2349      2537      2678      2790
 -1      7305    3    0    1
 -2        79        75      2532      2686
 -1      7306    3    0    1
 -2        75        79       951      2686
 -1      7307    3    0    1
 -2       951        79      2532      2686
 -1      7308    3    0    1
 -2       962      2097      2428      2765
 -1      7309    3    0    1
 -2       101       962      2499      2765
 -1      7310    3    0    1
 -2       998       651      2278      2714
 -1      7311    3    0    1
 -2      2442       616      2754      2756
 -1      7312    3    0    1
 -2      1533       101      2499      2765
 -1      7313    3    0    1
 -2       514      1190      2526      2687
 -1      7314    3    0    1
 -2      1853      1344      2163      2716
 -1      7315    3    0    1
 -2       924       512      1189      2781
 -1      7316    3    0    1
 -2      2442       989      2728      2815
 -1      7317    3    0    1
 -2       393       928      2713      2764
 -1      7318    3    0    1
 -2       392       393      1190      2687
 -1      7319    3    0    1
 -2        62        66      2688      2800
 -1      7320    3    0    1
 -2       926       391      2093      2812
 -1      7321    3    0    1
 -2       974       120      1656      2801
 -1      7322    3    0    1
 -2       315       985      2105      2691
 -1      7323    3    0    1
 -2       985      2593      2647      2691
 -1      7324    3    0    1
 -2      2105       985      2647      2691
 -1      7325    3    0    1
 -2      2284       634      2655      2734
 -1      7326    3    0    1
 -2      2225      2621      2626      2773
 -1      7327    3    0    1
 -2       142       315       991      2691
 -1      7328    3    0    1
 -2       991      2432      2728      2729
 -1      7329    3    0    1
 -2       315       142       985      2691
 -1      7330    3    0    1
 -2      2280      1591      2488      2692
 -1      7331    3    0    1
 -2      1557      2280      2488      2692
 -1      7332    3    0    1
 -2      2189      1631      2523      2745
 -1      7333    3    0    1
 -2      2431      2464      2570      2692
 -1      7334    3    0    1
 -2      2536      2592      2784      2785
 -1      7335    3    0    1
 -2      2356       950      2409      2693
 -1      7336    3    0    1
 -2       950       560      2409      2693
 -1      7337    3    0    1
 -2       534       560      1198      2693
 -1      7338    3    0    1
 -2       560       950      1198      2693
 -1      7339    3    0    1
 -2       351       212      2402      2694
 -1      7340    3    0    1
 -2      2200       351      2402      2694
 -1      7341    3    0    1
 -2        86       953      2699      2803
 -1      7342    3    0    1
 -2       942      2197      2519      2803
 -1      7343    3    0    1
 -2      2038       953      2554      2803
 -1      7344    3    0    1
 -2       953      2038      2633      2803
 -1      7345    3    0    1
 -2      1580      1975      2416      2695
 -1      7346    3    0    1
 -2      1580      2416      2611      2695
 -1      7347    3    0    1
 -2      2797      2020        75      2530
 -1      7348    3    0    1
 -2      2292      1633      2386      2696
 -1      7349    3    0    1
 -2        80        86       953      2699
 -1      7350    3    0    1
 -2      1175      2351      2697      2804
 -1      7351    3    0    1
 -2        32       420       914      2697
 -1      7352    3    0    1
 -2      2357      1698      2417      2698
 -1      7353    3    0    1
 -2      2386      1976      2696      2698
 -1      7354    3    0    1
 -2      1633      2386      2696      2698
 -1      7355    3    0    1
 -2      2147      2292      2696      2698
 -1      7356    3    0    1
 -2      2417      2147      2696      2698
 -1      7357    3    0    1
 -2      2357      2417      2696      2698
 -1      7358    3    0    1
 -2      1213      2218      2572      2699
 -1      7359    3    0    1
 -2      1213        80      2218      2699
 -1      7360    3    0    1
 -2        86        80      1213      2699
 -1      7361    3    0    1
 -2      2547      2432      2691      2700
 -1      7362    3    0    1
 -2      2593      2547      2691      2700
 -1      7363    3    0    1
 -2      2274      1210      2686      2701
 -1      7364    3    0    1
 -2      1210      2274      2427      2701
 -1      7365    3    0    1
 -2      2427      2274      2604      2701
 -1      7366    3    0    1
 -2      2541      2095      2685      2701
 -1      7367    3    0    1
 -2      1906      1815      2604      2701
 -1      7368    3    0    1
 -2      1815      1906      2095      2701
 -1      7369    3    0    1
 -2      2095      1906      2685      2701
 -1      7370    3    0    1
 -2      2541      2274      2686      2701
 -1      7371    3    0    1
 -2      2274      2541      2604      2701
 -1      7372    3    0    1
 -2      2604      2541      2685      2701
 -1      7373    3    0    1
 -2      1906      2604      2685      2701
 -1      7374    3    0    1
 -2      2197       380      2653      2703
 -1      7375    3    0    1
 -2       380      2197      2544      2703
 -1      7376    3    0    1
 -2      2453      2583      2665      2703
 -1      7377    3    0    1
 -2      2453      2544      2653      2703
 -1      7378    3    0    1
 -2      2544      2197      2653      2703
 -1      7379    3    0    1
 -2      2544      2453      2665      2703
 -1      7380    3    0    1
 -2      1534      2189      2506      2739
 -1      7381    3    0    1
 -2      2710        14       909       419
 -1      7382    3    0    1
 -2      2560       909      2806      2810
 -1      7383    3    0    1
 -2      1068      1894      2293      2720
 -1      7384    3    0    1
 -2       418       916      2704      2809
 -1      7385    3    0    1
 -2      1577      2016      2373      2706
 -1      7386    3    0    1
 -2       639       616      2442      2756
 -1      7387    3    0    1
 -2      1727       483      2522      2706
 -1      7388    3    0    1
 -2      1577      1727      2016      2706
 -1      7389    3    0    1
 -2      2016      1727      2522      2706
 -1      7390    3    0    1
 -2      2926      2907      2933      2960
 -1      7391    3    0    1
 -2      2876      2771      2902      3035
 -1      7392    3    0    1
 -2      2054      2194      2581      2709
 -1      7393    3    0    1
 -2       329      1267      2194      2709
 -1      7394    3    0    1
 -2      2194      1267      2581      2709
 -1      7395    3    0    1
 -2       419        14      1889      2710
 -1      7396    3    0    1
 -2       392      2687      2798      2811
 -1      7397    3    0    1
 -2       420      1889      2697      2710
 -1      7398    3    0    1
 -2       420       419      1889      2710
 -1      7399    3    0    1
 -2      1178       420      2441      2710
 -1      7400    3    0    1
 -2       909      1178      2441      2710
 -1      7401    3    0    1
 -2        32       420      2697      2710
 -1      7402    3    0    1
 -2       420        32      2441      2710
 -1      7403    3    0    1
 -2      2441        32      2697      2710
 -1      7404    3    0    1
 -2       419       420       909      2710
 -1      7405    3    0    1
 -2       909       420      1178      2710
 -1      7406    3    0    1
 -2      1906      1815      2096      2712
 -1      7407    3    0    1
 -2      2097      1815      2428      2712
 -1      7408    3    0    1
 -2      2096      1815      2097      2712
 -1      7409    3    0    1
 -2      2663       929      2673      2713
 -1      7410    3    0    1
 -2       519      2625      2673      2713
 -1      7411    3    0    1
 -2       393        41      2663      2713
 -1      7412    3    0    1
 -2        41       393       928      2713
 -1      7413    3    0    1
 -2       928       519       929      2713
 -1      7414    3    0    1
 -2        41       929      2663      2713
 -1      7415    3    0    1
 -2        41       928       929      2713
 -1      7416    3    0    1
 -2       520       519      2673      2713
 -1      7417    3    0    1
 -2       519       520       929      2713
 -1      7418    3    0    1
 -2       929       520      2673      2713
 -1      7419    3    0    1
 -2      1853       431      2716      2814
 -1      7420    3    0    1
 -2      1788      2253      2265      2814
 -1      7421    3    0    1
 -2       430      1397      1117      2716
 -1      7422    3    0    1
 -2      2728       989      2729      2815
 -1      7423    3    0    1
 -2       431      1343      1853      2716
 -1      7424    3    0    1
 -2       431       430      1343      2716
 -1      7425    3    0    1
 -2       989       992      2729      2815
 -1      7426    3    0    1
 -2      1343       430      1344      2716
 -1      7427    3    0    1
 -2      1397       430       431      2716
 -1      7428    3    0    1
 -2       137       989      2442      2815
 -1      7429    3    0    1
 -2      1015       358      2396      2718
 -1      7430    3    0    1
 -2      2396       358      2559      2718
 -1      7431    3    0    1
 -2       161       357      2042      2718
 -1      7432    3    0    1
 -2       357       161      1005      2718
 -1      7433    3    0    1
 -2       358       161      2042      2718
 -1      7434    3    0    1
 -2      1005       358      1015      2718
 -1      7435    3    0    1
 -2       161       358      1005      2718
 -1      7436    3    0    1
 -2      1922       783      2466      2720
 -1      7437    3    0    1
 -2       543      2374      2502      2721
 -1      7438    3    0    1
 -2      1201       543      2502      2721
 -1      7439    3    0    1
 -2       543      1201      2374      2721
 -1      7440    3    0    1
 -2       990      2635      2728      2732
 -1      7441    3    0    1
 -2       990       138      2635      2732
 -1      7442    3    0    1
 -2      2746        39      2748      2821
 -1      7443    3    0    1
 -2        82        85      2226      2722
 -1      7444    3    0    1
 -2       315       991      2691      2732
 -1      7445    3    0    1
 -2       365        85      2470      2722
 -1      7446    3    0    1
 -2      2356       365      2470      2722
 -1      7447    3    0    1
 -2       365      2356      2365      2722
 -1      7448    3    0    1
 -2        85       365      2365      2722
 -1      7449    3    0    1
 -2      2855      2872      2909      3051
 -1      7450    3    0    1
 -2      1464      1429      3072      1502
 -1      7451    3    0    1
 -2      2947       690      2952      2971
 -1      7452    3    0    1
 -2      2464      2474      2570      2724
 -1      7453    3    0    1
 -2      1789      2464      2570      2724
 -1      7454    3    0    1
 -2      1660      1838      2132      2724
 -1      7455    3    0    1
 -2      1660      2132      2272      2724
 -1      7456    3    0    1
 -2       136      1874      2474      2724
 -1      7457    3    0    1
 -2      1874       136      2272      2724
 -1      7458    3    0    1
 -2      2132      1874      2272      2724
 -1      7459    3    0    1
 -2      1874      2132      2474      2724
 -1      7460    3    0    1
 -2      2725      2475      2726      2818
 -1      7461    3    0    1
 -2      2475      2108      2726      2818
 -1      7462    3    0    1
 -2      2475      1550      2725      2726
 -1      7463    3    0    1
 -2      1676      1722      1778      2819
 -1      7464    3    0    1
 -2       122      2758      2801      2838
 -1      7465    3    0    1
 -2      1130       292      2730      2819
 -1      7466    3    0    1
 -2      2122      1177      2595      2808
 -1      7467    3    0    1
 -2      1677      2162      2725      2817
 -1      7468    3    0    1
 -2      2216      1177      2738      2808
 -1      7469    3    0    1
 -2      1625      2053      2162      2817
 -1      7470    3    0    1
 -2       106       385      1226      2727
 -1      7471    3    0    1
 -2       106      1226      2363      2727
 -1      7472    3    0    1
 -2      1226      2094      2363      2727
 -1      7473    3    0    1
 -2       418      2209      2738      2808
 -1      7474    3    0    1
 -2      2099       974      2788      2838
 -1      7475    3    0    1
 -2      1549      1676      2480      2730
 -1      7476    3    0    1
 -2       974      1235      2801      2838
 -1      7477    3    0    1
 -2      1235       974      2099      2838
 -1      7478    3    0    1
 -2       292      1395      1130      2730
 -1      7479    3    0    1
 -2      2635       146      2643      2820
 -1      7480    3    0    1
 -2       138      2635      2732      2820
 -1      7481    3    0    1
 -2       138       315      1248      2820
 -1      7482    3    0    1
 -2      2643       146      2655      2820
 -1      7483    3    0    1
 -2       955        82      2484      2731
 -1      7484    3    0    1
 -2        82        85      2722      2731
 -1      7485    3    0    1
 -2        85        82       955      2731
 -1      7486    3    0    1
 -2       991       990      2728      2732
 -1      7487    3    0    1
 -2      1187        39      2746      2821
 -1      7488    3    0    1
 -2       327       140      2043      2733
 -1      7489    3    0    1
 -2      2621      2267      2626      2773
 -1      7490    3    0    1
 -2       992      1002      2548      2733
 -1      7491    3    0    1
 -2       347       345      2827      2829
 -1      7492    3    0    1
 -2      1780      2267      2568      2773
 -1      7493    3    0    1
 -2       319      1004      2306      2774
 -1      7494    3    0    1
 -2       327       342      1002      2733
 -1      7495    3    0    1
 -2       992       327      1002      2733
 -1      7496    3    0    1
 -2      1621      2589      2677      2734
 -1      7497    3    0    1
 -2      2643      2284      2655      2734
 -1      7498    3    0    1
 -2      2069       400      2711      2735
 -1      7499    3    0    1
 -2       400      2069      2674      2735
 -1      7500    3    0    1
 -2      1768      2174      2672      2794
 -1      7501    3    0    1
 -2      2445       908      2704      2834
 -1      7502    3    0    1
 -2      1768      1556      2174      2794
 -1      7503    3    0    1
 -2      1223      2046      2534      2737
 -1      7504    3    0    1
 -2      2046      1223      2499      2737
 -1      7505    3    0    1
 -2      2371      1223      2534      2737
 -1      7506    3    0    1
 -2       336      1223      2371      2737
 -1      7507    3    0    1
 -2        33      2209      2689      2738
 -1      7508    3    0    1
 -2      2216      1177      2689      2738
 -1      7509    3    0    1
 -2      1177        33      2689      2738
 -1      7510    3    0    1
 -2       418        33      1177      2738
 -1      7511    3    0    1
 -2      1671      2506      1676      2739
 -1      7512    3    0    1
 -2      2506      1671      1676      1957
 -1      7513    3    0    1
 -2      1722      1676      1778      2739
 -1      7514    3    0    1
 -2      1722      1778      2506      2739
 -1      7515    3    0    1
 -2      1778      1676      2506      2739
 -1      7516    3    0    1
 -2      1053      2250      2473      2740
 -1      7517    3    0    1
 -2      1053       750      1300      2740
 -1      7518    3    0    1
 -2      1039      2275      2328      2740
 -1      7519    3    0    1
 -2      1300      1039      2328      2740
 -1      7520    3    0    1
 -2      1039      1300      2275      2740
 -1      7521    3    0    1
 -2       750      1053      2473      2740
 -1      7522    3    0    1
 -2       750      2086      2512      2740
 -1      7523    3    0    1
 -2      2086       750      2473      2740
 -1      7524    3    0    1
 -2       751       750      2512      2740
 -1      7525    3    0    1
 -2       750       751      1300      2740
 -1      7526    3    0    1
 -2      1300       751      2512      2740
 -1      7527    3    0    1
 -2      2004      1957      2375      2741
 -1      7528    3    0    1
 -2      1557      2280      2375      2741
 -1      7529    3    0    1
 -2      2375      1957      2582      2741
 -1      7530    3    0    1
 -2      1557      2375      2582      2741
 -1      7531    3    0    1
 -2       943      2374      2681      2742
 -1      7532    3    0    1
 -2       381       366       942      2743
 -1      7533    3    0    1
 -2       941       366      2498      2743
 -1      7534    3    0    1
 -2       366       941       942      2743
 -1      7535    3    0    1
 -2       941       544       942      2743
 -1      7536    3    0    1
 -2       942       544      2519      2743
 -1      7537    3    0    1
 -2      2519       544      2742      2743
 -1      7538    3    0    1
 -2       544      2374      2742      2743
 -1      7539    3    0    1
 -2      2374       941       544       543
 -1      7540    3    0    1
 -2       941      2374       544      2743
 -1      7541    3    0    1
 -2       914      1175      2697      2804
 -1      7542    3    0    1
 -2       835      1341       836      2745
 -1      7543    3    0    1
 -2       835      1778      2523      2745
 -1      7544    3    0    1
 -2      1340       835      2523      2745
 -1      7545    3    0    1
 -2      1341       835      1340      2745
 -1      7546    3    0    1
 -2      1577      2062      2093      2813
 -1      7547    3    0    1
 -2       926      2715      2812      2813
 -1      7548    3    0    1
 -2      2173      1187      2333      2746
 -1      7549    3    0    1
 -2       140      1246      2043      2830
 -1      7550    3    0    1
 -2      1719      1555      2437      2750
 -1      7551    3    0    1
 -2      1246       630      2043      2830
 -1      7552    3    0    1
 -2      1768      1556      2577      2747
 -1      7553    3    0    1
 -2      1651      2577      2631      2747
 -1      7554    3    0    1
 -2        43      1531      2634      2792
 -1      7555    3    0    1
 -2       423       370      1531      2792
 -1      7556    3    0    1
 -2        43      2496      2671      2792
 -1      7557    3    0    1
 -2      2577      1556      2631      2747
 -1      7558    3    0    1
 -2      1850      1651      2631      2747
 -1      7559    3    0    1
 -2      1850      1768      2747      1556
 -1      7560    3    0    1
 -2      1556      1850      2631      2747
 -1      7561    3    0    1
 -2       923      2786      2787      2822
 -1      7562    3    0    1
 -2      2786      2752      2787      2822
 -1      7563    3    0    1
 -2      2526       507      2746      2822
 -1      7564    3    0    1
 -2      1901        39      2349      2748
 -1      7565    3    0    1
 -2      1187      2333      2746      2822
 -1      7566    3    0    1
 -2      2752      2333      2787      2822
 -1      7567    3    0    1
 -2      2672      1768      2794      2833
 -1      7568    3    0    1
 -2      2591      1555      2678      2750
 -1      7569    3    0    1
 -2       364        81      2412      2751
 -1      7570    3    0    1
 -2      1198        67      1983      2751
 -1      7571    3    0    1
 -2      1198      1983      2693      2751
 -1      7572    3    0    1
 -2       950      1198      2693      2751
 -1      7573    3    0    1
 -2      2356       950      2693      2751
 -1      7574    3    0    1
 -2        81       950      2356      2751
 -1      7575    3    0    1
 -2       364        67      1198      2751
 -1      7576    3    0    1
 -2        81       364      1198      2751
 -1      7577    3    0    1
 -2       950        81      1198      2751
 -1      7578    3    0    1
 -2       976       615      2567      2823
 -1      7579    3    0    1
 -2       974       608      2099      2788
 -1      7580    3    0    1
 -2      2273      2145      2330      2753
 -1      7581    3    0    1
 -2      1741      1788      2585      2753
 -1      7582    3    0    1
 -2      1788      1741      2169      2753
 -1      7583    3    0    1
 -2      1741      1662      2169      2753
 -1      7584    3    0    1
 -2      2145      2444      2585      2753
 -1      7585    3    0    1
 -2      2444      1741      2585      2753
 -1      7586    3    0    1
 -2      2330      2145      2585      2753
 -1      7587    3    0    1
 -2       459      1159      2573      2757
 -1      7588    3    0    1
 -2      1159      2552      2573      2757
 -1      7589    3    0    1
 -2       616       978      2754      2756
 -1      7590    3    0    1
 -2       978      1716      2754      2756
 -1      7591    3    0    1
 -2      1716       978      2635      2756
 -1      7592    3    0    1
 -2       978       639       990      2756
 -1      7593    3    0    1
 -2       616       639       978      2756
 -1      7594    3    0    1
 -2       466       459      2573      2757
 -1      7595    3    0    1
 -2      2757      1801      1159      2552
 -1      7596    3    0    1
 -2      2552      1801      2632      2757
 -1      7597    3    0    1
 -2       466      1836      2666      2757
 -1      7598    3    0    1
 -2      1836       466      2573      2757
 -1      7599    3    0    1
 -2      1801       459      2632      2757
 -1      7600    3    0    1
 -2      2288       712      2429      2802
 -1      7601    3    0    1
 -2      2772       140      2815      2830
 -1      7602    3    0    1
 -2       119       976      2567      2758
 -1      7603    3    0    1
 -2       353       193      1033      2824
 -1      7604    3    0    1
 -2       555       948      2561      2789
 -1      7605    3    0    1
 -2       495      2209      2719      2825
 -1      7606    3    0    1
 -2      2267      1577      2568      2773
 -1      7607    3    0    1
 -2      1727      1561      2568      2773
 -1      7608    3    0    1
 -2      1174      1561      1727      2773
 -1      7609    3    0    1
 -2      2225        25      2621      2773
 -1      7610    3    0    1
 -2       102       385      2176      2828
 -1      7611    3    0    1
 -2      1577      1727      2568      2773
 -1      7612    3    0    1
 -2      2252      1895      2679      2770
 -1      7613    3    0    1
 -2       543       520      2502      2761
 -1      7614    3    0    1
 -2      1133      1108      1926      2770
 -1      7615    3    0    1
 -2      1895      1133      1926      2770
 -1      7616    3    0    1
 -2      2286      2202      2679      2770
 -1      7617    3    0    1
 -2      2202      2610      2679      2770
 -1      7618    3    0    1
 -2       929       543       941      2761
 -1      7619    3    0    1
 -2       520       543       929      2761
 -1      7620    3    0    1
 -2      1895      1926      2679      2770
 -1      7621    3    0    1
 -2      1911      2214      2602      2826
 -1      7622    3    0    1
 -2       772      2214      2434      2826
 -1      7623    3    0    1
 -2       941      2761      2769      2778
 -1      7624    3    0    1
 -2       941       929      2761      2778
 -1      7625    3    0    1
 -2      1310      1782      2768      2826
 -1      7626    3    0    1
 -2      1850      2383      2791      2800
 -1      7627    3    0    1
 -2      1224      1656      2649      2788
 -1      7628    3    0    1
 -2      2688      1768      2747      2800
 -1      7629    3    0    1
 -2       424       941      2769      2778
 -1      7630    3    0    1
 -2      2383        62      2791      2800
 -1      7631    3    0    1
 -2       328      2115      2646      2766
 -1      7632    3    0    1
 -2      1259       328      2646      2766
 -1      7633    3    0    1
 -2      2593      2488      2646      2766
 -1      7634    3    0    1
 -2      2488      2593      2692      2766
 -1      7635    3    0    1
 -2      2471      2213      2580      2767
 -1      7636    3    0    1
 -2      2213      2471      2615      2767
 -1      7637    3    0    1
 -2      1064       772      1313      2768
 -1      7638    3    0    1
 -2      1064      1313      2361      2768
 -1      7639    3    0    1
 -2      1310      1782      2190      2768
 -1      7640    3    0    1
 -2       772      1310      2190      2768
 -1      7641    3    0    1
 -2       987      1246      2772      2830
 -1      7642    3    0    1
 -2       772       778      1313      2768
 -1      7643    3    0    1
 -2      1313       778      2675      2768
 -1      7644    3    0    1
 -2      2361      1313      2675      2768
 -1      7645    3    0    1
 -2      2498       941      2761      2769
 -1      7646    3    0    1
 -2      1651      2629      2644      2779
 -1      7647    3    0    1
 -2      1810      1831      2295      2779
 -1      7648    3    0    1
 -2      1810      1651      1831      2779
 -1      7649    3    0    1
 -2      1926      2286      2679      2770
 -1      7650    3    0    1
 -2      1926       854      2286      2770
 -1      7651    3    0    1
 -2       854      1133       876      2770
 -1      7652    3    0    1
 -2      1133       854      1108      2770
 -1      7653    3    0    1
 -2      1108       854      1926      2770
 -1      7654    3    0    1
 -2      2250      3027      2917      3057
 -1      7655    3    0    1
 -2       385      1226      2727      2816
 -1      7656    3    0    1
 -2        53       427      2351      2831
 -1      7657    3    0    1
 -2        53       927      2776      2831
 -1      7658    3    0    1
 -2      2351       427      2776      2831
 -1      7659    3    0    1
 -2       140       137      1246      2772
 -1      7660    3    0    1
 -2       959       102      2551      2816
 -1      7661    3    0    1
 -2       385       102       959      2816
 -1      7662    3    0    1
 -2      2053      1914      2162      2817
 -1      7663    3    0    1
 -2       965       102      2176      2828
 -1      7664    3    0    1
 -2       337       102      2406      2828
 -1      7665    3    0    1
 -2       385       102      2816      2828
 -1      7666    3    0    1
 -2       102       965      2406      2828
 -1      7667    3    0    1
 -2       137       347       987      2772
 -1      7668    3    0    1
 -2      2727       385      2816      2828
 -1      7669    3    0    1
 -2       687       664      1015      2775
 -1      7670    3    0    1
 -2       664      1005      1015      2775
 -1      7671    3    0    1
 -2       664       687      2639      2775
 -1      7672    3    0    1
 -2      2188      2629      2644      2832
 -1      7673    3    0    1
 -2       918       496      2510      2776
 -1      7674    3    0    1
 -2       918       427       927      2776
 -1      7675    3    0    1
 -2       519       918       927      2776
 -1      7676    3    0    1
 -2       427        53       927      2776
 -1      7677    3    0    1
 -2       519       496       918      2776
 -1      7678    3    0    1
 -2       496       917      2763      2777
 -1      7679    3    0    1
 -2       496       519       928      2777
 -1      7680    3    0    1
 -2       917       496       928      2777
 -1      7681    3    0    1
 -2      2217      1810      2295      2779
 -1      7682    3    0    1
 -2      2217      1558      2629      2779
 -1      7683    3    0    1
 -2      1558      2217      2295      2779
 -1      7684    3    0    1
 -2      1810      2217      2629      2779
 -1      7685    3    0    1
 -2      2778        54      2786      2787
 -1      7686    3    0    1
 -2        41       923      1190      2780
 -1      7687    3    0    1
 -2        41       393      2663      2780
 -1      7688    3    0    1
 -2       393        41      1190      2780
 -1      7689    3    0    1
 -2      2333      2645      2752      2787
 -1      7690    3    0    1
 -2       510      1881      2497      2781
 -1      7691    3    0    1
 -2       512       510      2497      2781
 -1      7692    3    0    1
 -2      3061      3036      2948      3080
 -1      7693    3    0    1
 -2      3043      2874      2941      3071
 -1      7694    3    0    1
 -2      2876      2614      1450      2917
 -1      7695    3    0    1
 -2      2867      2848      3064      2959
 -1      7696    3    0    1
 -2      1176      1414      1433      3071
 -1      7697    3    0    1
 -2      2872      2909      3051      1465
 -1      7698    3    0    1
 -2       938      2282      2380      2925
 -1      7699    3    0    1
 -2      1444      2161      2905      3064
 -1      7700    3    0    1
 -2       157       318       998      2783
 -1      7701    3    0    1
 -2       998       318      2278      2783
 -1      7702    3    0    1
 -2       328       157      1259      2783
 -1      7703    3    0    1
 -2      1910      1200      2652      2784
 -1      7704    3    0    1
 -2       424      1910      2652      2784
 -1      7705    3    0    1
 -2      1200       424      2652      2784
 -1      7706    3    0    1
 -2       976      2567      2758      2823
 -1      7707    3    0    1
 -2      2645      1910      2784      2785
 -1      7708    3    0    1
 -2      1910      2645      2752      2785
 -1      7709    3    0    1
 -2      2173      2333      2749      2785
 -1      7710    3    0    1
 -2      2173      2536      2752      2785
 -1      7711    3    0    1
 -2      2536      1910      2752      2785
 -1      7712    3    0    1
 -2      2536      2173      2749      2785
 -1      7713    3    0    1
 -2       616       979      2442      2823
 -1      7714    3    0    1
 -2        54      2769      2778      2786
 -1      7715    3    0    1
 -2        41        54       923      2786
 -1      7716    3    0    1
 -2       917      2510      2763      2825
 -1      7717    3    0    1
 -2        34       917      2763      2825
 -1      7718    3    0    1
 -2      1590       712      2288      2802
 -1      7719    3    0    1
 -2      1042       212      2694      2802
 -1      7720    3    0    1
 -2      1033       712      1590      2802
 -1      7721    3    0    1
 -2      2099       608      2452      2788
 -1      7722    3    0    1
 -2      2452       608      2651      2788
 -1      7723    3    0    1
 -2       582      1224      2651      2788
 -1      7724    3    0    1
 -2       608       582      2651      2788
 -1      7725    3    0    1
 -2       608       974      1224      2788
 -1      7726    3    0    1
 -2       582       608      1224      2788
 -1      7727    3    0    1
 -2       562       951      2654      2789
 -1      7728    3    0    1
 -2       562       555       951      2789
 -1      7729    3    0    1
 -2       555      1213       948      2789
 -1      7730    3    0    1
 -2       948      1213      2218      2789
 -1      7731    3    0    1
 -2      2218      1213      2654      2789
 -1      7732    3    0    1
 -2      1213       562      2654      2789
 -1      7733    3    0    1
 -2      1213       555       562      2789
 -1      7734    3    0    1
 -2      2111      2672      2794      2833
 -1      7735    3    0    1
 -2      2179      3034      1455      3058
 -1      7736    3    0    1
 -2      2332      1850      2383      2791
 -1      7737    3    0    1
 -2       400       907      2347      2793
 -1      7738    3    0    1
 -2       400      2347      2735      2793
 -1      7739    3    0    1
 -2      1095       289      2088      2793
 -1      7740    3    0    1
 -2      2088       289      2735      2793
 -1      7741    3    0    1
 -2      2347       907      2690      2793
 -1      7742    3    0    1
 -2      1095      2347      2690      2793
 -1      7743    3    0    1
 -2      1095      2088      2347      2793
 -1      7744    3    0    1
 -2       907       471      2690      2793
 -1      7745    3    0    1
 -2       471       832      2690      2793
 -1      7746    3    0    1
 -2      2347      2088      2735      2793
 -1      7747    3    0    1
 -2       495      1178      2441      2834
 -1      7748    3    0    1
 -2       909       472      2806      2834
 -1      7749    3    0    1
 -2      1910      1200      2784      2795
 -1      7750    3    0    1
 -2      1200       538      2784      2795
 -1      7751    3    0    1
 -2       371      2063      2416      2796
 -1      7752    3    0    1
 -2       269      1324      2063      2796
 -1      7753    3    0    1
 -2       261       269      2683      2796
 -1      7754    3    0    1
 -2      2414       261      2683      2796
 -1      7755    3    0    1
 -2       269       261      1324      2796
 -1      7756    3    0    1
 -2      1324      1077      2063      2796
 -1      7757    3    0    1
 -2      2063      1077      2414      2796
 -1      7758    3    0    1
 -2      1077       261      2414      2796
 -1      7759    3    0    1
 -2       261      1077      1324      2796
 -1      7760    3    0    1
 -2      2016      2715      2755      2798
 -1      7761    3    0    1
 -2      2687      2016      2755      2798
 -1      7762    3    0    1
 -2      2715      2687      2755      2798
 -1      7763    3    0    1
 -2      1187       926      2526      2812
 -1      7764    3    0    1
 -2        34      2388      2763      2799
 -1      7765    3    0    1
 -2       391        39      1579      2812
 -1      7766    3    0    1
 -2        39       926      1187      2812
 -1      7767    3    0    1
 -2      2526       926      2715      2812
 -1      7768    3    0    1
 -2      2388        34      2522      2799
 -1      7769    3    0    1
 -2      2016      2388      2522      2799
 -1      7770    3    0    1
 -2        39       391       926      2812
 -1      7771    3    0    1
 -2       391      1579      2093      2812
 -1      7772    3    0    1
 -2      1559      1853      2456      2814
 -1      7773    3    0    1
 -2       119       974      1235      2801
 -1      7774    3    0    1
 -2      2257      2060      2294      2839
 -1      7775    3    0    1
 -2       119       122      2758      2801
 -1      7776    3    0    1
 -2       122       119      1235      2801
 -1      7777    3    0    1
 -2       119       120       974      2801
 -1      7778    3    0    1
 -2       212       193      2694      2802
 -1      7779    3    0    1
 -2       735      1042      2429      2802
 -1      7780    3    0    1
 -2       712       735      2429      2802
 -1      7781    3    0    1
 -2      1033       212      1042      2802
 -1      7782    3    0    1
 -2       712      1033      1042      2802
 -1      7783    3    0    1
 -2       193       212      1033      2802
 -1      7784    3    0    1
 -2       735       712      1042      2802
 -1      7785    3    0    1
 -2       942       380      2197      2803
 -1      7786    3    0    1
 -2        86      2544      2703      2803
 -1      7787    3    0    1
 -2      2544       380      2703      2803
 -1      7788    3    0    1
 -2       942      2519      2744      2803
 -1      7789    3    0    1
 -2       953        86      2744      2803
 -1      7790    3    0    1
 -2        86      2703      2744      2803
 -1      7791    3    0    1
 -2      2703       380      2744      2803
 -1      7792    3    0    1
 -2       380       942      2744      2803
 -1      7793    3    0    1
 -2      2685      2541      2797      2805
 -1      7794    3    0    1
 -2      2763      2777      2799      2835
 -1      7795    3    0    1
 -2      2441       909      2710      2806
 -1      7796    3    0    1
 -2      1788      2253      2814      2836
 -1      7797    3    0    1
 -2      2777       928      2799      2835
 -1      7798    3    0    1
 -2       519       928      2777      2835
 -1      7799    3    0    1
 -2      2799       928      2811      2835
 -1      7800    3    0    1
 -2       928       519      2713      2835
 -1      7801    3    0    1
 -2      2276      2428      2588      2807
 -1      7802    3    0    1
 -2       586      1941      2588      2807
 -1      7803    3    0    1
 -2      2094       586      2428      2807
 -1      7804    3    0    1
 -2      1226       586      2094      2807
 -1      7805    3    0    1
 -2       418      1177      2122      2808
 -1      7806    3    0    1
 -2       909      2710      2806      2810
 -1      7807    3    0    1
 -2      2606       377      2632      2809
 -1      7808    3    0    1
 -2      2122      2606      2632      2809
 -1      7809    3    0    1
 -2      2704      2606      2808      2809
 -1      7810    3    0    1
 -2      2449      2606      2704      2809
 -1      7811    3    0    1
 -2      2101      1163      2201      2810
 -1      7812    3    0    1
 -2      2201      1163      2560      2810
 -1      7813    3    0    1
 -2        16      1163      2101      2810
 -1      7814    3    0    1
 -2        14       909      1163      2810
 -1      7815    3    0    1
 -2      1163       909      2560      2810
 -1      7816    3    0    1
 -2        16        14      1163      2810
 -1      7817    3    0    1
 -2      2456      1559      2814      2836
 -1      7818    3    0    1
 -2      2016      2388      2799      2811
 -1      7819    3    0    1
 -2      2388      2016      2755      2811
 -1      7820    3    0    1
 -2       392      2798      2799      2811
 -1      7821    3    0    1
 -2       928       392      2799      2811
 -1      7822    3    0    1
 -2      2798      2016      2799      2811
 -1      7823    3    0    1
 -2      1577      2093      2373      2813
 -1      7824    3    0    1
 -2      2016      1577      2373      2813
 -1      7825    3    0    1
 -2      2016      2373      2715      2813
 -1      7826    3    0    1
 -2      2715      2093      2812      2813
 -1      7827    3    0    1
 -2      2373      2093      2715      2813
 -1      7828    3    0    1
 -2      1397      1117      2716      2814
 -1      7829    3    0    1
 -2      1117      1397      2265      2814
 -1      7830    3    0    1
 -2      1722      1778      2819      2837
 -1      7831    3    0    1
 -2       325      2730      2819      2837
 -1      7832    3    0    1
 -2      1117      2253      2716      2814
 -1      7833    3    0    1
 -2      1676      1722      2819      2837
 -1      7834    3    0    1
 -2       327       140      2733      2815
 -1      7835    3    0    1
 -2       140       327       992      2815
 -1      7836    3    0    1
 -2       992       327      2733      2815
 -1      7837    3    0    1
 -2      2162      1914      2725      2817
 -1      7838    3    0    1
 -2      1914      2053      2725      2817
 -1      7839    3    0    1
 -2      1625      1663      2053      2818
 -1      7840    3    0    1
 -2      1680      1663      1743      2818
 -1      7841    3    0    1
 -2      2725      2726      2817      2818
 -1      7842    3    0    1
 -2      2053      2725      2817      2818
 -1      7843    3    0    1
 -2      1625      2053      2817      2818
 -1      7844    3    0    1
 -2      1663      1625      1743      2818
 -1      7845    3    0    1
 -2      1680      1743      2726      2818
 -1      7846    3    0    1
 -2      2726      1625      2817      2818
 -1      7847    3    0    1
 -2      1743      1625      2726      2818
 -1      7848    3    0    1
 -2      2480      1130      2730      2819
 -1      7849    3    0    1
 -2       292       325      2730      2819
 -1      7850    3    0    1
 -2      1235      2099      2827      2838
 -1      7851    3    0    1
 -2       345      1235      2827      2838
 -1      7852    3    0    1
 -2       985       315      2105      2820
 -1      7853    3    0    1
 -2       315       985      1248      2820
 -1      7854    3    0    1
 -2      1248       985      2105      2820
 -1      7855    3    0    1
 -2       146       138      1248      2820
 -1      7856    3    0    1
 -2      2002      2537      2678      2821
 -1      7857    3    0    1
 -2      2349      2537      2748      2821
 -1      7858    3    0    1
 -2      2537      2349      2678      2821
 -1      7859    3    0    1
 -2      2537      2002      2749      2821
 -1      7860    3    0    1
 -2      2002      2173      2749      2821
 -1      7861    3    0    1
 -2      2173      2746      2748      2821
 -1      7862    3    0    1
 -2      2537      2173      2748      2821
 -1      7863    3    0    1
 -2      2173      2537      2749      2821
 -1      7864    3    0    1
 -2       507      1187      2746      2822
 -1      7865    3    0    1
 -2       507       923      2787      2822
 -1      7866    3    0    1
 -2      2333       507      2787      2822
 -1      7867    3    0    1
 -2      1187       507      2333      2822
 -1      7868    3    0    1
 -2       615       976       979      2823
 -1      7869    3    0    1
 -2       616       615       979      2823
 -1      7870    3    0    1
 -2       615       616      2754      2823
 -1      7871    3    0    1
 -2      2050       615      2584      2823
 -1      7872    3    0    1
 -2      2584       615      2754      2823
 -1      7873    3    0    1
 -2       979      2758       119       122
 -1      7874    3    0    1
 -2      2758       979       119      2823
 -1      7875    3    0    1
 -2       355      1030      1940      2824
 -1      7876    3    0    1
 -2       193      2694      2802      2824
 -1      7877    3    0    1
 -2       193      2598      2694      2824
 -1      7878    3    0    1
 -2      1848      1030      2400      2824
 -1      7879    3    0    1
 -2      1030      1848      1940      2824
 -1      7880    3    0    1
 -2       916       495       917      2825
 -1      7881    3    0    1
 -2        33        35      2209      2825
 -1      7882    3    0    1
 -2        35        33       916      2825
 -1      7883    3    0    1
 -2       916        33      2209      2825
 -1      7884    3    0    1
 -2       347       987      2772      2827
 -1      7885    3    0    1
 -2       606      2099      2619      2827
 -1      7886    3    0    1
 -2       606      1235      2099      2827
 -1      7887    3    0    1
 -2       631       606      2619      2827
 -1      7888    3    0    1
 -2       987       631      2619      2827
 -1      7889    3    0    1
 -2       987       345      1235      2827
 -1      7890    3    0    1
 -2       347       345       987      2827
 -1      7891    3    0    1
 -2       606       987      1235      2827
 -1      7892    3    0    1
 -2       606       631       987      2827
 -1      7893    3    0    1
 -2       965      2176      2543      2828
 -1      7894    3    0    1
 -2      2406       965      2543      2828
 -1      7895    3    0    1
 -2       979      2442      2823      2829
 -1      7896    3    0    1
 -2       345       979      2823      2829
 -1      7897    3    0    1
 -2      2442       347       979       989
 -1      7898    3    0    1
 -2      1269      1012      1935      3044
 -1      7899    3    0    1
 -2       345       347       979      2829
 -1      7900    3    0    1
 -2       347      2442       979      2829
 -1      7901    3    0    1
 -2      2043       630      2310      2830
 -1      7902    3    0    1
 -2      1246       987       630      2830
 -1      7903    3    0    1
 -2      2619       987      2827      2830
 -1      7904    3    0    1
 -2       987       631       630      2830
 -1      7905    3    0    1
 -2       630       631      1699      2830
 -1      7906    3    0    1
 -2       631       987      2619      2830
 -1      7907    3    0    1
 -2      1699       631      2619      2830
 -1      7908    3    0    1
 -2      1850      2332      2644      2832
 -1      7909    3    0    1
 -2      1809      1556      2577      2833
 -1      7910    3    0    1
 -2      1556      1768      2577      2833
 -1      7911    3    0    1
 -2      1654      2111      2794      2833
 -1      7912    3    0    1
 -2      2111      1654      2136      2833
 -1      7913    3    0    1
 -2      2136      1654      2579      2833
 -1      7914    3    0    1
 -2      1556      2579      2794      2833
 -1      7915    3    0    1
 -2      2579      1654      2794      2833
 -1      7916    3    0    1
 -2       916      2704      2809      2834
 -1      7917    3    0    1
 -2      1178       909      2441      2834
 -1      7918    3    0    1
 -2      2441       909      2806      2834
 -1      7919    3    0    1
 -2       472       495       908      2834
 -1      7920    3    0    1
 -2       495       472      1178      2834
 -1      7921    3    0    1
 -2       908       495       916      2834
 -1      7922    3    0    1
 -2       472       909      1178      2834
 -1      7923    3    0    1
 -2       908       916      2809      2834
 -1      7924    3    0    1
 -2      1559      1741      2169      2836
 -1      7925    3    0    1
 -2      1741      1788      2169      2836
 -1      7926    3    0    1
 -2      1559      2169      2814      2836
 -1      7927    3    0    1
 -2      2169      1788      2814      2836
 -1      7928    3    0    1
 -2      1676      1549      1722      2837
 -1      7929    3    0    1
 -2      1549      1676      2730      2837
 -1      7930    3    0    1
 -2      2730      1676      2819      2837
 -1      7931    3    0    1
 -2       292       325      2819      2837
 -1      7932    3    0    1
 -2       836      1342      1778      2837
 -1      7933    3    0    1
 -2      1722       836      1778      2837
 -1      7934    3    0    1
 -2      1342      1098      1778      2837
 -1      7935    3    0    1
 -2       292      1342       325      2837
 -1      7936    3    0    1
 -2      1778      1098      2819      2837
 -1      7937    3    0    1
 -2      1098       292      2819      2837
 -1      7938    3    0    1
 -2      1342       292      1098      2837
 -1      7939    3    0    1
 -2      2788       974      2801      2838
 -1      7940    3    0    1
 -2       122       345      2758      2838
 -1      7941    3    0    1
 -2      2758       345      2829      2838
 -1      7942    3    0    1
 -2       345       122      1235      2838
 -1      7943    3    0    1
 -2      1450      3042      2917      3057
 -1      7944    3    0    1
 -2      3027      3046      1459      3069
 -1      7945    3    0    1
 -2      3026      1442      3038      3065
 -1      7946    3    0    1
 -2       172       666      2907      2926
 -1      7947    3    0    1
 -2      1683      2175      2662      2862
 -1      7948    3    0    1
 -2      2258      2092      2430      2863
 -1      7949    3    0    1
 -2       949      2155      2900      3068
 -1      7950    3    0    1
 -2       717       727      2956      2964
 -1      7951    3    0    1
 -2      1012      1269      1425      3044
 -1      7952    3    0    1
 -2      2155       949      1415      1416
 -1      7953    3    0    1
 -2      3027      2917      3057      3069
 -1      7954    3    0    1
 -2      1039      2956       727      2964
 -1      7955    3    0    1
 -2      2003      1683      2662      2860
 -1      7956    3    0    1
 -2      2175      1683      2183      2860
 -1      7957    3    0    1
 -2       999      1269      2342      3026
 -1      7958    3    0    1
 -2       679       678      1269      2933
 -1      7959    3    0    1
 -2       727       717       716      2964
 -1      7960    3    0    1
 -2      1464        42      1502      3083
 -1      7961    3    0    1
 -2       949      1225      2155      1415
 -1      7962    3    0    1
 -2      2116       904      2119      1413
 -1      7963    3    0    1
 -2      2061      1236      2885      2915
 -1      7964    3    0    1
 -2      2204      2771      2850      2851
 -1      7965    3    0    1
 -2      2155      1416      3052      3068
 -1      7966    3    0    1
 -2      2873      1475      3082      3094
 -1      7967    3    0    1
 -2      2955      2950      2992      3016
 -1      7968    3    0    1
 -2       560      2934       949      2997
 -1      7969    3    0    1
 -2      1455      3034      3049      3058
 -1      7970    3    0    1
 -2      2257      2060      2839      2861
 -1      7971    3    0    1
 -2      1455      2877      3058      3076
 -1      7972    3    0    1
 -2      1323      1078      1538      2847
 -1      7973    3    0    1
 -2      1410       960      1415      3081
 -1      7974    3    0    1
 -2      1417      1065      1419      3077
 -1      7975    3    0    1
 -2      1451      2116      3051      1496
 -1      7976    3    0    1
 -2      2203      1323      2248      2847
 -1      7977    3    0    1
 -2      1323      1538      2248      2847
 -1      7978    3    0    1
 -2      2318      1683      2458      2848
 -1      7979    3    0    1
 -2      2868      2869      2889      2923
 -1      7980    3    0    1
 -2      1451      2908      3074      2988
 -1      7981    3    0    1
 -2      2204      1977      2318      2850
 -1      7982    3    0    1
 -2       341       340      2928      3066
 -1      7983    3    0    1
 -2      2878      3030      2906      1459
 -1      7984    3    0    1
 -2      3034      2910      1455      3049
 -1      7985    3    0    1
 -2      3052      2565      3053      3054
 -1      7986    3    0    1
 -2      1419      1453      1459      3077
 -1      7987    3    0    1
 -2      2839      2092      2840      2882
 -1      7988    3    0    1
 -2      1837       913      2893      2914
 -1      7989    3    0    1
 -2      2060      2839      2861      2883
 -1      7990    3    0    1
 -2      1444      3033      3038      2922
 -1      7991    3    0    1
 -2       196      1282      2962      2964
 -1      7992    3    0    1
 -2      1667      2175      2183      2864
 -1      7993    3    0    1
 -2      1739      1667      2183      2864
 -1      7994    3    0    1
 -2      2430      1739      2863      2864
 -1      7995    3    0    1
 -2      2863      2451      2875      3047
 -1      7996    3    0    1
 -2      2161      2003      2845      3033
 -1      7997    3    0    1
 -2      2771      2850      2851      2902
 -1      7998    3    0    1
 -2      1422      3029      3044      3076
 -1      7999    3    0    1
 -2      1161      2856      1439      1440
 -1      8000    3    0    1
 -2      1440      1491      3075      3089
 -1      8001    3    0    1
 -2      1427      2358      1428      3061
 -1      8002    3    0    1
 -2      1426      1442      1443      2949
 -1      8003    3    0    1
 -2      1290      3028      1411      1412
 -1      8004    3    0    1
 -2      2907      1006      2926      2933
 -1      8005    3    0    1
 -2      3029      1445      3058      3076
 -1      8006    3    0    1
 -2       352       197      1457      3055
 -1      8007    3    0    1
 -2      1433      1434      3043      1462
 -1      8008    3    0    1
 -2      1933      2878      2879      3030
 -1      8009    3    0    1
 -2      3039      1435      1466      3091
 -1      8010    3    0    1
 -2      1935      1012      2070      2891
 -1      8011    3    0    1
 -2      3041      2913      1465      2924
 -1      8012    3    0    1
 -2      1039      1423      3032      3088
 -1      8013    3    0    1
 -2      1421      2080      2891      3029
 -1      8014    3    0    1
 -2      3034      3028      3049      3058
 -1      8015    3    0    1
 -2      2867      2301      2877      3064
 -1      8016    3    0    1
 -2      2024      1027      3028      3058
 -1      8017    3    0    1
 -2      1334      3007      3008      3009
 -1      8018    3    0    1
 -2      1427      1478      1494      3018
 -1      8019    3    0    1
 -2      1414      2119      3037      3071
 -1      8020    3    0    1
 -2      1176      2119      1414      3071
 -1      8021    3    0    1
 -2       655       647       654      2927
 -1      8022    3    0    1
 -2      3032      2740      2917      3057
 -1      8023    3    0    1
 -2       913      1433      2893      2914
 -1      8024    3    0    1
 -2      3049       197      3055      3073
 -1      8025    3    0    1
 -2      2175      2183      2864      2871
 -1      8026    3    0    1
 -2      1065      1417      1419      3016
 -1      8027    3    0    1
 -2      2995      2972      3015      3017
 -1      8028    3    0    1
 -2      1450      2614      2919      3069
 -1      8029    3    0    1
 -2      2956      1039       727      1290
 -1      8030    3    0    1
 -2      2881      2848      3034      2910
 -1      8031    3    0    1
 -2       716       717      1035      2964
 -1      8032    3    0    1
 -2      1455      2179      3064      2959
 -1      8033    3    0    1
 -2      3063      2405      3095      3097
 -1      8034    3    0    1
 -2      2203      1417      1418      3031
 -1      8035    3    0    1
 -2       938      1212      1839      2925
 -1      8036    3    0    1
 -2      3030      3050      1459      3077
 -1      8037    3    0    1
 -2      1434      1429      1464      2967
 -1      8038    3    0    1
 -2      2250      1053      1419      1420
 -1      8039    3    0    1
 -2      1429      1189      1434      3072
 -1      8040    3    0    1
 -2       994       156      2930      2937
 -1      8041    3    0    1
 -2      3042       350      1450      2938
 -1      8042    3    0    1
 -2      1479       109      1509      1515
 -1      8043    3    0    1
 -2       737       217      2943      2951
 -1      8044    3    0    1
 -2      2848      3034      2910      1455
 -1      8045    3    0    1
 -2      1462       375      3056      1465
 -1      8046    3    0    1
 -2      1078      2035      2847      3060
 -1      8047    3    0    1
 -2      2910       197      3049      1458
 -1      8048    3    0    1
 -2      1078      2847      1438      3060
 -1      8049    3    0    1
 -2      2926      1444      2932      2960
 -1      8050    3    0    1
 -2      2614      1977      2771      2879
 -1      8051    3    0    1
 -2      2848      2179      2881      3034
 -1      8052    3    0    1
 -2      3026      2845      3038      3044
 -1      8053    3    0    1
 -2      3027      1419      1453      3046
 -1      8054    3    0    1
 -2      2358      1428      3061      3080
 -1      8055    3    0    1
 -2      1039      3032      2986      3088
 -1      8056    3    0    1
 -2       703       692       691      2945
 -1      8057    3    0    1
 -2      1486       368      1498      3084
 -1      8058    3    0    1
 -2       188       187      2945      2947
 -1      8059    3    0    1
 -2      2913      2872      3041      1465
 -1      8060    3    0    1
 -2       155      1443      3038      3065
 -1      8061    3    0    1
 -2      2856      1439      1440      3045
 -1      8062    3    0    1
 -2      2458      2851      2881      3034
 -1      8063    3    0    1
 -2       375      3056      1465      2924
 -1      8064    3    0    1
 -2      1258       999      1436      2958
 -1      8065    3    0    1
 -2      1479       344      1495      3080
 -1      8066    3    0    1
 -2      2342      2845      3026      3044
 -1      8067    3    0    1
 -2       924      1189      1429      3072
 -1      8068    3    0    1
 -2       999      1258      2937      2958
 -1      8069    3    0    1
 -2       425      1464      3056      2924
 -1      8070    3    0    1
 -2      1448       421      1449      3078
 -1      8071    3    0    1
 -2      1459      3077      2989      3016
 -1      8072    3    0    1
 -2      2913      3041      1464      2924
 -1      8073    3    0    1
 -2       173       354      1446      3076
 -1      8074    3    0    1
 -2      1457      3028      1456      3055
 -1      8075    3    0    1
 -2      2497       512      2781      2893
 -1      8076    3    0    1
 -2      2890      2858      3028      3034
 -1      8077    3    0    1
 -2      2849      2250      3027      2917
 -1      8078    3    0    1
 -2      2458      2179      2848      2867
 -1      8079    3    0    1
 -2      3035      2876      1450      2917
 -1      8080    3    0    1
 -2      3051      3037      3078      1496
 -1      8081    3    0    1
 -2      2868      2438      2869      2880
 -1      8082    3    0    1
 -2      1047       740      2942      2951
 -1      8083    3    0    1
 -2       173      1444      2970      3092
 -1      8084    3    0    1
 -2      2845      2301      2867      3064
 -1      8085    3    0    1
 -2      2183      2175      2860      2871
 -1      8086    3    0    1
 -2      2179      2867      3064      2959
 -1      8087    3    0    1
 -2       994       996      2927      2930
 -1      8088    3    0    1
 -2      1471        76      1476      1482
 -1      8089    3    0    1
 -2      1443       341      2928      3066
 -1      8090    3    0    1
 -2      2116      3037      3051      1496
 -1      8091    3    0    1
 -2      1497      3060      1498      3084
 -1      8092    3    0    1
 -2      1199      1430      1431      3094
 -1      8093    3    0    1
 -2       340      3059      1478      3066
 -1      8094    3    0    1
 -2      3081      1474      3001      3021
 -1      8095    3    0    1
 -2       787       798      2983      3004
 -1      8096    3    0    1
 -2       996       647       994      2927
 -1      8097    3    0    1
 -2        30        28      2939      2940
 -1      8098    3    0    1
 -2      2839      2861      2883      3048
 -1      8099    3    0    1
 -2      1290      1423      2973      2991
 -1      8100    3    0    1
 -2      3044       173      3076      3092
 -1      8101    3    0    1
 -2      1935      1012      2891      3044
 -1      8102    3    0    1
 -2       360      1475      3063      3097
 -1      8103    3    0    1
 -2      2092      2258      2859      2863
 -1      8104    3    0    1
 -2      2358      1247      2619      2976
 -1      8105    3    0    1
 -2      1447      3060      1497      3084
 -1      8106    3    0    1
 -2       938      1839      2282      2925
 -1      8107    3    0    1
 -2      2942       738      2943      2975
 -1      8108    3    0    1
 -2      2951      2943      2961      2975
 -1      8109    3    0    1
 -2      1199       938      2380      2969
 -1      8110    3    0    1
 -2       203      3042      2920      2938
 -1      8111    3    0    1
 -2       572       573       582      2936
 -1      8112    3    0    1
 -2      1423      1424      3032      1472
 -1      8113    3    0    1
 -2       428      1469      1486      1511
 -1      8114    3    0    1
 -2       346       344      2931      3070
 -1      8115    3    0    1
 -2      1464        42      3082      3003
 -1      8116    3    0    1
 -2      2969      2873      3094      3097
 -1      8117    3    0    1
 -2      1434      3043      1462      1463
 -1      8118    3    0    1
 -2      3037      2886      3051      3071
 -1      8119    3    0    1
 -2      1172        30      2940      2978
 -1      8120    3    0    1
 -2      2003      1683      2860      2866
 -1      8121    3    0    1
 -2      2662      2003      2860      2866
 -1      8122    3    0    1
 -2       913      1433      2914      2941
 -1      8123    3    0    1
 -2      1441      3026      1444      3044
 -1      8124    3    0    1
 -2      1476      2882      3068      3095
 -1      8125    3    0    1
 -2      2614      2771      1450      2919
 -1      8126    3    0    1
 -2      1409      2885      2915      3093
 -1      8127    3    0    1
 -2      3047      2884      1474      3067
 -1      8128    3    0    1
 -2      2458      2179      2851      3034
 -1      8129    3    0    1
 -2      2179      2458      2881      3034
 -1      8130    3    0    1
 -2      1445      1422      1446      3076
 -1      8131    3    0    1
 -2      1968      2342      2865      3026
 -1      8132    3    0    1
 -2      2179      2858      2890      3034
 -1      8133    3    0    1
 -2      2342      2845      2865      3026
 -1      8134    3    0    1
 -2      1425       999      1426      3026
 -1      8135    3    0    1
 -2      2851      2850      2881      3034
 -1      8136    3    0    1
 -2      1269       999      1425      3026
 -1      8137    3    0    1
 -2      2874      2642      3041      3043
 -1      8138    3    0    1
 -2      2965       522      2998      3019
 -1      8139    3    0    1
 -2      2848      2003      2867      2905
 -1      8140    3    0    1
 -2      1414      3037      1449      3071
 -1      8141    3    0    1
 -2      2886      2116      2894      3037
 -1      8142    3    0    1
 -2      3036      2870      3061      2948
 -1      8143    3    0    1
 -2      2328      1300      2740      3032
 -1      8144    3    0    1
 -2      1271       187      1020      2945
 -1      8145    3    0    1
 -2      2740      1300      1424      3032
 -1      8146    3    0    1
 -2       512      1189      2781      2893
 -1      8147    3    0    1
 -2      1278      2080      1421      3058
 -1      8148    3    0    1
 -2      2845      1444      3038      3044
 -1      8149    3    0    1
 -2      2080      2024      2858      3058
 -1      8150    3    0    1
 -2      2855      2782      2872      3051
 -1      8151    3    0    1
 -2      2586      2436      2853      2872
 -1      8152    3    0    1
 -2      1436      1466      3039      1435
 -1      8153    3    0    1
 -2      2782      2853      2872      3041
 -1      8154    3    0    1
 -2      2782      2436      2855      2872
 -1      8155    3    0    1
 -2      2436      2782      2853      2872
 -1      8156    3    0    1
 -2      2708      3060      3079      3084
 -1      8157    3    0    1
 -2      1475      1430      1503      3094
 -1      8158    3    0    1
 -2      1486      2708      3079      3084
 -1      8159    3    0    1
 -2      1269      2342      1425      3044
 -1      8160    3    0    1
 -2      3042      3035      2920      2938
 -1      8161    3    0    1
 -2      2258      2859      2863      2875
 -1      8162    3    0    1
 -2      1212      1431      1432      2925
 -1      8163    3    0    1
 -2      3040      2928      1478      3066
 -1      8164    3    0    1
 -2      1161       904      1413      2974
 -1      8165    3    0    1
 -2      1290      1039      1423      2991
 -1      8166    3    0    1
 -2      2771      2851      2876      2902
 -1      8167    3    0    1
 -2      2003      2161      2866      3033
 -1      8168    3    0    1
 -2      1464      1502      1518      2999
 -1      8169    3    0    1
 -2      3060      1438      1497      1498
 -1      8170    3    0    1
 -2      2175      2862      2871      3040
 -1      8171    3    0    1
 -2      2035      1334      2911      3060
 -1      8172    3    0    1
 -2      2935      2900      3068      3095
 -1      8173    3    0    1
 -2      3039      1443      3040      3059
 -1      8174    3    0    1
 -2      1968      2843      2912      3039
 -1      8175    3    0    1
 -2      1431      1432      2925      3002
 -1      8176    3    0    1
 -2      2662      2003      2866      3033
 -1      8177    3    0    1
 -2      3026      2845      3033      3038
 -1      8178    3    0    1
 -2      1443      1442      1477      2949
 -1      8179    3    0    1
 -2      1933      2846      2889      3030
 -1      8180    3    0    1
 -2      2852      2916      3063      1476
 -1      8181    3    0    1
 -2      2850      2844      3035      2920
 -1      8182    3    0    1
 -2      2858      2890      3028      3073
 -1      8183    3    0    1
 -2      2937      2930      2949      2958
 -1      8184    3    0    1
 -2      2889      2868      2923      3079
 -1      8185    3    0    1
 -2      2451      2901      3047      1479
 -1      8186    3    0    1
 -2      2869      2868      2880      2923
 -1      8187    3    0    1
 -2      1933      1977      2614      2879
 -1      8188    3    0    1
 -2      1977      1933      2387      2879
 -1      8189    3    0    1
 -2      2849      2613      2879      2921
 -1      8190    3    0    1
 -2      1933      2614      2849      2879
 -1      8191    3    0    1
 -2      2849      2250      2857      3027
 -1      8192    3    0    1
 -2      2613      2849      2857      3027
 -1      8193    3    0    1
 -2       679       668       667      2933
 -1      8194    3    0    1
 -2      1415      2155      1416      3052
 -1      8195    3    0    1
 -2      2850      2318      2851      2881
 -1      8196    3    0    1
 -2      2458      2318      2848      2881
 -1      8197    3    0    1
 -2      2179      2458      2848      2881
 -1      8198    3    0    1
 -2      2318      2458      2851      2881
 -1      8199    3    0    1
 -2      1463      1434      1464      2967
 -1      8200    3    0    1
 -2       451       462       463      2918
 -1      8201    3    0    1
 -2      2258      2092      2859      2882
 -1      8202    3    0    1
 -2      2092      2258      2840      2882
 -1      8203    3    0    1
 -2      2910       352      1455      3049
 -1      8204    3    0    1
 -2       946       550      1207      2934
 -1      8205    3    0    1
 -2      2852      2840      2859      2882
 -1      8206    3    0    1
 -2      2840      2258      2859      2882
 -1      8207    3    0    1
 -2      2060      2861      2873      2883
 -1      8208    3    0    1
 -2       474      2940      2978      2984
 -1      8209    3    0    1
 -2      2906      3030      3050      1459
 -1      8210    3    0    1
 -2      2998      2965      3019      3025
 -1      8211    3    0    1
 -2      1444      1425      2932      2960
 -1      8212    3    0    1
 -2      2840      2839      2882      3048
 -1      8213    3    0    1
 -2      2861      2873      2883      3048
 -1      8214    3    0    1
 -2      2840      2852      2861      3048
 -1      8215    3    0    1
 -2      2405      2882      2883      3048
 -1      8216    3    0    1
 -2       973      2358      2452      2885
 -1      8217    3    0    1
 -2      1236       973      2452      2885
 -1      8218    3    0    1
 -2      2907      2926      2932      2960
 -1      8219    3    0    1
 -2      2865      1968      3026      3065
 -1      8220    3    0    1
 -2      2864      2183      2901      2904
 -1      8221    3    0    1
 -2      2116      2119      2894      3037
 -1      8222    3    0    1
 -2       994       151       996      2930
 -1      8223    3    0    1
 -2      1422      1444      1446      3044
 -1      8224    3    0    1
 -2      2438      2868      2869      2887
 -1      8225    3    0    1
 -2      1091      1161      1883      1439
 -1      8226    3    0    1
 -2      1883      1161      2856      1439
 -1      8227    3    0    1
 -2      2843      2676      3039      3040
 -1      8228    3    0    1
 -2      1269      1012      1425      2960
 -1      8229    3    0    1
 -2       422      1449      1465      1508
 -1      8230    3    0    1
 -2      2887      2116      1451      3075
 -1      8231    3    0    1
 -2       187      1020      2945      2952
 -1      8232    3    0    1
 -2      2897      2855      2909      3051
 -1      8233    3    0    1
 -2      2888      2846      3030      3031
 -1      8234    3    0    1
 -2      2868      2656      2869      2887
 -1      8235    3    0    1
 -2      2656      2553      2869      2887
 -1      8236    3    0    1
 -2      2553      2436      2855      2887
 -1      8237    3    0    1
 -2      2436      2553      2656      2887
 -1      8238    3    0    1
 -2      2387      2656      2707      2889
 -1      8239    3    0    1
 -2      2707      2656      2869      2889
 -1      8240    3    0    1
 -2       354      1445      1455      1505
 -1      8241    3    0    1
 -2      1933      2387      2878      2889
 -1      8242    3    0    1
 -2      2387      1933      2868      2889
 -1      8243    3    0    1
 -2      1189      2642      2781      2893
 -1      8244    3    0    1
 -2       913       486      1837      2893
 -1      8245    3    0    1
 -2      1837       486      2425      2893
 -1      8246    3    0    1
 -2      2944      2966      2996      2999
 -1      8247    3    0    1
 -2      1933      2708      2868      2889
 -1      8248    3    0    1
 -2      2708      1933      2846      2889
 -1      8249    3    0    1
 -2        76      3054      1476      2957
 -1      8250    3    0    1
 -2       187      1271       188      2945
 -1      8251    3    0    1
 -2       341      1443      1467      3059
 -1      8252    3    0    1
 -2      1012      1269      2907      2960
 -1      8253    3    0    1
 -2      1012      1278      2070      2891
 -1      8254    3    0    1
 -2      1421      1012      1422      2891
 -1      8255    3    0    1
 -2      1278      1012      1421      2891
 -1      8256    3    0    1
 -2      2851      2876      2902      3035
 -1      8257    3    0    1
 -2      2877      2301      2891      3029
 -1      8258    3    0    1
 -2      1445      3029      1422      3076
 -1      8259    3    0    1
 -2      2080      2877      2891      3029
 -1      8260    3    0    1
 -2      2846      2708      2889      3030
 -1      8261    3    0    1
 -2      2849      1933      2879      3030
 -1      8262    3    0    1
 -2      2613      2849      2879      3030
 -1      8263    3    0    1
 -2      1458      1412      3073      3088
 -1      8264    3    0    1
 -2       702      1027      2945      2952
 -1      8265    3    0    1
 -2      1933      2613      2846      3030
 -1      8266    3    0    1
 -2      3060      2438      3084      3090
 -1      8267    3    0    1
 -2      2846      2613      2888      3030
 -1      8268    3    0    1
 -2      2092      2842      2895      3053
 -1      8269    3    0    1
 -2      2613      1933      2849      3030
 -1      8270    3    0    1
 -2      3032      1423      1472      3088
 -1      8271    3    0    1
 -2      3047      2915      3067      3085
 -1      8272    3    0    1
 -2       486       512      2425      2893
 -1      8273    3    0    1
 -2       486       913      1189      2893
 -1      8274    3    0    1
 -2      1189       913      1433      2893
 -1      8275    3    0    1
 -2       512       486      1189      2893
 -1      8276    3    0    1
 -2       349      1474      3085      1510
 -1      8277    3    0    1
 -2      2937       999       655      1258
 -1      8278    3    0    1
 -2      2092      2859      2882      3053
 -1      8279    3    0    1
 -2      2863      2895      3047      3053
 -1      8280    3    0    1
 -2       339      1444      3038      2922
 -1      8281    3    0    1
 -2      2565      2895      3052      3053
 -1      8282    3    0    1
 -2      2436      2855      2872      2897
 -1      8283    3    0    1
 -2      2553      2436      2872      2897
 -1      8284    3    0    1
 -2      2436      2553      2855      2897
 -1      8285    3    0    1
 -2       822      2954      1334       823
 -1      8286    3    0    1
 -2       354      1445      1446      3076
 -1      8287    3    0    1
 -2      2845      2161      1444      3064
 -1      8288    3    0    1
 -2       655      2927       999      2937
 -1      8289    3    0    1
 -2      3031      3050      1468      1469
 -1      8290    3    0    1
 -2      2885      1409      3080      3093
 -1      8291    3    0    1
 -2      1409      1479      3080      3093
 -1      8292    3    0    1
 -2       217      2942      2943      2951
 -1      8293    3    0    1
 -2       422       421      2982      3087
 -1      8294    3    0    1
 -2      1413      1414      3037      1448
 -1      8295    3    0    1
 -2       203      3042      1458      2920
 -1      8296    3    0    1
 -2       197      3049      1458      3073
 -1      8297    3    0    1
 -2      3032      3042      1472      1473
 -1      8298    3    0    1
 -2      1300      1423      1424      3032
 -1      8299    3    0    1
 -2      1424      3032      1472      1473
 -1      8300    3    0    1
 -2      1300      1039      1423      3032
 -1      8301    3    0    1
 -2      2901      2864      2904      3036
 -1      8302    3    0    1
 -2       702      1027      1278      2945
 -1      8303    3    0    1
 -2      1212      2900      3002      3095
 -1      8304    3    0    1
 -2      3049      3034      1458      3073
 -1      8305    3    0    1
 -2      3056      3041      1465      2924
 -1      8306    3    0    1
 -2      1474      1410      1510      3021
 -1      8307    3    0    1
 -2       375       425      3056      2924
 -1      8308    3    0    1
 -2      1455      2877      3076      3092
 -1      8309    3    0    1
 -2      2879      2849      2921      3069
 -1      8310    3    0    1
 -2      1839       558      2326      2900
 -1      8311    3    0    1
 -2       560       949       558      2900
 -1      8312    3    0    1
 -2       560       558      1839      2900
 -1      8313    3    0    1
 -2      1212       560      1839      2900
 -1      8314    3    0    1
 -2       558      2155      2326      2900
 -1      8315    3    0    1
 -2       558       949      2155      2900
 -1      8316    3    0    1
 -2      2895      2842      3052      3053
 -1      8317    3    0    1
 -2      3063      3048      1476      3095
 -1      8318    3    0    1
 -2       560       550       558      2934
 -1      8319    3    0    1
 -2      2863      2451      2864      2901
 -1      8320    3    0    1
 -2      2860      2662      2866      3033
 -1      8321    3    0    1
 -2      2850      2844      2851      3035
 -1      8322    3    0    1
 -2      2845      2161      3033      1444
 -1      8323    3    0    1
 -2      1440      1413      1451      3013
 -1      8324    3    0    1
 -2      2845      2662      2865      3033
 -1      8325    3    0    1
 -2        42        65      3083      3003
 -1      8326    3    0    1
 -2      2003      2662      2845      3033
 -1      8327    3    0    1
 -2      3030      2613      3031      3050
 -1      8328    3    0    1
 -2       197       352      3049      3055
 -1      8329    3    0    1
 -2      3074      1451      2988      3096
 -1      8330    3    0    1
 -2      2301      2845      3044      3064
 -1      8331    3    0    1
 -2       550       551       558      2934
 -1      8332    3    0    1
 -2      2854      2451      2863      3047
 -1      8333    3    0    1
 -2       273      1085      1326      2954
 -1      8334    3    0    1
 -2      2904      2901      3036      1479
 -1      8335    3    0    1
 -2      1413      1440      1451      3075
 -1      8336    3    0    1
 -2      2003      2161      2845      3064
 -1      8337    3    0    1
 -2      2871      3040      2928      1478
 -1      8338    3    0    1
 -2      2853      2586      2872      2913
 -1      8339    3    0    1
 -2      2860      2662      3033      1443
 -1      8340    3    0    1
 -2      2662      2860      2862      1443
 -1      8341    3    0    1
 -2      2871      2864      3040      1478
 -1      8342    3    0    1
 -2      1334      1437      2911      3060
 -1      8343    3    0    1
 -2      1421      1445      1455      3058
 -1      8344    3    0    1
 -2      3030      2906      3050      1486
 -1      8345    3    0    1
 -2      2904      3036      1478      2931
 -1      8346    3    0    1
 -2       134       128       982      3015
 -1      8347    3    0    1
 -2      1443      2871      3040      2928
 -1      8348    3    0    1
 -2      3070      3061      1494      1495
 -1      8349    3    0    1
 -2      1449       422      3071      3078
 -1      8350    3    0    1
 -2      2676      2864      3036      1478
 -1      8351    3    0    1
 -2      2887      2855      2897      1451
 -1      8352    3    0    1
 -2       986      1247      2972      3017
 -1      8353    3    0    1
 -2      1422      1425      1444      3044
 -1      8354    3    0    1
 -2       647       996       648      2927
 -1      8355    3    0    1
 -2      3041      3043      2782      2874
 -1      8356    3    0    1
 -2       479      1172      2939      2978
 -1      8357    3    0    1
 -2      1450       350      1473      1484
 -1      8358    3    0    1
 -2      1433      1434      2914      3043
 -1      8359    3    0    1
 -2      2851      2844      2876      3035
 -1      8360    3    0    1
 -2       429      2906      3050      1459
 -1      8361    3    0    1
 -2      2708      2868      2889      3079
 -1      8362    3    0    1
 -2      2844      2328      2876      3035
 -1      8363    3    0    1
 -2      1425      1441      1444      3044
 -1      8364    3    0    1
 -2      2676      2864      2870      3036
 -1      8365    3    0    1
 -2      3067       349      3085      1510
 -1      8366    3    0    1
 -2      2956      2962      2964      2991
 -1      8367    3    0    1
 -2      2864      2451      2870      3036
 -1      8368    3    0    1
 -2      1457       197      1458      3073
 -1      8369    3    0    1
 -2       376      1447      1490      1492
 -1      8370    3    0    1
 -2      2930      2927      2937      2949
 -1      8371    3    0    1
 -2      3040      1443      2928      3066
 -1      8372    3    0    1
 -2       641      2930      2937      2958
 -1      8373    3    0    1
 -2      3064      1455      2959      3092
 -1      8374    3    0    1
 -2      2565      2854      2863      3047
 -1      8375    3    0    1
 -2      1027      2945      2971      2990
 -1      8376    3    0    1
 -2      3029      2877      3064      3076
 -1      8377    3    0    1
 -2      2161      2003      2905      3064
 -1      8378    3    0    1
 -2       463       452      2918      2987
 -1      8379    3    0    1
 -2      2877      3029      3058      3076
 -1      8380    3    0    1
 -2      1450      1454      1489      2961
 -1      8381    3    0    1
 -2      1455      1421      3058      2990
 -1      8382    3    0    1
 -2      2845      1444      3044      3064
 -1      8383    3    0    1
 -2      2861      2873      3048      3097
 -1      8384    3    0    1
 -2      1427      3061      1494      3091
 -1      8385    3    0    1
 -2      3029      2301      3044      3064
 -1      8386    3    0    1
 -2      2003      2867      2905      3064
 -1      8387    3    0    1
 -2      2877      2301      3029      3064
 -1      8388    3    0    1
 -2      2035      1091      2157      2953
 -1      8389    3    0    1
 -2      1247       986      1699      2976
 -1      8390    3    0    1
 -2      2380      2898      3062      3094
 -1      8391    3    0    1
 -2       422      1465      3071      3087
 -1      8392    3    0    1
 -2      2771      2614      2879      2919
 -1      8393    3    0    1
 -2      2878      2879      3030      1459
 -1      8394    3    0    1
 -2      3033      2845      1444      3038
 -1      8395    3    0    1
 -2      1441       339      1444      3038
 -1      8396    3    0    1
 -2      3026      1441      1444      3038
 -1      8397    3    0    1
 -2      2974      1161      2987      3013
 -1      8398    3    0    1
 -2      2919      1450      3069      2979
 -1      8399    3    0    1
 -2      3033      3026      3065      2865
 -1      8400    3    0    1
 -2      1441      3026      1442      3038
 -1      8401    3    0    1
 -2      2897      1451      3051      1496
 -1      8402    3    0    1
 -2       155       339      1442      3038
 -1      8403    3    0    1
 -2       339      1441      1442      3038
 -1      8404    3    0    1
 -2      3061      1428      1494      1495
 -1      8405    3    0    1
 -2      1492       809      2981      3009
 -1      8406    3    0    1
 -2       811       822       823      2954
 -1      8407    3    0    1
 -2      1410      2915      3085      1509
 -1      8408    3    0    1
 -2       280       273      1326      2954
 -1      8409    3    0    1
 -2      1212       949      1432      3000
 -1      8410    3    0    1
 -2      1453      1459      1516      3016
 -1      8411    3    0    1
 -2      3032      3035      3042      2917
 -1      8412    3    0    1
 -2      1466       340      3059      1478
 -1      8413    3    0    1
 -2      2860      2862      1443      3040
 -1      8414    3    0    1
 -2      2862      2860      2871      3040
 -1      8415    3    0    1
 -2      1436      1968      3039      3065
 -1      8416    3    0    1
 -2      2175      2676      2843      3040
 -1      8417    3    0    1
 -2      2175      2843      2862      3040
 -1      8418    3    0    1
 -2      2676      2175      2864      3040
 -1      8419    3    0    1
 -2       999      1426      3026      3065
 -1      8420    3    0    1
 -2      1442      1426      1443      3065
 -1      8421    3    0    1
 -2      2871      2860      1443      3040
 -1      8422    3    0    1
 -2      1411      1412      3028      1456
 -1      8423    3    0    1
 -2      2853      2782      2874      3041
 -1      8424    3    0    1
 -2      2889      1486      3079      2993
 -1      8425    3    0    1
 -2      2858      3028      3034      3058
 -1      8426    3    0    1
 -2      2642      2853      2874      3041
 -1      8427    3    0    1
 -2       352      3049      3055      3058
 -1      8428    3    0    1
 -2      3037      1449      3071      3078
 -1      8429    3    0    1
 -2      1027      1278      1421      3058
 -1      8430    3    0    1
 -2       375       425      1463      3056
 -1      8431    3    0    1
 -2      1039      2956      2964      2991
 -1      8432    3    0    1
 -2       960      2061      3081      3085
 -1      8433    3    0    1
 -2       487       479      2939      2978
 -1      8434    3    0    1
 -2      2116      1413      3037      3075
 -1      8435    3    0    1
 -2       823       812       811      2954
 -1      8436    3    0    1
 -2      1445       354      1455      3076
 -1      8437    3    0    1
 -2      1428      1479      1495      3080
 -1      8438    3    0    1
 -2      2856      2887      2892      3045
 -1      8439    3    0    1
 -2      2708      2889      1486      3079
 -1      8440    3    0    1
 -2      1422      1012      1425      3044
 -1      8441    3    0    1
 -2       361       231      3069      2979
 -1      8442    3    0    1
 -2      2080      2858      2877      3058
 -1      8443    3    0    1
 -2      1012      1422      2891      3044
 -1      8444    3    0    1
 -2      2902      2850      3035      2920
 -1      8445    3    0    1
 -2      2893      1434      1433      1189
 -1      8446    3    0    1
 -2      1444       173      1446      3044
 -1      8447    3    0    1
 -2      1434      2893      1433      2914
 -1      8448    3    0    1
 -2      1269      1935      2342      3044
 -1      8449    3    0    1
 -2      1474      1410      3081      3085
 -1      8450    3    0    1
 -2      1053      2250      2740      3057
 -1      8451    3    0    1
 -2      2614      2879      2919      3069
 -1      8452    3    0    1
 -2       352      1455      1456      1461
 -1      8453    3    0    1
 -2       463       462      1161      2918
 -1      8454    3    0    1
 -2       462       904      1161      2918
 -1      8455    3    0    1
 -2       582      1225       584      2936
 -1      8456    3    0    1
 -2      2614      2771      2876      1450
 -1      8457    3    0    1
 -2      2876      2771      3035      1450
 -1      8458    3    0    1
 -2      2565      2895      2896      3052
 -1      8459    3    0    1
 -2      2895      2842      2896      3052
 -1      8460    3    0    1
 -2      1420      1424      1450      3057
 -1      8461    3    0    1
 -2      2883      2405      3048      3097
 -1      8462    3    0    1
 -2      2859      2863      2875      3053
 -1      8463    3    0    1
 -2      1935      2301      2342      3044
 -1      8464    3    0    1
 -2      2342      2301      2845      3044
 -1      8465    3    0    1
 -2      2301      1935      2891      3044
 -1      8466    3    0    1
 -2      1459      1468      1506      2989
 -1      8467    3    0    1
 -2      1479      3036      3070      3080
 -1      8468    3    0    1
 -2      1441      1425      1444      2960
 -1      8469    3    0    1
 -2      1458      2962      2973      2991
 -1      8470    3    0    1
 -2      1473      1450      1484      2975
 -1      8471    3    0    1
 -2      2897      2887      1451      3074
 -1      8472    3    0    1
 -2      2918      1153      2946      2987
 -1      8473    3    0    1
 -2       666      2907      2926      2932
 -1      8474    3    0    1
 -2      1424      2740      3032      3057
 -1      8475    3    0    1
 -2      2740      2328      3032      2917
 -1      8476    3    0    1
 -2      2250      1420      3027      3057
 -1      8477    3    0    1
 -2       231      1453      1454      3046
 -1      8478    3    0    1
 -2      1453      1420      1454      3046
 -1      8479    3    0    1
 -2       361       231      1454      3046
 -1      8480    3    0    1
 -2      1419      1420      1453      3046
 -1      8481    3    0    1
 -2      2250      1053      1420      3057
 -1      8482    3    0    1
 -2      1467      3039      1466      3059
 -1      8483    3    0    1
 -2       716       726       727      2964
 -1      8484    3    0    1
 -2       156       151       994      2930
 -1      8485    3    0    1
 -2       703       702      1278      2945
 -1      8486    3    0    1
 -2      1444      2926      1481      2960
 -1      8487    3    0    1
 -2       647       648       654      2927
 -1      8488    3    0    1
 -2       691       702       703      2945
 -1      8489    3    0    1
 -2      1450      1424      2961      2975
 -1      8490    3    0    1
 -2       642      2927      2930      2949
 -1      8491    3    0    1
 -2      2884      2875      2901      3047
 -1      8492    3    0    1
 -2      2565      2863      2895      3047
 -1      8493    3    0    1
 -2      1452       666      2926      2932
 -1      8494    3    0    1
 -2      2880      2438      2923      3079
 -1      8495    3    0    1
 -2      2842      3052      3053      3054
 -1      8496    3    0    1
 -2       572       582       584      2936
 -1      8497    3    0    1
 -2      3048      2852      3063      1476
 -1      8498    3    0    1
 -2      1212       938      1431      2925
 -1      8499    3    0    1
 -2      1418      1469      1486      3086
 -1      8500    3    0    1
 -2        30        28       911      2939
 -1      8501    3    0    1
 -2       428       429      2906      3050
 -1      8502    3    0    1
 -2      1421      3029      1445      3058
 -1      8503    3    0    1
 -2      2887      2855      1451      3051
 -1      8504    3    0    1
 -2      2116      2887      1451      3051
 -1      8505    3    0    1
 -2      1020       691      2945      2952
 -1      8506    3    0    1
 -2      1423      1458      3088      2991
 -1      8507    3    0    1
 -2      1466       340      1467      3059
 -1      8508    3    0    1
 -2      2080      2877      3029      3058
 -1      8509    3    0    1
 -2      1421      2080      3029      3058
 -1      8510    3    0    1
 -2      2179      2858      3034      3058
 -1      8511    3    0    1
 -2      1323      2203      1418      3086
 -1      8512    3    0    1
 -2      2782      2855      2886      3051
 -1      8513    3    0    1
 -2      1474      1410      3085      1510
 -1      8514    3    0    1
 -2      2855      2116      2886      3051
 -1      8515    3    0    1
 -2      2116      2855      2887      3051
 -1      8516    3    0    1
 -2      1418      3031      1468      1469
 -1      8517    3    0    1
 -2      2438      3045      3074      3090
 -1      8518    3    0    1
 -2       449      2918      2946      2974
 -1      8519    3    0    1
 -2      2942      1053      2975      2951
 -1      8520    3    0    1
 -2      1413      1448      1496      2974
 -1      8521    3    0    1
 -2      1441      1444      1481      2960
 -1      8522    3    0    1
 -2      2877      2179      1455      3058
 -1      8523    3    0    1
 -2      1027      1411      3028      3058
 -1      8524    3    0    1
 -2      3034      2910      3049      1458
 -1      8525    3    0    1
 -2      3034      2850      2910      1458
 -1      8526    3    0    1
 -2       665      2926      2933      2960
 -1      8527    3    0    1
 -2        76       359      3054      2957
 -1      8528    3    0    1
 -2      1012      2907      2932      2960
 -1      8529    3    0    1
 -2      3028      1456      3055      3058
 -1      8530    3    0    1
 -2      3028      1411      1456      3058
 -1      8531    3    0    1
 -2       691      1271      1020      2945
 -1      8532    3    0    1
 -2      1271       691       692      2945
 -1      8533    3    0    1
 -2      1091      1883      2157      2953
 -1      8534    3    0    1
 -2      1479      3036      2931      3070
 -1      8535    3    0    1
 -2      2923      2889      3079      2993
 -1      8536    3    0    1
 -2      2842      2092      2882      3053
 -1      8537    3    0    1
 -2      2863      2092      2895      3053
 -1      8538    3    0    1
 -2      2161      2866      3033      2922
 -1      8539    3    0    1
 -2      1476      3068      2985      3000
 -1      8540    3    0    1
 -2       737      2943      1489      2961
 -1      8541    3    0    1
 -2       451      1153       898      2918
 -1      8542    3    0    1
 -2      2868      2880      2923      3079
 -1      8543    3    0    1
 -2         1         2       898      2918
 -1      8544    3    0    1
 -2         1       898      1153      2918
 -1      8545    3    0    1
 -2      2911      2438      3060      3090
 -1      8546    3    0    1
 -2      1153       451       452      2918
 -1      8547    3    0    1
 -2      2869      2887      2908      3074
 -1      8548    3    0    1
 -2      2887      2897      2908      3074
 -1      8549    3    0    1
 -2      2438      1447      3084      3090
 -1      8550    3    0    1
 -2      2892      2438      3045      3074
 -1      8551    3    0    1
 -2      1437      1334      2953      3090
 -1      8552    3    0    1
 -2      2895      3047      3053      1474
 -1      8553    3    0    1
 -2      2895      2565      3047      1474
 -1      8554    3    0    1
 -2      1027      2024      2080      3058
 -1      8555    3    0    1
 -2      3042      3035      1458      2920
 -1      8556    3    0    1
 -2      1455       352      1456      3058
 -1      8557    3    0    1
 -2      3049      3028      3055      3058
 -1      8558    3    0    1
 -2       352      1455      3049      3058
 -1      8559    3    0    1
 -2      1456       352      3055      3058
 -1      8560    3    0    1
 -2      1278      1027      2080      3058
 -1      8561    3    0    1
 -2      2061      2963      3081      3085
 -1      8562    3    0    1
 -2      1457      3028      3055      3073
 -1      8563    3    0    1
 -2       924      1429      3062      3072
 -1      8564    3    0    1
 -2      3043      3041      2782      3056
 -1      8565    3    0    1
 -2      1412      2024      3073      3088
 -1      8566    3    0    1
 -2       960      1225       582      2936
 -1      8567    3    0    1
 -2      2586      2913      3041      1464
 -1      8568    3    0    1
 -2      2853      2586      3041      1464
 -1      8569    3    0    1
 -2      2968      2985      2997      3000
 -1      8570    3    0    1
 -2      1434      1463      1464      3072
 -1      8571    3    0    1
 -2      1464      2841      3062      3072
 -1      8572    3    0    1
 -2       361      1450      1454      1489
 -1      8573    3    0    1
 -2        65      3082      3083      3003
 -1      8574    3    0    1
 -2       498      1488      2966      2967
 -1      8575    3    0    1
 -2      1488      1464      2966      2967
 -1      8576    3    0    1
 -2      3027      1420      3046      3057
 -1      8577    3    0    1
 -2      1420      1450      1454      3057
 -1      8578    3    0    1
 -2      1420      1454      3046      3057
 -1      8579    3    0    1
 -2      1450       361      1454      3057
 -1      8580    3    0    1
 -2      1454       361      3046      3057
 -1      8581    3    0    1
 -2      2740      2250      2917      3057
 -1      8582    3    0    1
 -2      2782      2872      3051      1465
 -1      8583    3    0    1
 -2       750      1053      1300      2942
 -1      8584    3    0    1
 -2       751       750      1300      2942
 -1      8585    3    0    1
 -2       631      1247      1699      2976
 -1      8586    3    0    1
 -2       740      1294      1047      2942
 -1      8587    3    0    1
 -2       740       750       751      2942
 -1      8588    3    0    1
 -2      2894      2886      3037      3071
 -1      8589    3    0    1
 -2      1294       740       741      2942
 -1      8590    3    0    1
 -2      2386      1630      1824      1846
 -1      8591    3    0    1
 -2      3051      2782      1465      3071
 -1      8592    3    0    1
 -2      2886      2782      3051      3071
 -1      8593    3    0    1
 -2       691       702      2945      2952
 -1      8594    3    0    1
 -2       913      1433      2941      3071
 -1      8595    3    0    1
 -2      1462      1433      1465      3071
 -1      8596    3    0    1
 -2      1247       631      2619      2976
 -1      8597    3    0    1
 -2      1416      1471      1476      2985
 -1      8598    3    0    1
 -2      2939      1172      2940      2978
 -1      8599    3    0    1
 -2      1449       422      1465      3071
 -1      8600    3    0    1
 -2      3043      1462      1465      3071
 -1      8601    3    0    1
 -2       913      1176      1433      3071
 -1      8602    3    0    1
 -2      2927       655       999       654
 -1      8603    3    0    1
 -2      2909      3051      1465      3087
 -1      8604    3    0    1
 -2      1409       973      1428      3022
 -1      8605    3    0    1
 -2       428       429      3050      1469
 -1      8606    3    0    1
 -2      3050       429      1468      1469
 -1      8607    3    0    1
 -2      2909      2897      3051      2982
 -1      8608    3    0    1
 -2      2847      1438      3060      3086
 -1      8609    3    0    1
 -2      3078      3051      1496      3087
 -1      8610    3    0    1
 -2        65      1475      3082      3003
 -1      8611    3    0    1
 -2      2708      2847      2911      3060
 -1      8612    3    0    1
 -2      1448       421      3078      1496
 -1      8613    3    0    1
 -2      2847      2035      2911      3060
 -1      8614    3    0    1
 -2      1437      1078      1438      3060
 -1      8615    3    0    1
 -2      1334      1078      1437      3060
 -1      8616    3    0    1
 -2       924      2380      2781      3062
 -1      8617    3    0    1
 -2      2849      2613      2921      3069
 -1      8618    3    0    1
 -2      3033      2866      1443      2922
 -1      8619    3    0    1
 -2       359        76      3054      1471
 -1      8620    3    0    1
 -2       359      3054      1470      1471
 -1      8621    3    0    1
 -2      1006       172      2907      2926
 -1      8622    3    0    1
 -2      2003      2845      2867      3064
 -1      8623    3    0    1
 -2      3042       203      1472      1473
 -1      8624    3    0    1
 -2      1450      3032      3057      1473
 -1      8625    3    0    1
 -2      1424      1450      3057      1473
 -1      8626    3    0    1
 -2      3032      1424      3057      1473
 -1      8627    3    0    1
 -2      1427      1247      1435      3017
 -1      8628    3    0    1
 -2      2879      2613      3030      2921
 -1      8629    3    0    1
 -2      3030      2613      1459      2921
 -1      8630    3    0    1
 -2      2879      3030      1459      2921
 -1      8631    3    0    1
 -2       214       217      2942      2943
 -1      8632    3    0    1
 -2      2859      3053      1474      2957
 -1      8633    3    0    1
 -2      3036      1478      2931      3070
 -1      8634    3    0    1
 -2       344      1479      2931      3070
 -1      8635    3    0    1
 -2       376      1447      2988      3096
 -1      8636    3    0    1
 -2       367      1447      1497      3084
 -1      8637    3    0    1
 -2      1282      2956      2962      2964
 -1      8638    3    0    1
 -2      2875      2859      3053      1474
 -1      8639    3    0    1
 -2      2884      2875      3047      1474
 -1      8640    3    0    1
 -2      3047      2875      3053      1474
 -1      8641    3    0    1
 -2      3060      1486      1498      3084
 -1      8642    3    0    1
 -2      2380      1199      2969      3094
 -1      8643    3    0    1
 -2      2983      1078      3012      3004
 -1      8644    3    0    1
 -2      2613      2849      3027      3069
 -1      8645    3    0    1
 -2      2613      1459      2921      3069
 -1      8646    3    0    1
 -2      1447       367      1497      2981
 -1      8647    3    0    1
 -2       280       273      2954      2981
 -1      8648    3    0    1
 -2       359      1470      1474      1483
 -1      8649    3    0    1
 -2      1415      1470      1474      3081
 -1      8650    3    0    1
 -2      2861      3048      1475      3097
 -1      8651    3    0    1
 -2      2841      2380      2898      3062
 -1      8652    3    0    1
 -2      2781      2380      2841      3062
 -1      8653    3    0    1
 -2      2925      1431      3002      3097
 -1      8654    3    0    1
 -2      3082        42      3083      3003
 -1      8655    3    0    1
 -2      2882      3048      2935      3095
 -1      8656    3    0    1
 -2      1430      3062      1502      3083
 -1      8657    3    0    1
 -2      1429      3062      3072      1502
 -1      8658    3    0    1
 -2      2916       362      3063      1476
 -1      8659    3    0    1
 -2      2852      2861      3048      1475
 -1      8660    3    0    1
 -2      3063       360      1499      1500
 -1      8661    3    0    1
 -2       924      1189      2944      2999
 -1      8662    3    0    1
 -2      1476      1432      1500      3095
 -1      8663    3    0    1
 -2       362       360      2916      3063
 -1      8664    3    0    1
 -2      2916       360      1475      3063
 -1      8665    3    0    1
 -2      2179      2867      2877      3064
 -1      8666    3    0    1
 -2      2852      2916      1475      3063
 -1      8667    3    0    1
 -2      2024      2844      3073      2986
 -1      8668    3    0    1
 -2      2859      2852      2882      1476
 -1      8669    3    0    1
 -2      2859      2882      3053      1476
 -1      8670    3    0    1
 -2      2882      2852      3048      1476
 -1      8671    3    0    1
 -2      2882      2842      3053      1476
 -1      8672    3    0    1
 -2      2275      1039      2328      2986
 -1      8673    3    0    1
 -2      1216       103      1217      2936
 -1      8674    3    0    1
 -2      1418      3031      1469      3086
 -1      8675    3    0    1
 -2      2882      2842      1476      3068
 -1      8676    3    0    1
 -2      3052      1416      1471      3068
 -1      8677    3    0    1
 -2      2842      3052      3054      3068
 -1      8678    3    0    1
 -2      1486      1418      3086      3012
 -1      8679    3    0    1
 -2      2380       938      2925      2969
 -1      8680    3    0    1
 -2      3054      3052      1471      3068
 -1      8681    3    0    1
 -2      1012      1422      1425      2932
 -1      8682    3    0    1
 -2      3035      2902      2920      2938
 -1      8683    3    0    1
 -2      1217      2936      2980      3010
 -1      8684    3    0    1
 -2      1837       913      2914      2941
 -1      8685    3    0    1
 -2      3064      3044      3076      3092
 -1      8686    3    0    1
 -2      3035      3042      1450      2938
 -1      8687    3    0    1
 -2      1443      3033      3038      3065
 -1      8688    3    0    1
 -2      1968      2843      3039      3065
 -1      8689    3    0    1
 -2      1258      1968      1436      3065
 -1      8690    3    0    1
 -2       999      1258      1436      3065
 -1      8691    3    0    1
 -2      1258       999      1968      3065
 -1      8692    3    0    1
 -2      1436      3039      1467      3065
 -1      8693    3    0    1
 -2      1443      1436      1467      3065
 -1      8694    3    0    1
 -2      2662      3033      1443      3065
 -1      8695    3    0    1
 -2      2662      2865      3033      3065
 -1      8696    3    0    1
 -2      3039      2843      3040      3065
 -1      8697    3    0    1
 -2      1443      3039      3040      3065
 -1      8698    3    0    1
 -2      1467      3039      3059      3065
 -1      8699    3    0    1
 -2      1443      1467      3059      3065
 -1      8700    3    0    1
 -2      3039      1443      3059      3065
 -1      8701    3    0    1
 -2      2862      1443      3040      3065
 -1      8702    3    0    1
 -2      2862      2662      1443      3065
 -1      8703    3    0    1
 -2      2843      2862      3040      3065
 -1      8704    3    0    1
 -2      2843      1968      2865      3065
 -1      8705    3    0    1
 -2      2662      2843      2865      3065
 -1      8706    3    0    1
 -2      2843      2662      2862      3065
 -1      8707    3    0    1
 -2      1466       340      1478      1507
 -1      8708    3    0    1
 -2      2877      1455      3064      3092
 -1      8709    3    0    1
 -2      2864      2904      3036      1478
 -1      8710    3    0    1
 -2      2864      2183      2904      1478
 -1      8711    3    0    1
 -2      2183      2864      2871      1478
 -1      8712    3    0    1
 -2       421      3078      1496      3087
 -1      8713    3    0    1
 -2      1457      1458      1493      2973
 -1      8714    3    0    1
 -2      1457      1412      1458      2973
 -1      8715    3    0    1
 -2      1478      3091      3017      3018
 -1      8716    3    0    1
 -2      2901      2451      3036      1479
 -1      8717    3    0    1
 -2       197      1457      1458      1493
 -1      8718    3    0    1
 -2      1479      1409      3080      3024
 -1      8719    3    0    1
 -2      3067      3085      1509      1510
 -1      8720    3    0    1
 -2       775       767       766      2992
 -1      8721    3    0    1
 -2       368       367      3084      3006
 -1      8722    3    0    1
 -2       726      1039       727      2964
 -1      8723    3    0    1
 -2       713       199      2962      2964
 -1      8724    3    0    1
 -2       109       349      3067      1510
 -1      8725    3    0    1
 -2       109       349      2929      3067
 -1      8726    3    0    1
 -2       349      1474      2929      3067
 -1      8727    3    0    1
 -2       109      2929      1479      3067
 -1      8728    3    0    1
 -2      1474      2884      2929      3067
 -1      8729    3    0    1
 -2      2929      2884      1479      3067
 -1      8730    3    0    1
 -2      1444      1452      2926      2932
 -1      8731    3    0    1
 -2       679       667       678      2933
 -1      8732    3    0    1
 -2      1269      2907       678      1012
 -1      8733    3    0    1
 -2      2907      1269       678      2933
 -1      8734    3    0    1
 -2      1006       172      2926      2933
 -1      8735    3    0    1
 -2       667       668      1261      2933
 -1      8736    3    0    1
 -2       162       665      2926      2933
 -1      8737    3    0    1
 -2       162      1006      1261      2933
 -1      8738    3    0    1
 -2       667      1006      2907      2933
 -1      8739    3    0    1
 -2      1006       667      1261      2933
 -1      8740    3    0    1
 -2       162       172      1006      2933
 -1      8741    3    0    1
 -2       172       162      2926      2933
 -1      8742    3    0    1
 -2       678       667      2907      2933
 -1      8743    3    0    1
 -2      1212      1432      3068      3095
 -1      8744    3    0    1
 -2       949      1212      2997      3000
 -1      8745    3    0    1
 -2      2614      2849      2879      3069
 -1      8746    3    0    1
 -2      1199      2380      1430      3094
 -1      8747    3    0    1
 -2      1432      1212      3002      3095
 -1      8748    3    0    1
 -2       960      1415      3001      3021
 -1      8749    3    0    1
 -2      1212       949      2900      3068
 -1      8750    3    0    1
 -2       949      1212      1432      3068
 -1      8751    3    0    1
 -2      1447      3079      3084      3006
 -1      8752    3    0    1
 -2      3053      3054      1476      3068
 -1      8753    3    0    1
 -2      2842      3053      1476      3068
 -1      8754    3    0    1
 -2      3053      2842      3054      3068
 -1      8755    3    0    1
 -2        76      1471      1476      3068
 -1      8756    3    0    1
 -2      3054        76      1476      3068
 -1      8757    3    0    1
 -2        76      3054      1471      3068
 -1      8758    3    0    1
 -2      2896      2155      3052      3068
 -1      8759    3    0    1
 -2      2842      2896      3052      3068
 -1      8760    3    0    1
 -2      2900      2842      2935      3068
 -1      8761    3    0    1
 -2      2842      2882      2935      3068
 -1      8762    3    0    1
 -2      2155      2842      2900      3068
 -1      8763    3    0    1
 -2      2842      2155      2896      3068
 -1      8764    3    0    1
 -2       573       572      1216      2936
 -1      8765    3    0    1
 -2      1438      1486      3086      3011
 -1      8766    3    0    1
 -2      3027      2849      2917      3069
 -1      8767    3    0    1
 -2        91      1217      2980      3010
 -1      8768    3    0    1
 -2       103        91      1217      2936
 -1      8769    3    0    1
 -2       811       822      2954      3008
 -1      8770    3    0    1
 -2      2565      1474      3081      3085
 -1      8771    3    0    1
 -2      1474      3047      3067      3085
 -1      8772    3    0    1
 -2      1459       231      2921      3069
 -1      8773    3    0    1
 -2      1478       346      2931      3070
 -1      8774    3    0    1
 -2      2889      2878      3030      1486
 -1      8775    3    0    1
 -2      3030      2878      2906      1486
 -1      8776    3    0    1
 -2      1479       109      3067      3093
 -1      8777    3    0    1
 -2      3085      3067      1509      3093
 -1      8778    3    0    1
 -2        91      1217      2936      2980
 -1      8779    3    0    1
 -2      1491      1451      1513      3013
 -1      8780    3    0    1
 -2      2861      2060      2873      3082
 -1      8781    3    0    1
 -2      2909      1465      2982      3087
 -1      8782    3    0    1
 -2      1465       422      2982      3087
 -1      8783    3    0    1
 -2      3067       109      1509      3093
 -1      8784    3    0    1
 -2      1449      1414      1465      2984
 -1      8785    3    0    1
 -2      2060      2861      2899      3082
 -1      8786    3    0    1
 -2       422      3071      3078      3087
 -1      8787    3    0    1
 -2      1449      1465      1508      2984
 -1      8788    3    0    1
 -2      1414      1176      1433      2984
 -1      8789    3    0    1
 -2      1465      1433      2977      2984
 -1      8790    3    0    1
 -2      1078      1418      1438      3086
 -1      8791    3    0    1
 -2      2847      1078      1438      3086
 -1      8792    3    0    1
 -2      2896      2565      3052      3081
 -1      8793    3    0    1
 -2      2861      2873      1475      3082
 -1      8794    3    0    1
 -2      2981       809      3008      3009
 -1      8795    3    0    1
 -2        30       911      1172      2939
 -1      8796    3    0    1
 -2       480       479      1172      2939
 -1      8797    3    0    1
 -2      2874      2914      3043      2941
 -1      8798    3    0    1
 -2      2940      1465      2977      2984
 -1      8799    3    0    1
 -2      1176       487      2939      2978
 -1      8800    3    0    1
 -2       473      2939      2940      2977
 -1      8801    3    0    1
 -2      1176      1837      2119      2941
 -1      8802    3    0    1
 -2      1409      1479      1509      3024
 -1      8803    3    0    1
 -2       751       741       740      2942
 -1      8804    3    0    1
 -2      1290      3028      1412      2024
 -1      8805    3    0    1
 -2       214      1047      1294      2942
 -1      8806    3    0    1
 -2      2119      1176      2941      3071
 -1      8807    3    0    1
 -2      1176       913      1837      3071
 -1      8808    3    0    1
 -2      1837       913      2941      3071
 -1      8809    3    0    1
 -2      1176      1837      2941      3071
 -1      8810    3    0    1
 -2       655       999      2298      1258
 -1      8811    3    0    1
 -2      2782      3043      3056      3071
 -1      8812    3    0    1
 -2      3056      3043      1465      3071
 -1      8813    3    0    1
 -2      2782      3056      1465      3071
 -1      8814    3    0    1
 -2      2886      2894      2941      3071
 -1      8815    3    0    1
 -2      2782      2886      2941      3071
 -1      8816    3    0    1
 -2      2874      2782      2941      3071
 -1      8817    3    0    1
 -2      2894      2119      2941      3071
 -1      8818    3    0    1
 -2       214       217      1047      2942
 -1      8819    3    0    1
 -2       421       422      1449      3078
 -1      8820    3    0    1
 -2      3036      3061      3070      3080
 -1      8821    3    0    1
 -2      2944       498      2966      2967
 -1      8822    3    0    1
 -2      1463      1464      1488      2967
 -1      8823    3    0    1
 -2       536       534       938      3020
 -1      8824    3    0    1
 -2       368      1486      1498      3011
 -1      8825    3    0    1
 -2      1432      1476      1500      3000
 -1      8826    3    0    1
 -2      2997       949       560      1212
 -1      8827    3    0    1
 -2      1474      1415      3081      3001
 -1      8828    3    0    1
 -2      1189       924      2781      3072
 -1      8829    3    0    1
 -2       425      1463      3056      3072
 -1      8830    3    0    1
 -2      1463       425      1464      3072
 -1      8831    3    0    1
 -2      1464       425      3056      3072
 -1      8832    3    0    1
 -2      2642      2853      3041      3072
 -1      8833    3    0    1
 -2      3041      2853      1464      3072
 -1      8834    3    0    1
 -2      2642      2781      2841      3072
 -1      8835    3    0    1
 -2      2642      2841      2853      3072
 -1      8836    3    0    1
 -2      2024      1290      2986      3088
 -1      8837    3    0    1
 -2      1290      1412      1423      3088
 -1      8838    3    0    1
 -2      1439      1437      1447      3090
 -1      8839    3    0    1
 -2       973      2994      3022      3024
 -1      8840    3    0    1
 -2      1451       374      1491      1513
 -1      8841    3    0    1
 -2      1451      3074      3075      3096
 -1      8842    3    0    1
 -2      3028      2890      3034      3073
 -1      8843    3    0    1
 -2      2890      2844      3034      3073
 -1      8844    3    0    1
 -2      1458      3034      2920      3073
 -1      8845    3    0    1
 -2      3035      1458      2920      3073
 -1      8846    3    0    1
 -2      2844      3035      2920      3073
 -1      8847    3    0    1
 -2      2850      2844      2920      3073
 -1      8848    3    0    1
 -2      2844      2850      3034      3073
 -1      8849    3    0    1
 -2      3034      2850      2920      3073
 -1      8850    3    0    1
 -2      2024      2844      2858      3073
 -1      8851    3    0    1
 -2      2858      2844      2890      3073
 -1      8852    3    0    1
 -2      2844      3073      2986      3088
 -1      8853    3    0    1
 -2      2451      3036      1479      2948
 -1      8854    3    0    1
 -2      2907      1269      2933      2960
 -1      8855    3    0    1
 -2      2451      2870      3036      2948
 -1      8856    3    0    1
 -2      2870      2903      3061      2948
 -1      8857    3    0    1
 -2      2869      1447      2923      3074
 -1      8858    3    0    1
 -2      1153         1      2946      2987
 -1      8859    3    0    1
 -2      1439      1440      3045      3089
 -1      8860    3    0    1
 -2      3037      1413      1448      3075
 -1      8861    3    0    1
 -2      2903      3061      2948      3080
 -1      8862    3    0    1
 -2      1161      2856      1440      3075
 -1      8863    3    0    1
 -2       904      1161      1413      3075
 -1      8864    3    0    1
 -2      2116       904      1413      3075
 -1      8865    3    0    1
 -2       374      1451      1491      3075
 -1      8866    3    0    1
 -2      3045      2887      3074      3075
 -1      8867    3    0    1
 -2      2887      1451      3074      3075
 -1      8868    3    0    1
 -2      2856      2887      3045      3075
 -1      8869    3    0    1
 -2       904      2116      2119      3075
 -1      8870    3    0    1
 -2       452      1153      2918      2987
 -1      8871    3    0    1
 -2      1409       973      3022      3024
 -1      8872    3    0    1
 -2      1161       904      2040      3075
 -1      8873    3    0    1
 -2      2040       904      2119      3075
 -1      8874    3    0    1
 -2      1161      1883      2856      3075
 -1      8875    3    0    1
 -2      1883      1161      2040      3075
 -1      8876    3    0    1
 -2      2856      2116      2887      3075
 -1      8877    3    0    1
 -2      2119      2116      2856      3075
 -1      8878    3    0    1
 -2      2040      2119      2856      3075
 -1      8879    3    0    1
 -2      1883      2040      2856      3075
 -1      8880    3    0    1
 -2      2947      1455      2971      2990
 -1      8881    3    0    1
 -2      2908      2869      3074      2988
 -1      8882    3    0    1
 -2       689       188      2945      2947
 -1      8883    3    0    1
 -2      1500      1476      1517      3000
 -1      8884    3    0    1
 -2      1426      1443      3065      2949
 -1      8885    3    0    1
 -2      1477       642      2930      2949
 -1      8886    3    0    1
 -2      1443      1477      2930      2949
 -1      8887    3    0    1
 -2      2946      1451      2974      3013
 -1      8888    3    0    1
 -2      1435      1478      3091      3017
 -1      8889    3    0    1
 -2      1427      1435      3091      3017
 -1      8890    3    0    1
 -2       240       235      1060      2950
 -1      8891    3    0    1
 -2       368      1498      1501      3011
 -1      8892    3    0    1
 -2      3036      1478      3070      3091
 -1      8893    3    0    1
 -2      2179      2848      2867      2959
 -1      8894    3    0    1
 -2      1247       986      2976      3091
 -1      8895    3    0    1
 -2      2856      1439      3045      3090
 -1      8896    3    0    1
 -2      3061      3070      1494      3091
 -1      8897    3    0    1
 -2       986      1435      2976      3091
 -1      8898    3    0    1
 -2      1312      1065      2723      3077
 -1      8899    3    0    1
 -2      2888      2203      3031      3077
 -1      8900    3    0    1
 -2       429      3050      1468      3077
 -1      8901    3    0    1
 -2      3050       429      1459      3077
 -1      8902    3    0    1
 -2      1459       429      1468      3077
 -1      8903    3    0    1
 -2      2723      2613      2857      3077
 -1      8904    3    0    1
 -2      2613      2723      2888      3077
 -1      8905    3    0    1
 -2      2723      2203      2888      3077
 -1      8906    3    0    1
 -2      2956       714      2962      2973
 -1      8907    3    0    1
 -2      1027      1278      2945      2990
 -1      8908    3    0    1
 -2       690       187      2947      2952
 -1      8909    3    0    1
 -2      1455      3058      2971      2990
 -1      8910    3    0    1
 -2      1458      2973      3088      2991
 -1      8911    3    0    1
 -2      1334      1091      2035      2953
 -1      8912    3    0    1
 -2      1437      1334      2911      2953
 -1      8913    3    0    1
 -2      2869      1447      3074      2988
 -1      8914    3    0    1
 -2      1459      1417      1468      2989
 -1      8915    3    0    1
 -2      1417      1459      3077      2989
 -1      8916    3    0    1
 -2       618      2972      2995      3017
 -1      8917    3    0    1
 -2      1475      1499      1520      3025
 -1      8918    3    0    1
 -2      1478      1466      1507      3017
 -1      8919    3    0    1
 -2      1085       812      1326      2954
 -1      8920    3    0    1
 -2      2950       240      2955      2992
 -1      8921    3    0    1
 -2       811       812      1085      2954
 -1      8922    3    0    1
 -2      1437      1334      1439      3009
 -1      8923    3    0    1
 -2      1447      1439      1490      3009
 -1      8924    3    0    1
 -2      1466      1435      1478      3091
 -1      8925    3    0    1
 -2      1217       573      2936      3010
 -1      8926    3    0    1
 -2      2980       569      3010      3021
 -1      8927    3    0    1
 -2       960      1225      1415      3081
 -1      8928    3    0    1
 -2       103        91      2936      2980
 -1      8929    3    0    1
 -2      2926       665      1481      2960
 -1      8930    3    0    1
 -2       346       344      3070      1495
 -1      8931    3    0    1
 -2       346      3070      1494      1495
 -1      8932    3    0    1
 -2      1431      1475      3019      3025
 -1      8933    3    0    1
 -2      2848      2179      3034      2959
 -1      8934    3    0    1
 -2      3034      2179      1455      2959
 -1      8935    3    0    1
 -2      2848      3034      1455      2959
 -1      8936    3    0    1
 -2      2994       970      3014      3023
 -1      8937    3    0    1
 -2      1509      1479      1515      3024
 -1      8938    3    0    1
 -2      2911      2708      3060      3079
 -1      8939    3    0    1
 -2      2905      3064      2959      2970
 -1      8940    3    0    1
 -2      2438      2911      3060      3079
 -1      8941    3    0    1
 -2      1444       173      3044      3092
 -1      8942    3    0    1
 -2      2905      1444      3064      3092
 -1      8943    3    0    1
 -2      2868      2708      2880      3079
 -1      8944    3    0    1
 -2      2905      3064      2970      3092
 -1      8945    3    0    1
 -2      2880      2708      2911      3079
 -1      8946    3    0    1
 -2      2438      2880      2911      3079
 -1      8947    3    0    1
 -2      1451      1413      3075      1496
 -1      8948    3    0    1
 -2      3037      1448      3078      1496
 -1      8949    3    0    1
 -2      1448      3037      3075      1496
 -1      8950    3    0    1
 -2      2116      1451      3075      1496
 -1      8951    3    0    1
 -2      3037      2116      3075      1496
 -1      8952    3    0    1
 -2       421      1448      1460      1496
 -1      8953    3    0    1
 -2      1236       973      2885      3080
 -1      8954    3    0    1
 -2       973      1236      1409      3080
 -1      8955    3    0    1
 -2      1409      1236      2885      3080
 -1      8956    3    0    1
 -2      2358       973      1428      3080
 -1      8957    3    0    1
 -2       973      2358      2885      3080
 -1      8958    3    0    1
 -2      2996       512       924       510
 -1      8959    3    0    1
 -2       503       504       510      2996
 -1      8960    3    0    1
 -2      2885      2903      2948      3080
 -1      8961    3    0    1
 -2      2885      2358      2903      3080
 -1      8962    3    0    1
 -2      2943      1450      1489      2961
 -1      8963    3    0    1
 -2      2877      3064      3076      3092
 -1      8964    3    0    1
 -2       775       774      1312      2992
 -1      8965    3    0    1
 -2      1439      1447      1490      3090
 -1      8966    3    0    1
 -2       714       196      2956      2962
 -1      8967    3    0    1
 -2      3074      1447      3090      3096
 -1      8968    3    0    1
 -2       196      1282      2956      2962
 -1      8969    3    0    1
 -2       273      2954      2981      3008
 -1      8970    3    0    1
 -2      1438      1437      3060      1497
 -1      8971    3    0    1
 -2      3060      2438      3079      3084
 -1      8972    3    0    1
 -2      3062      2898      3082      3094
 -1      8973    3    0    1
 -2       960      3001      3010      3021
 -1      8974    3    0    1
 -2      1282       717      2956      2964
 -1      8975    3    0    1
 -2      1035       717      1282      2964
 -1      8976    3    0    1
 -2       199       196      2962      2964
 -1      8977    3    0    1
 -2       196       199      1282      2964
 -1      8978    3    0    1
 -2      1415      2155      3052      3081
 -1      8979    3    0    1
 -2      1225      2155      1415      3081
 -1      8980    3    0    1
 -2      3053      2565      1474      3081
 -1      8981    3    0    1
 -2      2565      3053      3054      3081
 -1      8982    3    0    1
 -2      3054      3053      1474      3081
 -1      8983    3    0    1
 -2      3052      3054      1470      3081
 -1      8984    3    0    1
 -2       960      2061      2364      3081
 -1      8985    3    0    1
 -2      1225       960      2364      3081
 -1      8986    3    0    1
 -2      2155      1225      2364      3081
 -1      8987    3    0    1
 -2       359      3054      1474      3081
 -1      8988    3    0    1
 -2      3054       359      1470      3081
 -1      8989    3    0    1
 -2      1470       359      1474      3081
 -1      8990    3    0    1
 -2      2565      2896      2963      3081
 -1      8991    3    0    1
 -2      2896      2364      2963      3081
 -1      8992    3    0    1
 -2      2364      2061      2963      3081
 -1      8993    3    0    1
 -2      2155      2364      2896      3081
 -1      8994    3    0    1
 -2      1207        78      2968      2997
 -1      8995    3    0    1
 -2      2841      1464      3062      3082
 -1      8996    3    0    1
 -2      2586      2060      2899      3082
 -1      8997    3    0    1
 -2      2060      2586      2853      3082
 -1      8998    3    0    1
 -2      2841      2853      1464      3082
 -1      8999    3    0    1
 -2      2853      2586      1464      3082
 -1      9000    3    0    1
 -2      2060      2841      2873      3082
 -1      9001    3    0    1
 -2      1432      1476      3068      3095
 -1      9002    3    0    1
 -2      3063       362      1500      3095
 -1      9003    3    0    1
 -2      2841      2060      2853      3082
 -1      9004    3    0    1
 -2      2873      2841      2898      3082
 -1      9005    3    0    1
 -2      2899      2861      1475      3082
 -1      9006    3    0    1
 -2      2882      2935      3068      3095
 -1      9007    3    0    1
 -2      2586      2899      1464      3082
 -1      9008    3    0    1
 -2       924      2944      2996      2999
 -1      9009    3    0    1
 -2      1464      3062      3082      3083
 -1      9010    3    0    1
 -2        42      1464      3082      3083
 -1      9011    3    0    1
 -2      1464      3062      1502      3072
 -1      9012    3    0    1
 -2      3062      1464      1502      3083
 -1      9013    3    0    1
 -2        42        65      1503      3083
 -1      9014    3    0    1
 -2      1502        42      1503      3083
 -1      9015    3    0    1
 -2      1430      1502      1503      3083
 -1      9016    3    0    1
 -2      2968      1476      2985      3000
 -1      9017    3    0    1
 -2      2024      1290      2275      2986
 -1      9018    3    0    1
 -2      1464      2966      2967      2999
 -1      9019    3    0    1
 -2      1189      1429      2967      2999
 -1      9020    3    0    1
 -2      1429      1464      2967      2999
 -1      9021    3    0    1
 -2      1464      1429      1502      2999
 -1      9022    3    0    1
 -2      1189       924      1429      2999
 -1      9023    3    0    1
 -2      2873      1475      3094      3097
 -1      9024    3    0    1
 -2      1431      2925      2969      3097
 -1      9025    3    0    1
 -2      2966       497      2996      2999
 -1      9026    3    0    1
 -2      2966      1464      1518      2999
 -1      9027    3    0    1
 -2      1431      1475      1499      3097
 -1      9028    3    0    1
 -2      2405      3002      3095      3097
 -1      9029    3    0    1
 -2       360      3063      1499      3097
 -1      9030    3    0    1
 -2      1490       376      1491      3089
 -1      9031    3    0    1
 -2      1476      1432      3068      3000
 -1      9032    3    0    1
 -2       550      1207      2934      2997
 -1      9033    3    0    1
 -2        77       545      2934      2968
 -1      9034    3    0    1
 -2       521      2998      1520      3025
 -1      9035    3    0    1
 -2       560       550      2934      2997
 -1      9036    3    0    1
 -2       946        77      2934      2968
 -1      9037    3    0    1
 -2        77      1207        78      2968
 -1      9038    3    0    1
 -2      1432      1416      3068      3000
 -1      9039    3    0    1
 -2      1207        77       946      2968
 -1      9040    3    0    1
 -2      3048      2882      1476      3095
 -1      9041    3    0    1
 -2      1474      1510      1519      3021
 -1      9042    3    0    1
 -2      2899      1464      3082      3003
 -1      9043    3    0    1
 -2      1475      2899      3082      3003
 -1      9044    3    0    1
 -2      1415      1410      3081      3021
 -1      9045    3    0    1
 -2       970       108      3014      3023
 -1      9046    3    0    1
 -2      1455      1456      1461      2971
 -1      9047    3    0    1
 -2      1455      1411      1456      2971
 -1      9048    3    0    1
 -2      1027      2945      2952      2971
 -1      9049    3    0    1
 -2      2973      1423      3088      2991
 -1      9050    3    0    1
 -2      2962      2956      2973      2991
 -1      9051    3    0    1
 -2      2962       713      2964      2991
 -1      9052    3    0    1
 -2      1411      1455      3058      2971
 -1      9053    3    0    1
 -2      1461       690      2947      2971
 -1      9054    3    0    1
 -2      1455      1461      2947      2971
 -1      9055    3    0    1
 -2      1458      1423      1472      2991
 -1      9056    3    0    1
 -2       986      1247       631      2972
 -1      9057    3    0    1
 -2       631       623       630      2972
 -1      9058    3    0    1
 -2       631       630       986      2972
 -1      9059    3    0    1
 -2      2915      3067      3085      3093
 -1      9060    3    0    1
 -2      1496      3051      2982      3087
 -1      9061    3    0    1
 -2       623       982       984      2972
 -1      9062    3    0    1
 -2       982       128       984      2972
 -1      9063    3    0    1
 -2       624       623       984      2972
 -1      9064    3    0    1
 -2      2915      2854      3047      3093
 -1      9065    3    0    1
 -2      1419      1417      3077      3016
 -1      9066    3    0    1
 -2      3077      1417      2989      3016
 -1      9067    3    0    1
 -2      1479      2948      3080      3093
 -1      9068    3    0    1
 -2      1312      1065      1419      3016
 -1      9069    3    0    1
 -2      2948      2885      3080      3093
 -1      9070    3    0    1
 -2      2915      3047      3067      3093
 -1      9071    3    0    1
 -2      1460       449      2946      2974
 -1      9072    3    0    1
 -2      1460      2946      1496      2974
 -1      9073    3    0    1
 -2      2946      1451      1496      2974
 -1      9074    3    0    1
 -2      1053      2942      2975      1300
 -1      9075    3    0    1
 -2      1424      2961      1053      1420
 -1      9076    3    0    1
 -2      2961      1424      1053      2975
 -1      9077    3    0    1
 -2       738      1484      2943      2975
 -1      9078    3    0    1
 -2      1484      1450      2943      2975
 -1      9079    3    0    1
 -2      1053      2951      2961      2975
 -1      9080    3    0    1
 -2      1444      2905      2970      3092
 -1      9081    3    0    1
 -2      1455       354      2959      3092
 -1      9082    3    0    1
 -2      3014      1479      3022      3024
 -1      9083    3    0    1
 -2       986      1435      2912      2976
 -1      9084    3    0    1
 -2      1699       986      2486      2976
 -1      9085    3    0    1
 -2      2486       986      2912      2976
 -1      9086    3    0    1
 -2      2912      1435      3039      2976
 -1      9087    3    0    1
 -2      3079      1486      3084      2993
 -1      9088    3    0    1
 -2       354       173      2970      3092
 -1      9089    3    0    1
 -2      1487       473      2940      2977
 -1      9090    3    0    1
 -2      1465      1487      2940      2977
 -1      9091    3    0    1
 -2       545      2934      2968      2985
 -1      9092    3    0    1
 -2      1176      2939      2977      2978
 -1      9093    3    0    1
 -2      2939      1176      2977       913
 -1      9094    3    0    1
 -2        30       474      2940      2978
 -1      9095    3    0    1
 -2      1470      1474      1483      3001
 -1      9096    3    0    1
 -2      1476      1471      1482      2985
 -1      9097    3    0    1
 -2      3085      1410      1509      1510
 -1      9098    3    0    1
 -2      2565      3047      1474      3085
 -1      9099    3    0    1
 -2      2854      2915      3047      3085
 -1      9100    3    0    1
 -2      2565      2854      3047      3085
 -1      9101    3    0    1
 -2      2061      2915      2963      3085
 -1      9102    3    0    1
 -2      2915      2854      2963      3085
 -1      9103    3    0    1
 -2      2854      2565      2963      3085
 -1      9104    3    0    1
 -2       570       103      2936      2980
 -1      9105    3    0    1
 -2      3007      2981      3008      3009
 -1      9106    3    0    1
 -2      1447      2981      3007      3009
 -1      9107    3    0    1
 -2       810       280      2954      2981
 -1      9108    3    0    1
 -2      2203      1323      2847      3086
 -1      9109    3    0    1
 -2       799       788       787      2983
 -1      9110    3    0    1
 -2      2983       786      3005      3012
 -1      9111    3    0    1
 -2       798      1078      1323      2983
 -1      9112    3    0    1
 -2       787       798       799      2983
 -1      9113    3    0    1
 -2       799       798      1323      2983
 -1      9114    3    0    1
 -2       368      3084      2993      3006
 -1      9115    3    0    1
 -2      3004      2983      3005      3012
 -1      9116    3    0    1
 -2      3079      2923      2993      3006
 -1      9117    3    0    1
 -2       787      1315      1072      2983
 -1      9118    3    0    1
 -2      1315       787       788      2983
 -1      9119    3    0    1
 -2      2946       450      1513      3013
 -1      9120    3    0    1
 -2      1315      1072      2983      3005
 -1      9121    3    0    1
 -2      1440      1451      1491      3013
 -1      9122    3    0    1
 -2      2888      2846      3031      3086
 -1      9123    3    0    1
 -2      3030      2708      1486      3086
 -1      9124    3    0    1
 -2      3050      3030      1486      3086
 -1      9125    3    0    1
 -2      2846      2708      3030      3086
 -1      9126    3    0    1
 -2      2846      3030      3031      3086
 -1      9127    3    0    1
 -2      3031      3030      3050      3086
 -1      9128    3    0    1
 -2      2708      2203      2847      3086
 -1      9129    3    0    1
 -2      2203      2708      2888      3086
 -1      9130    3    0    1
 -2      2708      2846      2888      3086
 -1      9131    3    0    1
 -2      1433      1176      2977      2984
 -1      9132    3    0    1
 -2      1465      1414      3071      2984
 -1      9133    3    0    1
 -2      1433      1465      3071      2984
 -1      9134    3    0    1
 -2      1414      1433      3071      2984
 -1      9135    3    0    1
 -2      2940       474      1508      2984
 -1      9136    3    0    1
 -2      1465      2940      1508      2984
 -1      9137    3    0    1
 -2      1416      1476      3068      2985
 -1      9138    3    0    1
 -2      1486      1438      1498      3011
 -1      9139    3    0    1
 -2      1482       545      2968      2985
 -1      9140    3    0    1
 -2      1476      1482      2968      2985
 -1      9141    3    0    1
 -2      1440      1439      1490      3089
 -1      9142    3    0    1
 -2      2918      2946      2974      2987
 -1      9143    3    0    1
 -2      1440      1490      1491      3089
 -1      9144    3    0    1
 -2      3045      3074      3090      3096
 -1      9145    3    0    1
 -2      1423      1458      1472      3088
 -1      9146    3    0    1
 -2      3032      2328      2986      3088
 -1      9147    3    0    1
 -2      2328      3032      3035      3088
 -1      9148    3    0    1
 -2      2844      2328      3035      3088
 -1      9149    3    0    1
 -2      3035      3032      3042      3088
 -1      9150    3    0    1
 -2      2844      3035      3073      3088
 -1      9151    3    0    1
 -2      3042      3032      1472      3088
 -1      9152    3    0    1
 -2      3035      1458      3073      3088
 -1      9153    3    0    1
 -2      3035      3042      1458      3088
 -1      9154    3    0    1
 -2       203      3042      1472      3088
 -1      9155    3    0    1
 -2      3042       203      1458      3088
 -1      9156    3    0    1
 -2      1458       203      1472      3088
 -1      9157    3    0    1
 -2      2328      2844      2986      3088
 -1      9158    3    0    1
 -2      1447      3074      2988      3096
 -1      9159    3    0    1
 -2      3089      3045      3090      3096
 -1      9160    3    0    1
 -2      1161      2918      2974      2987
 -1      9161    3    0    1
 -2      2918      1161      2974       904
 -1      9162    3    0    1
 -2         1       450      2946      2987
 -1      9163    3    0    1
 -2      3075      3045      3089      3096
 -1      9164    3    0    1
 -2       374      1451      3075      3096
 -1      9165    3    0    1
 -2      1334       822      2157      1091
 -1      9166    3    0    1
 -2      1475      2998      3019      3025
 -1      9167    3    0    1
 -2      1091      1439      2953      3090
 -1      9168    3    0    1
 -2      1334      1091      2953      3090
 -1      9169    3    0    1
 -2      1091      1334      1439      3090
 -1      9170    3    0    1
 -2      3060      1447      1497      3090
 -1      9171    3    0    1
 -2      1437      3060      1497      3090
 -1      9172    3    0    1
 -2      1447      1437      1497      3090
 -1      9173    3    0    1
 -2      2911      1437      2953      3090
 -1      9174    3    0    1
 -2      1437      2911      3060      3090
 -1      9175    3    0    1
 -2      1447       376      1490      3090
 -1      9176    3    0    1
 -2      1490       376      3089      3090
 -1      9177    3    0    1
 -2      2892      2438      2953      3090
 -1      9178    3    0    1
 -2      2856      2892      2953      3090
 -1      9179    3    0    1
 -2      2438      2911      2953      3090
 -1      9180    3    0    1
 -2       761      2955      1506      2989
 -1      9181    3    0    1
 -2      2955      1459      1506      2989
 -1      9182    3    0    1
 -2      1278      1027      1421      2990
 -1      9183    3    0    1
 -2      1421      1411      3058      2990
 -1      9184    3    0    1
 -2      3058      1411      2971      2990
 -1      9185    3    0    1
 -2      1027      1411      1421      2990
 -1      9186    3    0    1
 -2      2947       689      1505      2990
 -1      9187    3    0    1
 -2      1455      2947      1505      2990
 -1      9188    3    0    1
 -2      1411      1027      2971      2990
 -1      9189    3    0    1
 -2      1039      1290      2956      2991
 -1      9190    3    0    1
 -2      1485       713      2962      2991
 -1      9191    3    0    1
 -2      1458      1485      2962      2991
 -1      9192    3    0    1
 -2      2956      1290      2973      2991
 -1      9193    3    0    1
 -2      1435      1466      1478      3017
 -1      9194    3    0    1
 -2      3015      2995      3017      3018
 -1      9195    3    0    1
 -2      1478      1427      1494      3091
 -1      9196    3    0    1
 -2      1060       240      2950      2992
 -1      9197    3    0    1
 -2       775       766       774      2992
 -1      9198    3    0    1
 -2       774      1065      1312      2992
 -1      9199    3    0    1
 -2       766       767      1309      2992
 -1      9200    3    0    1
 -2       240       762      2955      2992
 -1      9201    3    0    1
 -2       240      1060      1309      2992
 -1      9202    3    0    1
 -2       766      1060      2950      2992
 -1      9203    3    0    1
 -2      1060       766      1309      2992
 -1      9204    3    0    1
 -2       774       766      2950      2992
 -1      9205    3    0    1
 -2      1065       774      2950      2992
 -1      9206    3    0    1
 -2      2676      3036      3061      3091
 -1      9207    3    0    1
 -2      3061      3036      3070      3091
 -1      9208    3    0    1
 -2      3039      1466      3059      3091
 -1      9209    3    0    1
 -2      3059      1466      1478      3091
 -1      9210    3    0    1
 -2      3039      3059      1478      3091
 -1      9211    3    0    1
 -2       346      1478      1494      3091
 -1      9212    3    0    1
 -2      1478       346      3070      3091
 -1      9213    3    0    1
 -2      3070       346      1494      3091
 -1      9214    3    0    1
 -2      2676      2358      2976      3091
 -1      9215    3    0    1
 -2      1927      2631      2577      1892
 -1      9216    3    0    1
 -2      2358      2676      2903      3091
 -1      9217    3    0    1
 -2      1494      1478      1512      3018
 -1      9218    3    0    1
 -2      3014      2994      3023      3024
 -1      9219    3    0    1
 -2       623       982      2972      3015
 -1      9220    3    0    1
 -2       973      1236      2994      3024
 -1      9221    3    0    1
 -2      2965      1199      3019      3025
 -1      9222    3    0    1
 -2       982       128      2972      3015
 -1      9223    3    0    1
 -2       938      1199      2965      3025
 -1      9224    3    0    1
 -2       631       623      2972      3015
 -1      9225    3    0    1
 -2      2998      1475      1520      3025
 -1      9226    3    0    1
 -2      1430      1199      1431      3019
 -1      9227    3    0    1
 -2       134       617      2995      3015
 -1      9228    3    0    1
 -2      2972       128      2995      3015
 -1      9229    3    0    1
 -2      2994      1236      3023      3024
 -1      9230    3    0    1
 -2      2854      2451      3047      3093
 -1      9231    3    0    1
 -2      2854      2915      2948      3093
 -1      9232    3    0    1
 -2      2915      2885      2948      3093
 -1      9233    3    0    1
 -2      2451      2854      2948      3093
 -1      9234    3    0    1
 -2       924      2944       512      2996
 -1      9235    3    0    1
 -2       512       503       510      2996
 -1      9236    3    0    1
 -2        45      1185      2966      2996
 -1      9237    3    0    1
 -2       504       503       922      2996
 -1      9238    3    0    1
 -2       497        44      2966      2996
 -1      9239    3    0    1
 -2      1185        44       922      2996
 -1      9240    3    0    1
 -2      1185       503      2944      2996
 -1      9241    3    0    1
 -2       922       503      1185      2996
 -1      9242    3    0    1
 -2        44        45      2966      2996
 -1      9243    3    0    1
 -2        44      1185        45      2996
 -1      9244    3    0    1
 -2       776       239      1061       234
 -1      9245    3    0    1
 -2       503       512      2944      2996
 -1      9246    3    0    1
 -2       949      2934      2985      2997
 -1      9247    3    0    1
 -2       522        59      2965      2998
 -1      9248    3    0    1
 -2      1475       360      1499      3097
 -1      9249    3    0    1
 -2        59      1196      2965      2998
 -1      9250    3    0    1
 -2      2873      2883      3048      3097
 -1      9251    3    0    1
 -2       360      1475      1499      1520
 -1      9252    3    0    1
 -2      2944      1189      2967      2999
 -1      9253    3    0    1
 -2      3068      1416      2985      3000
 -1      9254    3    0    1
 -2       949      1416      1432      3000
 -1      9255    3    0    1
 -2      2968       546      1517      3000
 -1      9256    3    0    1
 -2      1476      2968      1517      3000
 -1      9257    3    0    1
 -2      1416       949      2985      3000
 -1      9258    3    0    1
 -2       570      1483      2980      3001
 -1      9259    3    0    1
 -2      1483      1474      2980      3001
 -1      9260    3    0    1
 -2      1212      2900      2925      3002
 -1      9261    3    0    1
 -2      1432      1212      2925      3002
 -1      9262    3    0    1
 -2      1072       787      2983      3004
 -1      9263    3    0    1
 -2       582       960      2936      3010
 -1      9264    3    0    1
 -2      1415      3081      3001      3021
 -1      9265    3    0    1
 -2      2980      1474      1519      3021
 -1      9266    3    0    1
 -2       960      1410      1415      3021
 -1      9267    3    0    1
 -2       569      2980      1519      3021
 -1      9268    3    0    1
 -2       938      1431      2969      3094
 -1      9269    3    0    1
 -2      1199       938      2969      3094
 -1      9270    3    0    1
 -2       938      1199      1431      3094
 -1      9271    3    0    1
 -2      1503      1430      3083      3094
 -1      9272    3    0    1
 -2      1430      3062      3083      3094
 -1      9273    3    0    1
 -2      3062      3082      3083      3094
 -1      9274    3    0    1
 -2        65      1503      3083      3094
 -1      9275    3    0    1
 -2        65      1475      1503      3094
 -1      9276    3    0    1
 -2      1475        65      3082      3094
 -1      9277    3    0    1
 -2      3082        65      3083      3094
 -1      9278    3    0    1
 -2      2873      2898      2969      3094
 -1      9279    3    0    1
 -2      2898      2380      2969      3094
 -1      9280    3    0    1
 -2      2900      1212      3068      3095
 -1      9281    3    0    1
 -2      3048      2405      2935      3095
 -1      9282    3    0    1
 -2      2405      3048      3063      3095
 -1      9283    3    0    1
 -2      1432      1499      1500      3095
 -1      9284    3    0    1
 -2      2900      2935      3002      3095
 -1      9285    3    0    1
 -2      1432      1431      1499      3095
 -1      9286    3    0    1
 -2      2935      2405      3002      3095
 -1      9287    3    0    1
 -2      1447      2923      3079      3006
 -1      9288    3    0    1
 -2      1497      1447      2981      3007
 -1      9289    3    0    1
 -2       367      1497      2981      3007
 -1      9290    3    0    1
 -2      1469      1486      1511      3012
 -1      9291    3    0    1
 -2      1451      2946      1513      3013
 -1      9292    3    0    1
 -2       786       254      2983      3005
 -1      9293    3    0    1
 -2      1315       253      1072      3005
 -1      9294    3    0    1
 -2       254      1315      2983      3005
 -1      9295    3    0    1
 -2       253      1315       254      3005
 -1      9296    3    0    1
 -2       810       367      2981      3007
 -1      9297    3    0    1
 -2      2981      2954      3007      3008
 -1      9298    3    0    1
 -2       594      2994      3014      3022
 -1      9299    3    0    1
 -2      3008      1334       822      2954
 -1      9300    3    0    1
 -2       809       273      2981      3008
 -1      9301    3    0    1
 -2      2980      2936      3001      3010
 -1      9302    3    0    1
 -2      2954      1334      3007      3008
 -1      9303    3    0    1
 -2      1334      1437      3007      3009
 -1      9304    3    0    1
 -2      2936       960      3001      3010
 -1      9305    3    0    1
 -2       569        91      2980      3010
 -1      9306    3    0    1
 -2      1479      1495      1514      3022
 -1      9307    3    0    1
 -2      2998       521      3020      3025
 -1      9308    3    0    1
 -2      1486      3086      3011      3012
 -1      9309    3    0    1
 -2      1438      3004      3011      3012
 -1      9310    3    0    1
 -2      1078      2983      3012      1323
 -1      9311    3    0    1
 -2      1323      1078      1418      3012
 -1      9312    3    0    1
 -2      1418      1438      3086      3012
 -1      9313    3    0    1
 -2      3086      1438      3011      3012
 -1      9314    3    0    1
 -2      1418      1078      1438      3012
 -1      9315    3    0    1
 -2       786      1511      3005      3012
 -1      9316    3    0    1
 -2      1511      1486      3005      3012
 -1      9317    3    0    1
 -2      3005      1486      3011      3012
 -1      9318    3    0    1
 -2      1438      1078      3004      3012
 -1      9319    3    0    1
 -2      1451       374      2988      3096
 -1      9320    3    0    1
 -2      1479      3080      3022      3024
 -1      9321    3    0    1
 -2      1199      1431      3019      3025
 -1      9322    3    0    1
 -2      1199       938      1431      3025
 -1      9323    3    0    1
 -2      1236       973      1409      3024
 -1      9324    3    0    1
 -2       599       600       606      3023
 -1      9325    3    0    1
 -2       108       594      2994      3014
 -1      9326    3    0    1
 -2       606      1236       608      3023
 -1      9327    3    0    1
 -2      3080      1409      3022      3024
 -1      9328    3    0    1
 -2       970       108      2994      3014
 -1      9329    3    0    1
 -2       128       134      2995      3015
 -1      9330    3    0    1
 -2      1459      2955      1516      3016
 -1      9331    3    0    1
 -2      1065      2950      2989      3016
 -1      9332    3    0    1
 -2      1417      1065      2989      3016
 -1      9333    3    0    1
 -2      1478      1507      2995      3017
 -1      9334    3    0    1
 -2      1512      1478      2995      3018
 -1      9335    3    0    1
 -2      1475      1430      3094      3019
 -1      9336    3    0    1
 -2      1431      1475      3094      3019
 -1      9337    3    0    1
 -2      1430      1431      3094      3019
 -1      9338    3    0    1
 -2       522      1504      2998      3019
 -1      9339    3    0    1
 -2      1504      1475      2998      3019
 -1      9340    3    0    1
 -2      2965       938       536      1199
 -1      9341    3    0    1
 -2       938      2965       536      3020
 -1      9342    3    0    1
 -2       526       534       536      3020
 -1      9343    3    0    1
 -2        59      1196      2998      3020
 -1      9344    3    0    1
 -2       527       526       933      3020
 -1      9345    3    0    1
 -2       521        64      2998      3020
 -1      9346    3    0    1
 -2        64       933      1196      3020
 -1      9347    3    0    1
 -2      1196       526      2965      3020
 -1      9348    3    0    1
 -2       933       526      1196      3020
 -1      9349    3    0    1
 -2        64        59      2998      3020
 -1      9350    3    0    1
 -2        59        64      1196      3020
 -1      9351    3    0    1
 -2       526       536      2965      3020
 -1      9352    3    0    1
 -2      2873      2405      2883      3097
 -1      9353    3    0    1
 -2      2405      2969      3002      3097
 -1      9354    3    0    1
 -2      2969      2925      3002      3097
 -1      9355    3    0    1
 -2      1428      1479      3080      3022
 -1      9356    3    0    1
 -2      1409      1428      3080      3022
 -1      9357    3    0    1
 -2      1514       594      3014      3022
 -1      9358    3    0    1
 -2      1479      1514      3014      3022
 -1      9359    3    0    1
 -2      1236      2994       606       973
 -1      9360    3    0    1
 -2      2994      1236       606      3023
 -1      9361    3    0    1
 -2       970       599       968      3023
 -1      9362    3    0    1
 -2       116       593      3014      3023
 -1      9363    3    0    1
 -2       116       108       968      3023
 -1      9364    3    0    1
 -2       600       970      2994      3023
 -1      9365    3    0    1
 -2       599       970       600      3023
 -1      9366    3    0    1
 -2       938      2965      3020      3025
 -1      9367    3    0    1
 -2      2965      2998      3020      3025
 -1      9368    3    0    1
 -2       968       108       970      3023
 -1      9369    3    0    1
 -2       108       116      3014      3023
 -1      9370    3    0    1
 -2       606       600      2994      3023
 -3
    1PSTEP                         1           1           1          
  100CL  101 1.000000000        3097                     0    1           1
 -4  DISP        4    1
 -5  D1          1    2    1    0
 -5  D2          1    2    2    0
 -5  D3          1    2    3    0
 -5  ALL         1    2    0    0    1ALL
 -1         1 6.69146E-03-7.46563E-04-5.88508E-02
 -1         2 6.54434E-03-5.96950E-04-5.86288E-02
 -1         3-4.02663E-03-3.22419E-04-8.66527E-02
 -1         4-5.73441E-03-6.72071E-04-8.67532E-02
 -1         5 1.62063E-04-3.96306E-04-8.35735E-02
 -1         6 1.52510E-03-2.12258E-04-8.33881E-02
 -1         7-4.62831E-03-6.35035E-04-8.72953E-02
 -1         8 5.23219E-04-3.74050E-04-8.41447E-02
 -1         9-1.39444E-02-1.80236E-05-6.09589E-02
 -1        10-5.64938E-03-4.02594E-05-8.64108E-02
 -1        11-1.38604E-02-3.20130E-04-6.13944E-02
 -1        12-3.85846E-03 7.72946E-05-5.99769E-02
 -1        13-2.58806E-03 7.18631E-06-8.73386E-02
 -1        14-3.34644E-03-4.39145E-05-8.41325E-02
 -1        15 1.56338E-03-5.48443E-04-8.36331E-02
 -1        16-3.30870E-03 3.82725E-04-8.41699E-02
 -1        17-2.56823E-03 2.06278E-04-8.76262E-02
 -1        18-3.05939E-03 6.65637E-04-8.40621E-02
 -1        19-2.00701E-03-8.35257E-03-8.16380E-02
 -1        20-9.87209E-03-9.69672E-03-5.53697E-02
 -1        21-1.04390E-03-7.94258E-03-8.40909E-02
 -1        22-1.78409E-03-7.77280E-03-7.76426E-02
 -1        23 2.97384E-03-6.68006E-03-8.18484E-02
 -1        24-9.09905E-04-7.46680E-03-7.58899E-02
 -1        25-3.05977E-03-2.03524E-03-5.47040E-02
 -1        26-9.52952E-03-9.85017E-03-5.86772E-02
 -1        27 4.19970E-03-6.05471E-03-7.41677E-02
 -1        28 8.82957E-03-5.48215E-03-5.10057E-02
 -1        29-2.68417E-03-1.53059E-03-7.48309E-02
 -1        30 8.89935E-03-5.59522E-03-5.68515E-02
 -1        31 4.03853E-03-6.45840E-03-7.91119E-02
 -1        32-2.80146E-03-1.20388E-03-7.98356E-02
 -1        33-1.73410E-03-1.63306E-03-8.25805E-02
 -1        34-1.65749E-03-2.08785E-03-7.66512E-02
 -1        35-1.79751E-03-1.87411E-03-7.85238E-02
 -1        36 3.47260E-03-6.31241E-03-7.20352E-02
 -1        37 5.68528E-03-1.15301E-02-6.35912E-02
 -1        38 5.58581E-03-1.11799E-02-5.61821E-02
 -1        39-1.10532E-03-3.03551E-03-4.02207E-02
 -1        40-2.19392E-04-1.32684E-02-4.04794E-02
 -1        41-2.01003E-04-2.44092E-03-5.68728E-02
 -1        42-1.31487E-03-1.19697E-03-3.35529E-02
 -1        43-9.21675E-04-2.07904E-03-5.41337E-02
 -1        44 1.47676E-02-8.32694E-03-3.55165E-02
 -1        45 1.47570E-02-8.46508E-03-4.72322E-02
 -1        46 1.41334E-04-1.31872E-02-4.59033E-02
 -1        47 1.02460E-02-9.16708E-03-6.27210E-02
 -1        48 9.45176E-03-9.47511E-03-4.96375E-02
 -1        49 9.98396E-03-8.89379E-03-5.37982E-02
 -1        50 6.25986E-03-1.09829E-02-6.75863E-02
 -1        51 6.14555E-03-1.06914E-02-5.26866E-02
 -1        52 9.77462E-03-9.55380E-03-6.74432E-02
 -1        53-1.66088E-03-1.89364E-03-6.78282E-02
 -1        54 3.87526E-05-2.44073E-03-5.34375E-02
 -1        55 1.31060E-02-7.66839E-03-2.23886E-02
 -1        56 1.31046E-02-7.97579E-03-3.62791E-02
 -1        57 1.27346E-02-8.07215E-03-2.70176E-02
 -1        58 1.62763E-02-6.49266E-03-3.71573E-02
 -1        59 2.08211E-02-6.20235E-03-3.05319E-02
 -1        60 7.73597E-03-9.43581E-03-1.89101E-02
 -1        61 7.83945E-03-9.26187E-03-2.48302E-02
 -1        62 8.44724E-04-2.08610E-03-1.89792E-02
 -1        63 1.61108E-02-6.52143E-03-2.55547E-02
 -1        64 2.07872E-02-6.19711E-03-1.50639E-02
 -1        65-9.98743E-04-1.01864E-03-3.14078E-02
 -1        66 8.06047E-04-2.24340E-03-2.41083E-02
 -1        67 4.60051E-04-1.46569E-03-2.57267E-02
 -1        68 1.60608E-02-6.79115E-03-4.29300E-02
 -1        69 1.33210E-02-7.62549E-03-4.12078E-02
 -1        70 1.59014E-02-6.79784E-03-2.00640E-02
 -1        71 1.62358E-02-1.79343E-04 5.54704E-03
 -1        72 1.15197E-02 1.13297E-04-2.72338E-03
 -1        73 1.85975E-02-3.63365E-04-6.00738E-03
 -1        74 1.15441E-02-2.13257E-04 3.99657E-03
 -1        75 1.43782E-03-1.95410E-05 3.40763E-03
 -1        76-5.29587E-04 3.75584E-04 8.69321E-03
 -1        77 2.27783E-02-5.28844E-04 7.07711E-03
 -1        78 2.28173E-02-2.57676E-04-9.06373E-03
 -1        79 1.55355E-03-3.10173E-04-1.86301E-03
 -1        80 2.00353E-03 5.23923E-05-4.42774E-03
 -1        81 8.69622E-04-3.33055E-04-1.25785E-02
 -1        82 7.27909E-04 4.30932E-04 1.30323E-02
 -1        83 1.83595E-02-1.04154E-04 1.22975E-02
 -1        84 1.85378E-02-2.59950E-04 6.25831E-03
 -1        85 8.52498E-04 1.98919E-04 6.49916E-03
 -1        86 1.89275E-03-2.79141E-04-8.77714E-03
 -1        87 1.62042E-02-1.00463E-04-4.47802E-03
 -1        88 1.62768E-02-4.98502E-05-9.61559E-03
 -1        89 1.85158E-02-3.02648E-04-1.20752E-02
 -1        90 1.63244E-02-1.91022E-04 1.07217E-02
 -1        91 2.10184E-02 5.16762E-03 2.82853E-02
 -1        92 1.62842E-02 5.58072E-03 2.58839E-02
 -1        93 1.35137E-02 6.81806E-03 2.45016E-02
 -1        94 1.64652E-02 5.65377E-03 3.70279E-02
 -1        95 1.33755E-02 7.33129E-03 3.84424E-02
 -1        96 1.30383E-02 7.36448E-03 2.91333E-02
 -1        97 1.62923E-02 5.90365E-03 4.29281E-02
 -1        98 7.71321E-03 8.90039E-03 2.70106E-02
 -1        99 1.36610E-02 6.87044E-03 4.35125E-02
 -1       100 7.48485E-03 9.17574E-03 2.12053E-02
 -1       101 1.03211E-03 1.85875E-03 2.13853E-02
 -1       102 1.15448E-03 1.71066E-03 3.88077E-02
 -1       103 2.09712E-02 5.26474E-03 1.29871E-02
 -1       104 5.16679E-04 1.33723E-03 2.59708E-02
 -1       105 1.60641E-02 5.89408E-03 2.04749E-02
 -1       106 1.67756E-03 1.30039E-03 2.54924E-02
 -1       107 1.32356E-05 1.56312E-03 4.36218E-02
 -1       108 1.52703E-02 7.55534E-03 4.46622E-02
 -1       109-1.36194E-03 1.26984E-03 3.13025E-02
 -1       110 5.75697E-03 1.06007E-02 6.47976E-02
 -1       111-1.49730E-04 1.29866E-02 4.78460E-02
 -1       112 1.02177E-02 7.83635E-03 5.34679E-02
 -1       113 9.72227E-03 8.25685E-03 4.94914E-02
 -1       114 5.60498E-03 1.02554E-02 5.77400E-02
 -1       115 1.03082E-02 8.11513E-03 6.20599E-02
 -1       116 1.49770E-02 7.72782E-03 3.35548E-02
 -1       117-3.57978E-04 1.27167E-02 4.24872E-02
 -1       118-1.34311E-03 2.89483E-03 4.62001E-02
 -1       119-1.17322E-03 2.20073E-03 5.38889E-02
 -1       120-7.77837E-04 2.00944E-03 4.92137E-02
 -1       121 9.90041E-03 8.48784E-03 6.65284E-02
 -1       122-1.22921E-03 2.01730E-03 6.25041E-02
 -1       123-1.52140E-04 2.42334E-03 5.85735E-02
 -1       124 6.19603E-03 9.74859E-03 5.44330E-02
 -1       125-8.01681E-04 2.12718E-03 6.83821E-02
 -1       126-3.99728E-04 2.25590E-03 6.54794E-02
 -1       127 6.37932E-03 1.00790E-02 6.87744E-02
 -1       128 9.36332E-03 4.98472E-03 5.42997E-02
 -1       129-9.75305E-03 8.03775E-03 5.57447E-02
 -1       130-9.23584E-03 8.08553E-03 5.81903E-02
 -1       131-2.24257E-03 6.83582E-03 7.67563E-02
 -1       132 3.41087E-03 5.82757E-03 7.09319E-02
 -1       133 4.33597E-03 5.31146E-03 7.28458E-02
 -1       134 9.18743E-03 4.91722E-03 4.85985E-02
 -1       135-3.05379E-03 1.73466E-03 5.51337E-02
 -1       136-3.33923E-03 1.62828E-03 5.65926E-02
 -1       137-2.49380E-03 1.64008E-03 7.33859E-02
 -1       138-1.89537E-03 1.62080E-03 7.76803E-02
 -1       139 4.12214E-03 5.68493E-03 7.71800E-02
 -1       140-2.45402E-03 1.24071E-03 7.79456E-02
 -1       141 3.49412E-03 5.95162E-03 7.96802E-02
 -1       142-2.16300E-03 1.12451E-03 8.23878E-02
 -1       143-2.25805E-03 7.26514E-03 8.01934E-02
 -1       144-1.30943E-03 6.90603E-03 8.23730E-02
 -1       145-1.32134E-03 6.49170E-03 7.53023E-02
 -1       146-2.11259E-03 1.91967E-03 7.62902E-02
 -1       147 1.85153E-03-4.57843E-04 8.07549E-02
 -1       148 9.43388E-04-4.61773E-04 8.12152E-02
 -1       149-5.54488E-03-3.59638E-04 8.36760E-02
 -1       150-5.48049E-03 2.42188E-04 8.37604E-02
 -1       151 7.22618E-03-5.79849E-05 5.51905E-02
 -1       152 1.64229E-03 9.87608E-06 8.06784E-02
 -1       153-1.33822E-02 6.32754E-05 5.89175E-02
 -1       154-1.40674E-02 4.32057E-04 5.87196E-02
 -1       155-2.88696E-03-2.98867E-04 5.37101E-02
 -1       156 6.85903E-03-2.90659E-04 5.54561E-02
 -1       157-2.53236E-03 2.01747E-04 8.47792E-02
 -1       158-4.36795E-03-3.47038E-04 8.41559E-02
 -1       159 7.58088E-04 4.61955E-05 8.10406E-02
 -1       160-4.33438E-03 2.48215E-04 8.42478E-02
 -1       161-2.79855E-03-6.03579E-04 8.10543E-02
 -1       162 9.56454E-03-5.62543E-03 5.39019E-02
 -1       163 4.47846E-03-5.75864E-03 7.20270E-02
 -1       164 3.48251E-03-6.24234E-03 7.92708E-02
 -1       165 4.48640E-03-6.07247E-03 7.66784E-02
 -1       166-1.99414E-03-7.44638E-03 8.01318E-02
 -1       167-1.86164E-03-6.96157E-03 7.66972E-02
 -1       168-9.74153E-04-7.03764E-03 8.23663E-02
 -1       169-8.86094E-03-8.60295E-03 5.89719E-02
 -1       170-9.65488E-03-8.79144E-03 5.59025E-02
 -1       171-2.38622E-03-1.66814E-03 7.25838E-02
 -1       172 9.36077E-03-5.52183E-03 4.73334E-02
 -1       173-2.28339E-03-1.05207E-03 4.55826E-02
 -1       174-1.90769E-03-1.48596E-03 8.11096E-02
 -1       175-2.44434E-03-1.36129E-03 7.73589E-02
 -1       176 3.72149E-03-5.99475E-03 7.01418E-02
 -1       177-1.95696E-03-1.80296E-03 7.76793E-02
 -1       178-9.78398E-04-6.62262E-03 7.52016E-02
 -1       179 1.04729E-02-8.45953E-03 6.10179E-02
 -1       180 1.00537E-02-8.81249E-03 6.56400E-02
 -1       181 9.75980E-03-8.75379E-03 4.84342E-02
 -1       182 6.03767E-03-1.10435E-02 6.36320E-02
 -1       183 6.63112E-03-1.04676E-02 6.76332E-02
 -1       184 5.84384E-03-1.06886E-02 5.63433E-02
 -1       185-1.35197E-03-3.02266E-03 4.11443E-02
 -1       186-8.99602E-04-1.26687E-02 4.15732E-02
 -1       187 1.52472E-02-7.88052E-03 3.23671E-02
 -1       188 1.54446E-02-7.82913E-03 4.41326E-02
 -1       189-2.99079E-04-1.25646E-02 4.66158E-02
 -1       190-3.23493E-04-2.38595E-03 6.43268E-02
 -1       191-1.65336E-03-1.88549E-03 6.61171E-02
 -1       192 1.02870E-02-8.16611E-03 5.24047E-02
 -1       193-6.92497E-04-2.04711E-03 4.79113E-02
 -1       194 6.46916E-03-1.01336E-02 5.29757E-02
 -1       195-6.42939E-05-2.53580E-03 5.37525E-02
 -1       196 2.11328E-02-5.46580E-03 2.73204E-02
 -1       197-1.12315E-03-9.69036E-04 2.82293E-02
 -1       198 1.36675E-02-7.78656E-03 3.59661E-02
 -1       199 2.10850E-02-5.49675E-03 1.18075E-02
 -1       200 1.66517E-02-5.99836E-03 3.56461E-02
 -1       201 8.51004E-03-9.25560E-03 1.85340E-02
 -1       202 8.50674E-03-9.33306E-03 2.47814E-02
 -1       203-7.06762E-04-6.36930E-04 1.00315E-02
 -1       204 4.64594E-04-1.42559E-03 2.42225E-02
 -1       205 7.62141E-04-2.08065E-03 2.41221E-02
 -1       206 1.64103E-02-6.34764E-03 4.14891E-02
 -1       207 8.27058E-04-9.84722E-04 1.79591E-02
 -1       208 1.62275E-02-6.31225E-03 1.84637E-02
 -1       209 1.64223E-02-5.96481E-03 2.40976E-02
 -1       210 1.33467E-02-7.84634E-03 2.64487E-02
 -1       211 1.36067E-02-7.46270E-03 2.17570E-02
 -1       212-1.70245E-04-1.81660E-03 4.21272E-02
 -1       213 1.38889E-02-7.42055E-03 4.10496E-02
 -1       214 2.26229E-02-4.24347E-05 6.08920E-03
 -1       215 1.67730E-02 8.33325E-05 8.24172E-03
 -1       216 1.90014E-02-1.15547E-04 4.02713E-03
 -1       217 2.25723E-02-3.48490E-05-1.02315E-02
 -1       218 1.66923E-02 7.50564E-05-7.26053E-03
 -1       219 1.21055E-02 5.44631E-04 2.11087E-03
 -1       220 1.21890E-02 1.30073E-04-4.99901E-03
 -1       221 1.89097E-02 4.16303E-05-8.41810E-03
 -1       222 2.14672E-03-6.46316E-05 2.79498E-03
 -1       223 1.05805E-03 7.15275E-05 4.14654E-03
 -1       224 1.89353E-02-1.10081E-05 1.02362E-02
 -1       225 1.66630E-02 1.21210E-04 3.02709E-03
 -1       226 2.12538E-03 2.24287E-04-1.19589E-02
 -1       227 9.15686E-04-2.85390E-04 1.08981E-02
 -1       228 1.05596E-03 6.46493E-04-1.52398E-02
 -1       229 1.88197E-02 5.66136E-05-1.45650E-02
 -1       230 1.67826E-02 2.49341E-06-1.25899E-02
 -1       231-6.70698E-04 8.45588E-04-1.42565E-02
 -1       232 7.91063E-03 9.37664E-03-2.85369E-02
 -1       233 1.33508E-02 7.92390E-03-3.07857E-02
 -1       234 1.65134E-02 6.09592E-03-2.84696E-02
 -1       235 2.13088E-02 5.48212E-03-3.16843E-02
 -1       236 1.36158E-02 7.54203E-03-2.61300E-02
 -1       237 1.37904E-02 7.91883E-03-4.05543E-02
 -1       238 1.31474E-03 1.83851E-03-4.08008E-02
 -1       239 1.67137E-02 6.20378E-03-3.97730E-02
 -1       240 2.12326E-02 5.55885E-03-1.60424E-02
 -1       241 7.54093E-04 2.31908E-03-2.23426E-02
 -1       242 7.55820E-03 9.85378E-03-2.23866E-02
 -1       243 7.08516E-04 1.44252E-03-2.85541E-02
 -1       244 1.62695E-02 6.43736E-03-2.30140E-02
 -1       245 9.25328E-04 1.09833E-03-2.23188E-02
 -1       246 1.53244E-04 1.82817E-03-4.62908E-02
 -1       247 1.65235E-02 6.47818E-03-4.57426E-02
 -1       248 4.26774E-04 1.68580E-03-4.03450E-02
 -1       249 1.77138E-03 1.49841E-03-2.71223E-02
 -1       250 1.40377E-02 7.51214E-03-4.56763E-02
 -1       251 1.03445E-03 2.01188E-03-4.51572E-02
 -1       252 1.00400E-02 8.27208E-03-6.52068E-02
 -1       253 1.48115E-02 7.63824E-03-4.79973E-02
 -1       254 1.45798E-02 7.58217E-03-3.69850E-02
 -1       255 6.08682E-03 1.00155E-02-7.12148E-02
 -1       256 5.31178E-03 1.09483E-02-6.73446E-02
 -1       257 5.08125E-03 1.06854E-02-6.02789E-02
 -1       258-1.10693E-03 1.28455E-02-4.40139E-02
 -1       259-1.16328E-03 3.06355E-03-4.77105E-02
 -1       260-7.80113E-04 1.29615E-02-4.87889E-02
 -1       261-5.08871E-04 2.38516E-03-6.79519E-02
 -1       262 9.88657E-03 8.07412E-03-5.67582E-02
 -1       263-1.19834E-03 3.23755E-03-4.35272E-02
 -1       264-1.06988E-03 2.25827E-03-5.71034E-02
 -1       265-7.60170E-04 2.15465E-03-5.23160E-02
 -1       266-1.73866E-03 2.06056E-03-7.00920E-02
 -1       267 9.44827E-03 8.77772E-03-6.96265E-02
 -1       268-1.39244E-03 2.13823E-03-6.57834E-02
 -1       269-4.18242E-04 2.53875E-03-6.11011E-02
 -1       270 5.61542E-03 1.02201E-02-5.70014E-02
 -1       271-1.04884E-03 2.44409E-03-7.14413E-02
 -1       272 9.45661E-03 8.38571E-03-5.29008E-02
 -1       273 9.17757E-03 5.18406E-03-5.74570E-02
 -1       274 3.91934E-03 5.55683E-03-7.99145E-02
 -1       275-2.54479E-03 6.85322E-03-8.00205E-02
 -1       276-1.00900E-02 8.76273E-03-6.09835E-02
 -1       277-1.08826E-02 9.04875E-03-5.78244E-02
 -1       278-4.02443E-03 2.21832E-03-5.72875E-02
 -1       279-2.46554E-03 7.20855E-03-8.33270E-02
 -1       280 8.87387E-03 5.14776E-03-5.19426E-02
 -1       281 3.82560E-03 5.18933E-03-7.58764E-02
 -1       282-2.59390E-03 1.64968E-03-7.63140E-02
 -1       283-2.41790E-03 1.87896E-03-7.38203E-02
 -1       284 3.10762E-03 5.42584E-03-7.41709E-02
 -1       285-2.23022E-03 1.86988E-03-8.09285E-02
 -1       286-1.53035E-03 6.47332E-03-7.86397E-02
 -1       287-1.46223E-03 6.80636E-03-8.54385E-02
 -1       288-2.21633E-03 1.57496E-03-8.43474E-02
 -1       289-2.18095E-03 1.32366E-03-8.58084E-02
 -1       290 3.24226E-03 5.83318E-03-8.24247E-02
 -1       291 0.00000E+00 0.00000E+00 0.00000E+00
 -1       292 0.00000E+00 0.00000E+00 0.00000E+00
 -1       293 0.00000E+00 0.00000E+00 0.00000E+00
 -1       294 0.00000E+00 0.00000E+00 0.00000E+00
 -1       295 0.00000E+00 0.00000E+00 0.00000E+00
 -1       296 0.00000E+00 0.00000E+00 0.00000E+00
 -1       297 0.00000E+00 0.00000E+00 0.00000E+00
 -1       298 0.00000E+00 0.00000E+00 0.00000E+00
 -1       299 0.00000E+00 0.00000E+00 0.00000E+00
 -1       300 0.00000E+00 0.00000E+00 0.00000E+00
 -1       301 0.00000E+00 0.00000E+00 0.00000E+00
 -1       302 0.00000E+00 0.00000E+00 0.00000E+00
 -1       303 0.00000E+00 0.00000E+00 0.00000E+00
 -1       304 0.00000E+00 0.00000E+00 0.00000E+00
 -1       305 0.00000E+00 0.00000E+00 0.00000E+00
 -1       306 0.00000E+00 0.00000E+00 0.00000E+00
 -1       307 0.00000E+00 0.00000E+00 0.00000E+00
 -1       308 0.00000E+00 0.00000E+00 0.00000E+00
 -1       309 0.00000E+00 0.00000E+00 0.00000E+00
 -1       310 0.00000E+00 0.00000E+00 0.00000E+00
 -1       311 0.00000E+00 0.00000E+00 0.00000E+00
 -1       312 0.00000E+00 0.00000E+00 0.00000E+00
 -1       313 0.00000E+00 0.00000E+00 0.00000E+00
 -1       314 0.00000E+00 0.00000E+00 0.00000E+00
 -1       315-1.96855E-03 1.43134E-03 8.10855E-02
 -1       316 0.00000E+00 0.00000E+00 0.00000E+00
 -1       317-2.23209E-03-1.44637E-03 8.26840E-02
 -1       318-2.60707E-03-1.33225E-04 8.48241E-02
 -1       319-2.49180E-03-3.69345E-04 8.46851E-02
 -1       320-4.03038E-03 1.74375E-04 5.74468E-02
 -1       321 0.00000E+00 0.00000E+00 0.00000E+00
 -1       322-3.83159E-03 2.29369E-04 5.72199E-02
 -1       323-3.17089E-03-1.75308E-03 5.69527E-02
 -1       324 0.00000E+00 0.00000E+00 0.00000E+00
 -1       325 0.00000E+00 0.00000E+00 0.00000E+00
 -1       326 0.00000E+00 0.00000E+00 0.00000E+00
 -1       327-2.64578E-03 1.01466E-03 8.00490E-02
 -1       328-2.86618E-03 3.13559E-04 8.46639E-02
 -1       329-3.10504E-03-2.22765E-03 5.53399E-02
 -1       330-1.92366E-03-1.97097E-03 7.57952E-02
 -1       331-1.86811E-03-3.21123E-03 4.47376E-02
 -1       332 0.00000E+00 0.00000E+00 0.00000E+00
 -1       333 1.44973E-03-1.64034E-03 3.62916E-02
 -1       334 1.08684E-03-1.90303E-03 4.09342E-02
 -1       335-6.81074E-04-2.44841E-03 6.77391E-02
 -1       336 5.55895E-04 2.11445E-03 2.63183E-02
 -1       337 1.02021E-03 1.81917E-03 4.30867E-02
 -1       338 1.87674E-04 2.23184E-03 5.52743E-02
 -1       339-2.74809E-03-5.48370E-04 5.31216E-02
 -1       340-2.81049E-03 6.04716E-04 5.36653E-02
 -1       341-2.90224E-03 3.53024E-04 5.41081E-02
 -1       342-3.06882E-03 4.11202E-04 8.13700E-02
 -1       343-3.07694E-03 1.58231E-04 8.14731E-02
 -1       344-2.03405E-03 1.18391E-03 4.50260E-02
 -1       345-1.58530E-03 1.91761E-03 6.69543E-02
 -1       346-2.35966E-03 1.06316E-03 4.64632E-02
 -1       347-2.21775E-03 1.72910E-03 7.08008E-02
 -1       348 3.00223E-04 1.46789E-03 3.75006E-02
 -1       349-1.07631E-03 1.12249E-03 2.92120E-02
 -1       350-6.25949E-04-3.08748E-04 7.57215E-03
 -1       351 2.19417E-04-1.52757E-03 3.58733E-02
 -1       352-1.43899E-03-1.14685E-03 3.02634E-02
 -1       353-9.78373E-04-2.16195E-03 5.27287E-02
 -1       354-2.01436E-03-1.16835E-03 4.42290E-02
 -1       355-1.38697E-03-1.99785E-03 6.16466E-02
 -1       356-2.00593E-03-1.78489E-03 6.97289E-02
 -1       357-3.10412E-03-2.88474E-04 8.14258E-02
 -1       358-2.56693E-03-1.09225E-03 7.97632E-02
 -1       359-6.40994E-04 7.49534E-04 1.12164E-02
 -1       360-5.33859E-04-6.59354E-04-1.32094E-02
 -1       361-5.54975E-04 4.45269E-04-1.17201E-02
 -1       362-4.55517E-04-3.76915E-04-1.07433E-02
 -1       363 1.10239E-03 8.41063E-05-8.68126E-03
 -1       364 6.07939E-04-1.20519E-03-1.95404E-02
 -1       365 9.15497E-04-3.46927E-05-6.19886E-03
 -1       366 1.35633E-03-1.64909E-03-3.65033E-02
 -1       367-2.46522E-03 1.13667E-03-4.99408E-02
 -1       368-2.10355E-03 1.21630E-03-4.83355E-02
 -1       369 2.60949E-04-1.57516E-03-3.75398E-02
 -1       370-9.66428E-05-1.72197E-03-4.35820E-02
 -1       371-3.31456E-04 2.67055E-03-5.79762E-02
 -1       372-2.95908E-03 1.07931E-03-8.27602E-02
 -1       373-2.68959E-03 1.33958E-03-8.07555E-02
 -1       374-2.92056E-03 3.47577E-04-5.72950E-02
 -1       375-2.48470E-03-1.05677E-03-4.88745E-02
 -1       376-2.80311E-03 6.56850E-04-5.67937E-02
 -1       377-2.89053E-03-2.68526E-04-8.71615E-02
 -1       378 0.00000E+00 0.00000E+00 0.00000E+00
 -1       379 0.00000E+00 0.00000E+00 0.00000E+00
 -1       380 1.42126E-03-1.51770E-03-2.33222E-02
 -1       381 1.37451E-03-1.82987E-03-2.75082E-02
 -1       382 1.96254E-03 1.68525E-04 5.45072E-03
 -1       383 6.49614E-04 1.11775E-03 1.96623E-02
 -1       384 1.83122E-03 3.01910E-04 1.01118E-02
 -1       385 1.52618E-03 1.54670E-03 2.97779E-02
 -1       386 0.00000E+00 0.00000E+00 0.00000E+00
 -1       387 0.00000E+00 0.00000E+00 0.00000E+00
 -1       388 0.00000E+00 0.00000E+00 0.00000E+00
 -1       389-9.65071E-04 3.00325E-03 4.21110E-02
 -1       390-3.20186E-03-1.84642E-03-5.66153E-02
 -1       391-1.53240E-03-3.07277E-03-4.41286E-02
 -1       392-5.43823E-04-2.39404E-03-6.74976E-02
 -1       393-4.06138E-04-2.38711E-03-6.42399E-02
 -1       394 0.00000E+00 0.00000E+00 0.00000E+00
 -1       395 0.00000E+00 0.00000E+00 0.00000E+00
 -1       396-3.82068E-03 2.02416E-03-5.86640E-02
 -1       397-4.08796E-03 3.31314E-04-5.96687E-02
 -1       398 0.00000E+00 0.00000E+00 0.00000E+00
 -1       399 0.00000E+00 0.00000E+00 0.00000E+00
 -1       400-2.59887E-03 4.59870E-04-8.78402E-02
 -1       401 0.00000E+00 0.00000E+00 0.00000E+00
 -1       402 0.00000E+00 0.00000E+00 0.00000E+00
 -1       403-2.05704E-03 1.99835E-03-7.92510E-02
 -1       404 8.43895E-04 2.32732E-03-2.77679E-02
 -1       405 0.00000E+00 0.00000E+00 0.00000E+00
 -1       406 0.00000E+00 0.00000E+00 0.00000E+00
 -1       407 1.58547E-03 1.76511E-03-3.14031E-02
 -1       408 1.44630E-03 1.30282E-04-4.40775E-03
 -1       409 2.10643E-03 7.55610E-05-7.15986E-03
 -1       410 0.00000E+00 0.00000E+00 0.00000E+00
 -1       411 2.06354E-03-2.39425E-04 7.24177E-03
 -1       412 1.67018E-03-1.67431E-03 2.26142E-02
 -1       413 8.94384E-04-1.89429E-03 1.84373E-02
 -1       414 1.65741E-03-1.76227E-03 2.69331E-02
 -1       415 1.63734E-03-8.45758E-05 1.18430E-03
 -1       416-1.45371E-04-2.47344E-03 5.71726E-02
 -1       417 0.00000E+00 0.00000E+00 0.00000E+00
 -1       418-1.79276E-03-1.32891E-03-8.44985E-02
 -1       419-3.12111E-03-4.09647E-04-8.36609E-02
 -1       420-2.84898E-03-9.69306E-04-8.22651E-02
 -1       421-3.01753E-03-3.31302E-04-5.70366E-02
 -1       422-2.97293E-03-5.87287E-04-5.64190E-02
 -1       423-4.95845E-04-1.89102E-03-4.92233E-02
 -1       424 1.09591E-03-1.86544E-03-4.08287E-02
 -1       425-2.17195E-03-1.14460E-03-4.74332E-02
 -1       426-1.34416E-03-1.99836E-03-6.32868E-02
 -1       427-2.11850E-03-1.65661E-03-7.17588E-02
 -1       428-1.44269E-03 1.29219E-03-3.46587E-02
 -1       429-1.06153E-03 1.11615E-03-3.24079E-02
 -1       430 0.00000E+00 0.00000E+00 0.00000E+00
 -1       431 0.00000E+00 0.00000E+00 0.00000E+00
 -1       432 0.00000E+00 0.00000E+00 0.00000E+00
 -1       433 0.00000E+00 0.00000E+00 0.00000E+00
 -1       434 0.00000E+00 0.00000E+00 0.00000E+00
 -1       435 0.00000E+00 0.00000E+00 0.00000E+00
 -1       436 0.00000E+00 0.00000E+00 0.00000E+00
 -1       437 0.00000E+00 0.00000E+00 0.00000E+00
 -1       438 0.00000E+00 0.00000E+00 0.00000E+00
 -1       439 0.00000E+00 0.00000E+00 0.00000E+00
 -1       440 0.00000E+00 0.00000E+00 0.00000E+00
 -1       441 0.00000E+00 0.00000E+00 0.00000E+00
 -1       442 0.00000E+00 0.00000E+00 0.00000E+00
 -1       443 0.00000E+00 0.00000E+00 0.00000E+00
 -1       444 0.00000E+00 0.00000E+00 0.00000E+00
 -1       445 0.00000E+00 0.00000E+00 0.00000E+00
 -1       446 0.00000E+00 0.00000E+00 0.00000E+00
 -1       447 0.00000E+00 0.00000E+00 0.00000E+00
 -1       448 0.00000E+00 0.00000E+00 0.00000E+00
 -1       449 1.48392E-03-2.64651E-04-5.83951E-02
 -1       450 1.60966E-03-4.03586E-04-5.87394E-02
 -1       451 5.22898E-03-3.54899E-04-7.25544E-02
 -1       452 5.48078E-03-6.12566E-04-7.31775E-02
 -1       453-1.77951E-03 1.01118E-04-8.78769E-02
 -1       454-1.80887E-03-5.57202E-04-8.86671E-02
 -1       455-1.16854E-02 1.49870E-05-7.70654E-02
 -1       456-1.15799E-02-4.26243E-04-7.74923E-02
 -1       457-8.92124E-03 8.25897E-05-6.07819E-02
 -1       458-8.72535E-03 2.10511E-05-6.12296E-02
 -1       459-2.72914E-03 5.00097E-05-7.77469E-02
 -1       460-3.99739E-03 1.25709E-05-8.73979E-02
 -1       461-1.04682E-03-3.52306E-05-8.41871E-02
 -1       462-3.48455E-03-1.80149E-04-7.30674E-02
 -1       463-3.44494E-03 2.39464E-04-7.33509E-02
 -1       464-9.36395E-04-1.25999E-04-8.42654E-02
 -1       465-4.03001E-03-2.16872E-04-8.76609E-02
 -1       466-3.05172E-03 2.15637E-04-7.79570E-02
 -1       467-1.01365E-03-8.93010E-05-8.44798E-02
 -1       468-1.18993E-03-1.01737E-04-8.40659E-02
 -1       469-3.61905E-03-1.32703E-04-8.78558E-02
 -1       470-3.70285E-03-3.11457E-05-8.72552E-02
 -1       471-2.81780E-03 4.07006E-04-8.85387E-02
 -1       472-2.84169E-03-1.91590E-04-8.82262E-02
 -1       473 2.91848E-03-3.31662E-03-5.06878E-02
 -1       474 3.02984E-03-3.38560E-03-5.69627E-02
 -1       475-7.58044E-03-9.54871E-03-7.32659E-02
 -1       476-7.31338E-03-9.05086E-03-7.00528E-02
 -1       477 1.06249E-03-7.29716E-03-8.54065E-02
 -1       478 1.67335E-03-6.91561E-03-7.63899E-02
 -1       479 7.64546E-03-5.77545E-03-7.00696E-02
 -1       480 7.66196E-03-5.50293E-03-6.42361E-02
 -1       481-6.49015E-03-5.70458E-03-5.52294E-02
 -1       482-6.12621E-03-5.62070E-03-5.84306E-02
 -1       483-1.99176E-03-1.83298E-03-7.07088E-02
 -1       484-1.71959E-03-4.71562E-03-7.84289E-02
 -1       485 7.41820E-04-3.79154E-03-7.48688E-02
 -1       486-2.92091E-03-1.34257E-03-6.43255E-02
 -1       487-3.30165E-03-1.04843E-03-7.05287E-02
 -1       488 4.81624E-04-4.02261E-03-7.97669E-02
 -1       489-1.69658E-03-4.99192E-03-8.25682E-02
 -1       490-2.00394E-03-1.70376E-03-7.39770E-02
 -1       491 3.63531E-04-4.02289E-03-8.22883E-02
 -1       492 5.59875E-04-3.95933E-03-7.23361E-02
 -1       493-1.34156E-03-4.73631E-03-8.46065E-02
 -1       494-1.26592E-03-4.61707E-03-7.64714E-02
 -1       495-2.16509E-03-1.43739E-03-8.56035E-02
 -1       496-1.99743E-03-1.74145E-03-7.66537E-02
 -1       497 6.50761E-03-4.99704E-03-3.52787E-02
 -1       498 6.56583E-03-5.03776E-03-4.73642E-02
 -1       499 1.80676E-03-1.27637E-02-5.66399E-02
 -1       500 1.53917E-03-1.28062E-02-5.06655E-02
 -1       501 7.87341E-03-1.01290E-02-6.93384E-02
 -1       502 7.92735E-03-9.81933E-03-5.30977E-02
 -1       503 1.35546E-02-8.37086E-03-5.65523E-02
 -1       504 1.32700E-02-8.30555E-03-4.59068E-02
 -1       505-6.96028E-04-8.09025E-03-4.04036E-02
 -1       506-4.50246E-04-7.86614E-03-4.56631E-02
 -1       507-3.13293E-04-2.67042E-03-5.10670E-02
 -1       508 2.73595E-03-6.71813E-03-5.69182E-02
 -1       509 4.45499E-03-5.54141E-03-5.42194E-02
 -1       510-1.50317E-03-1.83800E-03-4.58835E-02
 -1       511 4.41734E-03-5.68126E-03-6.32803E-02
 -1       512-1.99596E-03-1.71657E-03-5.71911E-02
 -1       513 2.78412E-03-6.84047E-03-6.41607E-02
 -1       514-2.39144E-04-2.63387E-03-5.69112E-02
 -1       515 4.11814E-03-5.87448E-03-6.78195E-02
 -1       516 4.46791E-03-5.58713E-03-4.98454E-02
 -1       517 3.00193E-03-6.64169E-03-6.79209E-02
 -1       518 3.00940E-03-6.52087E-03-5.31863E-02
 -1       519-7.43814E-04-2.26073E-03-6.95658E-02
 -1       520-3.76208E-04-2.24770E-03-5.32273E-02
 -1       521 1.00967E-02-3.67337E-03-1.48236E-02
 -1       522 1.01468E-02-3.62975E-03-3.07146E-02
 -1       523 1.44017E-02-7.15332E-03-2.24212E-02
 -1       524 1.00088E-02-8.90892E-03-3.17565E-02
 -1       525 9.55868E-03-9.22614E-03-2.44980E-02
 -1       526 1.97038E-02-6.17730E-03-3.49422E-02
 -1       527 1.92372E-02-6.29609E-03-2.06537E-02
 -1       528 1.47089E-02-7.30525E-03-4.32336E-02
 -1       529 4.44688E-03-5.58501E-03-2.47621E-02
 -1       530 4.32491E-03-5.83308E-03-1.88514E-02
 -1       531 1.42519E-03-1.94494E-03-2.46132E-02
 -1       532 6.96566E-03-4.86153E-03-2.73428E-02
 -1       533 8.25663E-03-4.08906E-03-2.57559E-02
 -1       534-1.76229E-04-1.06706E-03-2.04231E-02
 -1       535 8.23067E-03-4.08093E-03-3.74826E-02
 -1       536-3.62621E-04-1.40540E-03-3.51995E-02
 -1       537 7.22467E-03-4.81390E-03-3.65752E-02
 -1       538 1.37160E-03-1.91338E-03-3.19422E-02
 -1       539 8.13401E-03-4.23553E-03-4.31890E-02
 -1       540 8.25892E-03-4.17353E-03-2.01115E-02
 -1       541 7.22680E-03-4.69657E-03-4.12992E-02
 -1       542 7.11162E-03-4.70207E-03-2.27249E-02
 -1       543 7.46929E-04-1.76077E-03-4.30479E-02
 -1       544 1.15633E-03-1.52188E-03-2.25983E-02
 -1       545 1.13964E-02-1.97923E-04 7.30008E-03
 -1       546 1.13936E-02-1.88352E-04-9.35388E-03
 -1       547 1.74865E-02-1.60534E-05 1.15690E-02
 -1       548 1.31124E-02 1.20190E-04-3.20829E-03
 -1       549 1.31982E-02-3.23126E-04 4.52964E-03
 -1       550 2.16417E-02-2.98042E-04-8.13353E-03
 -1       551 2.14943E-02-5.56193E-04 7.02725E-03
 -1       552 1.74968E-02-2.51063E-04-1.07659E-02
 -1       553 6.48534E-03 1.84575E-05-2.67896E-03
 -1       554 6.59946E-03-1.23077E-04 3.91109E-03
 -1       555 2.01523E-03-6.61166E-05 4.29294E-03
 -1       556 9.16042E-03-4.29420E-05 5.50773E-03
 -1       557 9.75105E-03-2.21729E-05 6.42377E-03
 -1       558 2.72076E-04 1.08865E-04 7.46850E-03
 -1       559 9.80826E-03-1.91540E-04-6.09146E-03
 -1       560 8.79087E-05-2.26779E-04-8.46455E-03
 -1       561 9.04348E-03 9.98709E-06-4.40328E-03
 -1       562 1.84454E-03-1.22840E-04-3.23681E-03
 -1       563 9.74103E-03-2.87898E-04-1.21501E-02
 -1       564 9.68148E-03 9.40212E-05 1.25046E-02
 -1       565 9.01900E-03-4.64026E-05-9.44396E-03
 -1       566 9.14590E-03-6.67529E-05 1.06010E-02
 -1       567 1.70854E-03-7.86205E-05-1.06432E-02
 -1       568 1.69526E-03 1.58085E-04 1.15752E-02
 -1       569 1.02536E-02 3.14378E-03 2.84652E-02
 -1       570 1.01934E-02 3.24037E-03 1.27808E-02
 -1       571 1.46939E-02 6.21208E-03 2.34365E-02
 -1       572 1.94751E-02 5.20728E-03 1.97556E-02
 -1       573 1.97478E-02 5.01172E-03 3.40385E-02
 -1       574 9.31795E-03 8.77857E-03 2.69843E-02
 -1       575 9.88062E-03 8.46617E-03 3.42346E-02
 -1       576 1.51346E-02 6.37933E-03 4.43557E-02
 -1       577 4.34159E-03 5.49559E-03 2.12336E-02
 -1       578 4.38994E-03 5.34667E-03 2.68936E-02
 -1       579 1.21705E-03 1.73174E-03 3.41641E-02
 -1       580 7.22176E-03 4.51029E-03 3.88209E-02
 -1       581 8.43160E-03 3.52105E-03 3.74742E-02
 -1       582-6.27741E-04 1.31978E-03 3.42433E-02
 -1       583 8.57256E-03 3.44569E-03 2.61180E-02
 -1       584-1.21624E-04 9.16285E-04 1.98420E-02
 -1       585 7.11502E-03 4.45470E-03 2.95596E-02
 -1       586 1.40380E-03 1.64783E-03 2.74156E-02
 -1       587 8.54246E-03 3.58257E-03 2.04708E-02
 -1       588 8.24058E-03 3.69538E-03 4.32472E-02
 -1       589 7.28863E-03 4.28164E-03 2.49327E-02
 -1       590 7.28657E-03 4.23502E-03 4.36284E-02
 -1       591 1.12008E-03 1.36373E-03 2.36181E-02
 -1       592 7.93038E-04 1.55348E-03 4.42453E-02
 -1       593 6.66024E-03 4.74563E-03 3.32385E-02
 -1       594 6.84854E-03 4.66908E-03 4.48649E-02
 -1       595 1.21223E-03 1.19939E-02 5.29308E-02
 -1       596 1.63189E-03 1.21508E-02 5.86917E-02
 -1       597 8.07689E-03 8.90275E-03 5.40946E-02
 -1       598 8.14307E-03 9.30307E-03 6.97808E-02
 -1       599 1.34319E-02 7.56216E-03 4.44998E-02
 -1       600 1.40153E-02 7.47826E-03 5.52653E-02
 -1       601-8.70140E-04 7.70823E-03 4.23599E-02
 -1       602-6.35994E-04 8.05380E-03 4.75040E-02
 -1       603-2.95413E-04 2.37367E-03 5.89553E-02
 -1       604 2.73693E-03 6.38254E-03 6.54918E-02
 -1       605 4.49535E-03 5.16342E-03 6.26350E-02
 -1       606-1.67649E-03 1.80616E-03 5.53199E-02
 -1       607 4.43514E-03 5.09512E-03 5.39620E-02
 -1       608-1.38699E-03 1.76168E-03 4.45051E-02
 -1       609 2.58901E-03 6.23523E-03 5.85000E-02
 -1       610-2.99821E-04 2.66906E-03 5.38417E-02
 -1       611 4.34230E-03 5.26157E-03 4.97199E-02
 -1       612 4.30507E-03 5.28690E-03 6.69111E-02
 -1       613 2.95461E-03 5.99599E-03 5.49732E-02
 -1       614 2.99155E-03 6.15722E-03 6.91346E-02
 -1       615-4.95956E-04 2.17147E-03 5.44384E-02
 -1       616-9.33696E-04 2.05863E-03 6.97477E-02
 -1       617 3.12942E-03 2.99679E-03 4.82424E-02
 -1       618 3.27085E-03 3.09971E-03 5.42110E-02
 -1       619-7.35067E-03 7.84122E-03 6.93189E-02
 -1       620-7.48555E-03 8.30546E-03 7.20945E-02
 -1       621 1.48427E-03 5.99882E-03 7.56362E-02
 -1       622 1.01229E-03 6.36254E-03 8.35881E-02
 -1       623 8.09800E-03 4.85989E-03 6.20614E-02
 -1       624 7.77141E-03 5.14650E-03 6.76627E-02
 -1       625-6.40746E-03 4.78647E-03 5.56338E-02
 -1       626-5.90985E-03 4.64840E-03 5.79980E-02
 -1       627-2.06717E-03 1.50464E-03 7.24109E-02
 -1       628-2.01457E-03 4.37273E-03 8.10109E-02
 -1       629 7.76103E-04 3.61721E-03 7.78427E-02
 -1       630-3.01404E-03 9.86842E-04 6.80650E-02
 -1       631-2.94290E-03 1.35035E-03 6.23130E-02
 -1       632 7.87241E-04 3.45534E-03 7.34590E-02
 -1       633-1.98039E-03 4.08848E-03 7.76405E-02
 -1       634-2.17852E-03 1.68925E-03 7.00105E-02
 -1       635 6.44385E-04 3.56373E-03 7.12714E-02
 -1       636 5.08598E-04 3.62806E-03 8.01248E-02
 -1       637-1.60615E-03 4.01270E-03 7.59256E-02
 -1       638-1.55643E-03 4.16490E-03 8.28498E-02
 -1       639-1.95755E-03 1.64888E-03 7.58434E-02
 -1       640-2.21813E-03 1.27723E-03 8.38078E-02
 -1       641 1.92077E-03-1.91483E-04 5.53122E-02
 -1       642 1.98044E-03-5.55321E-05 5.50975E-02
 -1       643-1.13231E-02-5.30053E-04 7.47225E-02
 -1       644-1.15456E-02-5.87129E-05 7.47371E-02
 -1       645-1.61151E-03-2.15880E-04 8.55309E-02
 -1       646-1.72583E-03 2.18584E-04 8.56029E-02
 -1       647 5.76825E-03-3.49745E-04 6.98240E-02
 -1       648 5.83086E-03-8.90801E-05 6.98830E-02
 -1       649-8.55552E-03 2.01759E-04 5.87819E-02
 -1       650-9.09979E-03 3.87051E-04 5.84553E-02
 -1       651-2.68558E-03-1.88005E-04 7.52667E-02
 -1       652-3.92140E-03 3.93580E-05 8.47230E-02
 -1       653-8.06100E-04-2.56002E-05 8.14351E-02
 -1       654-3.34211E-03-2.76415E-04 6.99859E-02
 -1       655-3.36599E-03 5.99881E-05 7.02186E-02
 -1       656-7.68070E-04-2.10737E-04 8.15477E-02
 -1       657-3.91746E-03-2.07985E-04 8.47935E-02
 -1       658-3.00221E-03 3.24855E-05 7.56041E-02
 -1       659-1.18968E-03-1.77645E-04 8.17010E-02
 -1       660-1.17676E-03-5.41774E-05 8.15284E-02
 -1       661-3.41547E-03-9.78829E-05 8.48061E-02
 -1       662-3.38187E-03-6.18723E-05 8.48060E-02
 -1       663-2.67745E-03 1.37358E-04 8.57574E-02
 -1       664-2.70220E-03-2.49439E-04 8.55116E-02
 -1       665 3.20192E-03-3.36090E-03 5.38036E-02
 -1       666 3.25323E-03-3.21620E-03 4.72304E-02
 -1       667 8.37593E-03-5.52167E-03 6.12343E-02
 -1       668 8.07195E-03-5.82020E-03 6.71585E-02
 -1       669 1.79208E-03-6.26665E-03 7.51219E-02
 -1       670 1.31250E-03-6.74194E-03 8.33276E-02
 -1       671-6.97219E-03-8.23909E-03 6.93247E-02
 -1       672-7.17552E-03-8.74263E-03 7.22559E-02
 -1       673-6.08386E-03-5.51212E-03 5.84660E-02
 -1       674-6.35061E-03-5.20280E-03 5.59208E-02
 -1       675-1.95142E-03-1.89300E-03 6.99276E-02
 -1       676-1.93378E-03-4.38901E-03 7.75245E-02
 -1       677 9.44669E-04-3.77930E-03 7.27224E-02
 -1       678-2.71841E-03-1.44556E-03 6.14810E-02
 -1       679-2.93948E-03-1.20068E-03 6.74731E-02
 -1       680 9.77072E-04-3.86051E-03 7.73298E-02
 -1       681-1.83271E-03-4.54251E-03 8.10877E-02
 -1       682-2.13765E-03-1.82368E-03 7.25011E-02
 -1       683 8.60054E-04-3.87275E-03 7.96867E-02
 -1       684 7.12802E-04-3.95342E-03 7.04319E-02
 -1       685-1.41527E-03-4.25861E-03 8.28905E-02
 -1       686-1.47394E-03-4.29726E-03 7.57263E-02
 -1       687-2.14536E-03-1.52452E-03 8.35635E-02
 -1       688-2.06842E-03-1.80525E-03 7.53720E-02
 -1       689 6.82690E-03-4.76276E-03 4.41383E-02
 -1       690 6.71121E-03-4.71548E-03 3.21131E-02
 -1       691 1.38031E-02-7.78721E-03 4.33815E-02
 -1       692 1.39418E-02-7.74219E-03 5.42670E-02
 -1       693 8.29151E-03-9.25417E-03 5.26337E-02
 -1       694 8.31489E-03-9.57905E-03 6.86107E-02
 -1       695 1.56685E-03-1.24871E-02 5.14247E-02
 -1       696 2.01490E-03-1.24524E-02 5.74324E-02
 -1       697-8.24333E-04-7.77875E-03 4.63660E-02
 -1       698-1.12440E-03-7.82496E-03 4.15451E-02
 -1       699 2.90512E-03-6.55109E-03 5.70440E-02
 -1       700-3.89739E-04-2.67909E-03 5.19864E-02
 -1       701 4.66848E-03-5.27139E-03 5.28341E-02
 -1       702-1.46094E-03-1.80101E-03 4.34892E-02
 -1       703-1.92605E-03-1.68067E-03 5.46093E-02
 -1       704 4.66189E-03-5.32827E-03 6.16331E-02
 -1       705 2.97744E-03-6.63429E-03 6.43497E-02
 -1       706-5.19364E-04-2.61727E-03 5.75978E-02
 -1       707 4.35254E-03-5.48898E-03 6.60677E-02
 -1       708 4.50325E-03-5.32462E-03 4.85609E-02
 -1       709 3.11585E-03-6.38237E-03 6.80135E-02
 -1       710 3.28334E-03-6.24420E-03 5.34617E-02
 -1       711-7.94433E-04-2.17495E-03 6.85867E-02
 -1       712-4.36607E-04-2.26565E-03 5.28374E-02
 -1       713 1.02190E-02-3.28700E-03 1.15997E-02
 -1       714 1.02670E-02-3.28277E-03 2.74965E-02
 -1       715 1.51642E-02-6.96346E-03 4.22774E-02
 -1       716 1.96572E-02-5.57310E-03 1.82626E-02
 -1       717 1.99713E-02-5.40326E-03 3.27558E-02
 -1       718 9.90518E-03-9.15773E-03 2.39722E-02
 -1       719 1.04973E-02-8.78342E-03 3.16088E-02
 -1       720 1.49532E-02-6.74518E-03 2.13434E-02
 -1       721 4.73513E-03-5.72891E-03 2.46975E-02
 -1       722 4.71594E-03-5.62519E-03 1.84881E-02
 -1       723 7.46008E-03-4.68938E-03 2.68501E-02
 -1       724 1.53862E-03-1.78813E-03 2.42945E-02
 -1       725 8.33701E-03-3.77558E-03 2.43222E-02
 -1       726-1.80019E-04-9.98270E-04 1.83884E-02
 -1       727-5.34759E-04-1.35597E-03 3.29137E-02
 -1       728 8.56813E-03-3.78225E-03 3.59319E-02
 -1       729 7.62568E-03-4.67989E-03 3.63331E-02
 -1       730 1.42111E-03-1.73862E-03 3.15225E-02
 -1       731 8.35634E-03-4.02887E-03 4.17933E-02
 -1       732 8.41294E-03-3.70058E-03 1.85704E-02
 -1       733 7.61290E-03-4.57928E-03 4.12062E-02
 -1       734 7.62719E-03-4.46865E-03 2.20946E-02
 -1       735 8.88992E-04-1.71523E-03 4.23832E-02
 -1       736 1.22429E-03-1.43525E-03 2.12801E-02
 -1       737 1.11046E-02 4.54668E-06-1.03831E-02
 -1       738 1.11157E-02-9.31557E-05 6.32243E-03
 -1       739 1.79136E-02-6.08130E-05 9.22780E-03
 -1       740 2.14056E-02 7.45802E-05-9.53179E-03
 -1       741 2.12908E-02 2.35345E-05 5.39496E-03
 -1       742 1.39249E-02 8.30067E-05-6.03034E-03
 -1       743 1.39555E-02 4.92162E-04 2.22888E-03
 -1       744 1.78913E-02 2.25702E-04-1.37166E-02
 -1       745 6.88415E-03 2.16505E-04 1.86696E-03
 -1       746 6.91897E-03 1.79874E-04-4.86315E-03
 -1       747 9.35452E-03 5.03590E-05-7.27200E-03
 -1       748 2.29331E-03 5.10165E-05-5.97010E-03
 -1       749 1.00739E-02 1.76768E-04-8.53228E-03
 -1       750 2.18196E-04 2.03035E-04-9.85974E-03
 -1       751 2.01657E-04-2.85906E-04 5.63857E-03
 -1       752 1.00442E-02 6.12773E-05 4.11312E-03
 -1       753 9.30596E-03 9.96554E-05 2.89762E-03
 -1       754 2.14632E-03 5.53346E-05 2.01450E-03
 -1       755 1.00363E-02 1.49644E-05 1.03362E-02
 -1       756 9.97670E-03 2.54371E-04-1.47197E-02
 -1       757 9.29962E-03 6.77124E-05 8.03901E-03
 -1       758 9.42311E-03 5.54930E-05-1.24970E-02
 -1       759 1.67582E-03-2.96423E-04 9.27908E-03
 -1       760 1.70360E-03 2.80391E-04-1.37776E-02
 -1       761 1.03286E-02 3.35421E-03-3.17709E-02
 -1       762 1.02619E-02 3.38582E-03-1.58379E-02
 -1       763 1.53294E-02 6.99435E-03-4.66910E-02
 -1       764 1.01825E-02 9.04930E-03-3.58050E-02
 -1       765 9.68686E-03 9.49445E-03-2.86097E-02
 -1       766 1.99407E-02 5.50948E-03-3.69646E-02
 -1       767 1.94572E-02 5.65516E-03-2.27640E-02
 -1       768 1.48998E-02 6.86119E-03-2.56767E-02
 -1       769 4.24847E-03 6.04528E-03-2.23780E-02
 -1       770 4.45198E-03 5.69094E-03-2.84098E-02
 -1       771 7.44449E-03 4.89544E-03-4.08271E-02
 -1       772 1.34921E-03 1.93996E-03-3.59289E-02
 -1       773 8.54303E-03 3.93983E-03-4.02726E-02
 -1       774-7.14238E-04 1.50323E-03-3.72848E-02
 -1       775-2.58463E-04 1.27608E-03-2.25229E-02
 -1       776 8.73054E-03 3.79579E-03-2.87298E-02
 -1       777 7.35185E-03 4.86075E-03-3.12959E-02
 -1       778 1.62011E-03 1.97511E-03-2.88755E-02
 -1       779 8.67954E-03 3.96233E-03-2.30344E-02
 -1       780 8.38099E-03 4.10544E-03-4.60608E-02
 -1       781 7.58931E-03 4.60896E-03-2.65360E-02
 -1       782 7.49771E-03 4.66493E-03-4.57262E-02
 -1       783 1.21586E-03 1.58884E-03-2.55803E-02
 -1       784 7.97062E-04 1.74079E-03-4.67833E-02
 -1       785 6.62688E-03 4.67702E-03-4.81343E-02
 -1       786 6.52771E-03 4.65562E-03-3.66645E-02
 -1       787 1.34910E-02 7.68049E-03-5.82674E-02
 -1       788 1.32930E-02 7.55624E-03-4.78754E-02
 -1       789 7.99702E-03 9.62429E-03-7.24666E-02
 -1       790 7.72058E-03 9.18505E-03-5.72225E-02
 -1       791 1.04076E-03 1.25138E-02-6.03808E-02
 -1       792 7.36218E-04 1.24648E-02-5.49156E-02
 -1       793-9.38173E-04 8.02015E-03-4.85405E-02
 -1       794-1.00819E-03 7.87356E-03-4.40801E-02
 -1       795-6.56821E-04 2.61473E-03-6.09167E-02
 -1       796 2.58984E-03 6.61204E-03-6.80585E-02
 -1       797 4.32643E-03 5.31488E-03-6.58108E-02
 -1       798-2.02523E-03 1.90087E-03-5.87782E-02
 -1       799-1.53335E-03 1.89273E-03-4.77889E-02
 -1       800 4.38480E-03 5.20172E-03-5.72279E-02
 -1       801 2.33063E-03 6.50911E-03-6.09816E-02
 -1       802-4.75708E-04 2.67876E-03-5.53202E-02
 -1       803 4.34586E-03 5.32706E-03-5.30842E-02
 -1       804 3.98133E-03 5.55196E-03-7.00810E-02
 -1       805 2.60793E-03 6.31502E-03-5.74943E-02
 -1       806 2.71641E-03 6.42363E-03-7.16434E-02
 -1       807-4.19355E-04 2.42914E-03-5.72309E-02
 -1       808-8.22754E-04 2.37093E-03-7.26705E-02
 -1       809 3.14202E-03 3.33322E-03-5.74347E-02
 -1       810 2.80484E-03 3.29175E-03-5.15466E-02
 -1       811 7.60460E-03 5.17251E-03-7.06364E-02
 -1       812 7.48869E-03 4.92275E-03-6.53341E-02
 -1       813 7.59539E-04 6.42742E-03-8.65509E-02
 -1       814 1.23178E-03 5.90426E-03-7.88812E-02
 -1       815-8.28497E-03 8.66250E-03-7.51018E-02
 -1       816-8.03650E-03 8.12947E-03-7.25542E-02
 -1       817-6.89841E-03 5.28074E-03-6.04913E-02
 -1       818-7.31953E-03 5.31437E-03-5.78236E-02
 -1       819-2.33043E-03 1.73144E-03-7.59048E-02
 -1       820-2.22921E-03 4.48472E-03-8.42445E-02
 -1       821 5.52143E-04 3.56573E-03-8.07426E-02
 -1       822-3.18405E-03 1.19117E-03-7.11317E-02
 -1       823-2.88618E-03 1.49885E-03-6.54337E-02
 -1       824 5.41973E-04 3.50314E-03-7.64777E-02
 -1       825-2.32013E-03 4.30754E-03-8.09414E-02
 -1       826-2.51012E-03 1.93649E-03-7.31473E-02
 -1       827 2.99809E-04 3.67014E-03-7.44454E-02
 -1       828 1.73792E-04 3.63213E-03-8.29488E-02
 -1       829-1.82553E-03 4.19214E-03-7.92264E-02
 -1       830-1.78751E-03 4.17780E-03-8.59678E-02
 -1       831-2.34733E-03 1.68671E-03-7.91779E-02
 -1       832-2.35538E-03 1.40457E-03-8.68692E-02
 -1       833 0.00000E+00 0.00000E+00 0.00000E+00
 -1       834 0.00000E+00 0.00000E+00 0.00000E+00
 -1       835 0.00000E+00 0.00000E+00 0.00000E+00
 -1       836 0.00000E+00 0.00000E+00 0.00000E+00
 -1       837 0.00000E+00 0.00000E+00 0.00000E+00
 -1       838 0.00000E+00 0.00000E+00 0.00000E+00
 -1       839 0.00000E+00 0.00000E+00 0.00000E+00
 -1       840 0.00000E+00 0.00000E+00 0.00000E+00
 -1       841 0.00000E+00 0.00000E+00 0.00000E+00
 -1       842 0.00000E+00 0.00000E+00 0.00000E+00
 -1       843 0.00000E+00 0.00000E+00 0.00000E+00
 -1       844 0.00000E+00 0.00000E+00 0.00000E+00
 -1       845 0.00000E+00 0.00000E+00 0.00000E+00
 -1       846 0.00000E+00 0.00000E+00 0.00000E+00
 -1       847 0.00000E+00 0.00000E+00 0.00000E+00
 -1       848 0.00000E+00 0.00000E+00 0.00000E+00
 -1       849 0.00000E+00 0.00000E+00 0.00000E+00
 -1       850 0.00000E+00 0.00000E+00 0.00000E+00
 -1       851 0.00000E+00 0.00000E+00 0.00000E+00
 -1       852 0.00000E+00 0.00000E+00 0.00000E+00
 -1       853 0.00000E+00 0.00000E+00 0.00000E+00
 -1       854 0.00000E+00 0.00000E+00 0.00000E+00
 -1       855 0.00000E+00 0.00000E+00 0.00000E+00
 -1       856 0.00000E+00 0.00000E+00 0.00000E+00
 -1       857 0.00000E+00 0.00000E+00 0.00000E+00
 -1       858 0.00000E+00 0.00000E+00 0.00000E+00
 -1       859 0.00000E+00 0.00000E+00 0.00000E+00
 -1       860 0.00000E+00 0.00000E+00 0.00000E+00
 -1       861 0.00000E+00 0.00000E+00 0.00000E+00
 -1       862 0.00000E+00 0.00000E+00 0.00000E+00
 -1       863 0.00000E+00 0.00000E+00 0.00000E+00
 -1       864 0.00000E+00 0.00000E+00 0.00000E+00
 -1       865 0.00000E+00 0.00000E+00 0.00000E+00
 -1       866 0.00000E+00 0.00000E+00 0.00000E+00
 -1       867 0.00000E+00 0.00000E+00 0.00000E+00
 -1       868 0.00000E+00 0.00000E+00 0.00000E+00
 -1       869 0.00000E+00 0.00000E+00 0.00000E+00
 -1       870 0.00000E+00 0.00000E+00 0.00000E+00
 -1       871 0.00000E+00 0.00000E+00 0.00000E+00
 -1       872 0.00000E+00 0.00000E+00 0.00000E+00
 -1       873 0.00000E+00 0.00000E+00 0.00000E+00
 -1       874 0.00000E+00 0.00000E+00 0.00000E+00
 -1       875 0.00000E+00 0.00000E+00 0.00000E+00
 -1       876 0.00000E+00 0.00000E+00 0.00000E+00
 -1       877 0.00000E+00 0.00000E+00 0.00000E+00
 -1       878 0.00000E+00 0.00000E+00 0.00000E+00
 -1       879 0.00000E+00 0.00000E+00 0.00000E+00
 -1       880 0.00000E+00 0.00000E+00 0.00000E+00
 -1       881 0.00000E+00 0.00000E+00 0.00000E+00
 -1       882 0.00000E+00 0.00000E+00 0.00000E+00
 -1       883 0.00000E+00 0.00000E+00 0.00000E+00
 -1       884 0.00000E+00 0.00000E+00 0.00000E+00
 -1       885 0.00000E+00 0.00000E+00 0.00000E+00
 -1       886 0.00000E+00 0.00000E+00 0.00000E+00
 -1       887 0.00000E+00 0.00000E+00 0.00000E+00
 -1       888 0.00000E+00 0.00000E+00 0.00000E+00
 -1       889 0.00000E+00 0.00000E+00 0.00000E+00
 -1       890 0.00000E+00 0.00000E+00 0.00000E+00
 -1       891 0.00000E+00 0.00000E+00 0.00000E+00
 -1       892 0.00000E+00 0.00000E+00 0.00000E+00
 -1       893 0.00000E+00 0.00000E+00 0.00000E+00
 -1       894 0.00000E+00 0.00000E+00 0.00000E+00
 -1       895 0.00000E+00 0.00000E+00 0.00000E+00
 -1       896 0.00000E+00 0.00000E+00 0.00000E+00
 -1       897 3.96108E-03-2.44823E-04-7.82878E-02
 -1       898 6.31775E-03-4.82323E-04-6.52978E-02
 -1       899 3.92435E-03-6.08910E-04-7.88731E-02
 -1       900-6.78958E-04 1.23493E-05-8.59927E-02
 -1       901-9.41439E-03-1.99761E-05-8.24134E-02
 -1       902-1.32897E-02-2.40928E-04-6.92007E-02
 -1       903-2.33833E-03 1.09827E-04-8.40191E-02
 -1       904-3.37057E-03-3.14369E-04-6.57604E-02
 -1       905-3.66104E-03 1.92271E-04-7.95665E-02
 -1       906-3.58478E-03 1.97586E-04-6.98222E-02
 -1       907-2.95397E-03 2.09203E-04-8.89689E-02
 -1       908-2.73894E-03-7.24509E-05-8.87257E-02
 -1       909-2.97029E-03-2.73129E-04-8.69388E-02
 -1       910 6.31477E-03-5.94227E-03-7.49972E-02
 -1       911 8.65502E-03-5.39926E-03-5.71821E-02
 -1       912-1.80871E-03-1.83424E-03-7.58931E-02
 -1       913-2.84618E-03-1.30545E-03-5.72809E-02
 -1       914-2.90856E-03-1.26294E-03-7.58700E-02
 -1       915-2.54514E-03-1.78752E-03-6.64526E-02
 -1       916-1.90956E-03-1.52866E-03-8.56500E-02
 -1       917-1.85589E-03-1.86896E-03-7.72966E-02
 -1       918-2.10327E-03-1.60692E-03-7.47844E-02
 -1       919 7.09237E-03-1.03121E-02-5.32995E-02
 -1       920 8.75456E-03-9.44206E-03-5.13606E-02
 -1       921 1.22196E-02-8.49318E-03-6.00793E-02
 -1       922 1.43519E-02-8.22005E-03-4.01924E-02
 -1       923-1.21191E-04-2.40588E-03-5.49879E-02
 -1       924-1.57197E-03-1.57889E-03-4.01414E-02
 -1       925-1.70841E-03-1.88923E-03-6.10564E-02
 -1       926-5.90474E-04-2.84141E-03-5.17011E-02
 -1       927-9.97844E-04-2.18467E-03-6.90902E-02
 -1       928-5.82475E-04-2.34820E-03-6.90921E-02
 -1       929-3.44609E-04-2.41832E-03-5.37558E-02
 -1       930-4.70195E-04-2.02824E-03-5.19609E-02
 -1       931 1.52788E-02-6.82046E-03-2.11564E-02
 -1       932 1.09683E-02-8.72925E-03-2.58938E-02
 -1       933 2.02703E-02-6.14636E-03-1.74759E-02
 -1       934 1.54459E-02-7.02809E-03-4.33110E-02
 -1       935 1.39481E-02-7.58316E-03-4.20117E-02
 -1       936 1.17688E-03-2.00374E-03-2.22749E-02
 -1       937 1.53770E-03-1.81616E-03-2.65408E-02
 -1       938-6.17827E-04-1.08745E-03-1.71962E-02
 -1       939-5.17159E-05-1.42422E-03-3.66580E-02
 -1       940 1.01483E-03-1.99217E-03-2.86588E-02
 -1       941 9.40611E-04-1.77969E-03-4.22845E-02
 -1       942 1.17113E-03-1.53446E-03-2.28913E-02
 -1       943 7.69689E-04-1.45333E-03-2.15198E-02
 -1       944 1.78178E-02 1.27985E-05 1.20415E-02
 -1       945 2.01721E-02-1.27366E-04-6.95212E-03
 -1       946 2.24502E-02-4.66995E-04 7.44908E-03
 -1       947 1.69328E-02-2.14701E-04-1.00504E-02
 -1       948 2.32190E-03-1.57988E-05 4.91202E-03
 -1       949-2.16300E-04 2.10887E-04 7.72946E-03
 -1       950 5.09128E-04-8.53230E-05-7.08531E-03
 -1       951 1.88557E-03-6.15725E-05-2.58490E-03
 -1       952 1.43842E-03-3.12764E-04-1.14747E-02
 -1       953 1.79437E-03-1.35977E-04-1.01249E-02
 -1       954 1.94717E-03 1.79378E-04 1.09560E-02
 -1       955 1.19134E-03 3.47737E-04 1.20272E-02
 -1       956 1.40526E-02 6.56707E-03 2.41909E-02
 -1       957 1.44505E-02 6.76472E-03 4.40016E-02
 -1       958 1.57036E-02 6.14277E-03 4.37763E-02
 -1       959 1.30290E-03 1.63055E-03 3.69148E-02
 -1       960-9.67962E-04 1.24899E-03 3.17222E-02
 -1       961 5.95210E-05 1.35188E-03 2.31777E-02
 -1       962 1.39803E-03 1.75986E-03 2.45996E-02
 -1       963 9.65869E-04 1.21205E-03 2.19987E-02
 -1       964 1.41271E-03 1.33198E-03 2.48788E-02
 -1       965 9.67903E-04 1.70730E-03 4.41856E-02
 -1       966 5.50690E-04 1.46726E-03 4.41194E-02
 -1       967 7.11299E-03 9.34710E-03 5.45136E-02
 -1       968 1.45942E-02 7.52213E-03 3.85999E-02
 -1       969 1.19906E-02 7.62380E-03 4.93650E-02
 -1       970 1.49267E-02 7.50953E-03 4.98448E-02
 -1       971-8.92734E-04 2.73500E-03 5.33367E-02
 -1       972 9.71964E-05 2.26943E-03 6.29212E-02
 -1       973-2.17423E-03 1.48108E-03 5.06570E-02
 -1       974-1.27209E-03 1.98978E-03 4.99384E-02
 -1       975-6.32372E-04 2.72249E-03 4.87902E-02
 -1       976-7.86978E-04 2.16226E-03 5.22139E-02
 -1       977-1.92153E-04 2.15412E-03 5.53704E-02
 -1       978-8.48286E-04 2.22838E-03 7.00072E-02
 -1       979-8.79278E-04 1.97291E-03 6.88102E-02
 -1       980-5.29132E-03 7.85469E-03 7.66693E-02
 -1       981-8.31387E-05 6.33250E-03 7.59446E-02
 -1       982 8.92293E-03 4.85491E-03 5.49559E-02
 -1       983 6.60802E-03 5.10705E-03 6.78612E-02
 -1       984 9.00536E-03 4.86919E-03 6.07563E-02
 -1       985-1.67444E-03 1.40956E-03 7.78140E-02
 -1       986-3.14741E-03 8.85154E-04 6.13029E-02
 -1       987-2.76278E-03 1.51753E-03 6.86682E-02
 -1       988-2.49944E-03 1.62307E-03 6.31945E-02
 -1       989-2.23637E-03 1.57300E-03 7.41059E-02
 -1       990-1.99835E-03 1.65148E-03 7.68741E-02
 -1       991-2.02252E-03 1.40657E-03 8.42036E-02
 -1       992-2.20511E-03 1.18172E-03 8.26956E-02
 -1       993-3.10604E-03-3.67287E-04 8.52210E-02
 -1       994 6.69510E-03-3.56648E-04 6.23070E-02
 -1       995 4.26215E-03-4.03993E-04 7.57838E-02
 -1       996 6.97378E-03-1.47632E-04 6.22315E-02
 -1       997-3.63387E-03 1.78188E-05 6.73810E-02
 -1       998-2.25004E-03-3.07990E-05 8.11788E-02
 -1       999-3.36550E-03-2.67071E-04 6.25324E-02
 -1      1000-3.18658E-03-5.98312E-05 7.66721E-02
 -1      1001-3.38910E-03-3.81404E-05 6.74807E-02
 -1      1002-2.94800E-03 1.12142E-04 8.43671E-02
 -1      1003-2.53717E-03 7.44173E-05 8.63217E-02
 -1      1004-2.66939E-03-1.41925E-04 8.61264E-02
 -1      1005-2.63742E-03-2.77435E-04 8.43636E-02
 -1      1006 9.19883E-03-5.51690E-03 5.40794E-02
 -1      1007 6.82864E-03-5.88146E-03 7.24430E-02
 -1      1008 2.69215E-03-6.27273E-03 8.15890E-02
 -1      1009 1.09121E-04-7.01247E-03 8.31924E-02
 -1      1010-8.40499E-03-8.80982E-03 6.54921E-02
 -1      1011-1.96575E-03-1.72161E-03 7.47185E-02
 -1      1012-2.75854E-03-1.35550E-03 5.42870E-02
 -1      1013-2.75016E-03-1.38300E-03 7.32937E-02
 -1      1014-2.55164E-03-1.86207E-03 6.60657E-02
 -1      1015-2.21686E-03-1.40992E-03 8.22936E-02
 -1      1016-1.90201E-03-1.50319E-03 8.40228E-02
 -1      1017-2.01639E-03-1.77530E-03 7.64817E-02
 -1      1018-2.01980E-03-1.76073E-03 7.33795E-02
 -1      1019 1.24908E-02-7.84325E-03 4.83601E-02
 -1      1020 1.47688E-02-7.80956E-03 3.75616E-02
 -1      1021 1.25275E-02-7.84681E-03 5.78793E-02
 -1      1022 9.21772E-03-9.04173E-03 6.73835E-02
 -1      1023 7.38164E-03-1.01366E-02 6.81773E-02
 -1      1024 4.82523E-04-1.26989E-02 5.17977E-02
 -1      1025-8.98228E-04-2.85665E-03 4.72540E-02
 -1      1026-3.41415E-04-2.53239E-03 5.53815E-02
 -1      1027-1.51503E-03-1.52427E-03 3.73749E-02
 -1      1028-1.45574E-03-2.03533E-03 5.87161E-02
 -1      1029-1.02037E-03-2.81569E-03 5.24839E-02
 -1      1030-8.91632E-04-2.10414E-03 6.78783E-02
 -1      1031-5.35190E-04-2.43500E-03 6.89018E-02
 -1      1032-1.52616E-04-2.28212E-03 5.37364E-02
 -1      1033-7.62049E-04-2.17110E-03 5.11408E-02
 -1      1034 1.44866E-02-7.30394E-03 4.16272E-02
 -1      1035 2.06020E-02-5.45820E-03 1.46799E-02
 -1      1036 1.86220E-02-5.63302E-03 3.43175E-02
 -1      1037 1.56709E-02-6.33169E-03 1.97608E-02
 -1      1038 1.56234E-03-1.70285E-03 2.62159E-02
 -1      1039-4.70494E-04-7.71535E-04 1.45035E-02
 -1      1040-3.05392E-04-1.44105E-03 3.48893E-02
 -1      1041 1.23458E-03-1.89646E-03 2.83599E-02
 -1      1042 4.46283E-04-1.68677E-03 4.24258E-02
 -1      1043 1.05410E-03-1.80862E-03 4.19782E-02
 -1      1044 1.43167E-03-1.49437E-03 2.20152E-02
 -1      1045 9.81817E-04-1.27499E-03 2.01566E-02
 -1      1046 1.73535E-02-4.30084E-05 8.67824E-03
 -1      1047 2.22855E-02 2.44884E-05-1.00401E-02
 -1      1048 2.03340E-02 4.53198E-05 4.64283E-03
 -1      1049 1.50993E-02 5.92610E-05-6.67752E-03
 -1      1050 1.27695E-02 4.42785E-04 1.81326E-03
 -1      1051 2.10322E-03 4.72813E-05-5.20025E-03
 -1      1052 2.20855E-03-3.88123E-06-6.56635E-03
 -1      1053-3.05175E-04 3.25015E-04-1.06181E-02
 -1      1054 6.99458E-04-1.30330E-04 4.78974E-03
 -1      1055 1.93266E-03 7.82709E-05 1.79213E-03
 -1      1056 2.01287E-03-1.99157E-04 8.47200E-03
 -1      1057 1.87055E-03 2.02629E-04-1.28216E-02
 -1      1058 1.38142E-03 3.08785E-04-1.42545E-02
 -1      1059 1.58822E-02 6.73464E-03-4.64409E-02
 -1      1060 2.08316E-02 5.57293E-03-3.44293E-02
 -1      1061 1.83003E-02 5.84390E-03-2.56485E-02
 -1      1062 1.55648E-02 6.47854E-03-2.43356E-02
 -1      1063 1.42876E-02 7.22391E-03-2.60184E-02
 -1      1064 1.57765E-03 1.83030E-03-3.88766E-02
 -1      1065-1.13298E-03 1.36331E-03-3.50984E-02
 -1      1066 1.55397E-04 1.24881E-03-2.59226E-02
 -1      1067 1.18022E-03 2.19756E-03-2.60335E-02
 -1      1068 1.02162E-03 1.41417E-03-2.45121E-02
 -1      1069 1.38818E-03 1.54432E-03-2.65533E-02
 -1      1070 1.11878E-03 1.89327E-03-4.65329E-02
 -1      1071 5.67251E-04 1.79793E-03-4.68338E-02
 -1      1072 1.44045E-02 7.68386E-03-5.31566E-02
 -1      1073 1.20007E-02 7.74139E-03-5.25782E-02
 -1      1074 8.68750E-03 9.20183E-03-7.12071E-02
 -1      1075 2.84527E-03 1.20032E-02-6.42256E-02
 -1      1076-4.83337E-04 1.27904E-02-4.95802E-02
 -1      1077-1.15254E-04 2.36192E-03-6.52272E-02
 -1      1078-2.16656E-03 1.64031E-03-5.38127E-02
 -1      1079-1.62228E-03 2.07637E-03-5.31785E-02
 -1      1080-8.55171E-04 2.92561E-03-4.99504E-02
 -1      1081-5.15216E-04 2.43355E-03-5.79695E-02
 -1      1082-6.74828E-04 2.48331E-03-7.27997E-02
 -1      1083-1.20738E-03 2.26389E-03-7.18541E-02
 -1      1084 6.26961E-03 5.25671E-03-7.58308E-02
 -1      1085 8.66040E-03 5.14407E-03-6.37945E-02
 -1      1086 6.12559E-03 4.91637E-03-7.11258E-02
 -1      1087 2.14422E-03 5.89805E-03-8.47907E-02
 -1      1088-5.80682E-03 8.02046E-03-7.99568E-02
 -1      1089-9.78338E-03 8.70520E-03-6.53386E-02
 -1      1090-1.98290E-03 1.68178E-03-8.14074E-02
 -1      1091-3.26362E-03 9.80796E-04-6.46267E-02
 -1      1092-3.13476E-03 1.60415E-03-7.16523E-02
 -1      1093-3.21004E-03 1.98294E-03-6.63548E-02
 -1      1094-2.35582E-03 1.79077E-03-7.99172E-02
 -1      1095-2.19985E-03 1.51225E-03-8.70681E-02
 -1      1096-2.46706E-03 1.40239E-03-8.55183E-02
 -1      1097 0.00000E+00 0.00000E+00 0.00000E+00
 -1      1098 0.00000E+00 0.00000E+00 0.00000E+00
 -1      1099 0.00000E+00 0.00000E+00 0.00000E+00
 -1      1100 0.00000E+00 0.00000E+00 0.00000E+00
 -1      1101 0.00000E+00 0.00000E+00 0.00000E+00
 -1      1102 0.00000E+00 0.00000E+00 0.00000E+00
 -1      1103 0.00000E+00 0.00000E+00 0.00000E+00
 -1      1104 0.00000E+00 0.00000E+00 0.00000E+00
 -1      1105 0.00000E+00 0.00000E+00 0.00000E+00
 -1      1106 0.00000E+00 0.00000E+00 0.00000E+00
 -1      1107 0.00000E+00 0.00000E+00 0.00000E+00
 -1      1108 0.00000E+00 0.00000E+00 0.00000E+00
 -1      1109 0.00000E+00 0.00000E+00 0.00000E+00
 -1      1110 0.00000E+00 0.00000E+00 0.00000E+00
 -1      1111 0.00000E+00 0.00000E+00 0.00000E+00
 -1      1112 0.00000E+00 0.00000E+00 0.00000E+00
 -1      1113 0.00000E+00 0.00000E+00 0.00000E+00
 -1      1114 0.00000E+00 0.00000E+00 0.00000E+00
 -1      1115 0.00000E+00 0.00000E+00 0.00000E+00
 -1      1116 0.00000E+00 0.00000E+00 0.00000E+00
 -1      1117 0.00000E+00 0.00000E+00 0.00000E+00
 -1      1118 0.00000E+00 0.00000E+00 0.00000E+00
 -1      1119 0.00000E+00 0.00000E+00 0.00000E+00
 -1      1120 0.00000E+00 0.00000E+00 0.00000E+00
 -1      1121 0.00000E+00 0.00000E+00 0.00000E+00
 -1      1122 0.00000E+00 0.00000E+00 0.00000E+00
 -1      1123 0.00000E+00 0.00000E+00 0.00000E+00
 -1      1124 0.00000E+00 0.00000E+00 0.00000E+00
 -1      1125 0.00000E+00 0.00000E+00 0.00000E+00
 -1      1126 0.00000E+00 0.00000E+00 0.00000E+00
 -1      1127 0.00000E+00 0.00000E+00 0.00000E+00
 -1      1128 0.00000E+00 0.00000E+00 0.00000E+00
 -1      1129 0.00000E+00 0.00000E+00 0.00000E+00
 -1      1130 0.00000E+00 0.00000E+00 0.00000E+00
 -1      1131 0.00000E+00 0.00000E+00 0.00000E+00
 -1      1132 0.00000E+00 0.00000E+00 0.00000E+00
 -1      1133 0.00000E+00 0.00000E+00 0.00000E+00
 -1      1134 0.00000E+00 0.00000E+00 0.00000E+00
 -1      1135 0.00000E+00 0.00000E+00 0.00000E+00
 -1      1136 0.00000E+00 0.00000E+00 0.00000E+00
 -1      1137 0.00000E+00 0.00000E+00 0.00000E+00
 -1      1138 0.00000E+00 0.00000E+00 0.00000E+00
 -1      1139 0.00000E+00 0.00000E+00 0.00000E+00
 -1      1140 0.00000E+00 0.00000E+00 0.00000E+00
 -1      1141 0.00000E+00 0.00000E+00 0.00000E+00
 -1      1142 0.00000E+00 0.00000E+00 0.00000E+00
 -1      1143 0.00000E+00 0.00000E+00 0.00000E+00
 -1      1144 0.00000E+00 0.00000E+00 0.00000E+00
 -1      1145 0.00000E+00 0.00000E+00 0.00000E+00
 -1      1146 0.00000E+00 0.00000E+00 0.00000E+00
 -1      1147 0.00000E+00 0.00000E+00 0.00000E+00
 -1      1148 0.00000E+00 0.00000E+00 0.00000E+00
 -1      1149 0.00000E+00 0.00000E+00 0.00000E+00
 -1      1150 0.00000E+00 0.00000E+00 0.00000E+00
 -1      1151 0.00000E+00 0.00000E+00 0.00000E+00
 -1      1152 0.00000E+00 0.00000E+00 0.00000E+00
 -1      1153 6.43404E-03-7.13833E-04-6.58304E-02
 -1      1154-3.06134E-03 9.22174E-05-8.76615E-02
 -1      1155-3.52971E-03-6.66095E-04-8.83241E-02
 -1      1156-1.68648E-04-5.10050E-04-8.67078E-02
 -1      1157-1.32600E-02 8.06654E-05-6.91042E-02
 -1      1158-9.02038E-03-6.28803E-04-8.29257E-02
 -1      1159-3.26369E-03 1.65419E-04-6.98255E-02
 -1      1160-3.52679E-03-3.56678E-05-7.92074E-02
 -1      1161-3.46416E-03 3.04926E-04-6.60369E-02
 -1      1162-2.41865E-03 1.35910E-04-8.42555E-02
 -1      1163-2.78588E-03 3.52765E-04-8.72565E-02
 -1      1164-8.95897E-03-9.95539E-03-6.61101E-02
 -1      1165-5.10656E-03-9.02101E-03-7.82194E-02
 -1      1166-5.02205E-03-8.36064E-03-7.46870E-02
 -1      1167-9.00443E-03-9.54800E-03-6.27465E-02
 -1      1168-7.09377E-05-7.96305E-03-8.51099E-02
 -1      1169 2.29254E-03-6.92150E-03-8.39879E-02
 -1      1170 2.64591E-03-6.33289E-03-7.44581E-02
 -1      1171 1.71025E-04-7.31376E-03-7.65087E-02
 -1      1172 8.63364E-03-5.65356E-03-6.32389E-02
 -1      1173 6.32148E-03-5.58686E-03-6.97333E-02
 -1      1174-2.59728E-03-1.94083E-03-6.36456E-02
 -1      1175-2.92570E-03-1.52724E-03-7.03001E-02
 -1      1176-3.28381E-03-8.79170E-04-6.38582E-02
 -1      1177-1.51094E-03-1.62864E-03-7.96807E-02
 -1      1178-2.40233E-03-1.31714E-03-8.45516E-02
 -1      1179 7.12532E-04-1.32461E-02-5.13507E-02
 -1      1180 3.63055E-03-1.22400E-02-6.05846E-02
 -1      1181 2.93127E-03-1.22399E-02-5.39073E-02
 -1      1182 4.95362E-04-1.31057E-02-4.56652E-02
 -1      1183 7.02628E-03-1.07946E-02-6.85973E-02
 -1      1184 9.17397E-03-9.85646E-03-6.87811E-02
 -1      1185 1.45469E-02-8.46073E-03-5.19267E-02
 -1      1186 1.19742E-02-8.37750E-03-5.04412E-02
 -1      1187-5.75501E-04-2.83541E-03-4.63510E-02
 -1      1188-1.58673E-03-1.98955E-03-5.06975E-02
 -1      1189-2.11836E-03-1.50403E-03-5.25985E-02
 -1      1190-9.30353E-05-2.50272E-03-6.13929E-02
 -1      1191 1.35416E-02-7.50013E-03-2.26485E-02
 -1      1192 8.71118E-03-9.18476E-03-2.82989E-02
 -1      1193 1.16088E-02-8.47634E-03-3.43662E-02
 -1      1194 8.28771E-03-9.54872E-03-2.18999E-02
 -1      1195 1.83989E-02-6.13040E-03-3.63260E-02
 -1      1196 2.05697E-02-6.18808E-03-3.28836E-02
 -1      1197 1.79236E-02-6.43731E-03-2.31473E-02
 -1      1198 1.22043E-04-1.36969E-03-2.34972E-02
 -1      1199-1.16989E-03-1.18073E-03-3.34982E-02
 -1      1200 1.36249E-03-1.83425E-03-3.45985E-02
 -1      1201 3.78319E-04-1.70842E-03-4.35602E-02
 -1      1202 1.69328E-02-6.92788E-05 1.10456E-02
 -1      1203 1.21926E-02 2.11042E-04-2.92575E-03
 -1      1204 1.45308E-02 1.37432E-04-3.68591E-03
 -1      1205 1.44456E-02-4.19540E-04 4.99432E-03
 -1      1206 1.21111E-02-1.45270E-04 3.99317E-03
 -1      1207 2.25442E-02-3.69062E-04-8.91519E-03
 -1      1208 2.03155E-02-6.10872E-04 6.47671E-03
 -1      1209 1.80766E-02-2.84989E-04-1.15904E-02
 -1      1210 1.82776E-03 5.46864E-06 3.90505E-03
 -1      1211 5.61607E-04 8.09028E-05 6.91384E-03
 -1      1212-3.96471E-04-3.77985E-04-9.36424E-03
 -1      1213 2.04793E-03-5.11437E-05-3.73891E-03
 -1      1214 1.54135E-02 5.90471E-03 2.18941E-02
 -1      1215 1.78385E-02 5.35412E-03 2.31228E-02
 -1      1216 2.04330E-02 5.16656E-03 1.60074E-02
 -1      1217 2.07071E-02 5.10492E-03 3.12506E-02
 -1      1218 1.84130E-02 5.18698E-03 3.56468E-02
 -1      1219 8.11888E-03 9.17125E-03 2.42760E-02
 -1      1220 1.09547E-02 8.25116E-03 2.82195E-02
 -1      1221 1.17110E-02 7.97020E-03 3.67051E-02
 -1      1222 8.51587E-03 8.88167E-03 3.04637E-02
 -1      1223 1.08715E-03 1.92584E-03 3.07400E-02
 -1      1224-1.34532E-04 1.41424E-03 3.61628E-02
 -1      1225-6.10686E-04 9.98919E-04 1.57849E-02
 -1      1226 1.35923E-03 1.66848E-03 2.88846E-02
 -1      1227 1.20995E-04 1.24166E-02 4.77040E-02
 -1      1228 3.00490E-03 1.14708E-02 5.58904E-02
 -1      1229 3.44517E-03 1.16232E-02 6.22371E-02
 -1      1230 2.78520E-04 1.27097E-02 5.31241E-02
 -1      1231 9.00468E-03 8.38893E-03 5.18337E-02
 -1      1232 8.97304E-03 8.74781E-03 6.84840E-02
 -1      1233 7.29255E-03 9.88529E-03 6.95904E-02
 -1      1234 1.26489E-02 7.56303E-03 5.88106E-02
 -1      1235-1.65609E-03 2.01243E-03 5.94516E-02
 -1      1236-1.49089E-03 1.66735E-03 3.85507E-02
 -1      1237-1.31671E-04 2.40726E-03 5.67589E-02
 -1      1238-9.05161E-03 8.27561E-03 6.24986E-02
 -1      1239-5.24509E-03 7.22572E-03 7.37590E-02
 -1      1240-8.65922E-03 8.27384E-03 6.49647E-02
 -1      1241 2.64860E-03 5.51262E-03 7.35817E-02
 -1      1242 2.42560E-03 6.00020E-03 8.20118E-02
 -1      1243-2.77599E-04 6.98244E-03 8.34861E-02
 -1      1244 6.48419E-03 5.47891E-03 7.29661E-02
 -1      1245-2.36813E-03 1.62828E-03 6.52855E-02
 -1      1246-2.81512E-03 1.34517E-03 7.37119E-02
 -1      1247-2.96067E-03 1.26567E-03 5.51869E-02
 -1      1248-1.96887E-03 1.59358E-03 7.48003E-02
 -1      1249-1.27335E-02-2.78353E-04 6.68573E-02
 -1      1250-8.98530E-03-4.51807E-04 7.99199E-02
 -1      1251-9.25683E-03 2.04980E-04 8.00301E-02
 -1      1252-1.35049E-02-6.00837E-05 6.65625E-02
 -1      1253-5.49904E-06-5.79014E-04 8.37772E-02
 -1      1254-3.23083E-04 5.55157E-05 8.35846E-02
 -1      1255-3.16564E-03 4.33457E-04 8.54477E-02
 -1      1256 4.48748E-03 7.07448E-05 7.58343E-02
 -1      1257-3.53882E-03-1.53296E-04 7.65154E-02
 -1      1258-3.45564E-03 2.23846E-04 6.28052E-02
 -1      1259-2.68492E-03-3.62973E-05 8.12634E-02
 -1      1260 6.86282E-03-5.53446E-03 6.71959E-02
 -1      1261 9.20082E-03-5.52479E-03 6.03440E-02
 -1      1262 2.82793E-03-5.84071E-03 7.29671E-02
 -1      1263 1.93026E-04-6.44284E-03 7.56631E-02
 -1      1264-5.00264E-03-7.51842E-03 7.36952E-02
 -1      1265-8.75731E-03-8.78397E-03 6.27787E-02
 -1      1266-5.07427E-03-8.15851E-03 7.67038E-02
 -1      1267-2.56783E-03-1.90592E-03 6.36066E-02
 -1      1268-2.80682E-03-1.56919E-03 6.78295E-02
 -1      1269-3.17346E-03-9.07042E-04 6.08624E-02
 -1      1270-1.92187E-03-1.60723E-03 7.78956E-02
 -1      1271 1.50095E-02-7.65109E-03 4.91757E-02
 -1      1272 9.00750E-03-8.65506E-03 5.07211E-02
 -1      1273 7.17481E-03-9.60984E-03 5.32894E-02
 -1      1274 3.25516E-03-1.18631E-02 5.43270E-02
 -1      1275-9.33264E-05-1.27437E-02 4.67852E-02
 -1      1276 3.84422E-03-1.19217E-02 6.11104E-02
 -1      1277-1.32861E-03-1.98178E-03 4.88974E-02
 -1      1278-2.13900E-03-1.58432E-03 4.98046E-02
 -1      1279-1.95101E-04-2.44481E-03 6.21002E-02
 -1      1280 1.58862E-02-6.61719E-03 4.21182E-02
 -1      1281 1.80041E-02-5.77586E-03 2.14397E-02
 -1      1282 2.08714E-02-5.45729E-03 3.01633E-02
 -1      1283 9.24831E-03-9.14225E-03 2.82148E-02
 -1      1284 1.13613E-02-8.76618E-03 2.56659E-02
 -1      1285 8.93182E-03-9.30776E-03 2.13045E-02
 -1      1286 1.19479E-02-8.35635E-03 3.40358E-02
 -1      1287 1.41454E-02-7.16164E-03 2.17969E-02
 -1      1288 1.22241E-03-1.89190E-03 2.17318E-02
 -1      1289-4.31706E-05-1.33527E-03 2.14281E-02
 -1      1290-1.16624E-03-1.13914E-03 3.07507E-02
 -1      1291 1.62681E-03-1.70269E-03 3.45487E-02
 -1      1292 1.84188E-02-4.35424E-05 9.80988E-03
 -1      1293 2.03165E-02-5.05942E-05-8.69224E-03
 -1      1294 2.20973E-02-1.51212E-05 6.09075E-03
 -1      1295 1.28528E-02 9.70599E-05-5.35637E-03
 -1      1296 1.52462E-02 4.41391E-04 2.63286E-03
 -1      1297 1.82784E-02 1.67129E-04-1.42794E-02
 -1      1298 1.74532E-02 8.99025E-05-1.29955E-02
 -1      1299 5.54171E-04 2.41142E-04-8.99341E-03
 -1      1300-4.17450E-04-5.06540E-04 6.59818E-03
 -1      1301 2.11906E-03-4.60325E-05 2.53320E-03
 -1      1302 1.40749E-03-9.09339E-05 9.93316E-03
 -1      1303 1.46859E-02 7.38693E-03-4.63088E-02
 -1      1304 1.20282E-02 8.57616E-03-3.86020E-02
 -1      1305 8.87181E-03 9.34613E-03-3.21243E-02
 -1      1306 8.33383E-03 9.87479E-03-2.56741E-02
 -1      1307 1.12743E-02 8.88316E-03-2.99022E-02
 -1      1308 1.86778E-02 5.62695E-03-3.88777E-02
 -1      1309 2.05877E-02 5.50933E-03-1.90616E-02
 -1      1310 1.32816E-03 1.95464E-03-3.24650E-02
 -1      1311-7.76535E-05 1.56029E-03-3.93327E-02
 -1      1312-4.91469E-04 1.06347E-03-1.89245E-02
 -1      1313 1.60470E-03 1.90756E-03-3.06525E-02
 -1      1314 1.22965E-02 7.84392E-03-6.22470E-02
 -1      1315 1.43857E-02 7.43595E-03-4.18697E-02
 -1      1316 7.10123E-03 1.00828E-02-7.21033E-02
 -1      1317 6.48351E-03 9.84879E-03-5.74801E-02
 -1      1318 8.79754E-03 8.58837E-03-5.51567E-02
 -1      1319-2.34980E-04 1.29143E-02-5.43684E-02
 -1      1320 2.50671E-03 1.17850E-02-5.81395E-02
 -1      1321-6.39468E-04 2.82633E-03-5.47741E-02
 -1      1322-1.85716E-03 2.02362E-03-6.27985E-02
 -1      1323-1.57386E-03 1.74875E-03-4.19764E-02
 -1      1324-3.43430E-04 2.53209E-03-5.90597E-02
 -1      1325-4.89825E-04 2.12864E-03-5.55199E-02
 -1      1326 8.53989E-03 4.90883E-03-5.82907E-02
 -1      1327-3.90532E-04 6.75208E-03-8.63169E-02
 -1      1328-3.62994E-04 6.16761E-03-7.92026E-02
 -1      1329 2.26776E-03 5.39310E-03-7.68496E-02
 -1      1330-9.66027E-03 9.13829E-03-6.81259E-02
 -1      1331-5.73841E-03 7.29531E-03-7.72258E-02
 -1      1332-3.23438E-03 1.89692E-03-6.84294E-02
 -1      1333-3.04290E-03 1.40099E-03-7.66797E-02
 -1      1334-2.93422E-03 1.43192E-03-5.83922E-02
 -1      1335-2.27754E-03 1.83658E-03-7.84490E-02
 -1      1336-2.26073E-03 1.70643E-03-7.72527E-02
 -1      1337 0.00000E+00 0.00000E+00 0.00000E+00
 -1      1338 0.00000E+00 0.00000E+00 0.00000E+00
 -1      1339 0.00000E+00 0.00000E+00 0.00000E+00
 -1      1340 0.00000E+00 0.00000E+00 0.00000E+00
 -1      1341 0.00000E+00 0.00000E+00 0.00000E+00
 -1      1342 0.00000E+00 0.00000E+00 0.00000E+00
 -1      1343 0.00000E+00 0.00000E+00 0.00000E+00
 -1      1344 0.00000E+00 0.00000E+00 0.00000E+00
 -1      1345 0.00000E+00 0.00000E+00 0.00000E+00
 -1      1346 0.00000E+00 0.00000E+00 0.00000E+00
 -1      1347 0.00000E+00 0.00000E+00 0.00000E+00
 -1      1348 0.00000E+00 0.00000E+00 0.00000E+00
 -1      1349 0.00000E+00 0.00000E+00 0.00000E+00
 -1      1350 0.00000E+00 0.00000E+00 0.00000E+00
 -1      1351 0.00000E+00 0.00000E+00 0.00000E+00
 -1      1352 0.00000E+00 0.00000E+00 0.00000E+00
 -1      1353 0.00000E+00 0.00000E+00 0.00000E+00
 -1      1354 0.00000E+00 0.00000E+00 0.00000E+00
 -1      1355 0.00000E+00 0.00000E+00 0.00000E+00
 -1      1356 0.00000E+00 0.00000E+00 0.00000E+00
 -1      1357 0.00000E+00 0.00000E+00 0.00000E+00
 -1      1358 0.00000E+00 0.00000E+00 0.00000E+00
 -1      1359 0.00000E+00 0.00000E+00 0.00000E+00
 -1      1360 0.00000E+00 0.00000E+00 0.00000E+00
 -1      1361 0.00000E+00 0.00000E+00 0.00000E+00
 -1      1362 0.00000E+00 0.00000E+00 0.00000E+00
 -1      1363 0.00000E+00 0.00000E+00 0.00000E+00
 -1      1364 0.00000E+00 0.00000E+00 0.00000E+00
 -1      1365 0.00000E+00 0.00000E+00 0.00000E+00
 -1      1366 0.00000E+00 0.00000E+00 0.00000E+00
 -1      1367 0.00000E+00 0.00000E+00 0.00000E+00
 -1      1368 0.00000E+00 0.00000E+00 0.00000E+00
 -1      1369 0.00000E+00 0.00000E+00 0.00000E+00
 -1      1370 0.00000E+00 0.00000E+00 0.00000E+00
 -1      1371 0.00000E+00 0.00000E+00 0.00000E+00
 -1      1372 0.00000E+00 0.00000E+00 0.00000E+00
 -1      1373 0.00000E+00 0.00000E+00 0.00000E+00
 -1      1374 0.00000E+00 0.00000E+00 0.00000E+00
 -1      1375 0.00000E+00 0.00000E+00 0.00000E+00
 -1      1376 0.00000E+00 0.00000E+00 0.00000E+00
 -1      1377 0.00000E+00 0.00000E+00 0.00000E+00
 -1      1378 0.00000E+00 0.00000E+00 0.00000E+00
 -1      1379 0.00000E+00 0.00000E+00 0.00000E+00
 -1      1380 0.00000E+00 0.00000E+00 0.00000E+00
 -1      1381 0.00000E+00 0.00000E+00 0.00000E+00
 -1      1382 0.00000E+00 0.00000E+00 0.00000E+00
 -1      1383 0.00000E+00 0.00000E+00 0.00000E+00
 -1      1384 0.00000E+00 0.00000E+00 0.00000E+00
 -1      1385 0.00000E+00 0.00000E+00 0.00000E+00
 -1      1386 0.00000E+00 0.00000E+00 0.00000E+00
 -1      1387 0.00000E+00 0.00000E+00 0.00000E+00
 -1      1388 0.00000E+00 0.00000E+00 0.00000E+00
 -1      1389 0.00000E+00 0.00000E+00 0.00000E+00
 -1      1390 0.00000E+00 0.00000E+00 0.00000E+00
 -1      1391 0.00000E+00 0.00000E+00 0.00000E+00
 -1      1392 0.00000E+00 0.00000E+00 0.00000E+00
 -1      1393 0.00000E+00 0.00000E+00 0.00000E+00
 -1      1394 0.00000E+00 0.00000E+00 0.00000E+00
 -1      1395 0.00000E+00 0.00000E+00 0.00000E+00
 -1      1396 0.00000E+00 0.00000E+00 0.00000E+00
 -1      1397 0.00000E+00 0.00000E+00 0.00000E+00
 -1      1398 0.00000E+00 0.00000E+00 0.00000E+00
 -1      1399 0.00000E+00 0.00000E+00 0.00000E+00
 -1      1400 0.00000E+00 0.00000E+00 0.00000E+00
 -1      1401 0.00000E+00 0.00000E+00 0.00000E+00
 -1      1402 0.00000E+00 0.00000E+00 0.00000E+00
 -1      1403 0.00000E+00 0.00000E+00 0.00000E+00
 -1      1404 0.00000E+00 0.00000E+00 0.00000E+00
 -1      1405 0.00000E+00 0.00000E+00 0.00000E+00
 -1      1406 0.00000E+00 0.00000E+00 0.00000E+00
 -1      1407 0.00000E+00 0.00000E+00 0.00000E+00
 -1      1408 0.00000E+00 0.00000E+00 0.00000E+00
 -1      1409-1.59910E-03 1.56021E-03 3.54729E-02
 -1      1410-1.21687E-03 1.24492E-03 3.03295E-02
 -1      1411-1.74619E-03-1.46695E-03 3.42816E-02
 -1      1412-1.20709E-03-1.14105E-03 2.92686E-02
 -1      1413-3.38998E-03-3.02668E-04-6.17437E-02
 -1      1414-3.45937E-03-7.53957E-04-6.00657E-02
 -1      1415-7.73886E-04 9.82337E-04 1.38790E-02
 -1      1416-5.09395E-04 3.18711E-04 7.97530E-03
 -1      1417-1.24956E-03 1.31114E-03-3.37663E-02
 -1      1418-1.70932E-03 1.60693E-03-3.84160E-02
 -1      1419-7.49518E-04 1.00336E-03-1.70010E-02
 -1      1420-5.45220E-04 4.63647E-04-1.09895E-02
 -1      1421-2.24659E-03-1.45201E-03 4.70350E-02
 -1      1422-2.61879E-03-1.24330E-03 4.99197E-02
 -1      1423-7.92746E-04-8.71404E-04 1.26568E-02
 -1      1424-6.55190E-04-3.95542E-04 6.84713E-03
 -1      1425-3.17600E-03-7.67324E-04 5.72325E-02
 -1      1426-3.43193E-03-1.86020E-04 5.81203E-02
 -1      1427-2.89794E-03 1.26101E-03 5.12968E-02
 -1      1428-2.36167E-03 1.41686E-03 4.75988E-02
 -1      1429-1.69178E-03-1.44357E-03-3.72842E-02
 -1      1430-1.35786E-03-1.20005E-03-3.23731E-02
 -1      1431-7.16094E-04-7.98004E-04-1.56036E-02
 -1      1432-5.56745E-04-5.09061E-04-9.87282E-03
 -1      1433-2.83000E-03-1.20365E-03-5.35548E-02
 -1      1434-2.40707E-03-1.29812E-03-4.99309E-02
 -1      1435-3.23561E-03 8.19763E-04 5.77418E-02
 -1      1436-3.37048E-03 2.83259E-04 5.83284E-02
 -1      1437-2.84243E-03 1.27542E-03-5.44369E-02
 -1      1438-2.21696E-03 1.53522E-03-5.08526E-02
 -1      1439-3.32151E-03 7.92410E-04-6.11561E-02
 -1      1440-3.39182E-03 3.60977E-04-6.16421E-02
 -1      1441-2.92020E-03-6.52322E-04 5.52213E-02
 -1      1442-3.07172E-03-2.59635E-04 5.58446E-02
 -1      1443-2.53837E-03 6.47887E-06 5.42018E-02
 -1      1444-2.33693E-03-8.25973E-04 4.96747E-02
 -1      1445-2.08885E-03-1.32481E-03 4.55789E-02
 -1      1446-2.39972E-03-1.09363E-03 4.76741E-02
 -1      1447-2.34850E-03 9.59928E-04-5.35328E-02
 -1      1448-3.13988E-03-2.50071E-04-5.94295E-02
 -1      1449-3.15506E-03-6.67996E-04-5.81613E-02
 -1      1450-2.31971E-04 2.55785E-05-1.90131E-03
 -1      1451-2.65962E-03 2.58012E-05-5.77403E-02
 -1      1452 2.88520E-04-2.03235E-03 4.68756E-02
 -1      1453-7.18678E-04 8.99220E-04-1.56659E-02
 -1      1454-5.14812E-04 4.87877E-04-1.13471E-02
 -1      1455-1.45165E-03-1.24824E-03 3.75216E-02
 -1      1456-1.54993E-03-1.23421E-03 3.22998E-02
 -1      1457-1.16783E-03-1.07270E-03 2.87049E-02
 -1      1458-6.66817E-04-8.83327E-04 1.91368E-02
 -1      1459-5.98781E-04 1.05212E-03-2.34114E-02
 -1      1460-9.22038E-04-4.87633E-05-5.80780E-02
 -1      1461 2.64195E-03-2.99003E-03 3.16389E-02
 -1      1462-2.63577E-03-1.08850E-03-5.12564E-02
 -1      1463-2.25721E-03-1.22860E-03-4.86385E-02
 -1      1464-1.50943E-03-1.24265E-03-4.06192E-02
 -1      1465-2.50940E-03-8.67518E-04-5.28750E-02
 -1      1466-2.99196E-03 7.27189E-04 5.56917E-02
 -1      1467-3.07171E-03 2.84910E-04 5.60902E-02
 -1      1468-1.17474E-03 1.22320E-03-3.30997E-02
 -1      1469-1.52205E-03 1.37273E-03-3.64518E-02
 -1      1470-7.03767E-04 7.95840E-04 1.25453E-02
 -1      1471-5.19968E-04 3.94237E-04 8.35852E-03
 -1      1472-7.35658E-04-6.84249E-04 1.13497E-02
 -1      1473-5.96118E-04-3.47316E-04 7.19308E-03
 -1      1474-5.63468E-04 9.52832E-04 2.03218E-02
 -1      1475-4.75679E-04-8.51868E-04-2.24515E-02
 -1      1476-1.88520E-04 3.80136E-05-1.05276E-03
 -1      1477-5.04891E-04-4.95196E-05 5.47559E-02
 -1      1478-2.34543E-03 8.80507E-04 5.04547E-02
 -1      1479-1.44337E-03 1.29045E-03 3.84788E-02
 -1      1480-5.16813E-04-1.02767E-04 5.49967E-02
 -1      1481 1.08203E-04-2.21779E-03 5.36559E-02
 -1      1482 5.65513E-03 8.86710E-05 7.69380E-03
 -1      1483 4.85672E-03 2.09579E-03 1.23570E-02
 -1      1484 5.37596E-03-1.80994E-04 6.64574E-03
 -1      1485 4.85227E-03-1.97923E-03 1.11547E-02
 -1      1486-1.51863E-03 1.37864E-03-4.18188E-02
 -1      1487-1.34930E-05-2.16455E-03-5.01873E-02
 -1      1488 2.41750E-03-3.32150E-03-4.74323E-02
 -1      1489 5.43319E-03 1.63678E-04-1.06871E-02
 -1      1490-3.00629E-03 7.59096E-04-5.89787E-02
 -1      1491-3.09653E-03 2.95516E-04-5.93971E-02
 -1      1492 1.79293E-04 2.31536E-03-5.73431E-02
 -1      1493 4.78770E-03-2.20341E-03 2.77067E-02
 -1      1494-2.55708E-03 1.12215E-03 4.89148E-02
 -1      1495-2.15680E-03 1.30548E-03 4.62665E-02
 -1      1496-2.84689E-03-1.13980E-04-5.74316E-02
 -1      1497-2.57616E-03 1.14489E-03-5.21247E-02
 -1      1498-2.14537E-03 1.37777E-03-4.95742E-02
 -1      1499-6.75924E-04-6.52349E-04-1.43680E-02
 -1      1500-4.56848E-04-4.37877E-04-1.03687E-02
 -1      1501 2.57186E-03 3.12524E-03-4.81567E-02
 -1      1502-1.56371E-03-1.28502E-03-3.55140E-02
 -1      1503-1.10942E-03-1.13092E-03-3.18463E-02
 -1      1504 4.74119E-03-2.37954E-03-3.09168E-02
 -1      1505 2.54732E-03-3.14529E-03 4.41663E-02
 -1      1506 4.82284E-03 2.29699E-03-3.19349E-02
 -1      1507 2.59698E-04 2.08180E-03 5.40790E-02
 -1      1508 1.52956E-04-2.23019E-03-5.68640E-02
 -1      1509-1.45450E-03 1.31836E-03 3.33359E-02
 -1      1510-1.09877E-03 1.18778E-03 2.98032E-02
 -1      1511 2.52199E-03 3.13374E-03-3.61036E-02
 -1      1512 3.38166E-04 2.00994E-03 4.77529E-02
 -1      1513-8.21419E-04-1.95625E-04-5.84384E-02
 -1      1514 2.52860E-03 3.13054E-03 4.49856E-02
 -1      1515 2.71710E-03 3.06817E-03 3.26835E-02
 -1      1516 4.85296E-03 2.20992E-03-1.54412E-02
 -1      1517 5.59692E-03-2.55542E-04-9.76769E-03
 -1      1518 2.44421E-03-3.18240E-03-3.47980E-02
 -1      1519 4.79449E-03 2.19056E-03 2.87017E-02
 -1      1520 4.81258E-03-2.29172E-03-1.44009E-02
 -1      1521-4.29080E-03-1.26664E-03-6.07353E-02
 -1      1522-3.40184E-04-3.09342E-03 3.37493E-02
 -1      1523 1.20205E-03-1.27206E-03 1.03748E-02
 -1      1524 1.77950E-04-1.21345E-03 5.09203E-03
 -1      1525 2.97029E-03-2.94708E-03-5.07371E-02
 -1      1526-1.85442E-03 3.24148E-03 1.62899E-02
 -1      1527-4.42673E-03 6.66418E-04-2.10319E-02
 -1      1528-2.30515E-04 1.58160E-03 9.21307E-03
 -1      1529 6.02723E-03 4.10453E-05-5.68441E-02
 -1      1530-2.17278E-03-2.71611E-03-1.72683E-02
 -1      1531-6.88927E-03 1.27184E-03-4.97555E-02
 -1      1532-7.60266E-03 5.51841E-04 7.26622E-02
 -1      1533-2.08169E-04-2.73436E-03 2.31037E-02
 -1      1534-5.77812E-03 1.15279E-03 2.60563E-02
 -1      1535-3.72192E-03 1.18088E-03 2.60917E-02
 -1      1536-2.59103E-03 3.39768E-03-1.61584E-02
 -1      1537 4.71645E-03 9.82872E-04 5.35204E-02
 -1      1538-9.95363E-03-6.22284E-04-5.59866E-02
 -1      1539-9.24160E-04-2.47624E-03 1.20665E-02
 -1      1540-4.08667E-04 2.69683E-03 1.67697E-02
 -1      1541 1.31710E-03-3.33212E-03 3.87516E-02
 -1      1542-2.77591E-03-1.18959E-03-2.20694E-02
 -1      1543 3.77692E-04-3.20576E-03-3.78411E-02
 -1      1544-5.54018E-03 1.72096E-03-2.46623E-02
 -1      1545 5.39844E-04 1.28819E-03 5.44414E-03
 -1      1546-4.18730E-03 1.32260E-03 2.08948E-02
 -1      1547-4.41381E-03-8.39631E-04 2.86834E-02
 -1      1548 2.17222E-03-2.64236E-03 1.52134E-02
 -1      1549-4.82221E-03 2.53622E-04 1.98850E-02
 -1      1550-3.54055E-03 2.99362E-03 2.57624E-02
 -1      1551-3.76610E-03-2.95151E-03 2.56089E-02
 -1      1552-4.09803E-03-1.97229E-03 2.15757E-02
 -1      1553 5.40354E-03-9.01790E-04-3.11322E-02
 -1      1554 1.91346E-04 6.63061E-06-1.97607E-03
 -1      1555-1.12731E-03-2.44418E-03-1.63674E-02
 -1      1556-4.09878E-04-2.09747E-03-6.73399E-03
 -1      1557 5.29011E-03-9.65891E-04 5.37115E-02
 -1      1558 4.37588E-04-1.09163E-03-4.95828E-03
 -1      1559 5.73740E-04 1.42746E-04-1.40898E-05
 -1      1560-6.50177E-04 3.27538E-03 3.18146E-02
 -1      1561 2.27327E-03 2.39420E-03-6.67694E-02
 -1      1562 4.63317E-03 2.91104E-04 2.12018E-02
 -1      1563 5.27561E-03 1.43475E-03-3.46736E-02
 -1      1564-3.93933E-03-1.76685E-03-1.96352E-02
 -1      1565 3.19318E-03-6.71154E-04-1.14353E-02
 -1      1566-5.52022E-03 2.24850E-03-1.74396E-02
 -1      1567 6.09089E-06 8.88204E-04 4.55969E-03
 -1      1568-7.57282E-04 6.00916E-04 1.24776E-03
 -1      1569-4.34738E-03 3.26702E-03-2.70126E-02
 -1      1570 3.24901E-05 2.19932E-03 1.68475E-02
 -1      1571-5.09495E-04 2.85316E-03-8.29523E-03
 -1      1572-2.69622E-04 3.07323E-03-4.29582E-02
 -1      1573 3.69557E-04 1.62575E-03-6.23826E-03
 -1      1574 5.92495E-04 1.03046E-04-7.74750E-04
 -1      1575-4.72873E-04-1.85511E-03-1.01703E-02
 -1      1576-2.82839E-03-3.26557E-03 1.58754E-02
 -1      1577-2.51230E-03-2.99613E-03-6.04601E-02
 -1      1578 3.48393E-03-3.05695E-03 4.93750E-02
 -1      1579 2.09644E-03 3.57816E-03-3.99914E-02
 -1      1580-4.58336E-03-1.05502E-03-5.32880E-02
 -1      1581-4.53176E-03 1.09281E-03 1.21116E-02
 -1      1582-3.10457E-03 2.97304E-03 5.22288E-02
 -1      1583-1.02848E-02 3.23217E-04 1.67549E-02
 -1      1584 3.60242E-03-9.86792E-05-9.34967E-03
 -1      1585-2.73369E-03 2.96881E-03 1.59872E-02
 -1      1586 2.62704E-03-3.40987E-03-2.55755E-02
 -1      1587 3.87235E-03-3.20157E-03 2.05716E-02
 -1      1588 5.15805E-04-5.21891E-04-2.57421E-03
 -1      1589 4.74437E-03 2.63368E-03-2.92998E-02
 -1      1590-5.39026E-03 1.17519E-03 5.50550E-02
 -1      1591-3.97207E-03 9.42178E-04 6.95133E-02
 -1      1592-3.71792E-03-9.77487E-04 6.98036E-02
 -1      1593 1.48312E-03-2.52645E-03 1.01283E-02
 -1      1594 6.30440E-04-1.34795E-03 1.07609E-02
 -1      1595 7.30631E-04 6.45092E-04-4.09494E-03
 -1      1596 6.75376E-04-6.58878E-04 3.06090E-03
 -1      1597 1.27169E-03 1.50032E-03-1.41991E-02
 -1      1598-4.33780E-03-2.87681E-04-2.55261E-02
 -1      1599-5.25021E-03 1.34212E-03-6.08689E-02
 -1      1600-2.16502E-03 2.87880E-03-6.41301E-02
 -1      1601 8.34200E-04 3.07570E-03 1.63894E-02
 -1      1602-4.77335E-03-3.62790E-04 3.40208E-02
 -1      1603 5.32548E-03 1.30275E-03 2.33337E-02
 -1      1604 1.11582E-03-5.73752E-05 4.20114E-04
 -1      1605-2.32472E-03 3.92417E-03-3.23847E-02
 -1      1606-2.47483E-03 9.04880E-04-9.59662E-03
 -1      1607 4.90788E-03-2.13136E-03-5.21624E-02
 -1      1608 1.34129E-03-1.11088E-03-1.08199E-02
 -1      1609 4.57914E-04 1.58808E-03 1.13195E-02
 -1      1610-2.96962E-03-7.69427E-04-8.24626E-02
 -1      1611-1.09924E-03 2.09088E-03 5.28702E-03
 -1      1612 3.17774E-03 3.66926E-04 1.06304E-02
 -1      1613 4.36740E-03-2.40790E-03-1.94791E-02
 -1      1614-2.97612E-03 3.26007E-03 3.71976E-02
 -1      1615-1.76971E-04-8.55802E-04-3.09506E-03
 -1      1616 1.49602E-04-6.49429E-04 1.76496E-03
 -1      1617 5.92505E-03-3.40395E-04-1.93843E-02
 -1      1618 2.34952E-03 2.43775E-03-1.45958E-02
 -1      1619-1.58678E-04 3.87610E-04 1.69149E-03
 -1      1620-1.79218E-03 1.11197E-03 1.18949E-02
 -1      1621-1.66299E-03 2.38134E-03 6.72093E-02
 -1      1622-1.60785E-03-8.68770E-04-7.02115E-03
 -1      1623 3.14930E-03 2.64226E-03-1.97383E-02
 -1      1624 1.48645E-04 5.48643E-04-1.75329E-03
 -1      1625-3.12409E-03 1.82705E-03 1.32558E-02
 -1      1626-5.43211E-03 1.23405E-03-3.84291E-02
 -1      1627 2.71056E-03-2.25322E-03-1.42977E-02
 -1      1628-3.22153E-03-1.88014E-03-1.51708E-02
 -1      1629-1.00686E-03 3.30006E-04-1.94904E-03
 -1      1630 4.03676E-03 1.65370E-03 1.19151E-02
 -1      1631-3.46907E-03 1.05087E-03 6.15867E-03
 -1      1632-2.65651E-03-9.53673E-04 9.85726E-03
 -1      1633-4.60012E-03-1.59424E-03 3.48163E-02
 -1      1634-3.88001E-03 1.51626E-03-8.47213E-03
 -1      1635 2.26899E-03-1.94485E-03 7.51799E-03
 -1      1636-6.11286E-03-8.37006E-04-6.95523E-02
 -1      1637-1.30090E-03 2.99438E-03-1.59291E-02
 -1      1638 3.58992E-03 2.36398E-03 2.02980E-02
 -1      1639-9.34898E-04 3.41136E-03-4.18954E-02
 -1      1640-1.57968E-04-1.82041E-03 8.04380E-03
 -1      1641-1.24633E-03 2.48401E-03 3.93466E-02
 -1      1642 1.67617E-04-1.87391E-04-1.06604E-03
 -1      1643 1.78114E-03-1.26366E-03-1.42067E-02
 -1      1644-9.16228E-04-3.64304E-04-3.03077E-03
 -1      1645 3.12063E-03 1.64002E-03-7.74730E-03
 -1      1646-4.17170E-03 3.25601E-05 6.33839E-04
 -1      1647-1.74135E-03 6.27787E-04 2.86367E-03
 -1      1648 4.14391E-04-2.51332E-03 4.38058E-02
 -1      1649 1.68806E-03-8.41149E-04 1.40392E-02
 -1      1650 1.75523E-03 2.84951E-03 1.39379E-02
 -1      1651-1.66599E-04-1.28123E-03-2.48489E-03
 -1      1652-1.66747E-03-3.24996E-03 2.25006E-02
 -1      1653-5.17741E-04-3.50984E-04-7.28893E-04
 -1      1654-5.07332E-04-1.93340E-03-6.09839E-03
 -1      1655 1.06101E-03-1.51047E-03 5.16787E-03
 -1      1656-8.38410E-03-7.07964E-04 4.53943E-02
 -1      1657 1.02300E-04 9.65797E-04 3.85238E-03
 -1      1658-2.76784E-03 1.92616E-04-9.26872E-03
 -1      1659-4.99196E-03 3.95257E-04-3.75607E-02
 -1      1660-4.91920E-03 1.46114E-03 3.48082E-02
 -1      1661 3.32156E-03-6.01017E-04-7.26661E-02
 -1      1662 6.76965E-04 5.54797E-04 3.62929E-03
 -1      1663 4.17870E-03-2.70201E-03 2.02114E-02
 -1      1664-4.32042E-03-2.91291E-03 3.29285E-02
 -1      1665 6.32582E-04-1.00886E-03 3.57131E-03
 -1      1666 1.57396E-03-3.01424E-03 2.34497E-02
 -1      1667-1.52949E-02 1.19118E-04 1.06786E-02
 -1      1668 1.95554E-03 1.17741E-03-1.81213E-02
 -1      1669-4.90215E-03-6.68838E-04-4.76768E-02
 -1      1670-1.71509E-03-1.16207E-03-6.09639E-03
 -1      1671-5.10151E-03 4.53412E-04 3.34498E-02
 -1      1672-2.93338E-03 4.84193E-04 6.88202E-03
 -1      1673-2.17877E-03-5.19601E-04 9.76392E-03
 -1      1674 3.12190E-04 1.53908E-03 8.50317E-03
 -1      1675 7.47903E-04-3.05044E-03-5.30843E-02
 -1      1676 4.94550E-03-1.87703E-04 1.66437E-02
 -1      1677-2.36091E-03 2.04952E-03 8.42922E-03
 -1      1678-4.32984E-03 4.66124E-04-2.18617E-02
 -1      1679-4.64356E-03 6.29785E-05-2.29283E-02
 -1      1680-3.98748E-03 2.19447E-03 3.42684E-02
 -1      1681-8.85415E-05 4.05714E-04-1.06907E-03
 -1      1682 1.49984E-03-8.10981E-04-5.14763E-03
 -1      1683-4.72221E-04-9.31591E-05 2.85590E-02
 -1      1684-3.26167E-03 6.73843E-04-8.62455E-03
 -1      1685 9.92901E-04-3.02956E-03-1.48361E-02
 -1      1686-2.22453E-03 3.26250E-03 2.61860E-02
 -1      1687 1.10193E-03 7.60928E-05-2.59971E-03
 -1      1688 2.86206E-03 6.69358E-04 8.64240E-03
 -1      1689 1.61835E-03-1.75141E-03-7.13267E-03
 -1      1690-1.66571E-03 1.66050E-03-9.74466E-03
 -1      1691-2.15573E-03-8.84901E-04 6.37255E-03
 -1      1692 3.27193E-03 2.45373E-03 1.55808E-02
 -1      1693-1.96221E-03-2.18092E-03 1.12854E-02
 -1      1694-4.68813E-04-2.97625E-03 2.06440E-02
 -1      1695 4.44185E-03-6.64025E-04 1.73656E-02
 -1      1696-1.13840E-03-7.35522E-06 8.53389E-02
 -1      1697-2.90336E-03-1.85087E-03 1.04476E-02
 -1      1698-4.56099E-03-1.16813E-03 5.29340E-02
 -1      1699-9.54192E-03-5.48763E-04 6.55642E-02
 -1      1700-4.06392E-03 1.33552E-03-5.25723E-03
 -1      1701-1.53248E-03 3.36057E-03 3.21115E-02
 -1      1702 1.80918E-03 2.21381E-03 5.42664E-03
 -1      1703-1.73507E-03 3.41543E-03 2.44636E-02
 -1      1704-3.04182E-03-4.11371E-04-1.04962E-02
 -1      1705-5.45015E-04 9.80091E-04 4.79418E-03
 -1      1706-7.85708E-03-9.04986E-04-4.84208E-02
 -1      1707-2.26423E-03 1.66427E-03 2.26575E-03
 -1      1708-1.98372E-03 3.00556E-03-2.28863E-03
 -1      1709 4.29415E-03 7.37777E-04 2.66384E-02
 -1      1710 2.85892E-03 1.12022E-03-7.56247E-02
 -1      1711 5.01178E-03 2.04444E-03-1.65134E-02
 -1      1712 2.46851E-04 3.90385E-05 1.33231E-04
 -1      1713-6.98724E-04 3.24882E-03-3.05576E-02
 -1      1714-5.59809E-03-8.80884E-05 8.27676E-02
 -1      1715 1.53141E-03-3.75849E-03-3.87402E-02
 -1      1716-1.97391E-03-1.77365E-03 6.80397E-02
 -1      1717 2.01118E-04-1.94173E-03 1.03021E-02
 -1      1718-8.09666E-03-6.89319E-04-6.03996E-02
 -1      1719 1.23906E-03 2.70237E-03-1.78951E-02
 -1      1720-1.06904E-03 1.63927E-03 1.13920E-02
 -1      1721-4.84960E-04 4.55593E-04 1.88902E-03
 -1      1722-2.76617E-03 5.23111E-04 6.45298E-03
 -1      1723-2.74009E-03 1.00503E-03 1.66000E-02
 -1      1724 4.16414E-03-2.87730E-03-2.72486E-02
 -1      1725-2.00347E-03-1.09569E-03-1.42677E-02
 -1      1726 3.60921E-03 1.75139E-03-9.02471E-03
 -1      1727-2.67361E-03-2.50372E-03-6.46274E-02
 -1      1728-5.13845E-03 2.63818E-03-3.29703E-02
 -1      1729 1.13440E-03 3.14838E-03 4.87109E-02
 -1      1730-5.70809E-03 2.12814E-03-3.71094E-02
 -1      1731-5.06874E-03-5.27925E-04-2.05994E-02
 -1      1732 1.94921E-03-1.80173E-03 2.19609E-03
 -1      1733-4.06297E-03-5.83511E-04-1.18757E-02
 -1      1734-3.59641E-03 2.89156E-03 4.14076E-02
 -1      1735 2.83596E-03 3.08324E-03-3.01941E-02
 -1      1736 1.58250E-03-2.74129E-03-7.80661E-03
 -1      1737-2.97661E-03 4.48138E-04-7.13199E-03
 -1      1738 2.69498E-04-1.04938E-03-4.25132E-03
 -1      1739 8.35666E-05 2.49761E-04 1.56338E-02
 -1      1740-4.91220E-03 1.48005E-03-2.29513E-02
 -1      1741-5.74212E-04-5.71490E-04 1.57899E-03
 -1      1742-5.04733E-03-1.78598E-03-3.18721E-02
 -1      1743-3.96856E-03 2.12195E-03 2.16404E-02
 -1      1744 1.45771E-03-2.53062E-04-3.48343E-03
 -1      1745-6.34951E-03-2.25133E-05-2.70985E-03
 -1      1746 1.17682E-03-1.73664E-03-7.31363E-02
 -1      1747-1.46528E-05 1.29405E-03 4.30748E-03
 -1      1748 3.16559E-03-2.54497E-03-5.94232E-02
 -1      1749-5.55091E-03-1.02211E-03-5.89413E-02
 -1      1750-9.99482E-04-3.02247E-03 2.33097E-02
 -1      1751-2.55779E-03-2.90939E-03 3.01553E-03
 -1      1752-1.92215E-03 3.65489E-03-2.63065E-02
 -1      1753-3.54834E-03-7.61637E-04-2.13730E-02
 -1      1754 0.00000E+00 0.00000E+00 0.00000E+00
 -1      1755-4.05128E-04 1.85279E-03-1.17622E-03
 -1      1756 1.59954E-03 1.38185E-03 7.49467E-03
 -1      1757-2.96914E-03-3.48083E-03 2.85819E-02
 -1      1758 5.02067E-03 2.44833E-03 4.75097E-02
 -1      1759 1.42724E-04-1.34067E-03 3.07141E-03
 -1      1760 1.57804E-04 2.68552E-03-4.96182E-02
 -1      1761 2.96744E-05 2.34866E-03-1.12471E-02
 -1      1762 2.70073E-03 2.91141E-03 2.08125E-02
 -1      1763 3.50894E-03 2.68945E-03 1.87119E-02
 -1      1764 1.40663E-03-7.79341E-04 5.00057E-03
 -1      1765 1.57369E-03 1.00492E-03-9.37347E-03
 -1      1766 1.50111E-03 1.69743E-03 7.24935E-03
 -1      1767-6.92032E-04 1.11998E-05-6.50723E-04
 -1      1768 5.68288E-05 2.10407E-03-1.06627E-02
 -1      1769-1.88014E-03-1.89316E-03 5.89838E-03
 -1      1770-1.00861E-04 9.41020E-05 4.91130E-04
 -1      1771-1.11380E-03 1.18456E-03 8.68157E-03
 -1      1772-8.44731E-04 2.52352E-03 1.26396E-02
 -1      1773 5.22561E-03-1.09152E-03-3.59544E-02
 -1      1774-6.67199E-04-8.07630E-04 5.51647E-03
 -1      1775 4.92403E-03 1.92455E-03-5.65435E-02
 -1      1776-9.32673E-03 7.74573E-04 5.05028E-02
 -1      1777 2.00133E-03-1.77639E-04-4.53428E-03
 -1      1778 2.90500E-03 2.85130E-05 4.08333E-03
 -1      1779-2.38202E-03-4.31740E-04 5.87142E-03
 -1      1780 3.28003E-03 2.91349E-03-4.74573E-02
 -1      1781-1.37507E-03 1.40751E-03 4.84854E-03
 -1      1782-9.31652E-04-2.54016E-03-3.19593E-02
 -1      1783 8.14417E-04-9.54606E-04-8.25099E-02
 -1      1784 1.06948E-04-7.58284E-04 2.87709E-03
 -1      1785 2.93734E-05-2.94053E-03-4.78574E-02
 -1      1786-8.04520E-04-1.44935E-03-8.72332E-03
 -1      1787-2.83630E-03 2.44031E-03 5.67217E-02
 -1      1788 2.21826E-04 3.65652E-04 9.34591E-04
 -1      1789-5.18964E-03 1.21156E-03 5.25668E-02
 -1      1790-3.65550E-04 1.11410E-03-2.86821E-03
 -1      1791 5.19493E-03 8.32893E-05 5.90463E-02
 -1      1792-4.13749E-05 8.81738E-05 1.55841E-02
 -1      1793 1.75815E-03 1.76190E-03-8.79446E-03
 -1      1794-4.66720E-03-7.19881E-04 5.30715E-02
 -1      1795-3.72017E-03-3.25919E-04-6.36964E-03
 -1      1796 3.14848E-03-3.59530E-03 3.55026E-02
 -1      1797-2.58300E-03 3.36405E-03 3.14379E-02
 -1      1798-1.20670E-03 7.95842E-04 4.37028E-03
 -1      1799-1.11674E-03-2.06987E-03-2.04905E-02
 -1      1800-7.02268E-03-8.27567E-04-5.71388E-02
 -1      1801-4.00188E-03-7.25119E-04-7.29189E-02
 -1      1802-3.65312E-03-1.34316E-03-7.18238E-02
 -1      1803 3.49405E-03-3.33040E-03-3.62177E-02
 -1      1804-4.33019E-03 7.84021E-04-7.35354E-02
 -1      1805-4.36998E-03-1.57832E-03-6.02255E-02
 -1      1806 2.30063E-03-3.12881E-03-5.22580E-02
 -1      1807-2.94253E-03 2.12008E-03-8.66148E-03
 -1      1808-2.28387E-03 3.22932E-03-5.44685E-02
 -1      1809 5.96613E-05 3.07731E-04-1.61168E-03
 -1      1810-3.52487E-05 6.17120E-04-1.37328E-03
 -1      1811 1.06243E-03 1.95655E-03-1.94699E-02
 -1      1812 5.23533E-03 1.24694E-05-7.91139E-03
 -1      1813-2.82870E-03-9.39243E-04-7.63605E-03
 -1      1814-3.61179E-03 6.82637E-04 1.04904E-02
 -1      1815 1.42543E-03 1.17443E-03 1.30663E-02
 -1      1816-2.02219E-03 2.27738E-03 2.52816E-02
 -1      1817 2.87644E-03-5.07202E-04 7.74770E-03
 -1      1818-6.73932E-03-3.93075E-04-8.07605E-02
 -1      1819-2.05018E-03 7.97618E-04 7.63208E-03
 -1      1820-5.97977E-03-1.15502E-03-4.78934E-02
 -1      1821-4.24114E-03 3.14496E-03-4.94159E-02
 -1      1822 5.20994E-04-1.43986E-04 7.49662E-04
 -1      1823-3.37358E-05-5.51520E-04-9.29396E-04
 -1      1824 4.39163E-03 1.67481E-03 1.39269E-02
 -1      1825 3.69879E-03-1.68542E-03-9.05166E-03
 -1      1826-5.60991E-03 5.23263E-04 1.70336E-02
 -1      1827 1.90071E-03-5.27435E-04-8.67672E-03
 -1      1828-2.30743E-03-4.33855E-05-4.67076E-03
 -1      1829 4.34569E-03 1.39299E-03-3.62118E-03
 -1      1830 1.58227E-04 4.08362E-04-5.70663E-04
 -1      1831-3.12253E-05-5.06187E-04-1.27737E-03
 -1      1832 6.78641E-04-1.90416E-03 5.01943E-03
 -1      1833-5.73868E-03 1.71817E-03-4.51547E-02
 -1      1834 3.88633E-05 9.27015E-04 2.04354E-03
 -1      1835 5.40506E-03-7.18450E-04-5.43171E-02
 -1      1836 3.92055E-03-2.77469E-04-7.18251E-02
 -1      1837-1.03645E-02 1.07693E-03-6.11375E-02
 -1      1838 5.48127E-03-1.37974E-03 3.30602E-02
 -1      1839-1.20281E-02 3.90985E-04-1.17888E-02
 -1      1840-2.06766E-03 1.61294E-03 1.83524E-02
 -1      1841-3.38635E-03 1.99563E-04 8.15997E-04
 -1      1842-3.67313E-04-2.72327E-03-2.12352E-02
 -1      1843 5.10873E-03 2.37274E-03-1.88815E-02
 -1      1844-1.51001E-03-8.60520E-05-1.65064E-03
 -1      1845-2.13266E-03 2.11441E-03 5.66433E-02
 -1      1846 5.35667E-03 1.92445E-03 3.04278E-02
 -1      1847-2.06063E-03-1.99758E-03 4.58372E-02
 -1      1848-6.43444E-03 9.94429E-04 6.75955E-02
 -1      1849 1.49159E-03-5.31132E-05 4.00741E-03
 -1      1850 1.88044E-04-2.14512E-03-1.00021E-02
 -1      1851 6.96657E-04-2.87993E-03 1.75111E-02
 -1      1852-8.55050E-03 5.90350E-05 7.27353E-02
 -1      1853-9.23443E-06-1.89486E-04-3.31814E-05
 -1      1854 7.95630E-05 2.98348E-03 2.59976E-02
 -1      1855-4.77062E-04 1.93080E-04 6.45544E-04
 -1      1856-1.52007E-03 2.20602E-03 5.83285E-03
 -1      1857 4.40663E-03 2.55534E-03 2.95321E-02
 -1      1858-8.17943E-04-2.42835E-03 5.46105E-02
 -1      1859-3.34204E-03-8.69391E-04 1.74792E-02
 -1      1860-4.60807E-04-2.09149E-03 5.71194E-03
 -1      1861 5.14825E-03-2.30654E-03-3.09287E-02
 -1      1862 2.29128E-04-2.80177E-04 1.74864E-03
 -1      1863-4.64278E-03 7.76626E-04 8.03338E-03
 -1      1864-5.61645E-03 1.52832E-03-3.58683E-02
 -1      1865-3.54853E-03 3.50730E-03-4.17446E-02
 -1      1866 4.95648E-03 9.03632E-04-5.82552E-02
 -1      1867 5.73198E-03-5.12312E-04-3.00030E-02
 -1      1868 1.55372E-03-6.86305E-04 1.53660E-02
 -1      1869-2.70537E-03-2.68244E-04 1.07460E-02
 -1      1870 1.38606E-03-3.09201E-03 1.90367E-02
 -1      1871-2.98378E-03 3.00362E-03 2.24441E-02
 -1      1872 2.62433E-03 1.78052E-04 7.13305E-03
 -1      1873 1.50394E-03 1.61225E-03-2.18968E-02
 -1      1874 4.96738E-03-2.44549E-03 4.50957E-02
 -1      1875-3.30893E-03-3.38558E-03-3.61790E-02
 -1      1876-3.64670E-03 1.67241E-03 4.47362E-02
 -1      1877 3.34164E-03-1.18910E-03-7.10665E-02
 -1      1878-2.30212E-03 9.04523E-04 1.56457E-03
 -1      1879 3.25135E-03 3.04120E-03-3.47074E-02
 -1      1880 4.71431E-03 6.94877E-04-1.31352E-02
 -1      1881-1.04670E-02 1.14894E-03-4.60718E-02
 -1      1882 5.20794E-03-7.61237E-04-5.20272E-02
 -1      1883-1.00145E-02-2.31134E-04-6.65569E-02
 -1      1884 1.27252E-05-8.83235E-04-7.18417E-04
 -1      1885-2.61187E-04-3.11736E-03-1.73174E-02
 -1      1886-8.16913E-03 8.14589E-04 6.40787E-02
 -1      1887 4.40550E-03-2.85449E-03-4.15787E-02
 -1      1888 1.25496E-04-2.34682E-03-1.21791E-02
 -1      1889-7.67535E-03 5.51132E-04-8.08333E-02
 -1      1890 1.60360E-05-2.84175E-03 3.38786E-02
 -1      1891-1.97208E-03 2.96963E-03 1.36423E-02
 -1      1892-1.87831E-04-1.39064E-03-1.11325E-03
 -1      1893-5.00046E-03-6.11685E-05-4.76026E-03
 -1      1894-7.90945E-03-2.79966E-04-2.20226E-02
 -1      1895-1.66096E-03-2.08691E-03-8.26196E-03
 -1      1896-3.30061E-03 1.18958E-03-8.04029E-02
 -1      1897 1.96742E-03-2.01906E-04 9.28419E-03
 -1      1898 1.73341E-03-7.42808E-04 8.15112E-03
 -1      1899 1.42210E-03-1.48150E-03 1.63777E-02
 -1      1900 3.52277E-04-2.59094E-03 3.03194E-02
 -1      1901-1.85730E-03-3.27973E-03-2.70392E-02
 -1      1902 1.53747E-04-2.18159E-03-6.77264E-02
 -1      1903-1.37923E-03-1.17367E-03-7.32006E-03
 -1      1904 6.78094E-04-1.63155E-03-3.72682E-03
 -1      1905 1.14977E-04-1.16283E-03-2.75305E-03
 -1      1906-1.00015E-03-1.31497E-03 1.09678E-02
 -1      1907-5.38144E-03-5.67204E-04-7.97087E-02
 -1      1908-8.08308E-03 1.56303E-05 1.18811E-03
 -1      1909 2.93232E-04-7.74831E-04 3.86009E-03
 -1      1910-2.38762E-03 2.01479E-03-3.97334E-02
 -1      1911-1.68477E-03-2.12130E-03-4.65944E-02
 -1      1912 3.23570E-03 2.50442E-05-3.70062E-03
 -1      1913-1.80267E-03 3.72397E-03-3.32718E-02
 -1      1914 3.45227E-03-2.84097E-03 7.78733E-03
 -1      1915 4.56756E-03-2.84013E-03-2.95036E-02
 -1      1916 1.52537E-04-2.82665E-03 3.77409E-02
 -1      1917-2.48625E-03-5.07742E-04-9.33278E-03
 -1      1918-2.30917E-04-1.62152E-03 5.84830E-03
 -1      1919-2.67835E-03-1.00791E-03-1.64437E-02
 -1      1920-4.48516E-04 3.16803E-03-3.74868E-02
 -1      1921-2.18649E-03-7.84668E-04-4.71273E-03
 -1      1922-6.58691E-03-4.72658E-04-1.59170E-02
 -1      1923-5.07524E-03-1.55405E-03-3.57532E-02
 -1      1924 6.26771E-03-2.29083E-04-3.75858E-02
 -1      1925-2.63176E-03 3.57206E-03-9.23961E-03
 -1      1926 9.52370E-04 9.04528E-04-5.67012E-03
 -1      1927 0.00000E+00 0.00000E+00 0.00000E+00
 -1      1928 1.54732E-03-2.05126E-03-5.39224E-03
 -1      1929 5.68939E-03-6.75057E-04-3.91170E-02
 -1      1930-2.06597E-04 1.04759E-03 3.57899E-03
 -1      1931-5.71195E-03 1.30744E-03 3.54994E-02
 -1      1932-1.22918E-03 1.94722E-03-5.01864E-03
 -1      1933-1.46632E-02-2.37507E-04-2.65907E-02
 -1      1934 4.40909E-03-6.21677E-04-6.16214E-02
 -1      1935-1.03680E-02 8.46971E-04 5.72103E-02
 -1      1936-3.34650E-03 3.24558E-03-5.19019E-02
 -1      1937 6.99414E-04-9.52111E-04-2.52142E-03
 -1      1938-4.14909E-03 1.35366E-03-7.21378E-02
 -1      1939-9.31185E-04 7.25289E-04 3.20699E-03
 -1      1940-7.59252E-03 9.46524E-04 5.94014E-02
 -1      1941-2.35524E-03-1.87938E-03 2.95477E-02
 -1      1942-7.33179E-05 2.89038E-03-1.76078E-02
 -1      1943-1.19668E-03 2.66233E-03-6.80695E-02
 -1      1944 2.08649E-04-2.63925E-03 1.41797E-02
 -1      1945-2.77225E-03-1.43213E-03-7.39040E-02
 -1      1946 4.17239E-03-2.94788E-03-4.15065E-02
 -1      1947 4.19058E-04-2.35873E-03 9.16005E-03
 -1      1948 7.27713E-04 2.01482E-03-5.24368E-02
 -1      1949 2.86088E-03 3.00576E-03 4.09331E-02
 -1      1950-1.34024E-03 2.21368E-03-7.63680E-02
 -1      1951-5.78190E-04 2.19034E-03-8.32493E-03
 -1      1952 1.67585E-03 4.30424E-04-4.35576E-03
 -1      1953-5.68507E-03-3.28593E-04-1.16715E-02
 -1      1954 0.00000E+00 0.00000E+00 0.00000E+00
 -1      1955 1.72192E-03-1.59380E-03 1.99038E-02
 -1      1956 1.82705E-03 1.03958E-03-1.96836E-02
 -1      1957 5.84182E-03-6.96865E-04 3.66370E-02
 -1      1958 4.73530E-03-1.72868E-03-1.96307E-02
 -1      1959-5.48322E-04-2.38159E-03-1.45796E-02
 -1      1960-4.91533E-04-2.03883E-03 1.37732E-02
 -1      1961-3.08597E-03-3.21341E-03 5.25751E-02
 -1      1962-5.35247E-03 6.46988E-04-4.27533E-02
 -1      1963 4.32277E-03 1.26884E-03-6.16445E-02
 -1      1964 3.13923E-03 1.71085E-03-7.03383E-02
 -1      1965-4.93418E-03-9.87021E-04-3.73260E-02
 -1      1966-2.49663E-04 1.74981E-03 8.71568E-03
 -1      1967 1.49301E-03-2.63111E-03 1.36821E-02
 -1      1968-1.06106E-02 1.17160E-04 5.95846E-02
 -1      1969-3.10140E-04 7.46242E-04-2.02883E-03
 -1      1970-2.38872E-03 2.21379E-03 3.60870E-02
 -1      1971-6.77249E-04 8.52820E-04-2.77705E-03
 -1      1972 6.30054E-04-3.17322E-03-2.83549E-02
 -1      1973 5.24052E-04 2.56490E-03-1.68454E-02
 -1      1974-9.48808E-03-7.83575E-04-4.81109E-02
 -1      1975-3.25883E-03-1.69652E-03-4.65764E-02
 -1      1976-4.34229E-03-2.34189E-03 4.01749E-02
 -1      1977 7.76859E-05 3.12262E-04-8.15544E-03
 -1      1978-7.46069E-03-6.98596E-04-7.18544E-02
 -1      1979-8.77803E-03-3.59132E-04-7.01783E-02
 -1      1980-6.56124E-03-4.28929E-04-7.76088E-02
 -1      1981 6.08905E-03 6.01607E-04-3.55262E-02
 -1      1982 9.37307E-04-3.16836E-03 3.04693E-02
 -1      1983-8.84546E-03 8.42004E-04-2.77893E-02
 -1      1984 1.37685E-03-3.61083E-03-2.29701E-02
 -1      1985 7.97320E-04 1.30615E-03-8.74558E-03
 -1      1986-3.90856E-03 7.43094E-04 1.84354E-02
 -1      1987 3.09352E-04 2.62129E-03 3.93495E-02
 -1      1988 2.59048E-03-5.67664E-04 7.62083E-03
 -1      1989 1.89962E-03-3.71910E-03-2.06662E-02
 -1      1990 2.52008E-03 3.42306E-03-2.71231E-02
 -1      1991-3.35984E-03-2.57240E-03-1.93105E-02
 -1      1992-7.94675E-04-2.58681E-03-4.58262E-02
 -1      1993-1.84830E-04-2.47095E-03 1.62929E-02
 -1      1994 0.00000E+00 0.00000E+00 0.00000E+00
 -1      1995-4.44588E-03-2.67392E-03 1.83765E-02
 -1      1996-5.07966E-03 8.54845E-04-5.65668E-02
 -1      1997 1.49868E-03-1.25255E-03 4.24336E-03
 -1      1998 2.01436E-03-3.06651E-03-1.53045E-02
 -1      1999 6.89546E-04 3.28318E-03 3.38276E-02
 -1      2000 8.32244E-04-1.30240E-03 3.42187E-03
 -1      2001-6.78987E-03 6.60376E-04 7.19154E-02
 -1      2002-1.28720E-04-2.87396E-03-3.39351E-02
 -1      2003-1.41649E-02 4.50393E-04 3.53796E-02
 -1      2004-5.32101E-03 9.14292E-04 4.59081E-02
 -1      2005-2.80850E-04 2.86057E-03 3.38312E-02
 -1      2006 4.54802E-03 2.22741E-03 2.23592E-02
 -1      2007-1.95014E-03 8.37758E-04 7.22981E-03
 -1      2008-7.41949E-03-8.39959E-05-9.77809E-03
 -1      2009-4.75363E-03 6.11458E-04 2.29065E-02
 -1      2010 6.75616E-04-1.92449E-03 8.92299E-03
 -1      2011 4.75165E-03-8.70957E-04-2.48032E-02
 -1      2012-2.38909E-03 9.22201E-04 7.19633E-03
 -1      2013-6.42086E-04 2.48491E-03 4.77973E-02
 -1      2014-8.94983E-04-1.16246E-03-8.00731E-02
 -1      2015-2.78563E-04 2.61373E-03-2.83819E-02
 -1      2016-1.36430E-03-2.51512E-03-6.94450E-02
 -1      2017-4.03315E-03 2.20144E-03-1.75985E-02
 -1      2018-2.29972E-03 1.92210E-03 4.78787E-02
 -1      2019-5.31887E-03 2.40383E-03-2.08540E-02
 -1      2020 1.12997E-03-2.37493E-05-6.34144E-05
 -1      2021 2.00346E-03-6.29513E-04 1.63140E-02
 -1      2022 2.21426E-03 6.74358E-04-1.19656E-02
 -1      2023 3.49453E-04-1.83530E-03 1.58323E-02
 -1      2024-1.26798E-02 1.07751E-03 2.94500E-02
 -1      2025 3.74861E-03 2.38462E-03-6.41376E-02
 -1      2026 1.28532E-03-1.58647E-03-7.65977E-02
 -1      2027 1.27418E-03-1.75193E-03-1.78313E-03
 -1      2028 5.02141E-03-5.10171E-04-2.00958E-02
 -1      2029-2.68954E-03 3.48725E-03-2.15419E-02
 -1      2030-2.41019E-03 3.62293E-03-2.19722E-02
 -1      2031-1.99363E-03 3.33722E-03-1.49414E-02
 -1      2032-2.77777E-03 3.69809E-03-3.71931E-02
 -1      2033 8.28919E-05-1.46217E-04 5.99866E-04
 -1      2034-3.77146E-03-2.35571E-04-8.70361E-02
 -1      2035-1.04920E-02-6.79721E-04-5.90372E-02
 -1      2036 1.26578E-03-3.70419E-03-3.13070E-02
 -1      2037-7.23125E-04 2.82027E-03 2.54893E-02
 -1      2038-5.97066E-03 1.18223E-04-6.01101E-03
 -1      2039-1.65598E-03 2.52385E-03 3.26981E-02
 -1      2040-9.37944E-03 3.06034E-04-7.10848E-02
 -1      2041 3.83045E-04 3.14018E-03 4.19401E-02
 -1      2042-6.73869E-03 2.87025E-04 7.98372E-02
 -1      2043-7.66632E-03-3.14335E-04 7.67781E-02
 -1      2044 0.00000E+00 0.00000E+00 0.00000E+00
 -1      2045-5.27470E-04 1.40072E-03 7.48672E-02
 -1      2046-1.10991E-03-2.53290E-03 3.58214E-02
 -1      2047-7.44743E-05-2.83156E-03 4.41565E-02
 -1      2048-3.41098E-03 1.34054E-03 6.96490E-02
 -1      2049-2.65465E-04-7.54608E-04 3.50806E-03
 -1      2050-4.80767E-03-1.10316E-03 5.41258E-02
 -1      2051 4.61647E-03-1.40108E-03 1.99772E-02
 -1      2052 2.66968E-03-1.86556E-03 7.05850E-03
 -1      2053 3.70651E-03-3.04825E-03 1.45594E-02
 -1      2054 1.71309E-03 2.24578E-03 6.12774E-02
 -1      2055 1.58528E-03-3.02427E-03-9.66230E-03
 -1      2056-2.08393E-03-1.10356E-03-7.78593E-02
 -1      2057-2.18850E-03-6.27150E-05-2.06161E-03
 -1      2058-1.14248E-03 1.80279E-03 1.80880E-02
 -1      2059 1.33968E-03-3.34327E-03-1.58206E-02
 -1      2060-1.44813E-02 6.44797E-04-2.74085E-02
 -1      2061-1.24631E-02-9.98434E-04 3.21783E-02
 -1      2062-2.73246E-03-3.27919E-03-4.83940E-02
 -1      2063-1.78044E-03-2.03181E-03-5.82437E-02
 -1      2064 5.60257E-03-9.85770E-04 3.54730E-02
 -1      2065 2.05538E-03-3.82418E-03-2.85971E-02
 -1      2066-2.51600E-04-2.57072E-03 4.49177E-02
 -1      2067 1.09383E-03-2.47194E-03-9.26650E-03
 -1      2068 4.46134E-04-2.84751E-03 2.60281E-02
 -1      2069 3.86294E-04-1.42965E-05-8.52194E-02
 -1      2070-9.70643E-03 9.78759E-04 5.45143E-02
 -1      2071 5.05100E-03-5.09455E-04-6.13130E-02
 -1      2072-4.33941E-03-9.53651E-04-7.71388E-02
 -1      2073-1.19700E-03 2.37296E-03-8.89822E-03
 -1      2074-2.47748E-05 2.36683E-04-4.70496E-04
 -1      2075 1.74391E-03 1.12254E-03-2.47965E-03
 -1      2076 1.48670E-03-6.74212E-04-8.37776E-03
 -1      2077-7.10554E-03 8.61350E-04 3.37007E-02
 -1      2078-8.24240E-03-1.13848E-04-7.65482E-02
 -1      2079-4.23417E-04 3.14591E-03 4.24461E-02
 -1      2080-1.16075E-02 1.15024E-03 4.49058E-02
 -1      2081-3.40013E-03 2.53388E-03-6.18715E-02
 -1      2082-2.17552E-04 2.86856E-03 4.09119E-02
 -1      2083-8.06955E-03 4.04269E-04 7.43122E-02
 -1      2084-4.41916E-03 8.68678E-04 1.73825E-02
 -1      2085 5.64552E-03 1.04364E-03-4.42328E-02
 -1      2086-1.06480E-02-5.50427E-04-1.28628E-02
 -1      2087-1.62603E-06 8.34832E-04-1.20966E-03
 -1      2088-1.73194E-03-5.74305E-04-8.62260E-02
 -1      2089 3.86874E-04 1.01106E-03-3.85767E-03
 -1      2090-1.33352E-04 7.83260E-04 3.62413E-03
 -1      2091 1.81151E-03-3.08090E-04 4.11852E-03
 -1      2092-1.47546E-02 2.74884E-04 6.92543E-03
 -1      2093 2.21344E-03 2.89385E-03-4.86953E-02
 -1      2094 2.01406E-03 1.07617E-03 1.64759E-02
 -1      2095 1.05915E-03 8.71363E-04 7.83827E-03
 -1      2096 8.09947E-04 1.52312E-03 1.18238E-02
 -1      2097 1.09364E-03 1.84924E-03 1.63321E-02
 -1      2098-9.18227E-03 4.52597E-05-7.24771E-02
 -1      2099-9.50334E-03-7.39837E-04 5.47502E-02
 -1      2100-8.65023E-03 1.29904E-03-4.28691E-02
 -1      2101-6.66453E-03 2.26391E-04-8.32609E-02
 -1      2102-8.46545E-03 4.99695E-04 1.89535E-02
 -1      2103-5.13685E-03-1.13909E-03-4.52588E-02
 -1      2104 6.08257E-04-2.09216E-03 4.79713E-02
 -1      2105 6.19988E-04-1.54418E-03 7.67648E-02
 -1      2106-9.16548E-03-4.08758E-04-3.24254E-02
 -1      2107 5.79320E-04 2.12717E-03-1.29690E-02
 -1      2108 4.45824E-03-3.03661E-03 3.79727E-02
 -1      2109 1.69733E-03 8.91855E-04-1.34814E-02
 -1      2110 4.58239E-03-4.19325E-05-1.19536E-02
 -1      2111 6.93599E-04 2.20631E-03-9.12596E-03
 -1      2112-3.14585E-03 1.55326E-03 5.24806E-02
 -1      2113 2.31102E-03-3.79071E-03-4.18598E-02
 -1      2114-1.37666E-03-1.30791E-03-5.96896E-03
 -1      2115-2.31848E-03 8.02916E-04 8.02260E-02
 -1      2116-1.16664E-02 3.87425E-04-5.90500E-02
 -1      2117 0.00000E+00 0.00000E+00 0.00000E+00
 -1      2118 5.99816E-03-4.71202E-04-4.64541E-02
 -1      2119-1.05944E-02 7.26710E-04-6.42452E-02
 -1      2120-2.50646E-03-9.86291E-04 8.03730E-02
 -1      2121 3.84111E-03-3.14730E-03-2.71307E-02
 -1      2122-2.89495E-03-1.13627E-03-8.16503E-02
 -1      2123 3.36856E-03-3.23353E-03-2.28231E-02
 -1      2124-4.12897E-03-6.18900E-04-6.18145E-02
 -1      2125-1.29246E-03-1.61792E-03-1.46289E-02
 -1      2126 5.48850E-03 2.52657E-03-4.00484E-02
 -1      2127 5.21892E-03 2.52680E-03-5.38297E-02
 -1      2128-1.86447E-04 9.12388E-04-5.23273E-04
 -1      2129-7.80223E-03-2.50343E-04-7.59730E-02
 -1      2130 2.21231E-03-3.49199E-03 3.06918E-02
 -1      2131 3.15533E-03-3.25694E-03 2.04372E-02
 -1      2132 5.29351E-03-1.96033E-03 3.52520E-02
 -1      2133 3.34134E-04 3.00753E-03 4.86987E-02
 -1      2134 1.91945E-03 1.36380E-03-8.97265E-03
 -1      2135 2.63687E-03 2.64775E-03-1.81311E-02
 -1      2136 2.11740E-04 8.94552E-04-2.59175E-03
 -1      2137-7.21251E-04 2.61691E-03 5.46137E-02
 -1      2138-2.37093E-03-3.38280E-03-3.36772E-02
 -1      2139 6.05458E-03 3.35283E-04 3.72306E-02
 -1      2140 2.25792E-03 3.42974E-04 7.70662E-02
 -1      2141 5.22939E-04 3.16412E-03 2.55545E-02
 -1      2142 3.51139E-03 1.88894E-03 1.28923E-02
 -1      2143-2.36093E-03 5.24633E-04 3.19422E-03
 -1      2144 1.65409E-03 2.64611E-03 5.74783E-02
 -1      2145-3.69060E-05-7.86428E-04 2.81961E-03
 -1      2146 4.40675E-03 5.65476E-04 6.35074E-02
 -1      2147 5.40304E-03 1.31166E-03 4.06859E-02
 -1      2148 2.14379E-03 1.22684E-03 7.19138E-02
 -1      2149-2.57286E-03 8.56099E-04-1.70474E-03
 -1      2150-3.24443E-03-3.04647E-03 2.21990E-02
 -1      2151-1.38310E-03 3.36414E-03 2.30538E-02
 -1      2152 6.86939E-04-3.06733E-03 2.59037E-02
 -1      2153 1.44145E-03 6.73949E-04 4.85772E-03
 -1      2154-1.10618E-03-2.41974E-03-2.50583E-02
 -1      2155-1.27803E-02-1.81069E-04 9.51665E-03
 -1      2156 3.69714E-03-1.91086E-03-9.01683E-03
 -1      2157-9.37298E-03-3.00585E-04-7.04349E-02
 -1      2158 4.33046E-04 2.11875E-03 1.09056E-02
 -1      2159-3.74220E-03-2.51133E-03-3.34381E-02
 -1      2160-5.06469E-03 2.21680E-04 3.92837E-02
 -1      2161-1.21427E-03-5.08290E-04 3.96634E-02
 -1      2162-1.62059E-03 1.15137E-03 4.97231E-03
 -1      2163-1.03734E-04 1.45595E-04-1.03580E-04
 -1      2164-1.10864E-02-4.57496E-04-3.14573E-02
 -1      2165-1.62637E-03-8.75176E-04-8.34454E-02
 -1      2166-2.85207E-03 2.96456E-03 1.14923E-02
 -1      2167-4.32358E-03-2.68105E-03 2.14533E-02
 -1      2168-4.55094E-03-4.83356E-04 6.17647E-02
 -1      2169 6.32801E-04 3.38201E-04 1.42237E-03
 -1      2170-8.45097E-04 7.08044E-04 8.39249E-02
 -1      2171 1.06957E-03 1.43219E-03 3.92744E-03
 -1      2172-4.01915E-03-6.86649E-04-8.03143E-02
 -1      2173-2.62945E-04 2.60517E-03-4.12511E-02
 -1      2174 1.34675E-04-2.70145E-03-1.50460E-02
 -1      2175-1.43974E-02 8.45153E-05 4.05118E-02
 -1      2176-4.96366E-03-1.07611E-03 3.41216E-02
 -1      2177-4.05723E-03-2.06078E-03-4.00849E-02
 -1      2178-4.51203E-03-1.87033E-03-2.29717E-02
 -1      2179-1.41190E-02 7.22263E-04 3.09398E-02
 -1      2180 0.00000E+00 0.00000E+00 0.00000E+00
 -1      2181-2.96380E-04 1.77169E-03-4.31224E-03
 -1      2182 2.80119E-03-2.79187E-03-1.15316E-02
 -1      2183-1.30392E-04 2.69234E-04 3.54295E-02
 -1      2184-3.93307E-03 1.49695E-03 3.58639E-02
 -1      2185-2.30627E-03-1.97284E-03-9.96049E-03
 -1      2186-1.89219E-03 8.05043E-04-5.57550E-03
 -1      2187-3.08683E-03-2.23603E-03 1.34620E-02
 -1      2188-6.48279E-04 1.23787E-03-6.17487E-03
 -1      2189-4.46225E-03 7.39250E-04 1.26401E-02
 -1      2190-2.02722E-03-1.75702E-03-2.66747E-02
 -1      2191 7.03049E-04 1.84924E-03 4.72435E-03
 -1      2192-3.55789E-04 3.02855E-03-4.87164E-02
 -1      2193 9.43014E-04-3.16556E-03 4.87539E-02
 -1      2194-3.37800E-03-2.96049E-03 5.66857E-02
 -1      2195 2.26464E-03-1.40243E-04-7.89518E-02
 -1      2196-2.03420E-03 2.48178E-03-7.29220E-02
 -1      2197-3.96736E-03 9.32651E-04-2.41933E-02
 -1      2198-4.56496E-03 3.14475E-03-3.62821E-02
 -1      2199-1.23779E-03 2.82056E-03 1.28157E-02
 -1      2200-8.83562E-03 8.15712E-04 3.04894E-02
 -1      2201-5.47085E-03-1.20489E-04-8.59130E-02
 -1      2202-1.54462E-03-2.33809E-03-7.94297E-03
 -1      2203-1.22548E-02-9.65017E-04-4.06040E-02
 -1      2204-1.53272E-02 2.69761E-04 3.87171E-03
 -1      2205-4.43397E-03-7.42525E-04-2.82372E-02
 -1      2206 4.27130E-03-2.92055E-03 5.19249E-02
 -1      2207-3.70015E-03 7.70057E-04 7.81458E-02
 -1      2208-7.74766E-04-9.02703E-04-4.73976E-03
 -1      2209-2.25303E-03 1.29171E-03-8.29206E-02
 -1      2210-5.55318E-03 1.08419E-03 3.37492E-02
 -1      2211-3.56577E-03-9.49982E-04 1.72922E-02
 -1      2212-5.66365E-03 1.61322E-03-1.93631E-02
 -1      2213 7.51806E-04-2.33100E-03 6.14680E-02
 -1      2214 3.47210E-04 2.57311E-03-4.25414E-02
 -1      2215-1.58121E-03-1.19221E-03-1.04610E-02
 -1      2216 9.75310E-04 1.86281E-03-7.78966E-02
 -1      2217-4.01939E-04 8.06568E-04-3.16374E-03
 -1      2218-4.13171E-03-7.09800E-05 7.16752E-04
 -1      2219 2.83159E-05-1.65997E-04-1.07708E-04
 -1      2220 5.00017E-03-3.81932E-04-7.20862E-03
 -1      2221-2.03414E-03 2.93124E-03-9.23389E-03
 -1      2222-1.47710E-03 9.03539E-04-6.36226E-03
 -1      2223-3.50874E-04 1.68406E-03 8.65125E-03
 -1      2224 1.42155E-05 2.47924E-03 2.07128E-02
 -1      2225 3.55266E-03 2.72613E-03-5.83043E-02
 -1      2226-9.11382E-03-2.13936E-04 1.26590E-02
 -1      2227-1.29571E-03-2.22538E-03 5.56475E-03
 -1      2228-2.11586E-03-3.10621E-03 1.56426E-02
 -1      2229-3.66465E-05 1.70414E-03-3.28955E-03
 -1      2230 1.04528E-03-3.36549E-03-3.03531E-02
 -1      2231 8.98611E-04-1.32963E-03 7.20726E-03
 -1      2232-6.33263E-04 3.16176E-03-1.96330E-02
 -1      2233 2.00651E-03-3.56753E-03 4.40706E-02
 -1      2234-2.36607E-04-6.41843E-04-2.00643E-03
 -1      2235 3.60828E-03-1.49850E-05 7.16274E-02
 -1      2236 1.61433E-03 1.74213E-03 6.97259E-02
 -1      2237 4.01519E-03-2.04398E-03 1.89172E-02
 -1      2238-2.61526E-03-3.57318E-03 3.05127E-02
 -1      2239-1.03964E-02 8.52724E-04 3.39962E-02
 -1      2240 9.73534E-04 1.40423E-03 7.71732E-02
 -1      2241 7.94632E-04 2.85968E-03 1.83577E-02
 -1      2242-1.35120E-03 3.54133E-03-2.57185E-02
 -1      2243-7.17161E-04-1.18968E-03 3.02022E-03
 -1      2244 6.94841E-04-2.25487E-03-8.18517E-03
 -1      2245-1.50565E-03-2.71332E-03 5.96785E-02
 -1      2246-1.81069E-04 1.27225E-03 9.59675E-04
 -1      2247-1.01707E-02-4.77330E-04 2.73148E-02
 -1      2248-1.07329E-02-7.33832E-04-4.40334E-02
 -1      2249-1.53235E-02 2.50425E-04 1.79092E-02
 -1      2250-1.35176E-02-2.64590E-04-1.13292E-02
 -1      2251-2.28312E-05-2.61854E-03 5.01266E-02
 -1      2252-2.06025E-03-2.80984E-03-1.66177E-02
 -1      2253-7.18877E-05-2.39786E-04 1.72651E-04
 -1      2254 5.60108E-03 8.21046E-04 4.72101E-02
 -1      2255-8.52517E-03-6.48584E-04-6.58854E-02
 -1      2256 6.08640E-03 5.70777E-04 5.18490E-02
 -1      2257 1.27570E-04-2.19824E-04-1.53602E-02
 -1      2258 1.86606E-04 1.62508E-04 6.96997E-03
 -1      2259 0.00000E+00 0.00000E+00 0.00000E+00
 -1      2260 3.68976E-03 8.04971E-04 6.90671E-02
 -1      2261-2.83419E-03 2.34814E-04-7.08487E-03
 -1      2262 1.44830E-03 8.00066E-04 7.82327E-02
 -1      2263-2.97885E-04-1.35897E-03-4.38464E-03
 -1      2264-3.27798E-03 3.04764E-03-1.81665E-02
 -1      2265 0.00000E+00 0.00000E+00 0.00000E+00
 -1      2266 3.51432E-03-2.83641E-03 1.10195E-02
 -1      2267-2.92412E-03-3.07455E-03-4.99867E-02
 -1      2268-5.25195E-03 2.45424E-03-4.01786E-02
 -1      2269-3.30599E-03-9.48681E-04-7.92081E-02
 -1      2270-4.70575E-03-1.06242E-03 3.88963E-02
 -1      2271 4.32947E-03 2.60184E-03-2.05867E-02
 -1      2272-4.27178E-03 2.03172E-03 4.04320E-02
 -1      2273-1.81375E-05 3.69612E-04 1.76117E-03
 -1      2274-2.38626E-03-4.91758E-04 7.47154E-03
 -1      2275-1.16573E-02 5.31210E-04 1.86307E-02
 -1      2276-2.25425E-03-1.27068E-03 1.70635E-02
 -1      2277 5.24810E-03-1.94625E-03-4.04848E-02
 -1      2278 1.52957E-03 1.40316E-04 8.07568E-02
 -1      2279-9.30651E-04-3.25446E-03 3.73113E-02
 -1      2280-4.27105E-03 9.33835E-04 5.89490E-02
 -1      2281-1.76076E-03 1.03733E-03 8.01160E-02
 -1      2282-1.07746E-02 1.00202E-03-2.90503E-02
 -1      2283-1.74337E-03-1.62420E-03-2.11993E-02
 -1      2284 1.69491E-03-1.93450E-03 6.67587E-02
 -1      2285-8.48295E-05 3.80734E-04-1.70673E-03
 -1      2286 1.04815E-03 1.92306E-03-7.72996E-03
 -1      2287-3.77971E-03-2.71824E-03-2.96336E-02
 -1      2288-4.70323E-03 1.23824E-03 5.00770E-02
 -1      2289-1.48785E-04-1.31006E-04 6.03819E-05
 -1      2290-2.92756E-03-9.37388E-04-7.68744E-02
 -1      2291 1.10270E-04 1.31807E-04 8.36213E-02
 -1      2292 5.55391E-03 1.62008E-03 3.39962E-02
 -1      2293-7.17926E-03-6.84075E-04-3.63480E-02
 -1      2294-1.52500E-02 2.17533E-04-8.00726E-03
 -1      2295 2.24386E-04-7.22796E-04-2.33100E-03
 -1      2296 1.31947E-03-3.78764E-04-5.64727E-03
 -1      2297 0.00000E+00 0.00000E+00 0.00000E+00
 -1      2298-9.80978E-03 3.45801E-04 6.50707E-02
 -1      2299-3.53373E-04-2.27684E-03 1.57867E-02
 -1      2300 3.23666E-03-3.15912E-03 4.11908E-02
 -1      2301-1.25586E-02 9.50234E-04 4.72338E-02
 -1      2302 6.74390E-04-2.82348E-03 5.72749E-02
 -1      2303-3.80439E-03 1.86315E-03-4.79563E-03
 -1      2304-2.99953E-03-3.44518E-03 3.93282E-02
 -1      2305-1.54772E-03 1.47346E-03-1.82029E-02
 -1      2306-2.22652E-03-8.28131E-04 8.48924E-02
 -1      2307-2.70604E-03 1.53551E-03 2.38988E-02
 -1      2308 5.23873E-03 1.32765E-03-2.69355E-02
 -1      2309 6.12934E-03-2.44890E-04 4.28877E-02
 -1      2310-8.90405E-03-9.84969E-05 7.05093E-02
 -1      2311-8.78007E-04 3.10342E-03 1.92685E-02
 -1      2312-1.08021E-02 7.80920E-04 4.42885E-02
 -1      2313-9.06550E-05-5.83381E-04-8.16999E-04
 -1      2314-7.59476E-04 2.68959E-03 3.20621E-02
 -1      2315-1.71536E-05-5.62326E-04-8.44374E-04
 -1      2316-6.12498E-03-7.94213E-04-7.48343E-02
 -1      2317-3.89651E-03 5.54605E-04-1.65301E-02
 -1      2318 2.00305E-05-2.67574E-04 1.75564E-02
 -1      2319 2.08077E-04 1.97844E-05 4.78467E-03
 -1      2320 1.88313E-03 2.61055E-03 1.52611E-02
 -1      2321-4.72767E-03 3.22952E-04-3.87466E-02
 -1      2322-4.58242E-03-2.62146E-03 2.93713E-02
 -1      2323 9.81592E-04-2.38058E-03 9.50918E-03
 -1      2324 1.43884E-03-3.01266E-03 1.73653E-02
 -1      2325-8.11325E-04-2.52697E-03-3.93489E-02
 -1      2326-1.07316E-02 7.27190E-07 7.18356E-03
 -1      2327 0.00000E+00 0.00000E+00 0.00000E+00
 -1      2328-1.35227E-02 5.76392E-04 9.72441E-03
 -1      2329 0.00000E+00 0.00000E+00 0.00000E+00
 -1      2330-2.59613E-05-2.68205E-04 8.74641E-04
 -1      2331 0.00000E+00 0.00000E+00 0.00000E+00
 -1      2332 6.72612E-04-1.61176E-03-9.85298E-03
 -1      2333-2.76165E-04-2.90447E-03-4.32267E-02
 -1      2334 9.23792E-04 2.19427E-03 3.59482E-02
 -1      2335 3.60443E-05 1.28190E-03 4.36853E-03
 -1      2336-9.79619E-04-2.44011E-03-5.25444E-02
 -1      2337 1.76680E-03 3.42988E-03 3.01976E-02
 -1      2338 3.37816E-04 1.24333E-03 4.34350E-03
 -1      2339 0.00000E+00 0.00000E+00 0.00000E+00
 -1      2340-7.12519E-03 6.53756E-04 1.10787E-02
 -1      2341 1.36074E-03-5.72425E-04 4.99508E-03
 -1      2342-1.11591E-02 6.40715E-04 5.65853E-02
 -1      2343 2.35113E-03-1.86617E-03-6.89115E-02
 -1      2344 3.25764E-04-2.05311E-03 4.81267E-02
 -1      2345-2.66556E-03 2.83472E-04 4.54096E-03
 -1      2346 4.86259E-03-1.21699E-03-5.95214E-02
 -1      2347-2.10361E-03-1.08218E-04-8.85598E-02
 -1      2348-4.90349E-04 1.69206E-03 1.31240E-02
 -1      2349-1.36641E-03-3.27168E-03-2.78874E-02
 -1      2350 3.67090E-03-3.35611E-03 3.11117E-02
 -1      2351-6.93444E-03 1.11991E-03-7.22805E-02
 -1      2352-1.54022E-02 1.69030E-04-3.46228E-03
 -1      2353-3.17233E-03 7.09842E-04-8.22856E-02
 -1      2354 8.71583E-04-2.42973E-03-6.17193E-02
 -1      2355 2.67080E-04 2.78476E-03 5.51608E-02
 -1      2356-9.04056E-03 5.15310E-04-7.28769E-03
 -1      2357 4.30219E-03 1.10947E-03 6.19878E-02
 -1      2358-1.10470E-02-9.68240E-04 5.10375E-02
 -1      2359-8.87453E-04 2.65638E-03-1.34013E-02
 -1      2360-3.56834E-04 2.84031E-03-1.34921E-02
 -1      2361-3.41234E-03-1.51664E-03-3.58298E-02
 -1      2362-8.21399E-04-2.26884E-03 6.26067E-02
 -1      2363 1.91335E-03 9.97014E-04 1.79367E-02
 -1      2364-1.18535E-02-5.78909E-04 2.34043E-02
 -1      2365-9.47123E-03 1.80280E-04 3.03116E-03
 -1      2366 8.14708E-04-2.23641E-03 3.41141E-02
 -1      2367-4.32063E-03-1.29596E-03-1.32201E-02
 -1      2368-4.61762E-03-1.15348E-03-7.03194E-02
 -1      2369 1.06543E-03 1.26791E-03-5.10665E-03
 -1      2370 1.69349E-03 3.08750E-03-2.00335E-02
 -1      2371-7.12604E-05 2.84334E-03 2.95731E-02
 -1      2372-5.49364E-03-4.46894E-04-8.30521E-02
 -1      2373 9.17817E-04 2.38915E-03-6.28580E-02
 -1      2374-6.11004E-03 1.12863E-03-3.19098E-02
 -1      2375 5.51622E-03-7.68167E-04 4.48067E-02
 -1      2376 3.81131E-03 2.84343E-03 3.65266E-02
 -1      2377 2.75645E-03 3.35425E-03 3.64502E-02
 -1      2378-4.07062E-03-1.37941E-03-6.21220E-02
 -1      2379-2.90902E-04 1.17251E-03-2.06157E-03
 -1      2380-1.23273E-02 1.21611E-03-3.30766E-02
 -1      2381 2.13626E-04-3.03122E-03-2.74632E-02
 -1      2382-1.45625E-03-3.25481E-03 3.12350E-02
 -1      2383 1.12382E-03-1.65808E-03-1.49675E-02
 -1      2384 1.29365E-03 1.80434E-03 1.73454E-03
 -1      2385 3.21002E-04 1.35370E-03 4.68265E-03
 -1      2386-4.39689E-03-1.92021E-03 3.05804E-02
 -1      2387-3.01865E-04 5.84007E-04-2.53707E-02
 -1      2388-5.78238E-04 1.77681E-03-7.36475E-02
 -1      2389-1.00888E-02 1.97928E-04 9.08450E-04
 -1      2390 2.70051E-03 2.75971E-03 5.00486E-02
 -1      2391 5.41529E-03 1.62200E-04-2.09905E-02
 -1      2392-2.26048E-03 2.21912E-03 3.07234E-02
 -1      2393-2.85393E-04-1.90298E-03 1.06161E-02
 -1      2394-1.72204E-03-7.70815E-04 5.85604E-03
 -1      2395 1.15367E-03 3.27195E-03 2.21525E-02
 -1      2396-5.23660E-03 5.61963E-04 8.00875E-02
 -1      2397-3.96952E-04-3.05643E-03-2.67910E-02
 -1      2398 3.41463E-05-2.90732E-03-5.43148E-02
 -1      2399 3.54901E-04 2.43058E-03 4.30885E-02
 -1      2400-5.07523E-03 1.22641E-03 6.47859E-02
 -1      2401 0.00000E+00 0.00000E+00 0.00000E+00
 -1      2402-9.10960E-03 8.70022E-04 4.14045E-02
 -1      2403-2.74959E-03-1.56198E-03 5.54388E-02
 -1      2404-2.62456E-03-3.33810E-03 3.57594E-02
 -1      2405-1.39198E-02 6.61301E-04-1.23811E-02
 -1      2406-3.71017E-03-1.54407E-03 4.60574E-02
 -1      2407 4.91067E-04-9.68699E-04-3.32001E-03
 -1      2408-5.54504E-04-1.56549E-03-7.41978E-02
 -1      2409-1.04823E-02 6.72429E-04-6.83716E-03
 -1      2410 7.82464E-04-3.19073E-03-2.09547E-02
 -1      2411 2.80371E-04-2.65354E-03 1.89897E-02
 -1      2412-7.06562E-03 5.49024E-04-1.70834E-02
 -1      2413-6.43120E-03-1.07126E-03 4.14429E-02
 -1      2414-1.18887E-03-2.23855E-03-6.69916E-02
 -1      2415 6.39177E-04 2.16095E-03 4.90242E-02
 -1      2416-2.41411E-03-1.75542E-03-5.37527E-02
 -1      2417 5.07479E-03 1.14718E-03 5.19501E-02
 -1      2418-4.02094E-03-3.29120E-03 4.26271E-02
 -1      2419-5.24055E-04-2.58309E-03 4.04845E-02
 -1      2420 1.71771E-03 3.47235E-04-8.25365E-02
 -1      2421 3.58766E-03 2.79006E-03 4.87415E-02
 -1      2422-4.69629E-03 1.42994E-03 3.92179E-02
 -1      2423-9.09601E-03 6.21577E-04 6.48576E-02
 -1      2424-9.53952E-03 7.28797E-04-6.90214E-02
 -1      2425-9.15179E-03 1.19225E-03-6.53915E-02
 -1      2426 8.85011E-04 2.65995E-03 8.11305E-03
 -1      2427 1.83389E-03 7.38543E-04 1.04753E-02
 -1      2428 1.42490E-03 1.47854E-03 1.96985E-02
 -1      2429-5.60372E-03 1.35557E-03 4.30190E-02
 -1      2430-1.51062E-02 1.06968E-04 9.76772E-03
 -1      2431 3.28268E-03-1.57784E-03 6.58128E-02
 -1      2432-2.67693E-03-4.86834E-04 8.46568E-02
 -1      2433-2.64932E-03 1.20640E-03 7.50133E-02
 -1      2434 8.65204E-05 2.80538E-03-3.70754E-02
 -1      2435-9.06522E-04 1.76136E-03 6.77363E-02
 -1      2436-1.47901E-02 3.40362E-04-3.46417E-02
 -1      2437 6.61340E-04 2.62805E-03-1.96197E-02
 -1      2438-1.30169E-02-2.58258E-04-5.20755E-02
 -1      2439-2.77527E-03-1.41154E-03 7.47978E-02
 -1      2440 3.43422E-03 1.75631E-03 6.23594E-02
 -1      2441-4.85151E-03 8.87742E-04-8.38797E-02
 -1      2442-5.39715E-03-8.49632E-04 7.36040E-02
 -1      2443-3.33626E-03-1.33986E-04 8.59981E-02
 -1      2444-7.09243E-04-1.17772E-03 4.95050E-03
 -1      2445-2.27302E-03 4.33273E-04-8.85589E-02
 -1      2446 1.39360E-03 8.57318E-04 8.90340E-03
 -1      2447-1.21390E-04-1.42798E-03 4.15244E-03
 -1      2448-7.61586E-04 2.95175E-04-8.75925E-02
 -1      2449-3.23228E-04 3.28189E-04-8.70676E-02
 -1      2450-3.53657E-03-1.23201E-03 6.55371E-02
 -1      2451-1.39153E-02-3.49710E-04 3.61542E-02
 -1      2452-1.07601E-02-9.31945E-04 4.49321E-02
 -1      2453-2.56303E-03 1.19601E-03-1.98483E-02
 -1      2454-1.77668E-03 1.24463E-03-1.30079E-02
 -1      2455-4.54927E-03 2.69862E-03-4.55525E-02
 -1      2456-4.01739E-04 2.37432E-04-3.41242E-04
 -1      2457 5.31523E-03 7.66174E-04 3.36771E-02
 -1      2458-1.49846E-02 3.15832E-04 2.09572E-02
 -1      2459-1.03048E-02-1.56117E-04-2.48440E-02
 -1      2460-3.75725E-03-4.31734E-04 7.20603E-02
 -1      2461-3.72583E-03 1.17171E-04 8.51918E-02
 -1      2462 2.01423E-04-1.18488E-03 6.12105E-03
 -1      2463-8.38113E-03-4.97503E-04 2.98295E-02
 -1      2464-3.83491E-03 1.34234E-03 6.48501E-02
 -1      2465 2.30958E-03 2.23464E-03-7.16344E-02
 -1      2466-5.38638E-03-8.07871E-04-2.86119E-02
 -1      2467 1.97130E-03-1.04160E-03-7.78168E-02
 -1      2468-6.72211E-04 1.38125E-03 4.29942E-03
 -1      2469-7.36270E-05-1.10127E-04-3.03952E-04
 -1      2470-7.23913E-03 1.11109E-04-4.45060E-04
 -1      2471 2.52982E-03-2.72068E-03 5.45430E-02
 -1      2472-1.38052E-03-2.06965E-03 7.27411E-02
 -1      2473-1.20667E-02-2.94884E-04-1.81603E-02
 -1      2474 4.71670E-03-1.60856E-03 5.25138E-02
 -1      2475 3.95519E-03-3.34767E-03 3.24225E-02
 -1      2476-6.27724E-03-2.51566E-04 1.87584E-02
 -1      2477 2.74986E-04 2.87681E-03-1.95633E-02
 -1      2478-3.89748E-03-8.15634E-04 2.14623E-02
 -1      2479-2.43295E-03-4.88198E-04 7.13238E-03
 -1      2480 4.86785E-03-2.63624E-04 1.20665E-02
 -1      2481-3.09495E-03 3.43966E-03 2.32850E-02
 -1      2482-7.56457E-03-7.18382E-04 3.94459E-02
 -1      2483 4.76927E-03-2.49404E-03-4.27428E-02
 -1      2484-7.56455E-03-8.34145E-05 2.16049E-02
 -1      2485-4.67579E-03-5.61047E-04 2.23153E-02
 -1      2486-9.89292E-03-2.05239E-04 6.36594E-02
 -1      2487 3.24150E-04 1.77013E-03-9.12898E-03
 -1      2488 3.52347E-03-3.87202E-04 6.99304E-02
 -1      2489 2.79040E-03-3.07931E-03 5.03624E-02
 -1      2490 5.09522E-05-2.79027E-03-2.04212E-02
 -1      2491 1.38892E-05-1.87444E-03-6.95301E-03
 -1      2492-1.45830E-03-7.34778E-04-5.10764E-03
 -1      2493 0.00000E+00 0.00000E+00 0.00000E+00
 -1      2494 6.35590E-03 4.01684E-04-4.64975E-02
 -1      2495-4.37223E-03 1.52359E-03-6.34025E-02
 -1      2496-8.03035E-03 1.29151E-03-5.94279E-02
 -1      2497-9.64101E-03 1.30861E-03-5.66366E-02
 -1      2498-4.21945E-03 1.60136E-03-3.88996E-02
 -1      2499-1.40527E-03-2.40137E-03 2.87912E-02
 -1      2500 3.53882E-03 3.14603E-03 2.82572E-02
 -1      2501 6.54908E-04-5.38340E-04-8.36190E-02
 -1      2502-5.22620E-03 1.53108E-03-4.50790E-02
 -1      2503-1.21337E-03 2.35589E-03-2.40433E-02
 -1      2504 3.72875E-03-3.15851E-04-7.15252E-02
 -1      2505 1.87939E-03 1.19553E-03-2.13654E-02
 -1      2506 4.97745E-03-2.30677E-04 1.79141E-02
 -1      2507 1.69132E-03 1.12921E-03 4.47883E-03
 -1      2508 4.05660E-03 2.88269E-03 3.52413E-02
 -1      2509-6.42944E-03-7.93386E-04 3.00499E-02
 -1      2510-4.26336E-03 1.16979E-03-7.76613E-02
 -1      2511-4.51053E-03-6.01378E-04 1.06621E-02
 -1      2512-1.11218E-02 5.14584E-04 5.26593E-03
 -1      2513-4.63965E-03 9.94920E-04 7.30010E-02
 -1      2514-9.80891E-03-1.04837E-04 1.81980E-02
 -1      2515-1.77864E-03 1.45792E-03 7.12137E-02
 -1      2516-7.27279E-03 1.25682E-06 7.84416E-02
 -1      2517-4.47260E-03 6.94602E-04 6.62059E-02
 -1      2518-3.17553E-03 6.28195E-04 8.27838E-02
 -1      2519-5.30650E-03 5.25458E-04-1.91417E-02
 -1      2520-1.27845E-03 7.40316E-04 4.61019E-03
 -1      2521-2.92403E-03-1.44122E-04-4.53936E-03
 -1      2522-1.75016E-03-2.32002E-03-7.35188E-02
 -1      2523 2.76287E-03-4.56124E-04 5.50182E-03
 -1      2524 7.72176E-04-1.86227E-03-6.86566E-02
 -1      2525-9.17312E-03-1.85688E-04-9.22733E-03
 -1      2526-2.88302E-04 2.81065E-03-5.45476E-02
 -1      2527-7.46400E-03 1.07129E-03-3.77467E-02
 -1      2528-4.09811E-03 1.48941E-03 6.04511E-02
 -1      2529-2.12683E-03-2.31632E-03 3.79007E-02
 -1      2530-9.69891E-04-5.22510E-04 8.51806E-04
 -1      2531 0.00000E+00 0.00000E+00 0.00000E+00
 -1      2532-1.59697E-03 2.45173E-04-9.13946E-04
 -1      2533 2.00570E-03-2.50854E-03-6.08201E-02
 -1      2534-4.71597E-04-2.54984E-03 3.28316E-02
 -1      2535 2.33927E-03 8.17613E-04-9.67349E-03
 -1      2536-6.00614E-04 2.48093E-03-3.70840E-02
 -1      2537 6.08276E-04 2.94825E-03-2.98877E-02
 -1      2538 5.24626E-03 6.64981E-04-5.99184E-02
 -1      2539 1.05540E-03-8.41892E-04-6.67925E-03
 -1      2540 1.47741E-03-1.27486E-03-1.33430E-02
 -1      2541-1.19894E-03-7.75263E-04 5.44742E-03
 -1      2542 3.04326E-03-8.86931E-04 9.62437E-03
 -1      2543-5.20466E-03-1.13248E-03 4.18087E-02
 -1      2544-3.34437E-03 8.10467E-04-1.51933E-02
 -1      2545-7.96037E-03 2.13878E-04-7.87835E-02
 -1      2546-6.35783E-03 9.34001E-04 2.47533E-02
 -1      2547-9.78191E-04-3.97101E-04 8.56480E-02
 -1      2548-4.50160E-03-4.18752E-04 8.36596E-02
 -1      2549 7.31227E-04 1.99238E-03-7.30726E-02
 -1      2550 4.47053E-03-3.84004E-04 6.77347E-02
 -1      2551-2.75448E-03-2.04250E-03 4.15116E-02
 -1      2552 3.64893E-03 5.89589E-04-7.18833E-02
 -1      2553-3.23421E-04 8.04989E-05-3.32742E-02
 -1      2554-6.27414E-03 6.07789E-04-1.35144E-02
 -1      2555 5.89278E-03 1.82202E-03-3.74902E-02
 -1      2556-7.73629E-04-1.58865E-03-1.10393E-02
 -1      2557 3.83164E-03-3.10479E-03-4.00629E-02
 -1      2558 2.80968E-03-2.44282E-03 5.92254E-02
 -1      2559-6.63179E-03 6.24060E-04 7.78825E-02
 -1      2560-3.59530E-03 1.89506E-04-8.87628E-02
 -1      2561-3.14903E-03-5.70545E-04 8.92200E-03
 -1      2562 0.00000E+00 0.00000E+00 0.00000E+00
 -1      2563 1.16611E-03-1.24207E-03-5.72239E-03
 -1      2564 3.67595E-03-2.51742E-03-1.56158E-02
 -1      2565-1.37725E-02-4.75594E-04 1.82521E-02
 -1      2566 3.44903E-03-2.31405E-03-1.64965E-02
 -1      2567-6.65719E-03-7.95154E-04 5.20816E-02
 -1      2568 2.41164E-03 2.53205E-03-5.86815E-02
 -1      2569 1.89645E-03-3.19740E-03 5.11232E-02
 -1      2570 4.28983E-03-1.24982E-03 5.95338E-02
 -1      2571-2.56988E-03 1.84973E-03 6.41399E-02
 -1      2572-3.50334E-03 6.10045E-04-7.39248E-03
 -1      2573 4.25919E-03 2.39057E-04-6.95384E-02
 -1      2574-7.18077E-04-1.37032E-03 5.48760E-03
 -1      2575-3.07767E-05-2.66739E-03-6.21993E-02
 -1      2576-4.23918E-03-2.05232E-03-4.27799E-02
 -1      2577 1.45863E-04 1.30126E-03-4.82926E-03
 -1      2578 5.45969E-03 1.53195E-03-2.36989E-02
 -1      2579-2.60599E-04-1.80007E-03-2.66681E-03
 -1      2580-1.77537E-03 2.81598E-03 5.93485E-02
 -1      2581-2.58847E-03-2.44104E-03 6.52622E-02
 -1      2582 5.57886E-03-5.89438E-04 5.47400E-02
 -1      2583 1.65416E-03-1.37153E-03-2.01983E-02
 -1      2584-3.72573E-03-1.42708E-03 6.20062E-02
 -1      2585-2.01126E-04-4.36794E-04 1.51954E-03
 -1      2586-4.72621E-04-6.10285E-04-3.25676E-02
 -1      2587-7.30240E-04-1.63662E-03-5.28640E-03
 -1      2588-1.84609E-03-1.85313E-03 2.25960E-02
 -1      2589-4.66952E-04-1.73116E-03 6.85011E-02
 -1      2590 2.28745E-03 5.53905E-04 1.17871E-02
 -1      2591-6.19225E-04-3.08684E-03-2.20702E-02
 -1      2592 4.30771E-04-2.69304E-03-3.35961E-02
 -1      2593 1.13181E-03-7.55289E-04 7.97352E-02
 -1      2594-2.30142E-03 2.15842E-03 6.55810E-02
 -1      2595 1.73541E-03 1.39124E-03-7.91420E-02
 -1      2596-1.93394E-03 7.04338E-04-4.49389E-03
 -1      2597-1.13988E-03 3.60585E-03-3.34624E-02
 -1      2598-8.11398E-03 8.80726E-04 5.07608E-02
 -1      2599-8.05914E-04 9.03283E-04-4.94527E-03
 -1      2600 4.68822E-03 2.98883E-03-4.50117E-02
 -1      2601-2.21511E-04 3.02594E-03-2.72915E-02
 -1      2602-2.48473E-03-2.05610E-03-4.17255E-02
 -1      2603-1.73886E-03-2.07130E-03 5.80947E-02
 -1      2604-1.82444E-03-1.22815E-03 1.10704E-02
 -1      2605-2.15637E-03 2.97092E-03 5.15997E-02
 -1      2606 7.48152E-04 8.24867E-04-8.37078E-02
 -1      2607-3.05893E-04-1.54414E-03 8.00905E-03
 -1      2608 2.35975E-04 1.75653E-03 6.91292E-02
 -1      2609 4.05275E-04 3.07715E-03 1.79439E-02
 -1      2610-1.67528E-03-2.78731E-03-1.70873E-02
 -1      2611-3.51584E-03-1.38004E-03-5.73803E-02
 -1      2612-1.47791E-03-2.56574E-03 6.70827E-02
 -1      2613-1.40962E-02-4.09548E-04-2.59771E-02
 -1      2614-1.49828E-02 3.08199E-05-5.91604E-03
 -1      2615 1.57739E-03-2.26609E-03 6.34797E-02
 -1      2616 3.58683E-03-2.25863E-03 5.86749E-02
 -1      2617-3.71550E-03 3.42621E-03-2.97256E-02
 -1      2618 0.00000E+00 0.00000E+00 0.00000E+00
 -1      2619-9.75658E-03-8.09057E-04 6.01801E-02
 -1      2620-6.88550E-04-1.39492E-03-5.67992E-03
 -1      2621-3.40018E-03-2.68064E-03-4.63355E-02
 -1      2622 3.94712E-03 3.03440E-03-3.50392E-02
 -1      2623 1.54812E-04 4.49507E-04 5.32259E-04
 -1      2624-6.17777E-03-2.31398E-04 7.09668E-03
 -1      2625-5.51422E-03 1.46876E-03-6.55795E-02
 -1      2626 4.02923E-03 3.00570E-03-4.49325E-02
 -1      2627-2.48503E-03 3.93916E-04 8.56785E-02
 -1      2628 6.66812E-04 1.79474E-03-5.14414E-03
 -1      2629-1.93308E-04 1.41496E-03-4.77630E-03
 -1      2630 0.00000E+00 0.00000E+00 0.00000E+00
 -1      2631-1.68515E-04-1.16128E-03-3.67679E-03
 -1      2632-3.46149E-03-4.30930E-04-8.32547E-02
 -1      2633-5.03104E-03 9.91176E-05 5.20342E-04
 -1      2634-6.59162E-03 1.39127E-03-5.86791E-02
 -1      2635-2.35754E-03-1.17617E-03 7.67935E-02
 -1      2636-3.40681E-03 3.16825E-03 4.15728E-02
 -1      2637-1.80820E-03 1.04968E-03-8.88859E-03
 -1      2638-1.21910E-03 1.05012E-03-9.82795E-03
 -1      2639-2.28868E-03-9.38386E-04 8.56235E-02
 -1      2640 7.56541E-04 1.30531E-03 7.88869E-03
 -1      2641 5.16345E-04-1.10121E-03 3.57178E-03
 -1      2642-1.19591E-02 1.34188E-03-4.65708E-02
 -1      2643 3.89016E-04-1.72125E-03 6.96655E-02
 -1      2644 3.76405E-04-1.53173E-03-6.91456E-03
 -1      2645 4.53151E-04-2.48783E-03-4.49541E-02
 -1      2646 1.24607E-03-2.91254E-04 7.98661E-02
 -1      2647 1.88298E-03-1.50670E-03 7.45613E-02
 -1      2648 2.37376E-03-1.08775E-04 7.63454E-02
 -1      2649-8.97208E-03-6.53272E-04 3.56052E-02
 -1      2650-2.80172E-03 1.73556E-03-2.99689E-02
 -1      2651-1.07129E-02-8.15309E-04 3.67179E-02
 -1      2652-2.94310E-03 1.93052E-03-3.71328E-02
 -1      2653-3.16011E-03 1.16192E-03-2.41380E-02
 -1      2654-2.53213E-03 5.89019E-04-3.73302E-03
 -1      2655 4.60964E-04-1.59949E-03 7.31586E-02
 -1      2656-1.50938E-02 8.07827E-05-2.59351E-02
 -1      2657-5.42135E-04 2.35539E-03 6.17942E-02
 -1      2658-5.18906E-03 7.17251E-04 7.68359E-02
 -1      2659 1.76385E-03-2.19765E-04-5.30443E-03
 -1      2660-5.91636E-03 6.80202E-04 8.57275E-03
 -1      2661-9.23375E-03 4.80724E-04 6.75376E-02
 -1      2662-1.37152E-02 2.65489E-04 4.81181E-02
 -1      2663-3.30610E-03 1.92108E-03-5.79796E-02
 -1      2664 2.28213E-03-1.88075E-03 6.91344E-02
 -1      2665-2.77228E-03 9.31983E-04-1.47890E-02
 -1      2666 2.08319E-03 2.01617E-04-8.18053E-02
 -1      2667-4.07596E-03-2.78395E-03 4.60195E-02
 -1      2668 3.55370E-03-2.16829E-03-6.06461E-02
 -1      2669 7.04323E-04 1.42642E-03 4.47999E-03
 -1      2670 2.73987E-03-2.24620E-03 6.28296E-02
 -1      2671-8.77297E-03 1.20192E-03-5.05149E-02
 -1      2672 4.00481E-04 2.48991E-03-1.33353E-02
 -1      2673-4.89176E-03 1.55308E-03-5.63544E-02
 -1      2674-2.64117E-03 1.07079E-03-8.55571E-02
 -1      2675-3.20525E-03-1.02584E-03-2.83453E-02
 -1      2676-1.24188E-02-5.31989E-04 4.96868E-02
 -1      2677-7.11682E-04 2.33163E-03 6.75815E-02
 -1      2678-1.06221E-03-3.07195E-03-2.79526E-02
 -1      2679 1.74296E-03 2.54211E-03-1.17229E-02
 -1      2680-1.00679E-03 2.41829E-03-3.10560E-02
 -1      2681-7.54410E-03 7.29352E-04-2.68193E-02
 -1      2682-6.48497E-04 2.25197E-03-6.42122E-03
 -1      2683-3.38944E-03-1.61958E-03-6.74836E-02
 -1      2684-3.05872E-03-1.48375E-03 4.99092E-02
 -1      2685-9.82973E-04-9.97633E-04 6.56084E-03
 -1      2686-1.94315E-03-2.84553E-04 3.37190E-03
 -1      2687-1.06406E-03 2.29691E-03-6.63422E-02
 -1      2688-5.96490E-04 2.23252E-03-1.55634E-02
 -1      2689-1.01414E-03 1.45165E-03-7.86074E-02
 -1      2690-3.49652E-03-1.85765E-04-8.85749E-02
 -1      2691-1.51106E-04-9.88950E-04 8.25880E-02
 -1      2692 2.67499E-03-8.60865E-04 7.07280E-02
 -1      2693-1.03387E-02 3.34239E-04-1.97474E-02
 -1      2694-7.82479E-03 9.55596E-04 4.02449E-02
 -1      2695 4.99763E-04 2.34833E-03-5.19177E-02
 -1      2696 5.54423E-03 1.70680E-03 4.95384E-02
 -1      2697-7.07716E-03 8.78996E-04-7.82839E-02
 -1      2698-4.42868E-03-1.55034E-03 4.86554E-02
 -1      2699-4.29115E-03 4.63687E-04-5.56696E-03
 -1      2700-2.44391E-03 6.73361E-04 8.49573E-02
 -1      2701 1.41880E-03 6.92647E-04 8.13178E-03
 -1      2702-3.05294E-03 1.19741E-03 7.46346E-02
 -1      2703 1.74721E-03-1.33070E-03-1.76924E-02
 -1      2704-1.47742E-03 8.07609E-04-8.69235E-02
 -1      2705-2.72398E-03-9.36961E-04 1.27327E-02
 -1      2706 1.15391E-03 2.14951E-03-6.62280E-02
 -1      2707 1.45431E-04 1.61829E-04-1.78015E-02
 -1      2708-1.33356E-02-7.36127E-04-4.35843E-02
 -1      2709 2.86843E-03 2.21903E-03 5.99572E-02
 -1      2710-6.16575E-03 7.15872E-04-8.38777E-02
 -1      2711-8.58269E-04 1.31797E-04-8.77621E-02
 -1      2712-1.46796E-03-1.46947E-03 1.45942E-02
 -1      2713-4.03551E-03 1.58100E-03-6.42059E-02
 -1      2714-2.67160E-03-3.58870E-04 7.86374E-02
 -1      2715 4.22056E-04 2.62523E-03-5.76290E-02
 -1      2716-6.12507E-05 5.90381E-06 9.64922E-06
 -1      2717-2.18966E-03 1.79887E-03-2.44860E-02
 -1      2718-5.20443E-03 3.09258E-04 8.30899E-02
 -1      2719-3.12846E-03 9.50185E-04-8.53755E-02
 -1      2720-6.65192E-03-7.21552E-04-2.82800E-02
 -1      2721-6.10466E-03 1.37038E-03-4.32420E-02
 -1      2722-8.31584E-03-2.05909E-05 3.10499E-03
 -1      2723-1.23774E-02-6.95281E-04-2.95365E-02
 -1      2724-4.64567E-03 1.57386E-03 4.89439E-02
 -1      2725 3.86211E-03-3.05687E-03 1.91663E-02
 -1      2726-3.70867E-03 2.58182E-03 2.91172E-02
 -1      2727-3.35783E-03-9.57586E-04 2.72247E-02
 -1      2728-3.69389E-03-8.44997E-04 7.97977E-02
 -1      2729-4.01575E-03-7.34465E-04 8.22948E-02
 -1      2730-1.67514E-03 7.22156E-05 4.48660E-03
 -1      2731-7.11065E-03-4.49606E-04 1.06452E-02
 -1      2732-1.91116E-03-1.06719E-03 8.05163E-02
 -1      2733-6.12605E-03-3.15704E-04 8.12249E-02
 -1      2734-1.88467E-03 2.04714E-03 7.11425E-02
 -1      2735-6.13170E-04-1.96963E-04-8.69922E-02
 -1      2736 3.22655E-03 2.92205E-03 2.48461E-02
 -1      2737-4.33694E-04-2.83570E-03 2.81597E-02
 -1      2738-5.98699E-04 1.48695E-03-8.14210E-02
 -1      2739-4.12432E-03 3.12305E-04 1.87130E-02
 -1      2740-1.23809E-02 3.66822E-04 7.30403E-04
 -1      2741-4.74087E-03 7.10823E-04 5.45041E-02
 -1      2742-6.30168E-03 7.23278E-04-2.30596E-02
 -1      2743-4.93596E-03 1.26758E-03-2.81662E-02
 -1      2744 1.33627E-03-1.04524E-03-1.68966E-02
 -1      2745-1.04770E-03 2.82692E-04 3.84332E-03
 -1      2746-4.20139E-05 2.72892E-03-4.55768E-02
 -1      2747-1.16776E-06 1.83217E-03-9.07715E-03
 -1      2748 1.36561E-03 3.47525E-03-3.40008E-02
 -1      2749-1.86989E-04 2.69177E-03-3.57164E-02
 -1      2750 9.78407E-04 2.83132E-03-2.29471E-02
 -1      2751-8.72759E-03 5.10715E-04-1.84567E-02
 -1      2752-1.36291E-03 2.18481E-03-4.48718E-02
 -1      2753 3.10351E-04 8.21947E-04 2.40993E-03
 -1      2754-4.53404E-03-1.14016E-03 6.98329E-02
 -1      2755-2.02388E-04 2.07823E-03-6.82156E-02
 -1      2756-3.97889E-03-9.74116E-04 7.55302E-02
 -1      2757 3.32038E-03 3.59355E-04-7.61952E-02
 -1      2758-6.98436E-03-8.29060E-04 6.10610E-02
 -1      2759 5.46392E-03-1.22470E-03 4.70833E-02
 -1      2760-1.77600E-03-2.05918E-03 7.03374E-02
 -1      2761-4.26091E-03 1.47086E-03-5.14671E-02
 -1      2762 0.00000E+00 0.00000E+00 0.00000E+00
 -1      2763-2.81968E-03 1.43684E-03-7.53957E-02
 -1      2764-2.61970E-03 2.11827E-03-6.51060E-02
 -1      2765-1.12235E-03-1.94987E-03 1.97694E-02
 -1      2766-3.02609E-03 5.09195E-04 7.85914E-02
 -1      2767-2.27625E-03 2.54832E-03 6.11414E-02
 -1      2768-2.37096E-03-1.88986E-03-3.39535E-02
 -1      2769-3.01769E-03 1.80015E-03-4.60373E-02
 -1      2770-1.19606E-03-1.79729E-03-8.69388E-03
 -1      2771 3.65186E-05 6.94765E-05-2.11529E-03
 -1      2772-7.51812E-03-6.02065E-04 7.21914E-02
 -1      2773-3.06349E-03-2.73457E-03-5.63816E-02
 -1      2774-1.45083E-03 1.37048E-04 8.56039E-02
 -1      2775-3.78211E-03 3.33826E-04 8.43717E-02
 -1      2776-5.53578E-03 1.36650E-03-7.27865E-02
 -1      2777-3.81330E-03 1.43401E-03-7.22524E-02
 -1      2778 4.16662E-04-2.39070E-03-4.71980E-02
 -1      2779 3.25416E-06-1.06923E-03-3.23803E-03
 -1      2780-1.78203E-03 2.42430E-03-5.83075E-02
 -1      2781-1.08702E-02 1.37371E-03-4.96069E-02
 -1      2782-1.32062E-02 8.54461E-04-4.88119E-02
 -1      2783 4.07807E-04-2.93951E-05 8.30583E-02
 -1      2784 8.55747E-04-2.16450E-03-3.85810E-02
 -1      2785 3.35986E-04-2.69219E-03-4.05462E-02
 -1      2786-2.32215E-03 1.85251E-03-5.18671E-02
 -1      2787 1.90726E-04-2.46735E-03-5.05758E-02
 -1      2788-9.65261E-03-6.54351E-04 4.75016E-02
 -1      2789-3.03721E-03-1.29370E-04 2.90497E-03
 -1      2790 1.29750E-03 3.01774E-03-2.53734E-02
 -1      2791-8.33825E-04 1.74616E-03-1.26130E-02
 -1      2792-7.98541E-03 1.21059E-03-5.20078E-02
 -1      2793-2.23914E-03 9.87363E-04-8.80731E-02
 -1      2794-3.37669E-04-2.72551E-03-9.70980E-03
 -1      2795-2.01292E-03 2.22202E-03-3.32853E-02
 -1      2796-2.54952E-03-1.73164E-03-6.20025E-02
 -1      2797-9.87372E-04-5.04222E-04 3.79601E-03
 -1      2798-1.06668E-03-2.67309E-03-6.64926E-02
 -1      2799-1.20593E-03-2.21718E-03-7.33277E-02
 -1      2800 1.91001E-04-2.30249E-03-1.49323E-02
 -1      2801-7.95363E-03-7.37720E-04 5.36715E-02
 -1      2802-6.58133E-03 1.12458E-03 4.69232E-02
 -1      2803-4.55082E-03 7.80813E-04-1.22595E-02
 -1      2804-8.57730E-03 8.44393E-04-7.23377E-02
 -1      2805 1.22394E-03 6.41804E-04 5.23856E-03
 -1      2806-4.18544E-03 4.04883E-04-8.75093E-02
 -1      2807-2.85828E-03-1.18163E-03 1.83623E-02
 -1      2808-1.46656E-06 1.21965E-03-8.40793E-02
 -1      2809-2.30344E-03-6.83461E-04-8.73813E-02
 -1      2810-6.01945E-03 2.81627E-04-8.48613E-02
 -1      2811-2.09698E-03 1.83862E-03-7.10768E-02
 -1      2812 1.33566E-03 3.12430E-03-4.97598E-02
 -1      2813-1.53913E-03-2.84919E-03-5.66618E-02
 -1      2814 5.14540E-05 9.99571E-06 5.81873E-05
 -1      2815-5.63927E-03-6.35446E-04 7.88379E-02
 -1      2816-3.15921E-03-1.70477E-03 3.37547E-02
 -1      2817-2.85645E-03 2.00574E-03 1.64218E-02
 -1      2818 4.27920E-03-3.00778E-03 2.69872E-02
 -1      2819 3.56456E-03-5.68197E-04 3.59487E-03
 -1      2820-6.98413E-04-1.35438E-03 7.69779E-02
 -1      2821-5.96802E-04-3.11926E-03-3.76771E-02
 -1      2822-6.68529E-04 2.46260E-03-4.89116E-02
 -1      2823-5.92778E-03-1.03963E-03 6.70630E-02
 -1      2824-6.54431E-03 9.76845E-04 5.37612E-02
 -1      2825-2.93826E-03 1.26216E-03-7.97034E-02
 -1      2826-1.59171E-03-2.31303E-03-3.71495E-02
 -1      2827-8.69447E-03-8.15656E-04 6.46831E-02
 -1      2828-4.00023E-03-1.58961E-03 3.61094E-02
 -1      2829-6.94990E-03-8.53966E-04 6.88590E-02
 -1      2830-8.26849E-03-4.29650E-04 7.18581E-02
 -1      2831-6.59914E-03 1.32314E-03-6.59986E-02
 -1      2832-5.09312E-04 1.53594E-03-8.77150E-03
 -1      2833 4.04396E-04 1.56751E-03-6.90572E-03
 -1      2834-3.19450E-03 7.03217E-04-8.79240E-02
 -1      2835-3.09357E-03 1.75815E-03-6.94154E-02
 -1      2836-4.57871E-04-3.34259E-04 3.74640E-04
 -1      2837 0.00000E+00 0.00000E+00 0.00000E+00
 -1      2838-8.40500E-03-7.76619E-04 5.96505E-02
 -1      2839-1.48217E-02 2.83414E-04-1.03913E-02
 -1      2840 2.34801E-04-1.96052E-05-9.45465E-03
 -1      2841-1.30185E-02 1.28520E-03-3.57403E-02
 -1      2842-1.41534E-02 4.56593E-05 4.39722E-03
 -1      2843-1.25294E-02-1.63194E-05 5.25125E-02
 -1      2844-1.41669E-02 6.80241E-04 2.11246E-02
 -1      2845-1.30542E-02 6.14217E-04 4.91735E-02
 -1      2846-1.38291E-02-6.26232E-04-3.35999E-02
 -1      2847-1.15189E-02-1.01536E-03-4.98926E-02
 -1      2848-7.29770E-04-6.35077E-04 3.21721E-02
 -1      2849-1.44339E-02-3.68874E-04-1.39871E-02
 -1      2850-1.42076E-04-3.93994E-04 1.31113E-02
 -1      2851-1.50486E-02 2.80319E-04 1.16909E-02
 -1      2852 1.12371E-04-1.68048E-04-1.09077E-02
 -1      2853-1.38190E-02 8.69703E-04-4.02516E-02
 -1      2854-1.35549E-02-7.68499E-04 2.90281E-02
 -1      2855-1.38954E-02 3.97042E-04-4.85788E-02
 -1      2856-1.10006E-02-6.36258E-05-6.05599E-02
 -1      2857-1.35517E-02-4.78052E-04-1.92275E-02
 -1      2858-1.34675E-02 9.85414E-04 3.06661E-02
 -1      2859 3.57400E-06 3.10892E-04 8.60549E-03
 -1      2860-9.63800E-04 1.46419E-05 4.31727E-02
 -1      2861-1.93341E-04-5.11730E-04-2.30531E-02
 -1      2862-1.37967E-02 1.00926E-04 4.71551E-02
 -1      2863-1.45811E-02-1.42751E-04 2.19145E-02
 -1      2864-1.40329E-02-1.69497E-04 4.05042E-02
 -1      2865-1.23702E-02 2.92613E-04 5.31911E-02
 -1      2866-1.15337E-03-2.61604E-04 4.57312E-02
 -1      2867-1.40436E-02 6.31784E-04 3.76237E-02
 -1      2868-1.44924E-02-9.84185E-05-3.77789E-02
 -1      2869-1.00239E-03 4.77230E-04-4.20563E-02
 -1      2870-1.29927E-02-6.34651E-04 4.36875E-02
 -1      2871-1.17327E-03 3.90673E-04 4.62809E-02
 -1      2872-1.11373E-03-4.98865E-04-4.32579E-02
 -1      2873-1.40477E-02 8.09350E-04-2.38907E-02
 -1      2874-1.24696E-02 1.07757E-03-4.83054E-02
 -1      2875-1.95523E-04 5.58446E-04 2.34813E-02
 -1      2876-1.47497E-02 2.46423E-04 5.51194E-03
 -1      2877-1.29951E-02 1.09994E-03 4.13105E-02
 -1      2878-4.22023E-04 7.45201E-04-2.96830E-02
 -1      2879-2.69203E-04 6.45234E-04-1.58993E-02
 -1      2880-1.37606E-02-2.94866E-04-4.54611E-02
 -1      2881-3.41731E-04-4.93011E-04 2.42784E-02
 -1      2882-1.45502E-02 2.14825E-04-4.16266E-03
 -1      2883-1.44724E-02 5.19878E-04-1.24270E-02
 -1      2884-5.02024E-04 7.83798E-04 2.68946E-02
 -1      2885-1.20259E-02-1.02988E-03 4.11811E-02
 -1      2886-1.26588E-02 7.22935E-04-5.38276E-02
 -1      2887-1.35268E-02 1.04058E-04-5.27533E-02
 -1      2888-1.33175E-02-8.86467E-04-3.39573E-02
 -1      2889-7.77273E-04 7.16817E-04-3.79952E-02
 -1      2890-1.39803E-02 7.88040E-04 2.60721E-02
 -1      2891-1.13310E-02 1.16325E-03 5.05794E-02
 -1      2892-1.24278E-02-1.20556E-04-5.56781E-02
 -1      2893-1.08906E-02 1.38354E-03-5.49598E-02
 -1      2894-1.14087E-02 8.48926E-04-5.93478E-02
 -1      2895-1.42019E-02-3.74980E-04 1.09984E-02
 -1      2896-1.35525E-02-1.95251E-04 1.21022E-02
 -1      2897-1.05854E-03 4.32784E-05-4.71188E-02
 -1      2898-1.33159E-02 1.16367E-03-3.00495E-02
 -1      2899-4.09038E-04-7.33476E-04-2.95025E-02
 -1      2900-1.27707E-02 4.09317E-04-3.79430E-03
 -1      2901-4.33766E-04 5.14674E-04 3.43610E-02
 -1      2902-2.11664E-05-1.32608E-04 5.92172E-03
 -1      2903-1.20861E-02-9.70182E-04 4.59844E-02
 -1      2904-1.02226E-03 6.03187E-04 4.08529E-02
 -1      2905-1.03831E-03-6.51694E-04 3.98684E-02
 -1      2906-7.35816E-04 9.65592E-04-3.16673E-02
 -1      2907 2.35361E-03-2.90650E-03 5.21541E-02
 -1      2908-1.19241E-03 2.34769E-04-4.87465E-02
 -1      2909-1.44317E-03-2.83887E-04-4.93746E-02
 -1      2910-5.61888E-04-7.71644E-04 2.67421E-02
 -1      2911-1.16608E-02-7.65448E-04-5.25353E-02
 -1      2912-1.06960E-02-2.56418E-04 5.88776E-02
 -1      2913-9.95803E-04-6.89381E-04-4.15596E-02
 -1      2914-1.13328E-02 1.31986E-03-5.30427E-02
 -1      2915-1.26330E-02-9.06478E-04 3.49857E-02
 -1      2916-1.07197E-04-3.48092E-04-1.14452E-02
 -1      2917-1.41130E-02 1.25095E-04-1.18530E-03
 -1      2918 8.81986E-04-1.83982E-04-6.36587E-02
 -1      2919-1.35001E-04 3.39105E-04-9.09600E-03
 -1      2920-3.77950E-04-6.20831E-04 1.28651E-02
 -1      2921-3.64863E-04 7.81695E-04-1.56358E-02
 -1      2922-1.85292E-03-3.02575E-04 4.97318E-02
 -1      2923-1.30656E-03 7.51468E-04-4.53650E-02
 -1      2924-1.56224E-03-8.67046E-04-4.50378E-02
 -1      2925-1.28093E-02 7.67280E-04-1.52402E-02
 -1      2926 1.63668E-03-2.72319E-03 5.04656E-02
 -1      2927 1.06369E-03-1.47974E-04 6.03190E-02
 -1      2928-1.85665E-03 3.95226E-04 5.00353E-02
 -1      2929-7.53647E-04 9.76504E-04 2.86110E-02
 -1      2930 7.07580E-04-1.13855E-04 5.51146E-02
 -1      2931-1.50330E-03 8.67736E-04 4.34244E-02
 -1      2932 4.96152E-04-2.07475E-03 4.97334E-02
 -1      2933 2.40543E-03-3.07557E-03 5.89159E-02
 -1      2934 9.47183E-03-8.09720E-05 7.52029E-03
 -1      2935-1.38095E-02 3.54277E-04-3.58519E-03
 -1      2936 8.84619E-03 2.91190E-03 1.51406E-02
 -1      2937 1.15143E-03-1.96202E-04 6.03900E-02
 -1      2938-3.05269E-04-3.15596E-04 8.61360E-03
 -1      2939 2.25213E-03-3.06865E-03-5.55884E-02
 -1      2940 1.54839E-03-2.82657E-03-5.37447E-02
 -1      2941-1.10241E-02 1.10140E-03-5.73123E-02
 -1      2942 1.11007E-02-2.00326E-04 6.23283E-03
 -1      2943 8.26542E-03-7.17793E-05-1.98981E-03
 -1      2944 5.13087E-03-4.47850E-03-5.08522E-02
 -1      2945 5.73050E-03-4.39348E-03 4.80617E-02
 -1      2946 3.19210E-04-2.65909E-04-5.85075E-02
 -1      2947 4.63402E-03-3.98542E-03 3.80664E-02
 -1      2948-1.30024E-02-7.93710E-04 4.04662E-02
 -1      2949-3.18476E-04-1.41857E-04 5.78557E-02
 -1      2950 8.92327E-03 3.11533E-03-3.39808E-02
 -1      2951 9.26664E-03 9.50183E-05-1.04046E-02
 -1      2952 5.70584E-03-4.21682E-03 3.61551E-02
 -1      2953-1.09177E-02-5.63172E-04-6.00206E-02
 -1      2954 2.83288E-03 3.18938E-03-5.72142E-02
 -1      2955 7.54957E-03 2.90031E-03-2.37457E-02
 -1      2956 8.36651E-03-3.00681E-03 2.95945E-02
 -1      2957-2.20960E-04 4.34510E-04 9.31066E-03
 -1      2958-3.20594E-04-3.96908E-05 5.80090E-02
 -1      2959-1.11707E-03-9.33893E-04 3.82153E-02
 -1      2960 2.70463E-04-2.16085E-03 5.66300E-02
 -1      2961 5.54913E-03 2.23779E-04-1.06511E-02
 -1      2962 7.56529E-03-2.70497E-03 1.94963E-02
 -1      2963-1.31764E-02-8.22043E-04 2.58271E-02
 -1      2964 8.88311E-03-2.96194E-03 1.38634E-02
 -1      2965 8.28337E-03-3.27169E-03-3.24661E-02
 -1      2966 4.52461E-03-4.18717E-03-4.12538E-02
 -1      2967 2.46314E-03-3.25481E-03-4.94380E-02
 -1      2968 8.60542E-03-1.13197E-04-1.02565E-03
 -1      2969-1.29109E-02 1.05555E-03-2.13132E-02
 -1      2970-1.37313E-03-8.88119E-04 4.15072E-02
 -1      2971 3.02004E-03-3.02390E-03 3.41002E-02
 -1      2972 2.48043E-03 2.76138E-03 5.93347E-02
 -1      2973 4.79007E-03-2.18927E-03 2.88910E-02
 -1      2974-7.24343E-04-1.35507E-04-6.12177E-02
 -1      2975 6.40950E-03-2.61358E-04 6.49522E-03
 -1      2976-1.01839E-02-5.56244E-04 5.80488E-02
 -1      2977 2.83791E-04-2.20388E-03-5.31965E-02
 -1      2978 1.97614E-03-2.98832E-03-6.16916E-02
 -1      2979-2.86918E-04 5.43782E-04-1.17707E-02
 -1      2980 7.57680E-03 2.68129E-03 2.05974E-02
 -1      2981 1.55741E-03 2.86696E-03-5.43417E-02
 -1      2982-2.07042E-03-3.08395E-04-5.31152E-02
 -1      2983 5.23427E-03 4.13415E-03-4.03874E-02
 -1      2984 2.59459E-04-2.09257E-03-5.96248E-02
 -1      2985 5.72180E-03 1.64167E-04 7.67965E-03
 -1      2986-1.29524E-02 8.37932E-04 1.98303E-02
 -1      2987 7.99033E-04-2.66231E-04-6.38960E-02
 -1      2988-1.83967E-03 3.83214E-04-5.30274E-02
 -1      2989 4.97216E-03 2.31227E-03-3.32023E-02
 -1      2990 2.73865E-03-3.12981E-03 4.64175E-02
 -1      2991 5.25761E-03-1.95442E-03 1.25906E-02
 -1      2992 9.03434E-03 3.07543E-03-1.82170E-02
 -1      2993-1.25857E-03 9.27677E-04-4.34622E-02
 -1      2994 5.29790E-03 4.17250E-03 4.87081E-02
 -1      2995 1.69410E-03 2.59722E-03 5.11081E-02
 -1      2996 5.54895E-03-4.58402E-03-3.89393E-02
 -1      2997 9.46469E-03-2.93374E-04-9.24638E-03
 -1      2998 7.49931E-03-2.99536E-03-2.27134E-02
 -1      2999 2.77757E-03-3.23948E-03-3.70653E-02
 -1      3000 5.65365E-03-3.51022E-04-9.58071E-03
 -1      3001 5.18417E-03 2.05594E-03 1.38536E-02
 -1      3002-1.31311E-02 6.69291E-04-9.67755E-03
 -1      3003-8.47039E-04-9.10413E-04-3.10124E-02
 -1      3004 4.44757E-03 3.90835E-03-5.13191E-02
 -1      3005 4.61503E-03 3.92192E-03-4.23146E-02
 -1      3006-1.68536E-03 9.50595E-04-4.70433E-02
 -1      3007 8.18584E-04 2.44704E-03-5.40681E-02
 -1      3008 2.36981E-03 3.01931E-03-6.25545E-02
 -1      3009 3.59579E-04 2.24816E-03-6.03214E-02
 -1      3010 8.32367E-03 2.84741E-03 3.06345E-02
 -1      3011 1.60495E-03 2.57795E-03-4.42795E-02
 -1      3012 2.70828E-03 3.07784E-03-3.84316E-02
 -1      3013-6.61082E-04-1.59491E-04-6.14063E-02
 -1      3014 4.75277E-03 3.96311E-03 3.89760E-02
 -1      3015 2.45972E-03 2.72235E-03 5.33408E-02
 -1      3016 5.25043E-03 2.21256E-03-1.69388E-02
 -1      3017 4.68538E-04 2.03168E-03 5.70519E-02
 -1      3018 6.61159E-04 2.06935E-03 5.08171E-02
 -1      3019 4.72288E-03-2.36674E-03-3.19286E-02
 -1      3020 8.79395E-03-3.26958E-03-1.67518E-02
 -1      3021 4.77882E-03 2.19862E-03 2.99224E-02
 -1      3022 2.50515E-03 3.02414E-03 4.71769E-02
 -1      3023 5.61106E-03 4.31197E-03 3.72769E-02
 -1      3024 3.11903E-03 3.09947E-03 3.51679E-02
 -1      3025 5.10020E-03-2.25720E-03-1.55898E-02
 -1      3026-7.38242E-03 9.75323E-05 5.59071E-02
 -1      3027-8.15196E-03 7.75049E-05-1.33006E-02
 -1      3028-6.68941E-03-5.87020E-05 3.05815E-02
 -1      3029-7.56268E-03 6.60880E-05 4.68238E-02
 -1      3030-6.99052E-03 2.57161E-04-3.18547E-02
 -1      3031-6.76646E-03 2.07423E-04-3.47360E-02
 -1      3032-6.73280E-03-1.11040E-04 9.37751E-03
 -1      3033-7.59427E-03 6.70902E-05 5.01219E-02
 -1      3034-6.37864E-03-6.58661E-05 2.69648E-02
 -1      3035-7.22080E-03 2.83775E-05 8.31148E-03
 -1      3036-7.15083E-03 2.84586E-04 4.37978E-02
 -1      3037-7.26164E-03 8.70379E-05-5.89845E-02
 -1      3038-5.83442E-03-6.55786E-05 5.32159E-02
 -1      3039-7.45751E-03 1.51582E-04 5.62013E-02
 -1      3040-7.37840E-03 1.75475E-04 5.10498E-02
 -1      3041-7.53700E-03 4.54442E-05-4.54265E-02
 -1      3042-4.86117E-03-1.13608E-04 8.79550E-03
 -1      3043-7.28584E-03 4.94190E-05-4.97866E-02
 -1      3044-5.98749E-03-3.21526E-04 5.14687E-02
 -1      3045-7.42008E-03 1.93278E-04-5.84918E-02
 -1      3046-4.15477E-03 4.77178E-04-1.33713E-02
 -1      3047-7.07658E-03 2.29658E-04 2.88668E-02
 -1      3048-7.14940E-03 2.91614E-05-1.15514E-02
 -1      3049-3.74040E-03-5.10728E-04 2.81827E-02
 -1      3050-4.83093E-03 5.37098E-04-3.34377E-02
 -1      3051-7.47215E-03 2.91132E-05-5.41143E-02
 -1      3052-6.62301E-03 2.00478E-04 1.05157E-02
 -1      3053-6.86141E-03 2.32298E-04 9.38989E-03
 -1      3054-4.66000E-03 3.28203E-04 9.96747E-03
 -1      3055-3.99834E-03-5.37292E-04 2.99122E-02
 -1      3056-5.57509E-03-3.79233E-04-4.78795E-02
 -1      3057-5.76223E-03 2.06018E-04-5.11989E-03
 -1      3058-5.53774E-03-3.17971E-04 3.80540E-02
 -1      3059-5.11599E-03 3.06598E-04 5.50414E-02
 -1      3060-6.95891E-03 2.34985E-04-5.11701E-02
 -1      3061-6.38362E-03 2.53193E-04 4.77354E-02
 -1      3062-7.20215E-03 3.65426E-06-3.38928E-02
 -1      3063-3.72671E-03-2.06298E-04-1.18177E-02
 -1      3064-7.46702E-03-7.83184E-05 4.22484E-02
 -1      3065-5.73589E-03-1.01509E-05 5.74029E-02
 -1      3066-4.81022E-03 3.10422E-04 5.24163E-02
 -1      3067-4.06981E-03 6.83342E-04 2.96737E-02
 -1      3068-4.97708E-03 1.33689E-04 2.22208E-03
 -1      3069-4.63545E-03 3.84370E-04-1.24716E-02
 -1      3070-5.12237E-03 5.57628E-04 4.58112E-02
 -1      3071-6.00323E-03-5.33601E-05-5.71344E-02
 -1      3072-5.74010E-03-3.15558E-04-4.51835E-02
 -1      3073-7.00732E-03-4.80330E-05 2.33113E-02
 -1      3074-6.31336E-03 2.44713E-04-5.34473E-02
 -1      3075-6.49881E-03 1.05558E-04-6.08378E-02
 -1      3076-4.73424E-03-5.42234E-04 4.58579E-02
 -1      3077-5.72579E-03 4.77326E-04-2.76621E-02
 -1      3078-5.09144E-03-1.70592E-04-5.78667E-02
 -1      3079-7.17714E-03 2.65269E-04-4.67031E-02
 -1      3080-5.41462E-03 4.39842E-04 4.29450E-02
 -1      3081-5.43855E-03 3.32355E-04 1.91799E-02
 -1      3082-6.75031E-03-9.65813E-05-3.12659E-02
 -1      3083-4.26435E-03-5.65648E-04-3.32631E-02
 -1      3084-5.35684E-03 5.49773E-04-4.91490E-02
 -1      3085-5.13493E-03 4.12747E-04 2.56170E-02
 -1      3086-5.26235E-03 5.33762E-04-4.17466E-02
 -1      3087-4.88443E-03-1.81669E-04-5.52450E-02
 -1      3088-5.33408E-03-2.02285E-04 1.80485E-02
 -1      3089-5.01639E-03 3.33549E-04-5.82789E-02
 -1      3090-6.61820E-03 3.43542E-04-5.81406E-02
 -1      3091-5.71640E-03 4.15643E-04 5.27743E-02
 -1      3092-4.52843E-03-5.75240E-04 4.36021E-02
 -1      3093-7.24128E-03 2.29769E-04 3.66346E-02
 -1      3094-5.47523E-03-2.41409E-04-2.66513E-02
 -1      3095-6.15583E-03 5.47865E-05-5.48513E-03
 -1      3096-4.81987E-03 3.29982E-04-5.57325E-02
 -1      3097-7.37619E-03 1.16642E-04-1.92329E-02
 -3
    1PSTEP                         2           1           1          
  100CL  101 1.000000000        3097                     0    1           1
 -4  STRESS      6    1
 -5  SXX         1    4    1    1
 -5  SYY         1    4    2    2
 -5  SZZ         1    4    3    3
 -5  SXY         1    4    1    2
 -5  SYZ         1    4    2    3
 -5  SZX         1    4    3    1
 -1         1-2.56960E-01 1.71192E-02-1.57473E-01-2.02221E-02-2.61137E-02-3.40918E-01
 -1         2-2.03717E-01 2.96625E-02-2.46819E-01-3.42419E-02-7.42692E-02-3.10872E-01
 -1         3-1.12672E+00-4.71635E-01 6.98022E-01 5.78867E-01-1.38160E-01-8.27098E-02
 -1         4-3.17438E+00-5.52372E-01 2.50650E-01-1.45011E-01 1.08350E-02 1.34350E-01
 -1         5-1.00141E+00-4.03650E-01 5.35048E-01-4.15257E-01-1.60382E-01-3.35766E-02
 -1         6-2.43897E+00-4.94687E-01 2.33068E-01-1.24151E-01-7.03399E-02-2.64945E-01
 -1         7-1.39620E+00-4.10320E-01 2.88371E-01-8.80838E-01 1.52737E-01-8.53810E-02
 -1         8-8.67383E-01-3.79661E-01 3.42515E-01 3.87658E-01 9.24771E-02-6.99609E-02
 -1         9-9.25607E-01-2.16938E-01-5.98970E-01-3.62874E-02 2.91907E-02 7.44588E-01
 -1        10-2.97774E+00-5.24409E-01 4.11804E-01 4.27352E-01-2.96599E-03 5.51129E-02
 -1        11-8.72849E-01-1.05095E-01-5.37495E-01-7.03253E-02-1.81013E-02 6.52179E-01
 -1        12-3.91747E-01-3.85956E-01-5.89730E-01 2.06804E-02 6.78511E-02 6.99462E-01
 -1        13 5.30149E-01 1.89236E-02 8.24709E-02 3.03960E-02-4.50554E-02 1.17747E-01
 -1        14 8.33222E-01 6.49257E-02 1.27049E-01 3.64265E-02-4.85450E-02-1.48512E-01
 -1        15-2.01326E+00-4.29228E-01 2.04037E-01 2.90834E-01-3.64839E-02-1.77960E-01
 -1        16 5.37763E-01-1.46015E-01-1.99606E-01-1.91969E-01-7.89880E-02-6.82701E-02
 -1        17 5.67188E-01 2.52940E-04 6.78587E-02-3.95688E-02 1.79067E-02 4.01217E-03
 -1        18 6.07639E-01-4.33775E-01-3.36810E-01-1.82439E-01-4.07716E-02-4.24256E-02
 -1        19-2.56038E+00-7.41525E-01 2.38802E-01-7.17802E-01 5.39956E-02 1.66063E-01
 -1        20-8.80681E-01-2.43381E-01-5.97518E-01-1.92385E-01 2.17907E-01 7.13732E-01
 -1        21-4.66838E-01-8.13935E-01 3.79564E-01-7.61665E-01 1.93630E-01-1.42329E-01
 -1        22-2.53575E+00-4.46558E-01 2.09469E-01-3.62087E-01 3.22656E-03-3.40177E-03
 -1        23-1.16352E+00-1.19742E-01 4.26116E-01 1.77740E-01 1.25954E-01 1.55281E-03
 -1        24-1.81323E+00 8.12676E-02 3.41891E-01 2.94933E-01-1.99909E-01-6.81254E-02
 -1        25-3.11416E-01-4.45284E-01-5.99269E-01-6.08804E-02 3.27913E-01 4.73152E-01
 -1        26-7.56827E-01-2.28048E-01-6.60734E-01-2.07437E-01 1.31077E-01 6.95932E-01
 -1        27-2.02018E+00-5.80912E-01 1.67137E-01-5.09932E-01-6.30649E-02-1.81852E-01
 -1        28-1.35944E-01-4.78042E-03-2.95535E-01-6.96422E-02-1.00930E-01-2.91403E-01
 -1        29 4.91298E-01-3.61125E-02-1.24389E-01 1.40555E-01 2.64197E-02-1.74195E-01
 -1        30-2.48512E-01-2.09135E-02-7.95553E-02-5.77063E-02-4.84995E-02-3.23333E-01
 -1        31-2.06898E+00-2.94668E-01 2.61365E-01-1.81035E-01 1.08826E-02-1.34244E-02
 -1        32 8.01619E-01-1.29797E-01 5.09397E-02 1.44095E-01 5.68007E-02-5.95030E-02
 -1        33 7.03924E-01 3.32238E-02 1.74664E-01 7.98931E-02 5.46058E-02 6.18383E-02
 -1        34 4.27715E-01-3.74999E-02-4.13468E-02 2.29801E-01-7.78939E-02-4.06031E-02
 -1        35 6.76707E-01 2.21484E-02 2.89300E-01 1.50363E-01 5.86847E-02-2.90216E-02
 -1        36-5.21457E-01-6.37972E-01 9.79453E-02-6.23657E-01-1.86844E-01-6.66074E-02
 -1        37-1.42205E+00-1.02239E+00 9.91148E-02-8.41361E-01 7.44738E-02 8.75669E-02
 -1        38-1.76843E+00-6.67859E-01 2.72016E-01-8.05246E-01-2.92341E-02-5.39034E-02
 -1        39-3.05503E-01-2.65833E-01-4.54969E-01-3.65631E-02 3.91649E-01 2.36247E-01
 -1        40-5.89924E-01-3.31324E-01-4.69770E-01-2.65336E-01 3.39389E-01 4.86485E-01
 -1        41 2.74982E-01 1.50947E-01 1.36320E-01 1.90097E-01 7.12468E-02 1.14738E-02
 -1        42-3.66452E+00-1.50502E+00-1.96918E+00-4.34899E-01 4.28020E-01-1.51705E+00
 -1        43 3.55977E-01 5.94204E-02-1.42188E-01 2.48375E-01-2.43458E-02-1.06901E-01
 -1        44-1.55195E-01 3.02978E-02-2.18908E-01-1.22626E-01-5.56327E-02-2.81588E-01
 -1        45-2.08978E-01-2.28131E-02-4.78967E-02-6.94919E-02-3.16316E-02-3.00860E-01
 -1        46-4.98073E-01-3.42677E-01-6.08068E-01-2.46057E-01 2.86337E-01 5.49888E-01
 -1        47-1.31996E+00-6.09648E-01 2.06666E-01-6.86852E-01-6.29638E-02-6.96543E-02
 -1        48-2.84774E-01-4.49539E-01 2.45648E-01-1.92694E-01-1.99443E-01-2.81184E-02
 -1        49-8.48674E-01-6.94297E-01 1.61107E-01-6.38183E-01-1.96227E-01-1.29644E-01
 -1        50-3.05485E-02-9.26009E-01 2.08701E-01-3.36942E-01 1.54091E-01-9.08054E-02
 -1        51-1.58192E+00 4.60273E-04 2.65792E-01-4.05537E-01-1.68690E-01-8.11290E-03
 -1        52-1.15119E+00 3.20240E-02 2.21814E-01-2.55561E-01 1.56933E-01 6.90007E-02
 -1        53 1.43435E-01-2.10482E-01-2.46543E-01 3.97942E-01 1.61256E-01-1.45742E-01
 -1        54 4.37676E-01 2.03749E-01 1.93352E-01 3.09920E-01-1.13129E-01 2.39905E-02
 -1        55-6.52417E-01-8.01718E-02 2.70204E-01-3.52733E-01-2.12877E-01-6.00179E-02
 -1        56-3.47969E-01-6.03238E-01 1.22294E-01-4.87384E-01 1.01084E-01 3.15467E-03
 -1        57-5.34425E-01-6.28017E-01 1.32978E-01-6.47513E-01-4.63836E-02 5.39781E-02
 -1        58-6.28866E-01-4.39374E-01 1.03181E-01-5.97865E-01-1.05519E-01-6.24127E-02
 -1        59-1.16008E-01 8.14657E-03 3.16450E-02-1.11441E-01-1.72384E-02-2.35633E-01
 -1        60-2.22699E-01-8.31954E-02-1.85688E-01-1.52377E-01 1.08562E-01 2.50299E-01
 -1        61-2.01404E-01-2.16965E-01-2.26381E-01-2.38482E-01 2.26698E-01 1.95711E-01
 -1        62-7.58916E-02-1.02700E-01-3.57404E-02-3.28977E-02 1.57056E-01 2.11605E-02
 -1        63-3.91599E-01-3.63931E-01 1.44709E-02-4.17926E-01-3.18111E-01-8.31997E-02
 -1        64-2.95858E-02 2.55863E-02-1.76970E-01-1.23628E-01-8.21283E-02-2.18955E-01
 -1        65-1.98688E+00-8.82885E-01-2.13472E-02-3.26499E-01 5.81984E-01-8.64426E-01
 -1        66-2.83734E-01-3.39926E-01-3.50503E-01-1.38243E-01 2.27914E-01 5.62279E-02
 -1        67 1.55374E-01 4.22555E-02-1.48390E-01 2.47753E-01-2.75713E-01-1.66137E-01
 -1        68-7.52462E-01-2.29450E-01 8.90706E-02-4.70082E-01 1.65024E-01 1.28909E-01
 -1        69 5.41058E-02-2.95488E-01 6.29749E-02-8.84947E-02 2.11834E-01-6.81557E-02
 -1        70 4.85322E-02-2.29138E-01 1.61777E-02-1.36055E-01-2.74353E-01 4.82176E-02
 -1        71-2.87990E-02 3.03651E-02 3.15446E-02-4.64199E-01-5.42256E-04 2.08912E-02
 -1        72-3.90647E-02-3.85493E-02-2.49456E-02-1.51131E-01 3.10103E-02 1.21575E-01
 -1        73 8.13140E-02 1.62128E-01 1.43157E-01-4.58298E-01 4.74815E-02 2.73310E-03
 -1        74-8.30309E-03-5.08505E-02 1.08879E-01-1.27698E-01-4.98274E-02 9.68248E-02
 -1        75 6.32179E-02 7.91900E-02 1.58521E-01-6.91360E-02-7.78780E-02-6.83222E-02
 -1        76 5.24186E-01-1.36642E-01-1.10265E+00-7.89936E-01-6.26030E-01-1.45291E+00
 -1        77-1.08545E-03-2.01629E-02-1.66615E-01-8.94092E-02-3.85091E-02-2.03990E-01
 -1        78-1.07526E-02-8.18740E-02 2.46380E-01-1.09853E-01 1.51918E-02-2.32461E-01
 -1        79-2.02513E-01-2.93017E-01-2.65158E-01-8.77003E-02 1.03271E-01 2.28655E-02
 -1        80-4.70270E-02-4.21138E-02 4.15708E-03 7.01244E-02 9.26254E-02-9.24663E-02
 -1        81-8.55057E-02-3.87057E-02 8.52289E-02 8.80442E-02 1.42622E-01-3.22142E-01
 -1        82 9.26409E-02-1.18447E-01-3.50716E-02 1.66229E-01-1.90055E-01-1.96163E-01
 -1        83 2.75473E-01 1.86113E-01-1.37555E-01-3.67964E-01-2.46018E-01 6.88310E-02
 -1        84 2.44275E-01 3.30291E-01-7.27506E-02-5.37018E-01-2.64933E-01 6.61099E-02
 -1        85 1.00058E-01 5.67258E-02-2.40772E-02 2.57488E-01 6.09298E-02-9.01684E-02
 -1        86-1.83766E-01-1.42687E-01-2.55320E-01-3.92938E-02 1.34107E-01 5.12590E-02
 -1        87 3.51648E-02 1.72590E-01-8.42881E-02-4.33220E-01 2.24691E-01 4.26426E-03
 -1        88 1.76703E-01 2.16097E-01-1.36432E-01-2.71277E-01 2.04978E-01-2.44883E-02
 -1        89-1.54965E-01-5.84311E-03 6.26392E-02-1.59908E-01 2.22356E-01 8.66324E-02
 -1        90-2.34821E-01-2.07235E-01 4.62590E-02-2.80124E-01-2.24954E-01-9.96865E-02
 -1        91 1.37195E-01-1.18897E-02-3.27441E-02-9.60303E-02-6.01148E-03-2.16890E-01
 -1        92 3.41050E-01 3.88315E-01-3.97101E-02-4.12494E-01 3.26383E-01-1.18100E-01
 -1        93 8.25157E-01 1.41133E-01-3.45180E-01-4.51253E-01 2.53825E-01-5.86049E-02
 -1        94 5.38534E-01 4.31866E-01-1.91042E-01-5.54763E-01 1.10200E-01-5.77752E-02
 -1        95 4.87707E-01 7.90838E-01-1.41816E-01-5.68485E-01-1.57356E-01 3.56658E-02
 -1        96 7.02862E-01 8.06527E-01-1.78677E-01-7.89792E-01 3.45098E-02 6.33853E-02
 -1        97 5.96980E-01 1.79260E-01-2.39761E-01-4.35815E-01-1.97018E-01 1.95665E-02
 -1        98 1.85984E-01 1.78712E-01 2.11014E-01-2.06900E-01-1.96515E-01 2.11023E-01
 -1        99-5.91935E-02 4.58812E-01-5.19191E-02-1.10161E-01-2.84439E-01-7.15223E-02
 -1       100 1.32988E-01 1.70476E-01 4.91116E-02-2.01662E-01-1.02756E-01 1.58349E-01
 -1       101 7.01648E-02 3.61364E-03-2.28704E-01 6.70097E-02-2.51430E-01 3.76479E-02
 -1       102-1.81373E-01-1.42741E-01 1.20049E-01 1.93485E-01-8.67140E-02-2.02224E-01
 -1       103 4.29559E-02-2.16181E-02 1.58539E-01-1.07244E-01 5.93686E-02-2.05295E-01
 -1       104-1.96696E-01-5.82284E-02 3.52361E-01 2.97254E-01 1.54568E-01-9.25325E-02
 -1       105-5.31375E-03 2.90493E-01 9.16091E-02-1.21825E-01 2.65108E-01-1.90959E-02
 -1       106-3.15590E-01-5.67722E-01-3.73877E-01 1.59807E-01 3.51498E-02-4.63308E-02
 -1       107 8.54014E-02-2.27908E-01 1.55187E-02 3.20948E-01-2.18298E-01-1.75341E-01
 -1       108 1.57684E-01 1.86553E-02-5.77762E-04-9.47688E-02 5.24432E-02-2.27524E-01
 -1       109 2.71866E+00 1.64171E+00 2.19024E+00-4.17379E-01-2.60889E-01-1.47475E+00
 -1       110 1.55199E+00 1.12112E+00-1.88962E-01-9.63445E-01-9.68663E-02 1.02046E-01
 -1       111 4.65437E-01 3.02491E-01 4.94677E-01-3.80485E-01-3.88488E-01 4.81174E-01
 -1       112 1.25128E+00 7.46567E-01-3.47857E-02-6.71827E-01 1.30939E-01-1.34017E-01
 -1       113 8.51236E-02 7.39788E-01-9.10187E-02-3.28859E-01 2.18327E-01 3.76808E-04
 -1       114 1.75224E+00 6.75889E-01-3.16065E-01-8.08740E-01 5.67758E-02-3.04082E-02
 -1       115 1.54456E+00 5.18972E-01-1.61636E-01-6.69430E-01 2.34457E-02 1.19606E-02
 -1       116 4.66663E-02 3.94359E-02 2.61557E-01-8.10997E-02 1.34271E-01-2.17555E-01
 -1       117 4.73493E-01 3.22269E-01 4.27296E-01-3.89392E-01-3.71080E-01 4.48568E-01
 -1       118 5.39048E-01 3.26731E-01 6.18018E-01-1.07164E-01-2.66815E-01 2.56526E-01
 -1       119-2.93501E-01-3.56693E-02 7.87246E-02 2.06196E-01 1.04047E-01-1.57603E-01
 -1       120 3.33450E-01-7.09732E-02 3.49561E-01 2.27201E-01-8.19583E-02-3.91789E-01
 -1       121 1.39362E+00 5.06348E-02-1.33693E-01-3.79570E-01-7.64058E-02-2.84579E-02
 -1       122-4.72309E-01-2.92674E-02 4.50280E-02 3.90414E-01-3.67815E-02 8.24135E-02
 -1       123-2.54001E-01-1.18966E-01-1.31294E-01 1.56634E-01-9.27861E-02 6.94480E-04
 -1       124 1.57037E+00-3.37566E-02-3.39289E-01-3.95513E-01 2.17664E-01-1.93237E-02
 -1       125 1.45640E-01 2.98948E-01 4.25353E-01 1.07131E-01-6.05366E-02-1.06436E-02
 -1       126-4.76600E-01-1.73089E-01 5.44404E-02 2.97510E-01-1.75674E-01-4.73665E-02
 -1       127 6.65950E-02 8.92286E-01-2.46009E-01-4.30229E-01-3.16901E-01-7.19273E-02
 -1       128 2.58509E-01 2.71141E-02 1.65530E-01-2.52360E-02 5.05165E-02-3.21637E-01
 -1       129 7.36619E-01 2.82196E-01 5.10161E-01-1.67322E-01-2.11230E-01 5.98953E-01
 -1       130 6.62144E-01 2.32245E-01 5.53191E-01-2.22267E-01-1.44668E-01 5.94652E-01
 -1       131 2.67731E+00 5.29938E-01-2.64352E-01-4.50974E-01-3.34634E-03 1.04390E-01
 -1       132 4.51291E-01 4.64206E-01-4.31136E-01-3.03040E-01 1.22306E-01-1.57630E-03
 -1       133 2.04315E+00 5.17713E-01-1.96869E-01-4.48366E-01 9.03178E-02-2.06834E-01
 -1       134 1.17229E-01-2.31317E-03 3.55968E-01-6.17375E-02 9.41599E-02-2.96577E-01
 -1       135 2.97967E-01 2.75079E-01 4.06562E-01-6.10148E-02-2.35075E-01 4.10395E-01
 -1       136 7.59939E-01 2.90217E-01 6.47171E-01 1.09407E-01-8.69992E-02 5.86819E-01
 -1       137-4.68124E-01 4.00925E-02 1.79130E-01 1.70917E-01 6.43568E-02-1.58581E-01
 -1       138-4.62715E-01-2.82033E-02-1.99730E-01 4.35606E-02-9.24847E-03 8.83045E-02
 -1       139 2.09271E+00 3.40443E-01-1.71059E-01-2.07418E-01 3.80943E-02-1.26702E-01
 -1       140-8.40918E-01-9.54094E-02-1.52681E-02 2.30910E-01 1.34130E-02-1.76885E-02
 -1       141 1.65971E+00-5.05908E-02-1.75999E-01 1.71172E-01-1.21613E-01-9.88934E-02
 -1       142-2.06532E-01 5.84279E-01 1.01161E-01 3.42577E-01-4.37431E-02-5.51168E-02
 -1       143 2.28915E+00 6.89252E-01-2.16654E-01-7.19450E-01-8.20007E-02 2.81474E-01
 -1       144 5.33946E-01 7.23769E-01-3.28990E-01-7.52722E-01-2.71419E-01-4.51592E-02
 -1       145 2.02952E+00-8.72561E-02-3.40671E-01 2.86954E-01 2.07866E-01-5.79135E-03
 -1       146-5.36250E-01 4.79847E-02 9.51565E-03 1.54640E-01 1.04988E-01-1.05879E-01
 -1       147 2.44259E+00 3.98850E-01-2.18623E-01-7.64457E-02 1.04139E-02-2.55181E-01
 -1       148 1.16083E+00 2.51138E-01-2.96121E-01-6.79528E-01 2.10774E-01-4.07071E-03
 -1       149 3.26714E+00 5.61161E-01-2.95685E-01 1.95380E-01 3.43382E-02 1.91292E-01
 -1       150 2.80124E+00 4.86721E-01-2.90017E-01-3.06188E-01-1.67782E-03 1.54973E-01
 -1       151 2.81687E-01-2.08627E-02 1.89175E-01-2.29176E-02 4.84362E-03-3.05279E-01
 -1       152 2.29696E+00 3.72699E-01-2.20483E-01 3.15808E-01-4.72739E-02-2.20996E-01
 -1       153 9.99911E-01 2.23091E-01 6.47052E-01 9.04459E-02 7.27575E-02 8.04360E-01
 -1       154 9.04380E-01 9.01175E-02 6.89985E-01 5.18357E-02 1.05729E-01 7.64343E-01
 -1       155 3.40564E+00 2.86428E+00 2.41733E+00 1.46906E-01 3.96885E-01-8.15601E-01
 -1       156 1.69996E-01-2.51570E-02 1.96233E-01-4.52274E-03 1.20897E-01-3.62687E-01
 -1       157-2.97382E-01 1.31007E-02-2.88287E-02-4.46289E-02 1.21259E-02 1.08605E-01
 -1       158 1.56189E+00 3.80985E-01-3.80368E-01 9.43338E-01 2.46634E-01-3.57797E-02
 -1       159 1.34019E+00 2.52118E-01-2.44927E-01 7.11518E-01-2.36106E-01-1.08446E-01
 -1       160 1.46268E+00 3.40296E-01-2.86060E-01-8.39845E-01-2.18000E-01 2.84065E-02
 -1       161-4.80115E-01 6.97255E-01 2.45608E-01-2.26212E-01 5.49888E-02-1.04834E-01
 -1       162 2.51349E-01 7.46911E-03 1.15043E-01 6.48449E-02-3.31493E-02-2.78483E-01
 -1       163 2.08668E+00 5.61724E-01-1.44340E-01 4.70602E-01-8.05183E-02-2.25449E-01
 -1       164 1.27430E+00 1.06675E-01-3.76342E-01-2.33719E-01 1.23701E-01-3.93101E-02
 -1       165 2.13108E+00 2.95254E-01-2.37151E-01 1.33504E-01 5.87053E-04-6.51550E-02
 -1       166 2.59165E+00 8.19045E-01-2.47160E-01 7.44854E-01 1.05145E-01 2.98492E-01
 -1       167 2.62833E+00 5.28256E-01-1.88942E-01 3.98861E-01 8.04417E-02 1.10532E-01
 -1       168 5.78652E-01 8.78726E-01-3.39314E-01 8.44773E-01 2.38615E-01-7.77720E-02
 -1       169 5.08267E-01 1.68664E-01 5.64302E-01 2.00107E-01 2.90861E-01 5.93515E-01
 -1       170 6.96049E-01 3.26321E-01 2.79661E-01 2.78269E-01 2.11705E-01 5.05690E-01
 -1       171-4.08534E-01 1.00363E-01 1.14433E-01-1.34731E-01-5.53101E-02-1.99321E-01
 -1       172 2.47657E-01 4.90351E-02 2.35450E-01 2.48077E-02-4.12447E-02-3.81426E-01
 -1       173 2.90794E+00 2.29109E+00 2.27567E+00-1.51379E-01 4.27552E-01-1.07536E+00
 -1       174-2.99997E-01 2.00440E-02 9.76938E-02-9.49579E-02 9.79982E-02-3.71013E-02
 -1       175-8.70408E-01-6.43625E-02-1.37893E-01-1.33294E-01-3.81745E-02-1.53931E-02
 -1       176 5.29328E-01 5.09673E-01-1.18024E-01 5.88125E-01-2.67524E-01-1.12254E-01
 -1       177-5.97337E-01-5.16151E-02-1.08706E-02-8.27904E-02 6.86983E-02-7.15131E-02
 -1       178 1.98124E+00-3.80177E-02-1.94313E-01-2.63259E-01-1.22081E-01 2.18853E-02
 -1       179 1.47355E+00 6.11790E-01-2.28934E-01 6.83559E-01-8.35238E-02-1.26724E-01
 -1       180 1.27195E+00-2.07177E-02-2.58229E-01 3.20568E-01 1.65815E-01 1.52921E-02
 -1       181 1.80163E-01 3.70698E-01-2.46651E-01 2.34720E-01-2.11445E-01-3.13702E-02
 -1       182 1.44805E+00 1.16798E+00-1.38520E-01 8.95943E-01 1.05720E-01 6.05964E-02
 -1       183 3.14727E-02 1.08809E+00-2.27644E-01 3.74092E-01 1.46237E-01-1.04716E-01
 -1       184 1.65450E+00 6.95533E-01-2.53534E-01 8.07747E-01-1.97436E-04-4.45042E-02
 -1       185 4.00076E-01 3.48052E-01 3.08946E-01 1.32862E-01 4.09012E-01 2.23635E-01
 -1       186 5.35845E-01 2.76142E-01 4.89356E-01 3.50233E-01 3.56292E-01 5.04015E-01
 -1       187 1.92403E-01-1.83499E-02 1.55328E-01 1.14770E-01-8.99078E-02-2.85650E-01
 -1       188 1.69006E-01 4.03119E-02 7.09353E-02 1.00212E-01-2.61232E-02-2.45724E-01
 -1       189 4.77854E-01 2.87594E-01 5.99684E-01 3.51920E-01 3.96083E-01 5.35258E-01
 -1       190-1.63639E-01-1.16332E-01-4.30328E-02-1.41706E-01 1.60593E-01-5.05466E-03
 -1       191-3.88219E-01-5.85032E-03 1.49113E-02-4.25694E-01 1.16586E-01-2.72356E-02
 -1       192 9.78225E-01 6.41747E-01-1.50161E-01 6.30676E-01-2.35606E-01-1.88041E-01
 -1       193-9.86471E-02-5.01085E-02 3.42135E-01-2.45777E-01 1.67615E-02-3.63682E-01
 -1       194 1.45672E+00-1.73972E-02-2.88128E-01 3.73564E-01-1.82472E-01-7.27449E-03
 -1       195 3.64323E-02 3.30127E-02-8.71298E-02-1.00390E-01-1.50931E-01-1.38742E-01
 -1       196 1.26918E-01 4.86939E-03-2.19738E-02 1.23462E-01-1.05751E-02-2.30064E-01
 -1       197 2.07467E+00 8.16916E-01 1.22215E-01 3.58095E-01 5.53966E-01-8.90936E-01
 -1       198 4.23936E-01 6.98078E-01-1.77092E-01 5.21159E-01 1.18235E-01-3.31436E-02
 -1       199 3.44779E-02 4.43379E-03 1.66663E-01 1.21785E-01-8.32389E-02-2.08388E-01
 -1       200 4.74469E-01 4.17143E-01-1.36672E-01 5.80321E-01-7.82083E-02-4.08253E-02
 -1       201 2.49825E-01 3.55419E-02 1.81696E-01 2.04569E-01 7.70304E-02 3.11872E-01
 -1       202 2.78077E-01 2.63493E-01 2.86692E-01 2.66276E-01 2.79199E-01 2.32519E-01
 -1       203 1.17517E+00 9.70881E-01 1.64204E+00 7.68873E-01-2.75849E-01-1.44549E+00
 -1       204 4.92566E-02 5.32866E-02 2.99386E-01-1.98337E-01-2.57241E-01-1.29747E-01
 -1       205 2.94156E-01 1.76208E-01 3.04012E-01 1.59976E-01 2.44497E-01 4.26481E-02
 -1       206 7.21626E-01 1.90199E-01-1.77003E-01 4.66095E-01 2.12701E-01 1.03529E-01
 -1       207 1.62208E-01-6.91894E-02 3.34057E-01 1.47022E-01-1.48395E-01-2.95576E-01
 -1       208 1.33765E-01 1.21441E-01-1.68861E-01 1.64822E-01-1.74166E-01 3.48268E-02
 -1       209 1.92374E-01 3.10398E-01-1.81945E-01 3.99263E-01-2.48703E-01 9.44984E-04
 -1       210 6.49218E-01 7.60560E-01-1.52808E-01 6.69653E-01-9.37753E-02 5.51798E-03
 -1       211 7.55928E-01 1.97736E-01-2.13937E-01 4.98168E-01-2.34649E-01-9.54140E-02
 -1       212 1.59078E-01-2.64172E-01-1.05296E-01-2.79259E-01 2.10769E-01-2.13128E-01
 -1       213-8.54198E-02 3.57454E-01-1.50388E-01 7.88542E-02 2.10222E-01-1.21475E-01
 -1       214 1.71201E-02 2.04693E-02-1.50579E-01 1.19577E-01 4.70078E-02-1.72649E-01
 -1       215-9.50329E-02-1.31430E-01 1.78121E-01 3.04596E-01 2.18367E-01 3.24748E-02
 -1       216-6.78303E-02-8.11449E-02-1.16998E-01 4.25771E-01 3.14370E-02-1.03750E-02
 -1       217-3.13670E-02-4.64691E-03 1.11243E-01 1.31439E-01-2.50318E-02-2.15789E-01
 -1       218 1.02933E-02-1.34777E-01 4.01503E-03 4.30576E-01 1.06960E-02 2.69408E-02
 -1       219 1.60221E-02-1.10719E-01-7.16472E-02 1.96760E-01-8.90657E-02 1.58280E-01
 -1       220-2.05618E-02-1.18399E-01-2.42955E-01 1.36428E-01-1.92180E-01 1.24357E-01
 -1       221-1.43832E-01-1.00929E-01 1.10743E-01 4.09391E-01-2.33140E-01 1.95777E-02
 -1       222 4.59326E-02 7.11396E-02 9.10403E-02-6.01794E-02 5.21536E-02-1.20243E-01
 -1       223 9.69327E-02 3.46601E-02 3.38462E-02-2.34938E-01 1.36216E-01 1.22895E-02
 -1       224 1.25041E-01 4.89855E-02-9.59684E-02 1.61174E-01 1.88115E-01 4.30504E-02
 -1       225-1.13565E-01-2.67390E-01 7.75139E-02 4.18223E-01 2.22268E-01 7.91963E-03
 -1       226-2.85915E-03 4.28577E-02-2.38007E-01 1.29283E-02-1.88208E-01-7.62413E-02
 -1       227 8.18902E-02-1.92205E-01-1.41506E-01-1.79282E-01 1.33715E-01-3.24439E-01
 -1       228 4.44132E-02 3.79101E-01 1.38969E-01-7.70881E-02-1.94372E-01-2.68699E-01
 -1       229-2.01862E-01-1.61244E-01 1.20286E-01 2.69753E-01-2.48635E-01 6.15139E-02
 -1       230 2.38860E-01 1.75836E-01-1.33257E-02 2.60459E-01-2.23238E-01-1.21853E-01
 -1       231-1.26401E+00-6.33048E-01-1.18093E+00 9.66173E-01 6.28438E-02-1.64593E+00
 -1       232-1.58149E-01-2.57078E-01-2.54304E-01 2.12683E-01-2.56534E-01 2.06751E-01
 -1       233-6.34690E-01-7.71092E-01 2.11576E-01 7.22861E-01-1.04315E-02 5.72293E-02
 -1       234-3.70475E-01-4.43687E-01 5.24578E-02 4.64785E-01 3.78535E-01-1.16364E-01
 -1       235-9.33592E-02-7.20230E-02 5.22264E-02 1.03126E-01 2.34404E-02-2.08617E-01
 -1       236-8.07474E-01-2.09400E-01 2.96434E-01 5.56918E-01 2.77655E-01-6.93183E-02
 -1       237-3.84625E-01-7.46591E-01-1.29478E-03 4.99162E-01-2.04595E-01 7.00492E-02
 -1       238 4.79551E-02 2.01816E-02-1.14107E-01-1.38042E-01-1.55566E-01-1.66902E-01
 -1       239-6.26797E-01-4.92796E-01 1.91228E-01 6.07785E-01 1.09044E-01-5.23713E-02
 -1       240-1.01207E-01 6.42352E-03-5.85484E-02 1.29973E-01 6.82620E-02-2.27569E-01
 -1       241-5.72597E-02-2.30180E-01-1.37223E-01 3.55338E-02-1.62566E-01-1.27755E-01
 -1       242-1.19725E-01-2.41282E-01-1.20997E-01 2.00900E-01-1.74895E-01 1.62197E-01
 -1       243-1.10292E-01-1.83445E-01-3.63357E-01-1.51582E-01 2.59319E-01-8.36681E-02
 -1       244 2.09249E-02-3.35096E-01-6.40231E-02 1.37550E-01 3.00948E-01 2.80572E-03
 -1       245-1.01836E-01-1.57898E-02-4.23599E-01-1.29284E-01 2.50016E-02-2.50570E-01
 -1       246-6.46901E-01 1.12258E-01 2.10154E-01-3.11877E-01-1.75551E-01-1.44935E-01
 -1       247-6.76370E-01-2.13754E-01 2.04383E-01 4.75090E-01-1.90646E-01 4.67469E-02
 -1       248 5.80871E-02 3.37310E-02 6.18756E-02-2.00491E-01-7.72022E-03-8.26727E-02
 -1       249 1.51261E-01 3.52960E-01 3.18875E-01-1.01084E-01 2.03614E-01-6.96715E-02
 -1       250 5.03007E-03-4.90842E-01-7.18386E-02 8.02519E-02-2.42913E-01 1.00834E-02
 -1       251-5.10428E-01-7.51140E-02-1.21626E-01-2.62198E-02-1.26150E-01 2.21289E-02
 -1       252-1.52439E+00-6.22621E-01 1.73263E-01 6.94905E-01 1.23255E-01-1.71437E-01
 -1       253-2.32264E-01-1.16379E-02-2.81358E-04 1.17757E-01 5.36897E-02-3.34710E-01
 -1       254-8.51513E-02-1.70196E-02-3.07142E-01 4.95581E-02 9.76391E-02-2.44895E-01
 -1       255-2.50846E-01-6.80848E-01 5.66755E-01 2.55896E-01-1.74539E-01-9.94992E-02
 -1       256-1.57589E+00-1.17533E+00 2.27508E-01 9.87743E-01-8.56459E-02 4.35250E-02
 -1       257-1.65186E+00-6.80992E-01 2.63471E-01 7.86606E-01 2.80005E-02-4.24654E-02
 -1       258-5.58864E-01-2.54950E-01-4.63325E-01 3.09092E-01-3.20836E-01 4.93707E-01
 -1       259-6.97016E-01-4.91243E-01-5.49338E-01 1.75922E-01-3.14060E-01 3.36860E-01
 -1       260-4.76376E-01-2.74302E-01-5.93217E-01 3.18797E-01-3.59718E-01 5.31476E-01
 -1       261 2.79634E-01 6.22161E-02-1.27596E-01-2.25850E-01-1.55678E-01-2.82209E-02
 -1       262-9.92773E-01-6.95436E-01 8.33617E-02 5.83513E-01 2.71750E-01-2.38521E-01
 -1       263-1.61091E-01-2.92007E-01-2.19697E-01 5.15959E-02-2.41130E-01 1.46996E-01
 -1       264 3.64472E-01 3.53251E-02-1.93456E-01-2.85420E-01 1.09645E-01-1.57539E-01
 -1       265 4.12040E-03 1.15983E-01-2.97100E-01-3.56843E-01-3.94490E-02-2.49394E-01
 -1       266 7.16054E-02-1.99394E-01-1.87677E-01-4.16073E-01-7.04995E-02-1.38879E-01
 -1       267-1.47339E+00 9.87948E-03 2.34325E-01 3.49502E-01-1.60505E-01 5.25524E-02
 -1       268 5.91617E-01 7.62970E-02 7.87321E-02-3.07664E-01-5.96284E-02 1.13066E-01
 -1       269 4.45035E-01 2.11267E-01 2.44900E-01-3.25287E-01 6.15977E-02-2.39897E-01
 -1       270-1.45955E+00 1.93953E-02 2.98240E-01 3.77733E-01 1.87387E-01-1.79320E-03
 -1       271 9.42106E-02 7.77116E-02-4.64791E-01-1.92801E-01-8.68382E-02-6.88655E-02
 -1       272-1.27856E-01-6.69796E-01 3.25080E-02 3.57816E-01 2.93515E-01-5.58111E-02
 -1       273-2.62914E-01 1.40071E-02-8.68468E-02 8.18349E-02 5.47755E-02-3.27281E-01
 -1       274-2.21585E+00-4.51705E-01 2.39490E-01 3.45314E-01 3.49904E-02-1.54044E-01
 -1       275-2.75193E+00-6.37950E-01 2.75141E-01 5.09851E-01-4.20299E-02 6.25195E-02
 -1       276-5.09314E-01-3.21241E-01-6.14392E-01 1.18581E-01-2.86735E-01 6.48742E-01
 -1       277-8.40010E-01-2.73803E-01-3.35395E-01 3.09990E-01-2.69800E-01 6.12358E-01
 -1       278-4.10163E-01-4.55690E-01-6.37928E-01 2.24590E-01-2.95005E-01 4.95085E-01
 -1       279-2.46514E+00-8.55454E-01 2.48069E-01 8.05340E-01-7.46803E-02 2.30503E-01
 -1       280-8.79256E-02 2.92888E-03-3.38817E-01 1.07226E-01 1.05156E-01-3.08847E-01
 -1       281-1.91014E+00-5.49312E-01 7.22380E-02 5.31377E-01 6.44565E-02-2.66149E-01
 -1       282 8.28468E-01-1.72134E-02-8.37697E-02-9.41547E-02 5.47477E-02-1.91860E-01
 -1       283 3.53326E-01-3.65580E-01-3.28825E-01-4.46837E-01-1.65381E-02-2.59339E-01
 -1       284-5.35809E-01-5.84018E-01 7.07721E-02 6.02399E-01 2.12463E-01-1.06603E-01
 -1       285 6.31023E-01 9.67324E-02 8.78679E-02-1.61455E-01-4.93982E-02-5.57105E-03
 -1       286-2.05277E+00 5.96183E-02 2.71105E-01-2.94077E-01 1.64371E-01-1.21208E-02
 -1       287-5.75134E-01-8.75853E-01 3.48864E-01 8.45013E-01-2.41785E-01-8.26387E-02
 -1       288 5.47362E-01-4.42218E-02-7.63042E-02-4.91252E-02-4.63859E-02 7.82628E-04
 -1       289 5.09114E-01 3.93995E-02-1.94349E-01-2.39845E-01-4.88336E-02-1.22877E-01
 -1       290-1.68401E+00 9.11649E-02 2.98634E-01-1.92339E-01-1.92679E-01-6.98750E-02
 -1       291-2.45676E-01 1.07779E-01 6.54598E-01 2.81864E-02-4.68084E-01 3.14828E-01
 -1       292 1.44447E+00 4.38820E-01 1.97902E-01 1.60905E-01-3.07567E-01 5.44462E-01
 -1       293-5.08689E-02-1.31084E-01-2.86614E-02 1.26846E-02 1.14683E-01-4.44680E-02
 -1       294 2.08121E+00 1.53295E+00 1.08425E+00 6.68868E-01 1.17698E+00 1.77188E+00
 -1       295-1.02205E-01-4.56438E-02 7.46744E-01-2.96448E-01 4.51412E-01 5.86916E-01
 -1       296-4.49601E-01 1.65261E-01 5.52869E-01 4.62561E-03 4.77944E-01 1.80022E+00
 -1       297-2.94246E-01 1.48871E-01 1.58981E-01-2.33592E-01-6.22052E-01 9.91273E-01
 -1       298-3.15351E-01-1.40235E-01-8.76708E-02 8.48738E-02-9.47505E-01 1.55496E+00
 -1       299-8.18295E-01-2.02701E-01 3.12969E-01-1.18376E-01-2.14543E-01 5.00127E-01
 -1       300-9.90974E-02-4.58509E-01 1.67319E-01 6.31895E-02 8.33712E-02 2.51256E-01
 -1       301-1.36327E+00-1.45380E+00-8.45123E-01-5.40541E-01 1.41304E+00 1.44113E+00
 -1       302-4.55777E-02 3.51966E-01 3.05917E-02-1.05509E-01 6.62093E-01 5.87635E-01
 -1       303 0.00000E+00 0.00000E+00 0.00000E+00 0.00000E+00 0.00000E+00 0.00000E+00
 -1       304 1.18379E-01 3.28513E-01 1.34068E-01-2.06385E-02 4.24271E-01 8.36215E-02
 -1       305-1.98265E-01-3.24512E-01-3.86864E-01 9.96240E-03-6.86282E-01 3.45400E-01
 -1       306 9.31583E-01 1.29365E+00 6.67571E-01-4.06812E-01-1.10814E+00 7.45254E-01
 -1       307 0.00000E+00 0.00000E+00 0.00000E+00 0.00000E+00 0.00000E+00 0.00000E+00
 -1       308-1.15548E-01 9.38176E-01 4.10178E-01-1.72031E-01-7.69623E-01 8.23924E-01
 -1       309 1.65680E-01 1.87191E-01-1.91955E-01-1.62231E-01-1.56766E-01 2.36844E-01
 -1       310 2.00985E-01 6.56842E-01-3.25075E-02-7.57269E-01-7.37674E-01 1.38442E+00
 -1       311 1.16101E+00 5.23305E-01 5.05293E-01-2.64587E-01-6.79492E-01 8.80840E-01
 -1       312 1.15898E+00 1.22528E+00 8.06089E-01 8.65437E-01 2.42373E-02 8.75618E-01
 -1       313 1.46226E-01 3.49865E-01 1.48827E-01-1.48871E-02 2.53662E-01-5.32154E-02
 -1       314-1.81940E+00-1.36306E+00-9.54739E-01 5.94520E-01-8.81700E-01 1.32648E+00
 -1       315-5.57373E-01-6.09187E-02 2.18113E-02 8.89252E-02-8.20373E-02 2.96231E-02
 -1       316-5.92906E-01 8.25656E-01 2.72442E-04-1.19615E+00-8.45572E-01 1.65808E+00
 -1       317-4.72148E-02 2.33881E-01 2.65680E-01-2.86080E-01 5.06305E-03-1.35390E-01
 -1       318-9.31151E-01-1.19975E-01-1.19743E-01-3.82544E-02-1.36080E-03 4.13475E-02
 -1       319-2.98115E-01 4.67703E-01 2.16018E-02-9.25365E-02-1.41166E-02 8.04234E-02
 -1       320 3.06223E-01 3.93182E-01 6.20295E-01 4.51252E-02 1.08060E-01 6.45758E-01
 -1       321-1.23491E+00 3.34608E-02-4.70755E-01 1.15909E+00 4.37271E-01 2.25981E+00
 -1       322 4.16141E-01 1.52134E-01 4.75054E-01-9.97540E-02-1.93825E-01 5.95831E-01
 -1       323 6.52297E-01 4.26310E-01 7.51500E-01-5.48283E-02 1.34115E-01 5.58113E-01
 -1       324-5.09134E-01-9.21593E-01-4.47127E-01-5.75365E-01 7.73803E-01 1.72960E+00
 -1       325 7.25393E-01 7.66426E-02-1.26921E-01 4.86997E-01-9.39657E-01 6.41870E-01
 -1       326-1.08153E+00 6.20210E-01-8.40837E-03 5.51218E-02-5.97617E-01 7.86863E-01
 -1       327-3.51549E-01 5.52384E-01 5.92511E-02 4.17856E-01-1.15004E-01-2.20180E-02
 -1       328-3.99616E-01 1.76672E-01 7.64942E-02-8.38972E-02 5.28071E-02-1.31510E-01
 -1       329 2.82027E-01 4.50441E-01 4.37103E-01 1.21082E-01 3.09332E-01 3.77072E-01
 -1       330-4.44533E-01 6.19897E-02 4.13986E-02-2.02657E-01-5.66362E-02 1.47722E-02
 -1       331 6.00097E-01 2.93116E-01 3.61548E-01 1.20022E-01 2.56199E-01 3.91682E-01
 -1       332-7.87393E-01-8.69359E-01 9.47822E-01-6.65005E-01-1.70398E-01-1.03643E-01
 -1       333 8.83517E-02 8.96381E-02 9.33166E-02-1.48389E-01 1.63588E-01-1.24436E-01
 -1       334-1.24883E-01-9.00842E-02 2.15066E-01-1.44760E-01 8.36219E-02-2.49306E-02
 -1       335-5.13962E-02-6.36172E-02 1.58111E-01-2.80932E-01 9.53990E-02 1.53957E-02
 -1       336 1.00603E-01 1.65812E-01 2.95360E-01-1.04327E-01-2.57204E-01 5.95956E-02
 -1       337-1.17121E-01-2.89491E-01 1.99361E-01 2.95469E-01 1.83076E-02-1.41889E-01
 -1       338-2.18696E-01-2.34701E-01-1.79844E-01 1.89658E-01 8.73666E-02 8.46945E-03
 -1       339 3.89153E+00 3.53552E+00 2.33112E+00-1.59903E-01 2.69498E-01-5.48168E-01
 -1       340 3.35212E+00 3.25094E+00 1.83903E+00 1.71800E-01-9.43039E-02-5.32698E-01
 -1       341 3.63244E+00 3.38274E+00 2.46665E+00 3.99147E-02-2.02913E-01-8.11877E-01
 -1       342-3.73377E-01 5.80498E-01 8.37604E-02 8.09857E-02-1.20982E-02-2.96424E-02
 -1       343-6.92104E-01 9.05810E-03-3.03401E-02-3.50109E-02 7.23679E-02-1.79490E-01
 -1       344 3.58274E+00 2.35951E+00 1.37111E+00 1.29859E-02-4.39444E-01-7.33794E-01
 -1       345-4.38099E-01 3.14145E-02 2.51382E-02 4.57823E-01-1.71988E-01-9.94884E-02
 -1       346 3.87183E+00 2.96911E+00 3.05582E+00-7.98043E-02-5.49304E-01-1.29421E+00
 -1       347-1.85179E-01 2.36362E-01 4.90392E-01 4.35865E-01-6.29785E-02-1.89381E-01
 -1       348-1.00507E-01-1.50651E-01-4.60197E-02 3.25863E-01-6.48360E-02-1.29953E-01
 -1       349 1.99925E+00 6.99693E-01-1.81520E-01-3.58184E-01-5.21540E-01-8.85109E-01
 -1       350 6.95324E-01 1.69630E-01-8.55174E-01 9.11080E-01 4.33486E-01-1.46240E+00
 -1       351-7.69208E-02-8.12555E-02-6.65536E-02-2.34116E-01-1.69213E-03-1.66678E-01
 -1       352 2.63641E+00 1.43464E+00 2.21077E+00 4.46627E-01 1.59870E-01-1.44548E+00
 -1       353-1.90621E-01 1.25296E-02 9.27780E-02-1.92754E-01-7.46487E-02-1.82560E-01
 -1       354 2.87421E+00 2.15805E+00 1.00718E+00-2.19046E-01 4.97475E-01-6.88430E-01
 -1       355-2.93716E-01-9.64716E-03-2.51724E-01-2.88467E-01 8.52494E-02 9.07731E-02
 -1       356 1.38258E-01 3.55084E-01 5.59415E-01-3.55434E-01 9.77270E-02-1.91155E-01
 -1       357-8.45746E-01 7.24327E-02 1.07612E-01-1.00859E-01 1.71494E-02-1.45395E-01
 -1       358-8.09924E-01 2.55138E-01 8.32455E-02-2.42574E-01 6.17374E-02-3.65300E-02
 -1       359 1.30316E+00 9.83177E-01 1.80971E+00-8.28425E-01 1.40603E-01-1.69689E+00
 -1       360-1.25870E+00-9.02624E-01-1.39065E+00-8.21629E-01-1.56123E-01-1.46268E+00
 -1       361-5.86305E-01 2.04830E-01 1.01446E+00 8.13127E-01-6.04744E-01-1.45263E+00
 -1       362-4.17832E-01-1.16329E-01 1.10184E+00-7.96060E-01 5.27918E-01-1.23997E+00
 -1       363 1.13581E-01 1.68246E-01 7.69059E-02-2.65599E-01-1.04777E-01 8.84533E-03
 -1       364-2.33243E-01-4.59835E-02-2.42877E-01-4.47173E-03-1.44516E-01-3.61197E-01
 -1       365 7.41464E-02-1.40395E-02 1.39334E-01 2.88740E-01 2.52429E-01-6.77346E-02
 -1       366 3.07161E-02-5.01473E-02-5.48808E-02 1.54020E-01 6.83915E-02-2.21278E-01
 -1       367-3.47269E+00-2.47057E+00-2.94335E+00-1.20319E-01-4.06334E-01-1.48221E+00
 -1       368-3.46646E+00-2.33912E+00-1.24779E+00-3.08811E-02-3.51530E-01-1.19051E+00
 -1       369 1.09770E-02 1.84348E-02 1.44267E-01 1.93636E-01 2.11106E-02-9.64056E-02
 -1       370 2.16704E-02 8.22571E-02 4.17455E-02 3.30097E-01 1.22989E-01-1.77937E-01
 -1       371 3.39052E-01 1.46622E-01 1.40265E-01-2.63557E-01 2.04528E-01-1.31948E-01
 -1       372 3.11024E-01-4.15893E-01-2.32572E-01-2.88735E-01 6.45259E-02 6.59836E-02
 -1       373 7.66989E-01-8.49284E-02 5.84130E-02-1.47251E-01 3.53740E-02-5.47291E-02
 -1       374-3.37561E+00-3.21252E+00-2.34886E+00-1.12565E-01-4.56334E-01-5.60232E-01
 -1       375-4.04548E+00-2.87181E+00-2.89632E+00 1.48768E-01 5.48636E-01-1.19279E+00
 -1       376-3.04960E+00-3.04426E+00-1.49839E+00-1.91387E-01-1.19327E-01-3.55138E-01
 -1       377-5.30825E-01-5.02298E-01-1.38432E-01 5.52592E-02-7.88029E-03-2.27732E-01
 -1       378 9.94550E-01 1.54431E+00 7.61658E-01 4.35585E-01 1.26401E+00 8.42984E-01
 -1       379-2.24944E-01 4.02898E-03-9.22239E-01 1.57840E-01 7.80664E-02 5.39918E-02
 -1       380 2.53029E-01 4.05109E-01 3.09283E-01 9.09187E-02-1.58949E-01-7.46543E-02
 -1       381 2.93857E-01 1.04797E-01 1.70113E-01 2.44366E-01-7.16087E-02-2.41297E-01
 -1       382 1.71360E-01 1.38078E-01 2.97968E-01 9.35899E-02-1.79309E-01-1.87071E-01
 -1       383 1.58512E-01 7.38657E-02 6.67633E-01 1.44645E-01 4.02656E-02-2.44847E-01
 -1       384 1.88582E-01 1.39742E-01 3.87842E-01 8.24963E-02-8.82938E-02-9.73635E-02
 -1       385-1.49663E-01-2.01365E-01-3.08652E-01 2.41105E-01-3.46931E-02-1.42997E-01
 -1       386-5.81123E-01-1.17766E+00-5.27636E-01 1.99706E-01-1.11038E+00 4.63297E-01
 -1       387 5.95998E-02 5.55004E-02 6.26246E-02 7.78817E-03-2.36806E-01 4.80482E-02
 -1       388-8.20392E-02-3.80083E-01 2.92061E-01 1.41558E-01-3.82978E-01 2.86266E-01
 -1       389 3.06601E-01 3.61039E-01 2.60900E-02-1.70432E-01-3.67619E-01 1.66535E-01
 -1       390-6.15517E-01-3.79759E-01-7.97475E-01 2.76358E-02 1.46905E-01 5.67052E-01
 -1       391-5.00187E-01-2.27618E-01-5.75218E-01-1.04741E-01 3.05207E-01 3.88017E-01
 -1       392-1.16134E-02 3.88536E-02-2.76560E-01 1.47614E-01 9.51512E-02-1.13971E-01
 -1       393 5.70135E-01 1.66757E-01-1.22141E-01 2.16001E-01 1.69209E-01 8.54710E-03
 -1       394 9.12227E-01 7.32800E-01 5.44860E-01 4.66430E-01 4.65774E-01 1.98747E+00
 -1       395 0.00000E+00 0.00000E+00 0.00000E+00 0.00000E+00 0.00000E+00 0.00000E+00
 -1       396-3.62571E-01-1.97097E-01-4.89682E-01 1.63968E-01-7.32937E-02 6.43914E-01
 -1       397-2.51000E-01-2.79846E-01-6.46549E-01 1.54101E-01-1.78575E-01 5.66546E-01
 -1       398 2.08577E-01 1.49446E-01-1.06069E-01 1.85111E-01 6.44453E-01 7.95163E-01
 -1       399 1.69983E+00 1.29340E+00 6.02301E-01-8.41486E-01-4.04533E-01 1.16626E-01
 -1       400 5.46305E-01-1.90847E-01-3.81653E-02 2.09599E-02 7.92097E-02 4.33755E-02
 -1       401 6.83010E-01 5.75346E-01-1.10301E-02-4.24048E-01-5.26382E-01 1.21182E+00
 -1       402 4.89583E-01 6.62130E-01-4.58376E-01-4.15384E-01 2.14866E-01-7.78762E-02
 -1       403 3.56097E-01 1.21280E-01-1.09104E-02-3.64146E-01-7.59672E-03-2.56917E-02
 -1       404-3.14572E-01-3.76076E-01-4.49181E-01 1.11598E-01-3.24192E-01 2.31180E-02
 -1       405 3.65748E-01 3.53994E-01 2.15923E-01-2.50966E-01-1.77730E-01 5.87785E-01
 -1       406 1.88276E-02 3.81180E-01-5.37916E-01-1.65422E-01 5.72889E-02-5.39823E-03
 -1       407 1.11588E-01 1.45880E-01 2.70829E-01-2.16664E-01 3.20325E-02-1.08205E-01
 -1       408-6.94987E-05-2.96493E-02-6.70015E-02 1.28520E-01-9.16883E-02-1.02576E-01
 -1       409 6.39513E-02 1.44865E-01-6.79446E-02-1.89434E-01-1.68289E-01-2.36953E-01
 -1       410-1.44574E-03-1.55434E-01 1.53978E-01-1.50824E-02-6.47001E-02-1.75320E-02
 -1       411 2.09596E-01 6.48777E-02 1.43082E-01-1.01310E-01 6.68904E-02 2.01384E-03
 -1       412-4.84441E-02-1.83343E-01-2.00516E-01-1.62695E-02-1.10954E-01 9.97496E-02
 -1       413-5.42099E-02 8.59475E-02-6.16813E-03 1.14933E-01 2.06431E-01-2.43162E-01
 -1       414-1.60665E-01-4.17623E-02-1.89359E-01-2.03205E-01 2.50529E-02-9.99976E-02
 -1       415 5.97337E-02 9.72492E-02 2.74946E-01 2.92371E-02 6.62021E-02-3.90614E-02
 -1       416-3.78632E-01-1.56828E-01-1.56348E-01-2.43949E-01 7.20656E-03-1.45040E-01
 -1       417 9.31542E-02 9.61228E-02 2.96662E-01 2.98616E-02 3.29757E-01 9.79092E-02
 -1       418 5.71413E-01-1.58917E-01-1.59038E-01 2.31610E-01 6.39471E-02-1.48777E-02
 -1       419 1.78748E-01-9.39474E-01-1.59901E-01 3.50743E-01 1.09510E-01-7.47637E-02
 -1       420 5.83528E-01-3.66734E-01-3.80069E-02 2.68768E-01 1.01689E-01-6.72093E-02
 -1       421-3.31573E+00-3.49140E+00-2.39855E+00-3.92668E-02 5.74364E-01-6.43579E-01
 -1       422-2.95388E+00-2.61096E+00-1.46535E+00 7.48702E-02 1.63001E-01-5.15253E-01
 -1       423-2.25688E-01 1.15758E-02-3.42705E-01 3.34342E-01 5.73193E-02-2.93750E-01
 -1       424-9.92638E-02 9.98017E-03-1.56774E-01 4.01820E-02 2.33183E-02-1.94526E-02
 -1       425-3.04254E+00-1.82359E+00-9.09502E-01 1.79621E-01 5.12038E-01-6.39735E-01
 -1       426 3.51158E-01-8.98490E-02-4.15878E-02 3.50399E-01 1.13387E-01 6.10775E-02
 -1       427-4.45337E-01-3.79770E-01-3.93924E-01 6.12520E-01 1.99332E-01-1.97969E-01
 -1       428-2.94807E+00-1.85937E+00-2.88722E+00 3.83739E-01-1.48408E-01-1.84037E+00
 -1       429-2.30351E+00-8.62546E-01-4.35379E-02 2.71219E-01-7.51015E-01-1.24393E+00
 -1       430-3.25080E-03-7.77077E-03-3.30647E-03 2.31554E-02-3.64824E-03-4.38504E-06
 -1       431 5.72038E-03 3.98230E-02 1.65939E-02-9.38245E-03-2.94626E-02 2.00700E-02
 -1       432 1.53122E-01 3.70755E-01 1.57163E-01-1.05362E-02-3.48272E-01 6.80712E-02
 -1       433-1.09581E+00 3.60637E-01 2.63343E+00 1.15230E-01-2.10715E-01 1.46431E-01
 -1       434 0.00000E+00 0.00000E+00 0.00000E+00 0.00000E+00 0.00000E+00 0.00000E+00
 -1       435 0.00000E+00 0.00000E+00 0.00000E+00 0.00000E+00 0.00000E+00 0.00000E+00
 -1       436 7.45949E-01 1.01925E+00 3.14594E-01 1.62377E+00 4.31327E-01 1.83870E+00
 -1       437 1.77791E+00 8.75621E-01 7.17696E-01-7.61614E-01-4.20290E-01 6.68215E-01
 -1       438 8.73681E-01 9.98875E-01-4.70695E-02-9.43222E-01-4.57495E-01-2.03535E-01
 -1       439 4.39287E-01 7.59752E-01-5.55036E-01 4.21791E-01-7.22389E-02-6.75318E-02
 -1       440 2.25148E-01 8.06186E-01 1.56697E-01 1.07985E-01 6.30643E-01 8.77770E-02
 -1       441-2.99601E-03 3.44056E-03-2.85123E-02 1.29428E-02 1.54033E-02 1.63802E-02
 -1       442-2.80693E-02-9.10056E-02-1.75567E-04-7.64188E-03 1.48011E-01 1.68981E-01
 -1       443-5.31319E-02-1.75193E-01-6.84974E-02-4.91104E-02-4.25823E-02-4.01850E-02
 -1       444-1.54790E-01-2.10960E-01-1.84471E-01-7.25813E-02 8.96226E-01 1.51717E+00
 -1       445-1.04943E+00-9.61590E-01-6.03305E-01-4.18004E-01 1.22362E+00 1.84429E+00
 -1       446 6.01273E-01-6.19012E-01 1.40296E-01-6.13795E-01 5.77964E-01 1.46678E+00
 -1       447-1.02031E-01-4.06069E-01 9.78453E-02 2.12015E-02-5.47828E-02-3.53255E-02
 -1       448 0.00000E+00 0.00000E+00 0.00000E+00 0.00000E+00 0.00000E+00 0.00000E+00
 -1       449-2.83096E-01-1.49163E-01-7.95284E-01-5.06761E-02-1.02714E-03-5.25065E-01
 -1       450-2.49223E-01-2.41315E-01-8.27249E-01-9.86262E-03-1.28877E-01-5.74895E-01
 -1       451-9.70169E-01-2.54789E-01 4.67541E-03-4.86686E-03 5.10026E-02-4.99364E-01
 -1       452-9.57831E-01-9.47814E-02-7.59169E-02-4.44210E-02 5.58960E-03-5.54872E-01
 -1       453-9.20366E-01-2.36992E-01-1.43542E-03-1.78150E-03 9.32253E-03-1.12627E-01
 -1       454-1.16991E+00-6.34638E-02-1.96583E-01-2.97083E-02-1.01181E-01-1.06985E-01
 -1       455-1.52979E+00-2.37802E-01 7.99230E-02 3.81569E-02 1.20302E-02 7.46858E-01
 -1       456-1.60428E+00-1.28967E-03 5.18060E-02 8.81870E-03-4.28836E-03 8.50416E-01
 -1       457-8.71457E-01-3.15829E-01-5.63997E-01 2.10312E-03 3.38025E-02 1.14782E+00
 -1       458-9.90630E-01-6.04863E-01-1.18888E+00-2.87668E-02 8.96841E-03 1.16559E+00
 -1       459 1.37175E-03-1.15709E-01 1.45951E-01-7.59278E-02 3.82530E-02 2.42954E-01
 -1       460-1.65516E+00-2.39468E-01 2.50652E-01 8.34353E-02 9.26453E-03 1.72414E-01
 -1       461-1.01242E+00-2.51142E-01 1.85748E-01-6.32577E-02 1.38174E-03-3.46856E-01
 -1       462 2.61774E-01-3.14720E-01 6.35896E-02-1.75981E-02 9.00910E-02-2.42664E-01
 -1       463 1.38160E-01-3.32551E-01 6.99978E-02-1.26524E-01-2.34717E-02-2.79659E-01
 -1       464-8.52733E-01-2.31363E-01 1.32968E-01 6.35970E-02-9.36825E-02-3.23150E-01
 -1       465-9.10612E-01-1.71313E-01 1.88544E-01-9.05438E-02-7.87998E-02 1.18167E-01
 -1       466 1.89236E-01 8.97120E-02 1.99021E-01 1.31778E-01 8.24179E-02 2.22250E-01
 -1       467-2.16178E-01-3.08194E-01-1.21656E-01-6.36332E-02-1.73632E-01-2.89979E-01
 -1       468-3.99071E-01-4.36184E-01-6.32077E-02 8.07027E-04 1.92523E-01-3.53417E-01
 -1       469-5.40090E-01-3.12788E-01 2.59760E-01-3.22707E-01-5.76069E-02-1.03977E-01
 -1       470-5.27796E-01-3.41670E-01 1.02686E-01 4.43634E-02 1.27366E-01 2.14349E-01
 -1       471 1.78184E-01-2.30603E-01 2.65263E-01 2.78396E-03 7.44398E-02-4.22473E-02
 -1       472 4.41693E-01-7.01866E-03 2.25589E-01 1.29427E-01 1.19514E-02-1.50391E-01
 -1       473-2.54554E-01-2.50004E-01-1.16808E+00-7.56853E-02-6.81620E-02-5.56757E-01
 -1       474-1.47198E-01-1.22007E-01-1.57637E-01 2.27406E-02-1.23831E-01-5.63185E-01
 -1       475-1.30843E+00-2.82909E-01 1.02617E-01-2.96281E-01 1.76899E-01 7.57136E-01
 -1       476-1.62129E+00-2.76843E-01 1.70866E-01-4.10000E-01 2.06329E-01 5.11908E-01
 -1       477-6.84049E-01-2.75572E-01 2.47190E-02-1.45169E-01-4.75506E-02-1.34584E-02
 -1       478-9.75319E-01-3.53256E-01-7.75999E-02-1.79248E-01-3.01417E-03-1.96952E-01
 -1       479-8.01983E-01-2.83235E-01-2.55563E-02-1.48234E-01-1.25075E-01-4.66080E-01
 -1       480-9.17213E-01-1.23007E-01-1.85539E-01-2.15199E-01-1.09776E-01-5.54037E-01
 -1       481-7.47773E-01-3.19969E-01-4.34454E-01-1.70199E-01 3.51977E-01 1.00472E+00
 -1       482-9.86151E-01-6.85986E-01-1.25906E+00-1.28226E-01 3.03965E-01 1.16780E+00
 -1       483 2.21238E-01 2.29622E-02 2.65061E-01-4.89252E-02 1.06858E-01 1.48129E-01
 -1       484-1.20242E+00-2.98475E-01 1.68693E-01-2.54906E-01 4.32431E-02 4.03171E-02
 -1       485-9.73260E-01-2.95427E-01 1.26310E-01-2.43076E-01-8.65385E-03-2.50334E-01
 -1       486 1.40251E-01-1.39415E-01-1.95687E-02 1.30896E-01 6.86621E-02-2.34624E-01
 -1       487 1.75434E-01-3.07099E-01-1.41992E-02 3.21787E-02-3.04254E-02-1.99912E-01
 -1       488-8.35562E-01-2.20959E-01 1.62800E-01-1.16284E-01-8.09400E-02-1.31273E-01
 -1       489-1.22649E+00-3.63179E-01 2.34955E-01-4.25245E-01-3.17678E-02 1.35313E-01
 -1       490-1.39220E-01-3.64430E-02 5.65069E-02 6.54710E-02 1.39149E-01 2.01571E-01
 -1       491-1.17407E-01-1.85454E-01 1.93301E-01-7.42062E-04-1.36913E-01-8.83624E-02
 -1       492-4.77781E-01-5.30276E-01-1.39484E-01-1.13127E-01 1.24865E-01-2.48308E-01
 -1       493-3.09834E-01-5.81912E-01 2.12489E-01-2.63422E-01-1.20208E-01-1.51000E-02
 -1       494-1.15445E+00-3.48561E-02 3.62303E-01 1.60211E-01-4.87836E-02-7.20771E-02
 -1       495 6.27584E-01 8.00433E-02 1.04249E-01 8.06951E-02-1.78293E-02-4.58361E-02
 -1       496 4.15256E-01 1.54926E-02 1.75327E-01 3.89252E-02 3.59199E-03-1.03896E-01
 -1       497-2.90996E-01-2.50668E-01-1.13377E+00-5.99588E-02-1.44173E-01-5.57986E-01
 -1       498-8.87005E-02 4.65904E-02 2.30239E-01 2.50706E-02-4.73740E-02-3.96756E-01
 -1       499-6.75648E-01-4.51448E-01 7.21599E-02-4.28135E-01 2.91616E-01 3.54627E-01
 -1       500-4.52758E-01-3.71889E-01 2.28415E-01-4.03562E-01 2.02194E-01 2.14902E-01
 -1       501-4.87759E-01-3.18438E-01 1.03361E-02-2.24347E-01-4.08832E-02-5.75994E-02
 -1       502-4.31540E-01-2.80907E-01 2.99169E-02-2.71941E-01-1.58367E-01-2.69294E-01
 -1       503-6.32259E-01-2.55286E-01-4.57752E-02-2.51941E-01-2.42673E-01-3.24384E-01
 -1       504-4.92612E-01-2.19450E-01-1.16409E-01-3.65143E-01-4.62382E-01-4.87979E-01
 -1       505-4.89558E-01-2.76276E-01-1.92497E-01-2.24103E-01 4.71563E-01 6.00485E-01
 -1       506-8.97655E-01-6.39508E-01-1.01170E+00-1.75192E-01 5.17085E-01 9.19296E-01
 -1       507-4.47144E-02-1.94708E-01 2.22198E-01-1.31939E-01 1.51381E-01 1.26626E-02
 -1       508-8.48316E-01-4.87815E-01 9.81752E-02-4.79496E-01 5.57418E-02 8.46561E-02
 -1       509-5.61241E-01-3.56604E-01 1.33624E-01-3.34476E-01-1.46780E-01-1.69964E-01
 -1       510-1.85994E-01-1.69813E-01 8.46236E-02 8.81950E-02-1.64271E-01-2.19863E-01
 -1       511-4.17102E-01-2.75729E-01 8.00990E-02-1.15704E-01-1.44696E-02 9.50590E-02
 -1       512 1.92621E-03-2.00543E-01 9.65794E-02 1.89371E-01 1.48014E-02-1.83966E-01
 -1       513-4.16522E-01-3.90691E-01 4.56093E-02-2.44926E-01 1.46352E-01 2.89870E-01
 -1       514-2.49255E-01-9.22658E-02-2.22891E-02 6.15368E-03 1.59413E-01 9.84718E-02
 -1       515-6.17616E-01-3.24251E-02 2.11980E-01-1.08683E-01 5.03213E-02 1.17952E-01
 -1       516-4.48732E-01-2.33338E-01-2.78630E-01-8.95945E-04-2.33795E-01-4.54461E-01
 -1       517-1.90795E-01-6.62780E-01 1.36280E-02-2.57110E-01 9.52315E-02 1.39610E-01
 -1       518-6.95447E-01 1.59860E-02 2.90868E-01-1.26524E-01-1.25987E-01-1.12301E-01
 -1       519 3.97934E-01 9.95481E-02 1.41870E-01 2.26104E-01 3.99176E-02-1.39509E-01
 -1       520 1.27466E-01 8.28950E-02 2.34402E-01 1.21538E-01-5.66737E-03-1.80628E-01
 -1       521-2.84973E-01-2.14899E-01-1.09819E+00-4.64024E-02-1.89685E-01-4.79255E-01
 -1       522-5.35972E-02 1.11801E-01 5.75380E-01-5.62939E-02 2.59006E-02-3.20194E-01
 -1       523-1.54542E-01-1.87622E-01 5.29160E-03-1.76737E-01-9.31147E-02 7.25735E-03
 -1       524-2.21175E-01-3.87023E-01 3.75997E-02-3.18622E-01 2.40960E-01 1.04326E-01
 -1       525-2.35177E-01-4.12258E-01 2.66905E-02-3.50110E-01 6.33347E-02 1.56158E-01
 -1       526-7.31247E-02-8.45753E-02 7.56206E-03-2.80687E-01-5.78505E-02-2.10036E-01
 -1       527-2.01024E-01-3.30114E-01-1.11893E-01-3.60412E-01-3.60066E-01-1.50877E-01
 -1       528-2.16527E-01-2.68070E-01-7.21910E-02-2.22991E-01 1.22748E-01 4.91519E-02
 -1       529-3.11862E-01-3.18828E-01-3.24136E-01-1.69319E-01 3.47363E-01 3.71547E-01
 -1       530-9.47271E-02-1.19239E-01 6.25274E-02-1.09918E-01 1.47265E-01 3.30163E-01
 -1       531 2.31019E-02-6.86688E-02 1.18713E-01-1.07022E-02 1.53375E-01 2.47705E-02
 -1       532-2.29592E-01-3.49410E-01 1.49322E-01-3.16356E-01-7.95980E-02 1.98857E-02
 -1       533-2.88808E-01-2.00906E-01 8.26985E-02-2.48489E-01-4.09992E-01-1.69697E-01
 -1       534 1.07477E-01 1.10351E-01-5.51553E-02 1.28666E-01-4.48152E-02-4.97903E-02
 -1       535-2.83566E-01-2.34710E-01 7.70783E-02-2.29225E-01-1.05077E-01-7.30550E-02
 -1       536-8.18993E-02-4.84707E-02-4.89709E-02 1.47589E-01 1.01027E-01-1.89206E-01
 -1       537-1.49707E-01-3.10030E-01 3.62781E-02-2.26262E-01 1.07721E-01 4.55060E-02
 -1       538 1.06247E-01-1.68454E-02 4.30040E-02 3.98638E-02 1.23520E-01-1.12200E-01
 -1       539-3.76103E-01-6.68249E-02 2.10552E-01-1.86135E-01 2.31678E-01 1.46223E-01
 -1       540-2.27807E-01-2.50343E-01-1.93812E-01-8.34445E-02-3.60330E-01-1.81789E-01
 -1       541-2.32456E-01-2.30345E-01-1.44315E-01-2.90623E-02 1.98787E-01 1.56781E-01
 -1       542-1.72847E-01 9.80181E-02 4.98536E-01-1.57547E-01-3.22316E-01-6.80860E-02
 -1       543 2.39117E-01 9.09049E-02 4.24004E-02 1.40759E-01 1.82153E-02-4.28417E-03
 -1       544 1.26312E-01 4.39136E-02-2.27079E-02 1.86999E-01-1.62113E-02 4.16632E-02
 -1       545-1.14256E-01-1.93218E-01-9.04241E-01-9.44929E-02-2.50280E-01-3.31827E-01
 -1       546 3.92315E-02 1.03581E-01 9.49311E-01-1.33131E-01 2.08297E-01-3.10360E-01
 -1       547 3.18777E-02 3.52388E-02-4.23592E-03-1.15541E-01-6.85305E-03-5.03522E-03
 -1       548-8.47740E-02-1.83420E-02 1.36224E-02-2.32744E-01-1.39730E-03 1.02855E-01
 -1       549-2.04560E-03 1.35188E-01 1.59167E-01-1.44648E-01-3.06218E-01 5.61868E-02
 -1       550 1.66523E-02 5.19689E-02-1.18274E-02-2.40942E-01 3.86420E-02-1.13336E-01
 -1       551 3.49167E-02-1.39808E-01-2.60867E-01-1.32600E-01-3.84555E-01-8.13249E-02
 -1       552 2.07332E-02 7.54000E-02-2.42116E-02-1.41321E-01 3.15702E-01-8.90234E-03
 -1       553-1.94270E-02-5.14330E-02-3.61252E-02-1.77531E-01 1.89889E-02 2.66507E-01
 -1       554-9.18306E-03 5.83884E-02 2.32752E-01-1.30727E-01-1.00283E-01 2.08025E-01
 -1       555-7.00359E-02 2.15167E-02 8.84662E-02-6.73070E-02-3.91317E-02-6.10060E-02
 -1       556-2.60510E-02 8.95825E-03 1.00466E-01-1.85755E-01-4.62671E-02 3.24776E-02
 -1       557 7.63017E-02 3.99308E-02-5.29079E-02-2.30049E-01-1.02341E-01-1.26561E-02
 -1       558-3.97476E-02-1.78822E-01 1.67590E-02 1.60311E-01-1.94415E-01-2.27073E-01
 -1       559 4.08055E-02 2.47739E-02 1.18804E-01-9.71769E-02 3.45189E-01-5.20694E-03
 -1       560 3.33175E-02 2.62028E-01 1.02778E-01 9.82320E-02 8.17697E-02-1.08948E-01
 -1       561-2.24460E-02 1.68357E-01 4.76504E-02-2.79764E-01 2.80414E-01 7.51010E-03
 -1       562 1.94775E-01 1.60699E-01 2.83331E-02 5.29395E-03 4.47721E-02-1.00378E-01
 -1       563-5.16264E-02 1.11107E-01 2.13959E-01-8.28402E-02 3.00949E-01 4.31564E-02
 -1       564 1.84161E-02-5.61654E-02-3.70650E-01-1.34572E-01-4.08116E-01 4.00845E-03
 -1       565-1.60213E-01-5.92343E-02-3.18125E-01-2.12889E-01 3.48293E-01 1.34842E-01
 -1       566 1.35924E-01 5.28493E-02 2.79136E-01-1.72744E-01-3.37058E-01 6.48304E-02
 -1       567-1.37013E-01-3.12034E-02-1.00070E-01 1.93721E-02 1.61329E-04-3.37175E-02
 -1       568-4.92777E-02-1.07259E-01-7.01365E-02 1.65014E-01 9.78972E-03-8.26446E-02
 -1       569 3.48762E-02-1.36752E-01-6.27753E-01-6.62559E-02-1.09954E-01-2.98823E-01
 -1       570 2.71585E-01 2.12079E-01 1.00568E+00-5.05240E-02 2.11686E-01-4.70889E-01
 -1       571 1.83124E-01 2.68945E-01 1.34631E-02-2.09683E-01 1.53756E-01-3.93470E-02
 -1       572 2.46786E-01 1.92850E-01-2.29993E-02-2.32156E-01 2.30702E-01-1.23785E-01
 -1       573 1.49059E-01 1.28930E-01-4.73133E-02-2.71842E-01-2.32117E-02-1.57854E-01
 -1       574 1.91972E-01 3.46366E-01-6.02373E-02-2.91041E-01-1.67328E-01 2.10802E-01
 -1       575 2.22275E-01 5.49252E-01 6.16337E-02-4.47001E-01-3.52898E-01 1.45617E-01
 -1       576 2.35708E-01 3.25690E-01 1.25563E-01-2.64514E-01-5.54244E-02-6.98959E-03
 -1       577 1.60719E-01 1.24819E-01 2.43501E-03-1.45498E-01-1.20364E-01 2.85155E-01
 -1       578 4.70739E-01 3.37626E-01 3.85317E-01-2.03543E-01-3.76003E-01 4.32435E-01
 -1       579 9.19579E-02 3.39334E-02 1.11284E-01 3.66613E-02-1.26621E-01-1.17384E-01
 -1       580 2.66694E-01 3.96558E-01-7.88310E-02-2.68163E-01-1.70751E-01 7.49373E-02
 -1       581 2.21893E-01 1.14865E-01-1.55874E-01-1.25255E-01 4.56948E-02-1.29901E-02
 -1       582-4.11941E-03-2.60726E-02 7.35079E-02 1.64130E-01-2.48972E-02-2.08864E-01
 -1       583 2.62435E-01 2.31499E-01-5.51119E-02-2.20969E-01 2.87140E-01-6.62954E-02
 -1       584 1.14104E-02-6.89879E-03 5.36292E-02 2.38197E-01 5.89621E-02-1.66850E-01
 -1       585 3.67108E-01 3.90687E-01-2.03834E-01-3.84765E-01 4.18946E-02 2.75716E-02
 -1       586-1.25879E-01-1.26267E-02 7.57399E-02 9.95608E-02-8.43497E-02 3.59005E-02
 -1       587 2.03556E-01 2.43807E-01 3.33761E-01-2.79405E-02 2.72358E-01-2.23108E-01
 -1       588 3.29017E-01-1.19137E-02-3.90664E-01-1.93446E-01-2.11319E-01 6.26168E-02
 -1       589 2.67715E-01-2.47981E-02-5.86247E-01-2.14411E-01 3.05280E-01-9.31131E-02
 -1       590 1.98932E-01 3.50089E-01 1.55383E-01-2.24967E-02-2.65683E-01 1.67879E-01
 -1       591 5.81288E-03-1.89728E-03-3.93464E-02 1.05764E-01 7.86612E-02-6.34637E-02
 -1       592-1.73972E-01-1.09278E-01-1.18331E-01 1.73419E-01-2.61763E-02-8.99982E-02
 -1       593 4.25562E-01 3.89151E-01 1.41742E+00-4.14488E-02 2.56311E-01-7.50645E-01
 -1       594 2.63743E-01 4.22669E-02-2.82398E-01 5.29877E-02 8.86260E-02-2.48839E-01
 -1       595 7.91523E-01 4.98060E-01-7.22194E-02-4.80957E-01-2.82729E-01 3.77029E-01
 -1       596 7.27413E-01 4.55742E-01 9.12470E-02-6.27624E-01-3.94788E-01 4.62236E-01
 -1       597 5.06107E-01 3.06327E-01-5.15290E-03-2.21897E-01 8.54194E-02-6.73448E-02
 -1       598 4.70186E-01 3.31354E-01 1.15141E-01-3.22779E-01 8.38612E-03 1.35413E-01
 -1       599 5.63966E-01 2.84679E-01 5.07540E-02-3.14264E-01 2.54709E-01-3.21652E-01
 -1       600 3.92289E-01 2.37503E-01 1.07609E-01-3.43240E-01 5.79627E-02-2.63852E-01
 -1       601 6.83705E-01 4.65930E-01 6.80462E-01-2.88396E-01-5.49107E-01 7.72747E-01
 -1       602 6.36719E-01 4.77998E-01 1.09471E+00-3.79410E-01-5.68527E-01 8.25206E-01
 -1       603 1.29389E-01 7.34819E-02-1.43042E-01-5.69740E-02-1.12243E-01 4.59850E-02
 -1       604 6.51536E-01 5.44513E-01-8.31860E-03-3.68567E-01-1.04698E-01 1.85280E-01
 -1       605 5.94340E-01 3.30817E-01-5.10263E-02-2.92157E-01 1.41145E-01-1.52418E-01
 -1       606-1.58522E-01 1.47570E-01-1.30292E-01 1.22968E-01 1.73672E-03-1.64592E-01
 -1       607 4.17747E-01 3.07092E-01-1.00226E-01-2.39233E-01 1.93312E-01-2.76835E-01
 -1       608-4.39458E-03 6.58770E-02 1.99642E-01 1.42833E-01 1.07063E-01-2.89613E-01
 -1       609 1.08271E+00 5.46257E-01-2.08927E-01-5.91289E-01-1.76004E-02-7.34892E-02
 -1       610-2.87407E-01 2.86746E-02-4.34674E-02 1.05142E-01-2.53908E-02-8.09585E-02
 -1       611 3.42173E-01 4.44792E-01 1.37308E-01-1.00024E-01 1.24071E-01-2.58477E-01
 -1       612 5.76947E-01 7.62373E-02-1.10160E-01-4.29727E-02-5.97368E-03 4.01386E-02
 -1       613 7.72975E-01-6.36443E-02-4.10380E-01-1.45589E-01 1.39151E-01-1.59193E-01
 -1       614 2.40234E-01 6.94646E-01 9.14842E-02-2.84573E-01-2.12597E-01 2.57478E-01
 -1       615-3.04542E-01-2.09524E-01-1.26846E-01 2.31474E-01-4.87059E-02-1.44041E-01
 -1       616-1.82259E-01-2.76380E-04-1.94021E-02 1.61876E-01-5.62312E-02-1.95608E-02
 -1       617 3.75345E-01 2.96843E-01 1.28409E+00 1.76408E-02 3.48736E-02-7.03137E-01
 -1       618 1.81156E-01 1.11406E-01 3.79451E-01 2.48747E-02 7.41969E-02-4.56904E-01
 -1       619 1.20817E+00 2.44677E-01-1.18402E-01-3.26619E-01-1.76206E-01 5.04742E-01
 -1       620 1.25887E+00 2.38139E-01 4.63142E-02-3.33697E-01-1.62082E-01 7.08468E-01
 -1       621 8.06032E-01 3.19290E-01 1.80727E-02-1.41124E-01 3.50731E-02-1.85866E-01
 -1       622 1.05725E+00 3.42082E-01 5.06025E-03-2.28904E-01 8.60109E-02-3.88445E-02
 -1       623 8.54293E-01 2.87191E-01 2.63162E-02-1.38130E-01 9.37903E-02-5.49029E-01
 -1       624 1.04578E+00 2.59791E-01-4.37034E-02-1.99647E-01 1.59373E-01-4.12012E-01
 -1       625 6.71006E-01 3.05518E-01 4.10056E-01-1.52721E-01-3.11204E-01 8.69118E-01
 -1       626 9.77645E-01 6.30227E-01 1.08928E+00-1.34129E-01-2.96325E-01 1.01910E+00
 -1       627-8.02868E-02-2.62651E-03-2.54266E-02-4.08422E-02-1.49177E-01 2.61081E-01
 -1       628 1.31689E+00 3.98534E-01-8.50039E-02-3.53322E-01-3.49746E-02 3.64096E-01
 -1       629 9.04498E-01 2.26254E-01-1.46828E-01-1.49582E-01 1.01529E-01-2.00051E-01
 -1       630-4.19869E-01 1.50066E-01-1.18368E-01 4.95717E-02 3.07013E-02-2.01922E-01
 -1       631-5.69961E-02 1.72072E-01-7.44040E-02 1.58029E-01-6.69491E-02-2.15885E-01
 -1       632 8.49804E-01 2.84186E-01-1.01409E-01-2.30071E-01 5.60639E-02-3.10369E-01
 -1       633 1.23654E+00 2.24954E-01-2.29750E-01-2.44437E-01-8.09297E-02 1.20552E-01
 -1       634-2.23745E-01 1.44949E-03-9.12928E-02 4.12277E-02-4.37863E-02 1.60490E-01
 -1       635 3.31976E-01 2.69682E-01 1.59058E-01 3.96529E-02-6.71057E-02-3.48694E-01
 -1       636 7.02513E-01 1.68583E-01-1.76081E-01 1.31218E-01 7.59293E-02-7.17766E-02
 -1       637 9.63826E-01 1.44461E-01-3.71694E-01 7.12399E-02 5.85000E-02-2.55932E-02
 -1       638 5.63130E-01 5.80211E-01-9.81201E-02-4.65122E-01-5.15209E-02 2.06227E-01
 -1       639-2.19750E-01 7.91407E-02-1.70982E-01 1.22351E-01-3.23739E-03-1.35002E-01
 -1       640-2.24827E-01 9.65509E-02-1.80997E-01 2.99367E-02 5.98286E-02-1.79613E-02
 -1       641 1.45136E-01 2.15674E-01 7.26892E-01-1.16795E-03-5.11154E-02-5.80295E-01
 -1       642 3.26771E-01 2.31283E-01 8.11622E-01 4.12430E-02 1.16049E-01-6.09662E-01
 -1       643 1.55467E+00 2.27429E-01-8.24351E-02 2.42468E-02-3.96656E-03 6.98583E-01
 -1       644 1.64924E+00-2.31571E-02-7.26023E-02 1.14868E-01 2.37363E-02 6.60142E-01
 -1       645 9.00325E-01 2.20157E-01 7.17242E-03 8.47432E-03 1.44746E-02-1.23040E-01
 -1       646 9.29092E-01 6.90702E-02 6.33585E-02-3.79577E-02 1.16778E-01-1.62883E-01
 -1       647 9.72759E-01 2.22085E-01 4.91448E-02 1.01449E-03-5.20388E-03-5.56354E-01
 -1       648 9.54032E-01 2.89980E-02 5.72443E-02-6.00230E-02 1.67585E-02-5.25088E-01
 -1       649 1.11036E+00 6.23379E-01 1.40694E+00 7.12088E-02 6.57351E-02 1.41092E+00
 -1       650 8.90549E-01 2.63395E-01 6.33541E-01 7.02400E-02 9.57602E-02 1.14983E+00
 -1       651 1.60703E-01 1.03994E-02-1.79909E-01 6.74488E-02-6.38025E-02 3.04466E-01
 -1       652 1.60827E+00 2.53019E-01-2.10257E-01-3.38228E-02-1.13600E-02 2.33835E-01
 -1       653 1.12739E+00 2.53532E-01-6.55834E-02 1.64554E-02 1.41584E-02-3.80929E-01
 -1       654-2.72051E-01 3.15096E-01 1.87047E-02-9.80003E-02 1.21985E-02-1.96043E-01
 -1       655-1.91731E-01 4.19632E-01 3.28468E-02 1.47696E-01-3.80537E-02-1.85643E-01
 -1       656 9.71880E-01 2.29950E-01-6.28090E-02-6.67246E-02-1.31814E-01-2.90793E-01
 -1       657 1.47104E+00 2.48819E-01-3.20613E-01 1.49593E-01-1.25319E-01 1.99129E-01
 -1       658-4.31443E-01-3.81227E-02-2.17939E-01-1.26770E-01 9.80874E-02 6.92194E-02
 -1       659 8.25736E-01 2.57315E-01-1.35291E-01-3.65335E-01-2.25569E-02-1.30811E-01
 -1       660 9.40952E-01 2.90225E-01-6.02221E-02 3.62091E-01-8.68005E-03-3.02036E-01
 -1       661 9.45395E-01 4.04421E-01-2.35527E-01 3.17288E-01-9.92491E-02 9.57457E-02
 -1       662 6.91031E-01 3.63369E-01-2.28970E-01-3.70683E-01 4.92343E-02 4.79348E-02
 -1       663-2.96566E-01 1.99638E-01-1.47015E-01 7.00701E-02 2.45284E-02-2.05213E-02
 -1       664-1.59273E-01 2.19274E-01-1.48816E-01-9.86007E-02-5.58853E-02-5.07236E-02
 -1       665 2.54108E-01 8.00665E-02 4.21796E-01-2.25013E-02-9.19960E-02-3.84965E-01
 -1       666 2.40758E-01 1.74359E-01 8.92398E-01-5.78557E-02-4.82125E-02-6.32414E-01
 -1       667 8.75795E-01 2.63210E-01 7.17525E-02 1.03142E-01-1.11376E-01-5.46827E-01
 -1       668 9.91414E-01 2.23907E-01-1.17459E-02 1.88291E-01-1.69962E-01-3.95463E-01
 -1       669 8.21879E-01 2.81297E-01 1.30627E-02 1.45028E-01-4.28723E-02-1.98304E-01
 -1       670 1.02493E+00 3.05973E-01-1.12840E-02 2.41020E-01-8.46166E-02-3.52519E-02
 -1       671 1.25017E+00 2.55073E-01-8.61876E-02 3.15568E-01 1.58051E-01 4.92689E-01
 -1       672 1.31303E+00 2.70303E-01 3.51357E-02 3.38263E-01 1.40608E-01 6.45940E-01
 -1       673 9.93496E-01 3.53935E-01 1.25976E+00 2.26258E-01 3.32962E-01 1.20798E+00
 -1       674 9.85485E-01 4.87415E-01 7.96926E-01 1.88908E-01 3.52559E-01 1.07174E+00
 -1       675 1.30443E-01 1.76868E-01-1.98916E-01 1.06798E-01 1.85259E-02 1.76037E-01
 -1       676 1.28268E+00 3.02403E-01-2.25500E-01 2.58958E-01 7.15676E-02 1.68469E-01
 -1       677 8.98336E-01 2.88923E-01-8.55413E-02 1.99088E-01-7.25452E-02-3.11584E-01
 -1       678-9.15611E-02 1.71793E-01-9.38415E-02-2.22529E-01 7.54605E-02-2.87761E-01
 -1       679-1.94908E-01 2.36493E-01-9.85032E-02-4.45619E-02-6.52353E-02-1.49368E-01
 -1       680 9.73188E-01 2.18931E-01-1.39857E-01 1.09633E-01-8.76291E-02-1.54955E-01
 -1       681 1.31188E+00 4.37955E-01-1.99904E-01 4.19416E-01 2.12808E-04 3.10221E-01
 -1       682 2.63586E-01 7.16222E-02-2.01843E-01 6.51493E-02 5.93601E-02 2.89136E-01
 -1       683 3.07323E-01 1.95079E-01-1.72946E-01-3.50596E-02-1.04826E-01-9.95548E-02
 -1       684 5.03343E-01 5.03142E-01 1.98221E-01 1.36008E-01-7.01740E-03-3.74662E-01
 -1       685 5.53870E-01 6.07060E-01-1.58578E-01 3.11670E-01-6.00179E-02 1.38665E-01
 -1       686 9.45439E-01 1.17011E-01-2.69393E-01-1.35412E-01 3.29847E-02-4.78508E-02
 -1       687-4.39823E-01 6.47713E-03-3.96237E-02-5.26138E-02-2.78581E-02-1.93985E-02
 -1       688-2.09501E-01-1.44785E-02-2.37421E-01-1.30327E-01-9.38737E-03-6.08901E-03
 -1       689 8.30114E-02 2.10739E-02-3.54424E-02 8.28063E-03-6.69358E-02-3.05473E-01
 -1       690 3.95896E-01 1.55385E-01 1.16026E+00-8.82312E-03-2.06467E-01-6.72099E-01
 -1       691 6.36504E-01 2.91212E-01 1.22175E-02 2.26977E-01-2.14213E-01-3.27728E-01
 -1       692 4.63931E-01 2.47876E-01-1.20983E-01 2.73139E-01-2.74685E-02-9.15141E-02
 -1       693 4.22607E-01 3.27687E-01-1.30047E-03 2.25537E-01-6.00282E-02-3.82386E-02
 -1       694 4.09115E-01 3.13724E-01-3.44548E-05 2.94316E-01 3.66412E-02 1.41688E-01
 -1       695 7.98726E-01 4.91675E-01-7.29484E-02 4.71158E-01 3.24076E-01 3.86801E-01
 -1       696 6.78498E-01 4.62408E-01-2.93632E-02 5.50638E-01 4.73705E-01 5.69664E-01
 -1       697 7.76140E-01 4.98528E-01 6.63313E-01 2.96119E-01 5.24334E-01 8.03204E-01
 -1       698 5.07517E-01 3.22725E-01 3.45108E-01 2.89236E-01 4.23658E-01 5.96859E-01
 -1       699 7.93230E-01 5.03630E-01-1.61262E-01 4.56659E-01 6.46240E-02 6.59323E-02
 -1       700-6.47837E-02 4.44969E-02-2.02744E-01-3.08909E-03 6.48600E-02-9.60423E-02
 -1       701 6.67302E-01 4.11615E-01-2.70339E-02 3.45877E-01-1.87361E-01-2.21575E-01
 -1       702 3.53834E-01 2.88785E-01 1.42960E-01-5.02921E-02 7.92933E-04-2.13177E-01
 -1       703-4.21567E-01 1.10062E-01-1.38547E-01-1.94960E-01 5.73733E-02-1.18814E-01
 -1       704 4.57680E-01 2.66785E-01-1.08350E-01 1.01103E-01-5.23860E-02 5.86672E-02
 -1       705 5.24174E-01 4.80644E-01-2.42370E-01 3.42493E-01 1.06095E-01 1.88209E-01
 -1       706 1.85676E-01-3.12899E-03-1.51354E-01-8.43523E-03 2.15749E-01 5.05338E-02
 -1       707 6.85962E-01 1.80641E-02-2.84972E-01 1.08674E-01 5.00266E-02 6.06750E-02
 -1       708 2.95082E-01 3.00975E-01 3.33461E-01 2.11784E-01-3.27770E-01-4.18391E-01
 -1       709 3.23699E-01 5.93273E-01-6.94871E-02 1.21362E-01 3.92226E-02 1.72714E-01
 -1       710 9.64061E-01 4.61135E-02-3.26946E-01 2.66055E-01-9.94550E-02-7.53245E-02
 -1       711-9.71967E-02 1.28102E-02-4.09598E-02-1.11460E-01 2.46260E-02-1.72092E-01
 -1       712-3.10889E-01-1.57732E-01-2.56530E-02-1.84863E-01-6.16609E-03-5.08985E-02
 -1       713 2.99550E-01 2.35875E-01 1.07555E+00 6.43153E-02-2.91979E-01-5.16411E-01
 -1       714 6.18587E-02-9.63725E-02-5.52441E-01 8.09445E-02 2.91722E-02-3.29721E-01
 -1       715 1.76975E-01 2.36522E-01-1.10081E-02 1.53050E-01 3.32391E-02 2.88930E-03
 -1       716 2.37051E-01 2.23975E-01-2.36096E-02 2.70169E-01-2.33347E-01-1.28059E-01
 -1       717 1.35075E-01 1.54400E-01-3.55168E-02 3.05521E-01 8.48353E-03-1.59822E-01
 -1       718 1.42147E-01 3.55368E-01-2.04538E-02 2.94990E-01 1.67541E-01 1.81641E-01
 -1       719 1.85855E-01 5.29676E-01 5.60178E-02 4.28925E-01 3.46156E-01 1.44727E-01
 -1       720 2.34875E-01 3.30583E-01 5.04742E-02 2.34940E-01-1.53302E-01-3.53562E-02
 -1       721 3.19250E-01 2.94074E-01 3.44118E-01 2.31540E-01 3.62692E-01 3.73208E-01
 -1       722 3.47244E-01 1.68072E-01 3.24385E-01 2.14660E-01 2.12330E-01 4.92821E-01
 -1       723 2.73408E-01 4.46494E-01-1.22648E-01 3.21710E-01-6.85605E-02 3.82637E-04
 -1       724 2.30051E-02 2.80158E-02-9.87904E-02-3.99893E-02 9.82823E-03 3.69232E-03
 -1       725 1.34347E-01 1.67209E-01-4.51850E-02 1.76054E-01-3.00633E-01-6.07777E-02
 -1       726 1.21297E-01 1.28486E-01 1.55198E-02-1.21237E-01-6.12967E-02-2.59724E-01
 -1       727 2.97478E-01 1.60770E-01 7.19772E-02-3.15693E-02 8.44225E-03-2.92657E-01
 -1       728 2.58382E-01 2.60753E-01-1.40120E-02 2.81705E-01 3.70286E-02 2.04856E-02
 -1       729 1.96272E-01 3.12946E-01-8.97027E-02 2.29603E-01 1.20501E-01 2.86417E-02
 -1       730 1.67132E-01 9.18452E-02-1.85107E-02 4.05547E-02 1.50605E-01-1.77742E-02
 -1       731 4.25591E-01 9.23615E-03-2.68693E-01 2.36311E-01 2.80755E-01 1.39936E-01
 -1       732 4.58897E-01 2.04735E-01 3.49619E-01 9.93282E-02-3.54092E-01-3.36237E-01
 -1       733 2.61068E-01 2.33186E-01 3.40177E-02 4.39028E-02 2.02349E-01 1.13413E-01
 -1       734 4.37819E-01 1.30172E-01-3.36140E-01 3.06225E-01-2.80046E-01-1.30517E-01
 -1       735 5.66464E-02-4.88562E-02-7.59835E-02-2.00903E-01 3.35686E-02-3.40327E-02
 -1       736-4.19213E-02-4.33149E-02-3.66575E-02-8.02422E-02 1.05764E-02 6.76547E-03
 -1       737 2.29845E-01 1.93919E-01 8.16967E-01 1.13505E-01-1.76679E-01-4.35179E-01
 -1       738-1.13163E-01-7.86514E-02-7.64876E-01 7.12938E-02 1.55112E-01-2.53393E-01
 -1       739-1.48197E-02 3.05178E-02-1.98266E-02 1.26062E-01-4.32852E-03-1.14992E-02
 -1       740 1.94202E-04-6.18678E-02 2.55033E-02 2.80250E-01 3.53501E-02-8.50163E-02
 -1       741 4.36009E-02-1.12351E-01-1.45210E-01 2.00208E-01 4.14934E-01-5.38609E-02
 -1       742 4.02945E-02-5.48984E-02 5.62495E-03 2.01842E-01-5.04541E-03 6.92855E-02
 -1       743-6.32030E-03-1.03128E-02 9.67773E-02 1.39523E-01 3.01745E-01 4.52332E-02
 -1       744 8.76078E-03 6.14277E-02 6.87302E-03 9.79911E-02-3.49189E-01-2.53004E-02
 -1       745 7.50715E-02 9.63559E-02 2.29846E-01 2.33773E-01 9.00837E-02 4.33067E-01
 -1       746-2.58261E-02-1.44636E-01-2.46563E-01 2.10256E-01-1.20564E-01 2.41851E-01
 -1       747-1.94655E-02-6.06757E-02-9.24083E-02 1.74770E-01-4.92772E-02 4.71728E-02
 -1       748 8.49566E-02 2.61346E-02 2.32851E-02-1.44659E-02-6.13277E-02-5.19216E-02
 -1       749-1.57387E-02 3.49815E-02 8.55521E-02 1.80730E-01-6.49698E-02-1.94170E-02
 -1       750-6.88600E-02 4.97019E-02 3.46369E-02-1.25632E-01-5.36883E-02-1.85511E-01
 -1       751 8.22591E-02-3.76139E-02 2.20155E-02-1.00331E-01 1.20372E-01-2.27639E-01
 -1       752-1.83202E-02-4.00289E-02-1.08857E-01 1.52260E-01 2.25567E-01 1.38733E-02
 -1       753-1.84461E-02-1.92725E-01 8.20851E-02 2.53171E-01 2.67579E-01 1.42058E-02
 -1       754 5.81515E-02 3.68598E-02 2.45745E-02-5.41745E-02 8.42034E-02-1.26039E-01
 -1       755-2.42499E-02-1.15009E-01-2.91551E-01 9.81331E-02 2.72799E-01-5.45917E-02
 -1       756-6.95006E-02 1.31574E-01 3.06243E-01 1.56857E-01-3.57303E-01-9.23492E-03
 -1       757 2.62658E-01 1.31453E-01 5.64790E-01 1.48305E-01 4.06376E-01 1.85376E-01
 -1       758 8.84771E-02 8.18015E-03-2.32652E-01 1.48712E-01-2.96697E-01-8.79995E-03
 -1       759 8.28753E-02 6.59713E-02 1.19253E-01-6.36139E-02 8.62937E-03 3.60555E-03
 -1       760 2.63736E-02 5.93359E-02-1.77328E-01-1.18419E-01-1.25204E-01-4.20393E-02
 -1       761 1.92591E-02 9.39993E-02 4.38274E-01 3.13889E-02-3.92343E-02-2.66479E-01
 -1       762-2.88931E-01-1.91075E-01-9.56397E-01 3.35802E-02 2.29052E-01-4.48008E-01
 -1       763-1.86633E-01-2.72365E-01-5.09321E-02 1.77573E-01-2.15582E-02 1.08123E-03
 -1       764-2.32807E-01-4.41980E-01 4.60402E-02 3.06399E-01-2.44238E-01 1.65050E-01
 -1       765-1.62025E-01-5.18476E-01 6.97597E-02 3.54312E-01-1.00775E-01 1.91260E-01
 -1       766-1.84844E-01-1.64442E-01-1.97458E-02 2.60237E-01 7.30460E-02-1.83322E-01
 -1       767-1.70702E-01-2.63063E-01-6.59621E-02 3.65311E-01 3.50101E-01-1.61939E-01
 -1       768-1.91280E-01-3.31013E-01-6.45849E-02 2.70766E-01 1.58761E-01-5.76244E-02
 -1       769-1.25772E-01-2.12940E-01-9.83997E-02 1.39191E-01-2.36145E-01 3.01754E-01
 -1       770-2.84202E-01-4.40509E-01-4.10695E-01 1.95437E-01-4.67591E-01 3.89311E-01
 -1       771-2.53779E-01-4.35714E-01 7.98664E-02 3.10780E-01-1.57045E-01 5.16397E-02
 -1       772-2.46138E-01-2.48948E-02 1.95974E-01-2.96897E-02-1.95847E-01 1.92763E-02
 -1       773-2.88148E-01-1.83059E-01 1.64181E-01 1.65236E-01 4.73910E-02-2.78512E-02
 -1       774-1.65612E-01-1.18474E-01-4.57514E-02-1.80233E-01-1.39165E-01-2.72063E-01
 -1       775-1.10040E-02-5.71579E-02-5.23873E-02-6.43226E-02 3.95755E-02-1.80916E-01
 -1       776-3.31246E-01-3.11434E-01 5.27078E-02 2.74942E-01 3.44133E-01-7.34407E-02
 -1       777-2.80431E-01-3.57605E-01 1.96376E-01 2.91372E-01 9.15157E-02-4.99312E-03
 -1       778 5.88796E-02-3.79043E-02 5.42067E-03-4.02341E-02-9.71890E-02 1.06142E-01
 -1       779-2.83833E-01-3.51665E-01-3.45411E-01 8.44282E-02 3.57989E-01-2.22892E-01
 -1       780-3.79065E-01-7.61526E-02 3.24279E-01 2.41868E-01-1.74496E-01 9.99045E-02
 -1       781-4.82381E-01-3.58271E-02 5.00090E-01 3.15958E-01 3.38038E-01-1.23536E-01
 -1       782-3.05312E-01-3.81835E-01-2.53689E-01 3.20331E-02-2.51686E-01 2.19617E-01
 -1       783 3.77246E-02 4.95814E-02 1.70367E-02-1.11891E-01 3.01669E-02-2.88115E-02
 -1       784 1.94132E-01 1.09401E-01 6.16686E-02-2.39304E-01-3.82071E-02-9.78592E-02
 -1       785-3.32184E-01-1.10052E-01 1.96454E-03 2.59647E-02 1.26336E-01-4.46920E-01
 -1       786-2.87642E-01-3.40210E-01-1.33224E+00 3.23741E-02 1.50630E-01-5.94508E-01
 -1       787-7.02305E-01-2.57471E-01-2.19176E-02 2.62501E-01 2.35789E-01-3.29000E-01
 -1       788-5.59805E-01-2.29242E-01-9.39225E-02 3.75253E-01 4.11795E-01-5.06578E-01
 -1       789-4.93412E-01-3.37934E-01 7.78039E-03 2.71194E-01 8.07771E-02-6.57895E-02
 -1       790-5.60857E-01-3.83977E-01-1.22452E-01 4.31004E-01 1.70214E-01-2.64135E-01
 -1       791-7.33456E-01-4.79413E-01 6.45832E-02 4.46507E-01-3.28552E-01 4.16342E-01
 -1       792-6.12596E-01-4.18089E-01 7.96203E-02 4.98321E-01-2.40552E-01 2.69185E-01
 -1       793-5.66837E-01-3.68603E-01-5.64118E-01 2.69819E-01-4.65497E-01 6.99636E-01
 -1       794-6.74856E-01-4.59607E-01-7.59489E-01 2.03296E-01-4.54783E-01 7.89549E-01
 -1       795-1.42336E-01-1.07945E-01-2.86523E-03 5.58041E-02-2.10968E-01 4.88007E-02
 -1       796-6.49200E-01-5.41040E-01 1.42689E-01 4.63364E-01-1.18409E-01 1.43583E-01
 -1       797-5.33020E-01-2.92656E-01 1.19585E-01 1.95222E-01 1.39672E-01-1.25782E-01
 -1       798-1.18942E-01-1.96623E-01 1.86547E-01-1.28649E-01 3.55167E-02-2.21789E-01
 -1       799-2.72969E-01-8.33851E-02-6.78654E-02-6.46787E-02 1.49148E-01-4.54280E-01
 -1       800-5.89438E-01-3.25491E-01 1.17030E-01 3.00047E-01 2.98733E-01-3.32829E-01
 -1       801-8.15707E-01-4.56345E-01 1.46103E-01 4.71852E-01-2.37337E-02-4.14716E-02
 -1       802 1.47535E-01 4.68979E-02 1.20275E-01-4.53919E-02-8.64574E-02 3.65300E-02
 -1       803-2.88104E-01-3.85980E-01-2.19397E-01 5.14130E-02 1.90245E-01-3.34067E-01
 -1       804-8.80987E-01-7.06647E-02 2.30419E-01 1.91971E-01-4.52717E-02 9.70785E-02
 -1       805-6.37592E-01-3.11130E-02 4.04320E-01 1.50340E-01 1.62512E-01-1.10371E-01
 -1       806-5.26154E-01-3.14681E-01-7.88730E-02 1.73480E-02-1.80265E-01 3.36191E-01
 -1       807 1.75261E-01 1.57262E-01 1.49911E-01-1.52574E-01 1.39069E-02-8.81428E-02
 -1       808 3.46688E-01 7.91533E-02 1.61549E-01-2.53842E-01-5.36549E-02-6.20501E-02
 -1       809-1.25948E-01-1.27741E-01-2.36660E-01-6.21865E-03 7.50661E-02-4.90027E-01
 -1       810-4.78944E-01-4.12683E-01-1.66728E+00 9.82042E-02 1.38462E-01-7.88627E-01
 -1       811-8.49514E-01-2.56459E-01-9.53789E-03 1.78759E-01 1.31231E-01-4.71794E-01
 -1       812-9.64454E-01-1.20731E-01-1.89719E-01 2.41762E-01 1.22030E-01-5.55495E-01
 -1       813-7.87067E-01-2.72496E-01 4.89153E-02 2.14094E-01 4.79790E-02-2.07381E-02
 -1       814-1.10419E+00-3.41650E-01-6.72985E-02 2.21704E-01 7.88913E-03-1.89873E-01
 -1       815-1.37728E+00-3.07413E-01 1.02168E-01 3.45699E-01-1.85387E-01 7.30789E-01
 -1       816-1.67306E+00-2.97183E-01 1.41217E-01 4.63750E-01-2.15851E-01 5.47522E-01
 -1       817-1.08756E+00-8.50337E-01-1.58281E+00 1.85378E-01-4.15020E-01 1.32794E+00
 -1       818-8.65794E-01-3.81014E-01-5.13760E-01 2.28746E-01-3.77799E-01 1.02454E+00
 -1       819-3.59647E-02 2.57903E-02 5.66255E-02 5.83855E-02-6.96330E-02 1.50667E-01
 -1       820-1.39172E+00-4.71613E-01 1.90204E-01 4.40393E-01-2.91468E-02 2.26518E-01
 -1       821-6.57515E-01-2.69871E-01 1.11814E-01 5.60888E-02 1.47951E-01-1.84524E-01
 -1       822 1.61482E-01-2.52194E-01 7.23709E-02-8.08977E-02-1.27751E-02-2.12226E-01
 -1       823-5.95517E-02-1.74264E-01-9.94079E-03-1.55445E-01-5.56798E-02-3.38939E-01
 -1       824-1.01481E+00-3.13076E-01 7.62496E-02 2.54636E-01 8.11787E-02-3.17799E-01
 -1       825-1.25090E+00-2.98573E-01 1.85810E-01 2.64882E-01-8.39735E-02 4.28886E-02
 -1       826-2.39740E-01-1.00591E-01 2.91088E-01 1.59583E-01-1.06858E-01 1.96666E-01
 -1       827-3.99978E-01-5.14979E-01-1.89019E-01 1.57397E-01 1.24867E-02-3.11090E-01
 -1       828-9.77689E-01-6.70040E-02 2.52313E-01-1.20744E-01 2.91491E-02-1.15073E-01
 -1       829-9.32724E-01-9.21468E-02 2.48555E-01-1.64314E-01-1.53405E-02-9.24273E-02
 -1       830-3.76209E-01-6.42615E-01 2.17582E-01 3.40276E-01 7.06185E-02 6.57412E-02
 -1       831 2.90535E-01 4.94256E-02 1.69153E-01-4.81708E-02 5.63492E-02-5.50889E-02
 -1       832 7.89628E-01 8.26322E-02 1.83738E-01 2.24736E-02 5.62383E-03-1.69142E-02
 -1       833 3.40147E+00 1.46291E+00 1.45932E+00 1.13916E-01 1.93633E-01 1.96568E+00
 -1       834-6.86776E-01 5.44058E-02 8.62074E-01-2.93449E-02 2.09576E-01 5.24784E-01
 -1       835 1.47521E+00 5.99888E-01 5.87636E-01-2.73172E-01 8.12147E-02 1.13329E+00
 -1       836-7.46177E-01-3.11225E-01-5.90057E-01-2.33779E-01 2.89295E-01 2.91086E-01
 -1       837 3.52380E-02 1.25777E-01 4.06155E-02 2.63403E-02 2.11522E-02 2.22542E-02
 -1       838 2.00773E-02 3.05225E-02-5.42707E-03 2.19417E-02-2.90779E-02 4.97104E-02
 -1       839 5.98399E-01 7.96457E-01 5.56315E-01 2.78259E-01 1.25505E+00 1.44429E+00
 -1       840-8.47766E-01-4.93145E-01-1.89618E-01-3.49373E-01 8.60850E-01 9.60253E-01
 -1       841-3.05807E-01-1.72079E-01-5.53781E-01-2.75723E-02 7.24703E-01 7.29731E-01
 -1       842-2.62593E+00-1.17393E+00-1.13996E+00-5.65080E-01 1.03927E+00 1.75456E+00
 -1       843 3.36743E-01 4.89009E-01 5.89241E-01-8.37666E-02-7.14323E-01 6.23605E-01
 -1       844 1.45619E+00 1.78312E+00 9.71792E-01-6.61081E-01-1.31065E+00 9.78216E-01
 -1       845-5.76449E-01-1.37862E+00-5.86522E-01 1.03525E-01-8.73064E-01 2.64814E-01
 -1       846-5.52516E-02 2.25290E-01-2.65742E-01 3.79917E-02-2.09814E-01 2.59730E-01
 -1       847 6.99952E-01 4.19994E-01 1.28779E-01-3.06744E-01-1.11244E+00 1.43276E+00
 -1       848-4.67725E-01-4.64635E-01 4.62370E-01 3.68375E-01-5.86328E-01 1.02692E+00
 -1       849 1.91084E-01 2.95367E-01-1.04010E-01-8.65751E-01-3.07163E-01 1.68416E+00
 -1       850-1.10697E+00-4.61247E-01-4.70466E-01 2.86974E-02 6.34502E-02 7.60515E-01
 -1       851-3.95733E-01-2.61737E-01 4.19969E-01 2.96632E-01-5.26438E-01 1.14233E+00
 -1       852 4.01185E-02 2.87647E-01 6.00232E-01-2.49185E-02 4.82873E-01 9.87032E-01
 -1       853-1.67466E-01-1.47879E-01 1.96264E-01 1.94187E-01-7.19023E-01 5.21001E-01
 -1       854-2.42497E-02 2.90038E-01 6.79764E-02-5.11994E-02 6.57579E-01 6.28397E-01
 -1       855 1.35279E-01 1.43719E-01 3.59185E-01 3.11485E-03-3.58357E-01 2.08100E-01
 -1       856-2.38539E-01-1.11366E+00-3.75732E-01 1.47955E-01 7.20455E-01 3.75893E-01
 -1       857 0.00000E+00 0.00000E+00 0.00000E+00 0.00000E+00 0.00000E+00 0.00000E+00
 -1       858 2.55787E-01 3.81341E-01 1.89521E-01 1.54819E-01 1.58896E-01 3.64987E-01
 -1       859 4.71343E-02-1.35401E-02 9.58006E-02-1.27610E-02-1.32122E-01-1.57492E-02
 -1       860-2.74370E-01-2.11816E-01-1.21866E-01 1.04162E-01 1.67419E-01-1.73557E-03
 -1       861-1.84087E-02 2.85080E-02-5.05502E-02-9.46065E-03 1.49971E-02 1.94768E-02
 -1       862 3.34841E-02 3.59229E-01-1.89202E-01 2.51363E-02-3.87717E-02 5.80017E-02
 -1       863 6.83861E-01 6.43815E-01 3.24086E-01 4.89559E-01 8.49444E-01 5.24239E-01
 -1       864 8.66170E-01 1.41226E+00 6.83528E-01-3.65607E-01-1.18182E+00 6.31708E-01
 -1       865 1.23596E+00 1.69585E+00 8.79543E-01 5.84750E-01 1.16489E+00 9.29764E-01
 -1       866-4.11746E-01-5.41819E-01-6.11283E-01-1.30864E-01 5.18890E-01 8.77425E-01
 -1       867 1.33843E-01 3.53036E-01-5.94711E-01-2.77786E-01 3.43157E-03-1.63469E-01
 -1       868 2.03369E+00 1.61350E+00 1.09416E+00 6.89460E-01 1.00504E+00 2.14352E+00
 -1       869-4.74064E-01-3.54277E-01-6.99555E-01 3.40415E-02-6.49901E-01 1.35368E+00
 -1       870-9.38205E-01-4.44065E-01-8.01323E-01-1.21575E-01 5.18335E-01 1.69656E+00
 -1       871-1.08884E+00-5.80469E-01-2.73076E-01 5.53209E-01 3.37173E-01 1.03196E+00
 -1       872 1.20710E+00 3.14359E-01 3.88997E-01-4.10633E-01 3.47901E-01 1.61321E+00
 -1       873 1.89157E+00 1.18351E+00 9.22523E-01 5.03119E-01 9.07096E-01 1.69702E+00
 -1       874-7.04238E-02-1.12972E+00-3.05472E-01 3.33796E-01 6.19647E-01 3.27048E-01
 -1       875 3.36259E-01 6.67711E-01 6.91394E-02 3.17775E-01 2.30416E-01 3.89418E-01
 -1       876 1.41679E+00 1.53092E+00 8.84312E-01 6.18881E-01 1.57995E+00 1.24008E+00
 -1       877-2.02975E+00-1.32270E+00-1.00574E+00 5.70172E-01-9.86916E-01 1.84635E+00
 -1       878-6.88440E-01-7.58359E-02 7.51924E-01 3.01612E-01 2.27521E-01-3.41064E-02
 -1       879-2.98731E+00-1.41318E+00-1.05441E+00 9.50265E-01 1.43112E-01 9.74119E-01
 -1       880-1.51121E+00-1.70831E+00-9.65855E-01-6.76117E-01 9.42432E-01 1.14833E+00
 -1       881-4.10948E-01-6.11220E-02 1.50983E-01-1.60951E-01 2.74627E-01 1.15574E+00
 -1       882-2.99372E+00-1.38553E+00-1.31378E+00-6.21636E-01 7.07682E-01 2.68351E+00
 -1       883-1.00634E+00-5.19852E-01-4.25347E-01-7.08379E-01 2.45439E-01 1.59597E+00
 -1       884-1.55550E-01-2.17740E-01 3.70342E-01-1.78414E-01 2.89519E-01 2.87804E-01
 -1       885 1.78578E-02-7.74275E-02 2.06296E-01-4.23957E-02 6.92629E-03-2.43136E-03
 -1       886-8.05407E-02-2.52464E-01-8.98017E-02 5.10335E-02-4.55995E-01 2.97038E-01
 -1       887 1.91333E+00 1.18284E+00 6.49353E-01-1.38240E+00-3.84898E-01 1.71059E+00
 -1       888 1.30557E+00 4.38607E-01-1.20468E+00-6.74108E-01 4.31808E-01 1.37056E-01
 -1       889 1.09857E+00 2.36726E-01-2.96852E-01-2.30894E-01-5.85953E-01 8.77256E-01
 -1       890 2.92168E-01 7.52963E-01 2.40121E-02-2.27410E-01-4.43644E-01 5.53755E-01
 -1       891 6.57365E-01 1.20832E+00 5.59705E-01-3.17058E-01-7.66079E-01 3.47936E-01
 -1       892 1.56031E-01 5.14845E-01-9.74854E-02-9.70972E-02 9.06544E-02-7.66948E-03
 -1       893 1.03387E-01 2.37795E-01 4.18133E-02 1.70217E-02-1.58103E-01 6.75174E-03
 -1       894-4.29405E-01-3.69841E-01-2.04365E-01 1.71326E-01 1.70779E-01-1.09778E-02
 -1       895 0.00000E+00 0.00000E+00 0.00000E+00 0.00000E+00 0.00000E+00 0.00000E+00
 -1       896 3.50145E-01-1.09245E-02 2.94012E-01 2.64818E-01 3.03485E-01 4.10518E-01
 -1       897-1.90106E+00-4.31913E-01 1.47685E-02 4.59486E-02 6.50437E-02-5.15567E-01
 -1       898-6.37997E-01 7.95924E-03-5.20043E-02-9.25779E-03 9.35779E-03-3.45788E-01
 -1       899-2.19080E+00-3.77918E-01-5.09128E-03 3.27456E-03-3.27997E-02-5.31671E-01
 -1       900-1.29754E+00-3.77219E-01 2.49102E-01-1.27541E-01-1.03330E-03-2.01311E-01
 -1       901-3.20080E+00-4.94410E-01 1.45675E-01-2.37914E-02 6.15400E-02 4.06148E-01
 -1       902-1.17561E+00-1.98309E-01-1.74250E-01 1.10874E-02-3.43040E-03 9.23336E-01
 -1       903 5.16775E-02-1.44808E-01 8.51728E-02-8.01325E-02-2.94753E-02 2.42128E-01
 -1       904 4.28418E-01-3.51640E-01-6.94697E-02 6.16828E-02 7.81500E-02 4.04933E-02
 -1       905-2.55230E-01-2.09473E-01 6.90940E-02-3.42720E-02-2.10906E-02-3.20524E-01
 -1       906-5.88579E-01-2.55213E-01-2.83742E-01 8.56023E-02-5.80121E-02 5.45344E-01
 -1       907 2.31774E-01 3.20805E-02 7.11422E-02-1.24508E-04-6.01280E-03-5.40097E-02
 -1       908 2.86965E-01-1.70321E-01 1.02230E-01 7.69281E-02-1.18170E-02-7.08372E-02
 -1       909 4.59028E-01-2.14359E-01-2.80865E-02 9.42133E-02 3.67839E-02-6.86765E-02
 -1       910-1.92658E+00-5.38416E-01-1.11373E-02-3.89875E-01-1.40466E-01-3.57839E-01
 -1       911-5.62391E-01-1.47706E-02-1.18505E-01-1.30449E-01-9.69554E-02-3.59567E-01
 -1       912-9.52021E-02-1.23232E-01 8.16685E-02-7.01554E-02 9.84351E-02 1.52881E-01
 -1       913-4.07066E-02-2.87797E-01-1.64496E-01 1.31352E-01 1.65361E-01-4.37212E-02
 -1       914 7.65161E-02-2.90815E-01-5.88046E-02 8.12549E-02-2.87874E-02-1.72494E-01
 -1       915-5.89106E-01-3.15441E-01-4.71430E-01-3.16676E-02 1.68148E-01 5.11387E-01
 -1       916 7.86228E-02-1.44537E-01 2.19515E-02 2.15094E-02-4.07577E-02-1.07960E-02
 -1       917 4.66545E-04-1.36595E-01 1.15862E-01 4.56000E-03-2.07232E-03-3.84318E-03
 -1       918-6.66519E-02-1.44304E-01-7.16108E-02 1.25056E-01 3.31380E-02-1.59474E-01
 -1       919-1.09045E+00-4.87042E-01 1.71947E-01-4.89982E-01-1.92551E-02-1.34221E-02
 -1       920-6.77951E-01-4.48911E-01 7.20744E-02-3.89294E-01-1.36889E-01-1.24475E-01
 -1       921-1.16099E+00-5.65206E-01 2.05489E-01-5.81176E-01-1.76363E-01-9.21075E-02
 -1       922-6.21229E-01-8.35977E-02-2.13708E-01-3.73512E-01-2.31993E-01-2.67521E-01
 -1       923-6.64539E-02-1.37132E-01 1.40724E-01-1.02499E-01 7.78495E-02 5.60106E-02
 -1       924-2.17189E-01-2.78893E-01-3.39497E-01 1.19561E-01 1.14306E-01-2.71536E-01
 -1       925 2.55087E-01-9.21575E-02-2.95985E-02 1.75775E-01-2.77092E-02-1.52179E-01
 -1       926-4.56285E-01-2.77412E-01-2.18910E-01-1.08285E-01 2.47872E-01 2.99969E-01
 -1       927 2.39057E-02-1.29427E-01 1.69902E-03 1.21130E-01 6.47115E-02-6.75638E-02
 -1       928-5.29056E-02-1.23231E-01-3.49740E-02 7.48556E-02 4.54991E-02 3.29781E-02
 -1       929-5.87223E-02-1.26817E-02 1.19889E-01 4.26257E-02-1.67551E-02-9.75235E-02
 -1       930 9.65334E-03 9.59914E-03 3.21890E-03 1.32484E-01-6.07122E-03-1.91210E-01
 -1       931-3.17134E-01-3.32345E-01 8.39353E-02-3.03629E-01-1.30485E-01-3.68180E-02
 -1       932-4.24672E-01-6.80013E-01 4.58405E-02-5.88282E-01 2.98927E-02 1.08671E-01
 -1       933-1.17515E-01-1.29201E-01-1.89435E-01-3.96778E-01-2.18408E-01-9.59241E-02
 -1       934-4.49901E-01-3.41452E-01 7.94787E-02-3.93032E-01 1.38538E-01 1.51440E-01
 -1       935-2.35761E-01-3.33693E-01 7.14959E-02-2.70439E-01 9.26380E-02 3.72676E-02
 -1       936-1.17715E-01-1.12100E-01 8.82612E-03-6.58674E-02 1.49245E-01 1.23035E-01
 -1       937-7.96129E-02-1.10170E-01 1.13048E-01-8.72796E-02 1.72458E-02-3.31043E-02
 -1       938-8.89242E-02-2.77238E-01-9.33573E-02 1.63516E-01 1.49773E-01-2.14924E-01
 -1       939-1.15881E-01-9.32641E-02 9.09946E-02 6.13278E-02 3.16992E-02-1.16481E-01
 -1       940-1.15633E-01-1.74715E-01-2.15486E-01-1.09825E-01 2.04474E-01 4.45281E-02
 -1       941 3.67978E-02 8.25956E-03-1.51062E-01 9.57755E-02 2.75712E-02-7.15873E-03
 -1       942-2.31795E-02-5.37539E-02 1.16420E-01 4.61398E-03-1.13486E-01-3.56820E-02
 -1       943-9.76704E-02-8.08679E-02-4.61915E-02 5.96686E-02-8.78673E-02-1.21073E-01
 -1       944 1.40098E-01 8.60688E-02-1.37507E-01-2.78243E-01-2.14410E-01 5.15349E-03
 -1       945 1.25159E-02 5.39745E-02 1.98658E-01-4.75509E-01 1.42367E-01 5.89547E-02
 -1       946 2.25272E-02 1.89505E-02-1.71078E-01-2.06005E-01-4.26408E-02-8.52482E-02
 -1       947 3.46383E-04 7.99549E-02 2.81987E-02-2.80213E-01 5.93345E-02 1.56938E-02
 -1       948-3.55516E-02-1.60796E-02 2.74412E-01-4.73691E-02-9.34884E-02-1.09103E-01
 -1       949-1.53133E-02-1.03918E-01-1.33683E-01-6.98404E-02-2.25973E-02-3.17969E-01
 -1       950 3.47838E-02 4.60708E-02 4.64681E-02 8.35587E-02 1.55724E-01-4.30723E-02
 -1       951 6.46894E-02-6.83097E-02-1.10848E-01-1.90040E-02 5.92678E-02-9.76469E-03
 -1       952-2.04046E-02 3.44536E-02 1.62267E-02-3.08932E-02 1.36188E-01-1.88752E-01
 -1       953-4.90247E-02 7.59270E-03-8.27808E-02 4.64652E-02 1.10022E-01-7.67434E-02
 -1       954 2.05211E-02 3.08943E-03 8.30206E-02 5.25579E-02-7.64784E-02-4.80249E-02
 -1       955 9.66107E-02 6.11841E-02 2.30098E-02 8.11826E-03-8.01385E-02-1.67135E-01
 -1       956 4.70628E-01 4.80707E-01-1.99483E-01-4.32626E-01 1.53713E-01-1.66821E-02
 -1       957 2.37867E-01 4.91878E-01-4.36982E-02-3.11245E-01-1.82354E-01 5.76439E-02
 -1       958 4.00867E-01 2.98399E-01-1.35371E-01-3.02420E-01-4.08329E-02-1.83444E-02
 -1       959 9.79040E-02 9.76936E-02-3.52474E-02-7.32816E-02-1.97158E-01-1.63994E-01
 -1       960 1.85184E-01 7.03266E-02 6.79391E-02 9.47156E-02-2.00215E-01-3.73684E-01
 -1       961 7.38062E-02 1.20114E-01 2.56619E-02 1.47062E-02 1.04424E-01-1.09319E-01
 -1       962 2.03607E-01 1.93333E-01 6.74744E-02-7.08373E-02-1.63616E-01 1.67696E-01
 -1       963 1.18605E-01 1.14992E-01 1.18328E-01 1.60067E-02 4.84386E-02-1.46869E-01
 -1       964 9.26206E-02 1.25244E-02-1.54257E-01-4.23095E-03 1.71911E-01-5.48779E-02
 -1       965-6.54594E-02 2.24144E-02 2.86907E-02 5.27739E-02 1.34727E-02-6.98829E-02
 -1       966 5.60121E-02-1.49367E-01-1.69370E-01 1.49591E-01-1.46201E-01-3.46192E-02
 -1       967 1.10590E+00 5.14763E-01-2.65151E-01-5.44811E-01 7.37994E-02-2.51033E-02
 -1       968 3.71932E-01 1.38803E-01 1.25251E-01-2.53793E-01 1.87805E-01-2.71732E-01
 -1       969 1.13933E+00 5.73127E-01 1.50415E-01-5.34882E-01 2.82040E-01-2.25456E-01
 -1       970 4.21799E-01 1.24430E-01 3.87248E-02-2.47404E-01 1.40107E-01-2.75192E-01
 -1       971 4.91750E-01 1.81183E-01 2.02387E-01-1.24310E-01-3.02279E-01 2.63930E-01
 -1       972 2.22893E-01 1.53499E-01 4.69445E-02-8.85811E-02-1.71084E-01 5.37586E-02
 -1       973 1.51762E-01 3.70056E-01-4.00983E-02 2.56065E-01-2.42362E-01-1.53630E-01
 -1       974-5.51879E-02 2.94423E-02-5.54835E-02 8.53651E-02 1.31125E-01-2.13472E-01
 -1       975 3.01702E-01 2.82610E-01 8.02346E-02-4.39177E-02-2.24362E-01 8.79339E-02
 -1       976 1.67208E-01 6.46986E-02 1.13684E-01 4.26417E-02 7.15584E-02-2.79034E-01
 -1       977-1.13821E-02-6.94767E-02-1.44286E-01 8.79704E-02 4.40387E-02-1.10056E-01
 -1       978-4.37889E-02 1.17853E-01 7.81332E-02 9.19641E-02-2.73738E-02 8.37701E-03
 -1       979-1.08578E-02 1.40569E-01 1.55562E-01 1.74963E-01-2.13345E-02-1.00079E-01
 -1       980 2.39612E+00 5.81716E-01 1.04090E-02-5.95912E-01-8.07020E-02 4.24495E-01
 -1       981 1.69121E+00 3.54464E-01-2.04103E-01-2.11383E-01 1.63764E-02-6.65135E-03
 -1       982 6.11309E-01 1.34799E-01 2.95578E-02-1.06513E-01 8.29216E-02-3.71305E-01
 -1       983 1.77460E+00 4.57467E-01 3.52136E-02-3.07629E-01 7.55800E-02-4.86389E-01
 -1       984 9.60845E-01 2.02744E-01-2.89699E-02-1.60961E-01 1.23370E-01-3.36154E-01
 -1       985 8.72495E-02 5.14457E-02-6.60771E-02-6.92212E-02-1.10031E-01 1.01084E-01
 -1       986-8.38090E-02 4.18153E-01 2.93963E-02 1.64414E-01-9.00911E-02-6.81544E-02
 -1       987 6.42131E-02 1.80450E-01 1.88971E-02 9.55662E-02 1.11572E-02-2.13163E-01
 -1       988 3.64254E-01 1.64674E-01 6.01818E-02-1.03972E-01-8.77763E-02 3.52581E-01
 -1       989 1.62751E-02 1.20927E-01 7.80360E-02 9.36349E-02-4.24807E-02-2.00557E-01
 -1       990-5.73818E-02 5.18288E-02-2.12084E-01 6.23436E-02-8.53798E-03-5.88531E-02
 -1       991-1.45305E-01 1.01265E-01-7.49282E-03-3.25595E-03 4.90175E-03 1.09342E-02
 -1       992-1.93813E-01 1.65295E-01-5.66581E-02 1.47184E-01 1.27741E-02-7.55110E-02
 -1       993 1.82414E+00 3.37319E-01-3.44003E-01 1.93890E-01-8.20246E-03 5.58690E-02
 -1       994 5.34847E-01 4.31206E-02 1.11708E-01-1.54486E-02 4.18010E-02-4.27436E-01
 -1       995 2.05626E+00 3.75868E-01 2.42864E-03-1.83662E-03-1.80227E-02-4.64787E-01
 -1       996 7.55460E-01 6.26472E-02 1.16092E-01-5.33837E-02-7.19301E-03-3.73742E-01
 -1       997 5.01889E-01 9.96128E-02 1.08627E-01 7.05120E-02 3.71775E-02 3.89781E-01
 -1       998 4.09410E-01 5.31821E-02-1.48372E-01 5.95689E-02-2.37674E-02 2.42823E-01
 -1       999 2.14057E-01 6.48940E-01 2.24491E-01 2.12170E-02 6.27238E-02 4.10393E-02
 -1      1000-1.60981E-02 1.39679E-01-1.54806E-03 9.87061E-02 1.82318E-04-2.24597E-01
 -1      1001 4.79298E-01 2.88922E-01 2.77467E-01-1.20722E-01 1.44156E-03 4.15483E-01
 -1      1002-5.87737E-02 2.31541E-01 4.58355E-02 6.03494E-02-4.88487E-02-1.02435E-01
 -1      1003-7.59187E-02 1.37503E-01-6.88393E-02 3.48994E-02 1.95355E-02-1.30439E-02
 -1      1004-1.37407E-02 1.33758E-01 1.36299E-02-5.79105E-02-6.47929E-03-1.06802E-03
 -1      1005-2.50192E-01 1.89590E-01-4.64851E-02-7.00137E-02 6.40793E-02-1.12769E-01
 -1      1006 4.98016E-01 1.28639E-01 1.25258E-01 2.40876E-02-6.06156E-02-4.07826E-01
 -1      1007 1.87745E+00 4.67607E-01-2.82876E-02 3.53171E-01-1.58366E-01-3.74300E-01
 -1      1008 1.38942E+00 3.24632E-01-1.38090E-01 1.77562E-01-2.53665E-02-1.59546E-01
 -1      1009 1.46985E+00 5.22520E-01-2.87124E-01 4.73060E-01 7.65271E-03 8.31883E-02
 -1      1010 8.51917E-01 2.08597E-01 9.24299E-02 2.39904E-01 2.43957E-01 7.88344E-01
 -1      1011 2.13078E-01 1.27964E-01-7.06358E-02 1.30433E-01 9.74357E-02 7.35954E-02
 -1      1012 2.84555E-01 4.84022E-01 1.21854E-01-1.63652E-01 1.99077E-01-2.20805E-01
 -1      1013-3.15407E-01 2.07601E-01-2.12971E-03-5.33308E-02-5.73291E-02-1.21009E-01
 -1      1014 3.26185E-01 2.63429E-01 3.93425E-01 1.28027E-02 1.41393E-01 4.57489E-01
 -1      1015-3.34762E-02 2.23447E-01-1.38142E-01-2.71714E-02-2.41210E-02-4.82839E-02
 -1      1016-3.30882E-01 1.12808E-01 4.05996E-02-3.15471E-02-2.62106E-02-7.76864E-02
 -1      1017 2.85876E-02 5.54624E-02-1.95085E-02-4.58717E-02-4.42229E-02-2.43683E-02
 -1      1018 7.77685E-02 1.81468E-01 1.39237E-01-1.41262E-01 1.35374E-03-2.05951E-01
 -1      1019 1.28847E+00 5.09270E-01-2.35660E-01 5.81617E-01-3.47509E-01-3.60991E-01
 -1      1020 5.70085E-01 1.42567E-01 5.87550E-02 2.59486E-01-1.76646E-01-3.67054E-01
 -1      1021 1.22421E+00 5.44069E-01-3.64311E-01 5.90199E-01-1.84383E-01-1.68529E-01
 -1      1022 9.18381E-01 4.18548E-01-6.51809E-02 3.87807E-01-6.31992E-02-7.78165E-02
 -1      1023 7.56124E-01 6.91841E-01-2.29560E-01 4.91580E-01 9.13986E-03 2.69382E-02
 -1      1024 7.42059E-01 3.65988E-01 1.14722E-01 4.49899E-01 4.10734E-01 5.49438E-01
 -1      1025 2.68964E-01 1.90911E-01-7.40553E-02 1.42892E-01 2.00505E-01 1.51536E-01
 -1      1026 1.54821E-01 1.85110E-01-1.53055E-01 1.15761E-01 8.19580E-02-1.03657E-01
 -1      1027 2.29160E-01 2.59360E-01 4.09843E-01-5.25761E-02 1.25009E-01-3.70786E-01
 -1      1028 2.86718E-02 1.76838E-01-3.38863E-02-2.22023E-02-1.10299E-01-1.47453E-01
 -1      1029 3.76084E-01 2.37942E-01 1.26809E-01 1.34170E-01 2.61213E-01 1.67288E-01
 -1      1030-1.73072E-01 7.43588E-02 1.11372E-02-1.58325E-01 2.43591E-02 5.17882E-03
 -1      1031 1.68353E-01 1.72256E-01-5.42559E-03-5.30552E-02 1.66769E-02 6.76994E-02
 -1      1032 3.69221E-02 5.35712E-02-9.27236E-02-3.28086E-02-5.62855E-02-4.21240E-02
 -1      1033 6.83017E-02 8.19033E-02 1.51400E-01-2.09515E-02-5.32462E-02-2.95912E-01
 -1      1034 2.53964E-01 3.82478E-01-1.07130E-01 2.63018E-01 8.79370E-02 4.77315E-03
 -1      1035 1.70124E-01 1.34658E-01 1.74595E-01 3.52553E-01-2.05631E-01-1.01820E-01
 -1      1036 3.93596E-01 3.80701E-01-4.71731E-02 5.78172E-01 1.83182E-02-1.51918E-01
 -1      1037 2.46863E-01 3.24163E-01-6.93922E-02 2.82472E-01-8.71804E-02-4.09849E-03
 -1      1038-5.62781E-02 7.37675E-02-6.53818E-02 6.70918E-02 1.82804E-02 7.84876E-03
 -1      1039 3.44094E-02 2.25983E-02 1.98478E-01-2.23219E-01 5.75228E-02-3.66471E-01
 -1      1040 2.00093E-01 5.99026E-02-7.23179E-02-8.87410E-02 1.17371E-01-1.45214E-01
 -1      1041 1.26276E-01 1.56042E-01 1.45858E-01 9.44450E-02 1.54386E-01 3.43986E-02
 -1      1042 7.19597E-02-3.99485E-02-5.42559E-02-1.01798E-01 1.39833E-01-6.13244E-02
 -1      1043-3.07816E-02-4.12844E-03 1.50099E-01-1.08238E-01 6.01622E-02-1.02003E-02
 -1      1044 6.38689E-02-5.85623E-03-1.46799E-01-6.41590E-04-8.01602E-02-1.25896E-02
 -1      1045 1.19316E-01 9.61611E-02 1.20686E-01-2.65151E-02-9.48868E-02-8.28990E-02
 -1      1046-1.18466E-02-8.76467E-02 6.75565E-02 2.72924E-01 1.73225E-01 5.76946E-02
 -1      1047 3.24849E-02-4.08359E-02 2.69773E-02 3.15934E-01-8.10795E-02-2.05549E-01
 -1      1048-1.16924E-01-9.41068E-02-2.21511E-01 4.41787E-01-6.75253E-03 2.21762E-02
 -1      1049-4.31636E-02 4.06357E-02-7.68460E-04 4.14653E-01-2.16071E-01 6.59630E-02
 -1      1050 6.06618E-02-6.16860E-02-1.24517E-02 2.75163E-01-6.36569E-02 1.61175E-01
 -1      1051 5.28603E-02-5.77886E-02-1.12170E-01 8.96091E-02-1.59308E-01-6.62205E-03
 -1      1052-4.58858E-02 3.08030E-02-1.04787E-01-3.69481E-03-1.06414E-01-1.66684E-01
 -1      1053-3.48935E-03 1.59601E-01 1.16542E-01 8.59225E-03-1.24285E-01-4.75876E-01
 -1      1054 9.94566E-02-8.52612E-02 3.32437E-02 4.40387E-03 6.35226E-02 1.91167E-02
 -1      1055 1.37356E-01 6.65965E-02 9.37069E-02 1.02907E-01-1.90118E-02-7.71980E-03
 -1      1056 3.82447E-02 3.59134E-02 2.79072E-01-1.24439E-01 7.48080E-02-3.25060E-02
 -1      1057 3.94098E-02 2.21126E-02-6.71682E-02-3.68160E-02-5.13116E-02-6.24713E-02
 -1      1058-9.06344E-02 4.92507E-02-3.55198E-02 1.95733E-02-6.26846E-02-1.73474E-01
 -1      1059-4.06581E-01-3.05204E-01 1.82196E-01 3.34347E-01-4.65062E-02 2.16380E-02
 -1      1060-2.31767E-01-3.18987E-02 8.66576E-03 2.86926E-01-1.87749E-02-1.98134E-01
 -1      1061-5.52165E-01-4.04086E-01 1.06750E-01 5.58179E-01 2.26275E-01-1.03138E-01
 -1      1062-2.56681E-01-4.12956E-01-3.35891E-02 3.31914E-01 2.06266E-01-8.89888E-02
 -1      1063-4.35951E-01-4.78591E-01 1.65483E-01 4.26968E-01 1.21414E-01-2.07573E-02
 -1      1064-3.27409E-02-4.85310E-02 1.80798E-01 3.84331E-02-2.08977E-01-5.25287E-02
 -1      1065-8.35353E-02-7.67944E-02 7.79390E-02-1.25831E-01-1.47429E-01-3.29910E-01
 -1      1066-5.85882E-02 6.74416E-02-4.52792E-02-5.84918E-02 8.24091E-02-1.68317E-01
 -1      1067-2.85167E-02-1.51698E-01-5.90586E-02 6.11415E-02-1.52415E-01 6.35670E-02
 -1      1068-1.35570E-01-1.07250E-01-7.02498E-02 2.91318E-02 7.46833E-02-7.73312E-02
 -1      1069-2.44325E-02 3.82049E-02 1.58266E-01-2.46589E-02 1.63953E-01-7.86304E-02
 -1      1070-4.48611E-02-7.35869E-02-9.51632E-02-2.22558E-02-4.36685E-02-3.68771E-02
 -1      1071-1.48663E-01 7.06165E-02 1.89111E-01-1.30472E-01-1.63627E-01 3.53057E-02
 -1      1072-4.67843E-01-6.41715E-02 4.01991E-03 1.99309E-01 6.08217E-02-3.61563E-01
 -1      1073-1.32462E+00-5.87856E-01-9.17622E-03 6.02036E-01 2.13515E-01-2.38501E-01
 -1      1074-9.81813E-01-3.87196E-01 1.44156E-01 3.70966E-01 3.29602E-03 2.37359E-02
 -1      1075-1.48084E+00-9.57596E-01 4.94097E-02 8.72459E-01-2.39543E-01 3.55998E-01
 -1      1076-6.59297E-01-3.38554E-01-1.23317E-01 3.93090E-01-4.16287E-01 5.78983E-01
 -1      1077 1.19322E-01-4.61359E-02-6.86591E-02-8.94963E-02-1.88674E-01-1.19033E-02
 -1      1078-4.32187E-01-4.63898E-01-1.12037E-01-2.26419E-01-2.16348E-01-2.37105E-01
 -1      1079-2.12785E-01-1.53781E-01-1.65855E-02-9.49656E-03 1.21375E-01-1.95544E-01
 -1      1080-3.56222E-01-3.66076E-01-1.18138E-01 1.83440E-01-2.97096E-01 3.63855E-01
 -1      1081-2.42758E-01-1.10430E-01 8.05542E-02 4.85963E-02 3.04091E-02-2.49894E-02
 -1      1082-6.81366E-02-6.92224E-02-6.08425E-02-1.33719E-01-6.02451E-02 5.67064E-02
 -1      1083-2.15768E-02-1.76137E-01-3.59634E-02-2.10029E-01-8.48610E-03-5.38908E-02
 -1      1084-1.85907E+00-5.08452E-01-8.96481E-04 4.12264E-01 1.48280E-01-3.67915E-01
 -1      1085-9.34527E-01-1.40883E-01-6.51265E-02 2.19487E-01 1.07693E-01-3.60724E-01
 -1      1086-1.69455E+00-2.91255E-01-8.05546E-02 4.24301E-01 4.54556E-02-5.10356E-01
 -1      1087-1.43408E+00-3.14439E-01 1.67426E-01 2.15704E-01 3.49323E-02-1.83761E-01
 -1      1088-2.64925E+00-6.42015E-01 7.84454E-02 7.08021E-01-7.70063E-02 4.08834E-01
 -1      1089-1.45327E+00-3.08031E-01-7.72675E-02 3.70802E-01-2.56961E-01 9.08109E-01
 -1      1090-4.45957E-02-1.13580E-01-1.00340E-01 1.11623E-01-8.82229E-02 1.24679E-01
 -1      1091 1.24216E-01-4.85553E-01-3.98781E-03-1.05231E-01-6.65877E-02 1.22905E-01
 -1      1092-1.59192E-03-1.22305E-01-8.89843E-02-2.57678E-02 3.02867E-02-3.38066E-01
 -1      1093-4.28121E-01-1.69166E-01 1.02550E-02 1.63018E-01-1.31631E-01 2.99394E-01
 -1      1094-1.15836E-01-7.86021E-02 6.14116E-02-5.00257E-02-1.01342E-02-5.26222E-03
 -1      1095 3.41959E-01-2.56099E-02 3.31570E-02 1.17081E-03 4.46212E-02-1.70814E-02
 -1      1096 7.65402E-02-1.44998E-01 1.47428E-02-6.67604E-02 6.52094E-02-4.35485E-02
 -1      1097 1.99958E+00 8.48703E-01 8.54486E-01-1.43014E-01-3.11285E-01 1.15897E+00
 -1      1098 1.91657E+00 4.43252E-01-9.06260E-01 8.21563E-02 3.91382E-01 3.87186E-01
 -1      1099 0.00000E+00 0.00000E+00 0.00000E+00 0.00000E+00 0.00000E+00 0.00000E+00
 -1      1100 1.19926E-01-1.92098E-01-5.20162E-01-5.18904E-03 2.88251E-01 1.21295E+00
 -1      1101-2.24069E+00-1.18859E+00 2.32375E-01-6.08050E-01 2.91484E-01 2.20100E-01
 -1      1102 7.15372E-02-1.20261E-02 4.87338E-01 1.11682E-01-5.09868E-01 4.68524E-01
 -1      1103-9.62375E-01-5.20101E-01-8.48107E-02 4.32912E-01 1.79650E-01 8.54401E-01
 -1      1104 3.28564E-01-1.47481E-01-4.78935E-01 1.17085E-01-2.93987E-01 1.72389E-01
 -1      1105-1.82876E-01-9.73730E-02 7.76210E-01 3.85506E-01-4.33812E-01 5.99442E-01
 -1      1106-6.23051E-01-7.51736E-01-5.25624E-01-4.92438E-01 6.65830E-01 1.18815E+00
 -1      1107-6.10209E-01-8.11728E-01 3.02478E-01 3.87997E-01-4.98137E-01-4.51901E-02
 -1      1108 1.88669E-01-5.10195E-01-7.52649E-02-7.85570E-03 1.14996E+00 9.30229E-01
 -1      1109 1.83669E-01 1.78735E-01 4.75735E-01 2.98128E-02-1.39737E-01-5.60514E-02
 -1      1110-7.74283E-01-1.51601E+00-6.87087E-01-3.09251E-01 1.19056E+00 4.81908E-01
 -1      1111-1.41172E-01-3.47987E-01-1.46748E-01 8.83208E-02-1.51088E-01 1.37229E-01
 -1      1112-9.26031E-02-2.72090E-01-2.45492E-02-1.31316E-01 3.47125E-01 1.46076E-01
 -1      1113 0.00000E+00 0.00000E+00 0.00000E+00 0.00000E+00 0.00000E+00 0.00000E+00
 -1      1114-6.63114E-02-1.77660E-01-7.31914E-02-2.97765E-02-1.44167E-01 1.42014E-02
 -1      1115 1.29011E-01 2.09889E-01 1.30628E-01-5.40510E-02 2.64243E-01-1.01076E-02
 -1      1116-7.36914E-03-2.11642E-02 3.74617E-02-1.61538E-03-2.20729E-01-1.53206E-01
 -1      1117-2.70786E-03 7.21893E-02-3.38726E-02 1.80784E-02 4.36677E-03 1.15880E-02
 -1      1118 4.01810E-02 4.31074E-01-2.27042E-01 3.01636E-02-4.65261E-02 6.96021E-02
 -1      1119-3.48161E-03 6.64806E-01-2.58981E-01 1.30898E-01-2.01179E-02 4.71231E-01
 -1      1120 3.22768E-01-5.18156E-01 5.12388E-03-3.11030E-01-9.22465E-01 4.80338E-01
 -1      1121 2.04742E-01 5.73731E-01-2.89510E-02-1.15305E-01-6.03424E-01 4.55664E-01
 -1      1122 1.04263E+00 9.93709E-01 6.10902E-01 4.31992E-01 5.24877E-01 7.92650E-01
 -1      1123 1.19889E+00 2.92687E-01 5.82290E-02 3.90212E-01 7.99989E-01 9.07343E-01
 -1      1124 9.78023E-01 5.17203E-01 1.40973E-01-3.17714E-01-2.24425E-01-1.86707E-01
 -1      1125 1.08872E+00 5.97789E-01 5.05953E-01-2.98471E-01-1.55559E-01 8.25027E-01
 -1      1126 8.71270E-01-1.79424E-01 2.62267E-01-5.64427E-02 9.21076E-01 1.60260E+00
 -1      1127 3.68086E-01 1.58413E-01-9.25812E-01-3.50423E-01-1.85815E-01 5.18764E-01
 -1      1128 6.43280E-02-1.74303E-01-4.07489E-01 1.82819E-02 6.08792E-01 1.35864E+00
 -1      1129 3.63875E-01 4.02212E-01-2.01438E-02-5.74106E-01 1.75564E-01 1.40931E+00
 -1      1130 1.13203E+00 3.17195E-01-9.25497E-02 1.33033E-01-2.89600E-01 4.70468E-01
 -1      1131 6.56862E-01 2.19149E-01 3.60849E-01-1.21651E-02 6.31968E-01 1.08514E+00
 -1      1132-1.04096E-01 1.27502E-01-1.53664E-01-5.77371E-02 5.65003E-01 2.65196E-01
 -1      1133 5.10666E-01 3.50616E-01 1.12989E-01 2.44896E-01 1.24275E+00 9.39185E-01
 -1      1134-2.06662E-03-3.51693E-01 3.88121E-01 2.49612E-01 9.61868E-02 3.50237E-01
 -1      1135-1.09380E+00-1.66754E-01-2.76134E-01-7.12132E-02-2.29944E-01 1.52827E+00
 -1      1136-1.06170E+00-1.07893E+00 1.34380E-01-5.59348E-01 4.31362E-01 2.25901E-01
 -1      1137-3.70174E-01-1.12695E-01 4.73568E-02-2.12305E-01 8.81167E-01 1.49464E+00
 -1      1138-2.67819E+00-1.36706E+00-1.21358E+00-5.09017E-01 9.45999E-01 2.49285E+00
 -1      1139-7.48168E-01 1.84563E-02-2.34455E-01 8.66398E-01 1.93058E-01 2.03701E+00
 -1      1140 1.76049E-01 1.61247E-01 3.84321E-01 4.67094E-03 5.24697E-01 1.91000E-01
 -1      1141-1.38990E-01-3.08465E-01-1.23932E-01-2.99514E-02-1.25171E-01-7.18327E-02
 -1      1142 1.07097E-01-5.09325E-01-3.86414E-02-1.34395E-01-8.99837E-01 4.68090E-01
 -1      1143 1.33323E+00 4.90486E-01 6.85539E-01 4.07754E-01 9.80109E-01 1.71330E+00
 -1      1144 7.35843E-01 2.07796E-02-5.79957E-01-5.25924E-03-4.92325E-01 1.74822E-01
 -1      1145 9.91088E-02-2.41816E-02-9.66430E-01-2.73468E-01 3.28993E-01 7.32325E-01
 -1      1146 8.61478E-01 1.29106E+00-1.16228E-01-5.32516E-01-5.47167E-02 4.54649E-01
 -1      1147 3.68477E-01 1.24369E-01 1.71206E-01-1.48406E-01-6.44889E-01 3.63290E-01
 -1      1148 1.52587E-01 6.25566E-01-2.20805E-01-1.11683E-01 1.32551E-01-2.72145E-02
 -1      1149 1.06267E-01 2.30933E-01 1.01160E-01-3.11877E-02-1.28986E-01 4.84955E-02
 -1      1150 4.11505E-02 3.20703E-02 5.20246E-02-2.67240E-03 1.09530E-01 2.91662E-02
 -1      1151 1.34711E-01 3.36258E-01 1.79443E-01 3.39239E-02 2.22689E-01 2.70178E-01
 -1      1152 1.54124E-01 1.55960E-02 3.60132E-01 1.51805E-02 2.19175E-01 3.43486E-01
 -1      1153-7.20405E-01-9.27519E-02-1.35376E-01-2.65596E-02 1.25174E-02-4.26745E-01
 -1      1154-1.67880E+00-3.08873E-01 3.57433E-01 1.75571E-01-9.26532E-03 2.18023E-02
 -1      1155-1.78214E+00-2.99719E-01 1.92524E-01-1.73163E-01-7.73323E-02-3.20720E-02
 -1      1156-1.48711E+00-2.82879E-01 1.45970E-01 7.29941E-02-5.56086E-02-1.68089E-01
 -1      1157-1.21030E+00-5.80931E-02-1.11748E-01 8.17420E-04 3.86347E-03 9.34818E-01
 -1      1158-3.11740E+00-4.25808E-01 1.03533E-01-3.32538E-02-2.76820E-02 4.31249E-01
 -1      1159-4.08987E-01-1.72106E-01-2.73493E-02-5.55980E-02 6.33254E-02 3.80582E-01
 -1      1160-2.58694E-01-3.56921E-01 1.68037E-01 1.50307E-01 9.59880E-02-3.14392E-01
 -1      1161-4.62351E-02-5.28860E-01-1.67826E-01 2.66427E-02 7.91715E-03-1.47786E-01
 -1      1162-2.35378E-01-3.77071E-02 4.49424E-02 4.32083E-02 4.53422E-02 2.99643E-01
 -1      1163 1.87277E-01-1.19168E-01-4.03672E-02-9.17135E-02-4.22312E-02-8.06746E-02
 -1      1164-8.79126E-01-1.70854E-01-3.18277E-01-2.42896E-01 2.27901E-01 7.88597E-01
 -1      1165-2.56457E+00-6.13155E-01 1.15392E-01-6.41944E-01 6.47464E-02 3.47710E-01
 -1      1166-2.99620E+00-6.49037E-01 6.62853E-03-7.34054E-01 1.72789E-01 3.47898E-01
 -1      1167-1.35033E+00-2.92549E-01-1.09921E-01-3.08055E-01 2.62587E-01 8.59086E-01
 -1      1168-1.40006E+00-4.75909E-01 2.64959E-01-5.06337E-01-6.61065E-02-3.09806E-02
 -1      1169-1.27245E+00-3.02456E-01 1.32758E-01-1.81271E-01 2.18947E-03-1.19802E-01
 -1      1170-1.08604E+00-4.68996E-01 7.48433E-02-3.75096E-01 2.87787E-02-1.76890E-01
 -1      1171-1.56057E+00-3.49396E-01 1.29885E-01-1.70569E-01-2.78927E-02-2.28003E-02
 -1      1172-6.92857E-01-1.46671E-01-9.42181E-02-1.37652E-01-9.66218E-02-4.18542E-01
 -1      1173-1.67864E+00-2.91747E-01-1.65818E-02-4.01439E-01-3.20419E-02-4.55929E-01
 -1      1174-2.77772E-01-2.13245E-01 2.99020E-02-9.99452E-02 1.78122E-01 3.44289E-01
 -1      1175-9.55968E-02-1.92015E-01-8.18580E-02 1.04803E-01 4.72564E-03-3.27227E-01
 -1      1176-1.43603E-01-4.38511E-01-7.57007E-02 9.89241E-02 3.02900E-02-1.06906E-01
 -1      1177 1.04681E-01-8.40606E-04 1.12873E-01-1.62319E-02 1.28581E-01 1.14034E-01
 -1      1178 1.15944E-01-3.13461E-01 3.14865E-02 1.02884E-01-3.93906E-02-1.03259E-01
 -1      1179-5.47904E-01-2.99440E-01-2.21094E-01-3.10273E-01 3.77125E-01 5.31484E-01
 -1      1180-1.38837E+00-8.93937E-01-7.79526E-02-8.16439E-01 1.85745E-01 1.99966E-01
 -1      1181-1.51284E+00-1.00900E+00-5.69405E-02-9.83352E-01 1.43705E-01 1.58106E-01
 -1      1182-7.83701E-01-4.23362E-01-4.02789E-02-4.37799E-01 4.02749E-01 4.48384E-01
 -1      1183-6.47747E-01-6.36965E-01 2.51435E-01-4.82369E-01-5.59613E-03 1.14702E-01
 -1      1184-8.72331E-01-3.25706E-01 7.05448E-02-4.00513E-01 3.27841E-02 6.48401E-02
 -1      1185-3.76584E-01 6.66251E-03-4.00961E-02-1.72223E-01-3.86170E-02-2.89121E-01
 -1      1186-1.18525E+00-5.28781E-01 6.12417E-02-7.01016E-01-2.46085E-01-3.43740E-01
 -1      1187-1.41546E-01-2.40778E-01 4.57042E-02-1.66876E-01 1.81775E-01 1.04360E-01
 -1      1188 1.25813E-01 1.82003E-03-2.51133E-02 1.02427E-01-7.44969E-02-2.22281E-01
 -1      1189-2.16421E-01-3.37173E-01 7.68307E-02 2.37491E-01 2.48355E-01-1.26256E-01
 -1      1190-9.13512E-02-8.97607E-02-1.42444E-01-4.65985E-02 1.88080E-01 2.89730E-02
 -1      1191-3.56124E-01-3.98760E-01 1.13374E-01-3.90347E-01-1.74776E-01-4.09873E-02
 -1      1192-2.53750E-01-3.09829E-01 4.00291E-02-3.41191E-01 3.02219E-01 2.20219E-01
 -1      1193-3.95585E-01-7.34943E-01-1.94455E-02-6.80357E-01 2.91339E-01 1.21861E-01
 -1      1194-1.52003E-01-2.46560E-01-2.87742E-02-2.51624E-01 1.79975E-01 2.34246E-01
 -1      1195-2.58230E-01-3.55136E-01 1.20903E-01-6.11191E-01 1.32277E-01-1.94533E-01
 -1      1196-1.34773E-01 1.56781E-02 6.50603E-03-2.36046E-01-1.05950E-02-2.09516E-01
 -1      1197-5.65473E-01-3.97837E-01 2.74160E-02-5.70238E-01-2.29517E-01-1.24117E-01
 -1      1198-4.15712E-02-9.31830E-02 2.44683E-02 6.72611E-02-1.47522E-01-1.24128E-01
 -1      1199-2.94223E-01-1.24924E-01-3.18197E-02 1.87395E-01 3.28735E-01-3.42985E-01
 -1      1200-1.46540E-01-1.02445E-01 4.43091E-02 4.44783E-03 1.27857E-01-1.45372E-01
 -1      1201 8.44632E-02 6.47125E-02 1.49229E-01 1.26640E-01 1.49164E-01-2.02294E-02
 -1      1202-4.79623E-02-1.21688E-01 3.14786E-02-2.56154E-01-2.39407E-01-4.79606E-02
 -1      1203-8.75036E-03-9.40481E-02-2.21095E-01-1.83701E-01 1.55548E-01 1.12657E-01
 -1      1204-6.32901E-02 1.68639E-02 1.67547E-02-4.83566E-01 4.65869E-02 1.11259E-02
 -1      1205 3.72715E-02-7.40800E-02 4.92399E-02-3.85630E-01-2.31102E-01 1.79518E-01
 -1      1206-1.76318E-02-2.63554E-02-4.08461E-02-2.22946E-01 2.67325E-02 1.44267E-01
 -1      1207 7.79966E-02 4.84718E-02 5.83288E-02-2.08209E-01 7.71767E-02-2.09948E-01
 -1      1208 3.20719E-02 1.55068E-01 1.08445E-01-4.83143E-01-1.39804E-01-8.02910E-02
 -1      1209-1.71308E-02 2.11870E-02-1.07672E-01-2.21191E-01 1.55357E-01-5.22746E-03
 -1      1210 7.68647E-02 1.23826E-01 2.19550E-01-1.31715E-01-1.02864E-01 5.68889E-02
 -1      1211-5.22855E-02 1.82810E-02-7.69688E-02 6.17240E-02-7.83910E-02-1.43256E-01
 -1      1212-1.56133E-01-4.34674E-02-4.21816E-02 2.01092E-02 7.74474E-02-5.04310E-01
 -1      1213-8.57236E-02-6.73930E-02-1.32724E-02 3.74933E-02 8.42590E-02-1.04777E-01
 -1      1214 2.56845E-01 3.67426E-01 5.68548E-02-3.12419E-01 1.80466E-01-1.09188E-01
 -1      1215 4.44619E-01 4.13563E-01-4.10875E-02-6.21519E-01 3.79909E-01-9.54868E-02
 -1      1216 1.91110E-01 9.90803E-02 1.80762E-01-3.40421E-01 1.96880E-01-1.07601E-01
 -1      1217 1.73647E-01-2.22761E-02-1.45844E-03-2.15958E-01-1.30657E-03-1.94142E-01
 -1      1218 3.99505E-01 3.64087E-01-8.57992E-02-5.78200E-01 1.98958E-03-1.27494E-01
 -1      1219 1.74774E-01 2.58269E-01 6.08603E-02-2.65239E-01-1.88887E-01 2.20568E-01
 -1      1220 4.80276E-01 8.28070E-01-1.08740E-02-7.17290E-01-6.97221E-02 1.37200E-01
 -1      1221 5.26827E-01 8.77765E-01 3.97737E-02-7.87655E-01-3.65601E-01 1.65484E-01
 -1      1222 3.05583E-01 3.20042E-01 3.43487E-02-3.57291E-01-3.65408E-01 2.23043E-01
 -1      1223 1.62637E-01 1.82116E-01 1.49755E-01-1.63056E-01-1.94923E-01 1.26942E-01
 -1      1224 2.69022E-02 3.55113E-02-7.65480E-02 1.55809E-01-1.01929E-01-1.39200E-01
 -1      1225 2.31682E-01 5.84365E-02 2.90230E-01 4.68657E-02-9.58012E-03-2.41152E-01
 -1      1226 8.06996E-02 1.47896E-01-1.16927E-01-5.96390E-02-7.38973E-02-6.50391E-02
 -1      1227 6.57817E-01 3.15850E-01 1.90964E-02-3.85058E-01-3.92460E-01 5.63564E-01
 -1      1228 1.62561E+00 1.05336E+00 3.79592E-02-9.30643E-01-1.77523E-01 1.67197E-01
 -1      1229 1.40317E+00 8.76209E-01 4.67057E-02-9.39957E-01-1.46004E-01 3.41165E-01
 -1      1230 5.83547E-01 3.44381E-01 2.74101E-01-4.81237E-01-4.62250E-01 5.37620E-01
 -1      1231 6.44497E-01 5.34280E-01-1.68414E-01-3.99401E-01 8.79603E-02-1.98339E-01
 -1      1232 9.66196E-01 4.28475E-01-8.63918E-02-4.22590E-01 7.51856E-02-9.21816E-02
 -1      1233 6.38434E-01 6.31710E-01-1.65449E-01-5.13338E-01-1.04892E-01 1.16450E-01
 -1      1234 1.17556E+00 6.17180E-01 1.65046E-01-7.49350E-01 1.01013E-01-1.44788E-01
 -1      1235 9.46607E-02 1.48201E-01-1.61694E-01 2.10283E-02 7.76613E-02-6.91230E-02
 -1      1236 8.05629E-03 1.77268E-01 1.79952E-01 1.34237E-01-1.47217E-01-1.69265E-01
 -1      1237 1.75494E-02 1.22860E-01-6.29272E-02-7.32545E-02-1.20411E-01 2.39652E-02
 -1      1238 1.15434E+00 2.58451E-01 7.83237E-02-2.99994E-01-2.91035E-01 6.84772E-01
 -1      1239 2.85871E+00 6.27376E-01 3.80914E-02-6.91623E-01-1.84266E-01 4.65958E-01
 -1      1240 7.98939E-01 2.32392E-01 1.68120E-01-1.86748E-01-2.21459E-01 7.69088E-01
 -1      1241 1.07418E+00 3.66440E-01-1.96745E-01-3.17652E-01 4.64085E-03-1.46521E-01
 -1      1242 1.46056E+00 3.34144E-01-1.19915E-01-1.80082E-01 4.01839E-02-1.40715E-01
 -1      1243 1.43027E+00 4.13558E-01-3.21784E-01-5.11767E-01 1.77101E-02 7.40894E-02
 -1      1244 2.06336E+00 4.29978E-01 5.34678E-03-4.06167E-01 1.99287E-01-4.28354E-01
 -1      1245 5.17250E-01 1.98817E-01 3.22319E-01-1.58154E-02-1.31763E-01 3.68970E-01
 -1      1246 1.39722E-01 3.38420E-01-1.07743E-01 1.74048E-02 8.48412E-02-1.67464E-01
 -1      1247 1.25233E-01 3.06367E-01 1.34452E-01 6.57497E-02-1.12229E-01-2.31155E-01
 -1      1248 2.94952E-01 1.62061E-01-1.13426E-01-8.81597E-02-8.86380E-02 1.59590E-01
 -1      1249 1.08477E+00 1.75754E-01 7.11545E-02 6.50801E-02 4.49229E-02 9.92025E-01
 -1      1250 2.99487E+00 5.10266E-01-5.28509E-02 3.70160E-02-2.40754E-02 3.67112E-01
 -1      1251 3.39892E+00 3.98716E-01 6.59505E-02 1.17588E-01 5.80173E-02 4.34182E-01
 -1      1252 1.32238E+00 1.43139E-01 2.03821E-01 1.24093E-01 6.62225E-02 8.68581E-01
 -1      1253 1.50427E+00 2.25641E-01-2.26886E-01-1.72071E-01-5.84598E-02-9.49181E-02
 -1      1254 1.57559E+00 2.95252E-01-1.68430E-01 1.48104E-01-2.92040E-02-2.01626E-01
 -1      1255 1.87951E+00 2.78721E-01-2.36708E-01-1.84704E-01 4.36144E-02 2.76343E-02
 -1      1256 2.33836E+00 2.68937E-01 6.86990E-02-4.34603E-02 3.63472E-02-4.94343E-01
 -1      1257 7.69492E-02 1.38328E-01 4.51647E-02-2.20225E-02 6.82598E-03-2.96080E-01
 -1      1258 6.80346E-03 5.72883E-01 1.10713E-01 6.73751E-02-1.11680E-01 1.25241E-01
 -1      1259 1.35713E-01 4.73175E-02-8.78806E-02-1.10269E-01 9.54925E-03 1.26524E-01
 -1      1260 1.85641E+00 3.02642E-01 3.81884E-02 3.42469E-01-3.67755E-02-5.23218E-01
 -1      1261 9.47482E-01 2.07755E-01-1.64479E-02 1.42378E-01-1.37316E-01-2.58669E-01
 -1      1262 1.05224E+00 3.86587E-01-1.36126E-01 3.31056E-01-4.41655E-02-2.41059E-01
 -1      1263 1.75428E+00 2.89842E-01-1.94435E-01 1.83888E-01 6.25265E-02-8.59521E-04
 -1      1264 2.83958E+00 6.50266E-01-8.37012E-03 7.04429E-01 2.09399E-01 5.10342E-01
 -1      1265 1.26945E+00 2.94760E-01 2.55683E-03 3.54615E-01 2.58586E-01 6.84814E-01
 -1      1266 2.48285E+00 6.20514E-01 9.24787E-04 6.13042E-01 8.68487E-02 4.75924E-01
 -1      1267 5.31372E-01 2.74171E-01-9.56442E-03 1.54879E-01 1.46908E-01 3.83386E-01
 -1      1268 1.16457E-01 1.53945E-01 3.64692E-02-7.53260E-02-2.77526E-02-2.95861E-01
 -1      1269-4.45332E-02 4.59538E-01-2.88283E-02-1.27620E-01 1.05376E-01-1.65022E-02
 -1      1270 4.64185E-01 2.50591E-01-3.29081E-02 5.59201E-02 6.42937E-02 9.95019E-02
 -1      1271 4.93998E-01 1.63395E-01-7.91592E-02 2.53092E-01-1.02578E-01-1.55421E-01
 -1      1272 5.73030E-01 4.36895E-01-6.99790E-02 4.27243E-01-1.54189E-01-1.65377E-01
 -1      1273 1.08140E+00 4.17698E-01-2.72772E-01 5.66600E-01-6.77065E-02-1.05283E-01
 -1      1274 1.68467E+00 1.14473E+00 1.26360E-01 1.08922E+00 2.08255E-01 9.54647E-02
 -1      1275 5.80570E-01 2.70114E-01 1.20302E-01 4.41852E-01 3.17374E-01 5.05846E-01
 -1      1276 1.52717E+00 1.01400E+00 3.14110E-02 8.76210E-01 1.80957E-01 1.62202E-01
 -1      1277-2.16141E-01 2.22843E-02 2.86797E-01-1.22657E-01-1.23018E-01-2.44057E-01
 -1      1278 2.66670E-02 2.37129E-01-1.04743E-01-1.85338E-01 1.18612E-01-1.28793E-01
 -1      1279 6.57002E-02 1.34476E-02-4.39625E-02 6.36558E-02 2.00450E-01 4.26892E-02
 -1      1280 5.09438E-01 3.63378E-01-6.83266E-02 4.04450E-01 1.72341E-01 1.12286E-01
 -1      1281 3.79780E-01 4.42593E-01 5.44189E-02 6.84876E-01-3.73076E-01-1.18983E-01
 -1      1282 1.47507E-01-1.04186E-02-8.38720E-03 2.40554E-01-3.91554E-03-2.02095E-01
 -1      1283 1.94525E-01 4.38425E-01 1.40349E-01 3.85541E-01 4.22366E-01 1.70839E-01
 -1      1284 3.28111E-01 8.59081E-01-9.81122E-02 6.64859E-01-7.52234E-02 1.25146E-01
 -1      1285 2.03683E-01 1.76373E-01 8.01112E-03 2.78046E-01 2.29762E-01 2.74742E-01
 -1      1286 5.22190E-01 7.71674E-01-7.27981E-02 6.55953E-01 1.81792E-01 7.70059E-02
 -1      1287 3.98654E-01 4.88915E-01-1.14082E-01 4.14061E-01-1.79064E-01-8.93792E-02
 -1      1288 9.10848E-02 9.13195E-02 6.13313E-02 2.30568E-02 1.58689E-01 3.72139E-02
 -1      1289-2.01114E-02 4.37820E-02-7.06254E-02 5.07302E-04-1.58119E-01-1.79176E-01
 -1      1290 1.78389E-01 8.32936E-02 6.08923E-02-1.65292E-01 2.17493E-01-3.42129E-01
 -1      1291 4.83474E-02-8.39013E-03-3.67766E-03-2.52291E-02 2.69273E-01-4.09098E-02
 -1      1292-1.98718E-02-3.94255E-02-2.20301E-02 2.23733E-01 1.21577E-01-4.27165E-02
 -1      1293-1.08776E-01-5.38356E-02-1.82226E-01 4.66915E-01-2.08761E-01 3.42695E-02
 -1      1294 9.32770E-02-7.47393E-02-1.88725E-01 3.55541E-01 1.30050E-01-2.81782E-02
 -1      1295-3.01813E-02-1.56486E-01-2.36587E-01 1.92124E-01-1.97151E-01 1.36043E-01
 -1      1296-8.18287E-02-1.15140E-01 1.53482E-02 4.46109E-01 5.98643E-02 6.60522E-02
 -1      1297-9.80823E-02-5.20342E-02 1.12026E-01 2.58236E-01-1.53390E-01 1.26513E-02
 -1      1298 1.04842E-01 8.38251E-02-3.17982E-02 2.58659E-01-1.56909E-01-3.85593E-02
 -1      1299 4.92756E-02 6.63944E-02 2.05522E-01-5.75871E-02-9.94663E-02 1.07566E-02
 -1      1300 2.24753E-04-1.43662E-01-1.06523E-01-1.03879E-01 3.34845E-02-4.74672E-01
 -1      1301-1.11859E-02-8.30764E-02 1.26534E-02-1.42272E-02 6.18248E-02-9.93165E-02
 -1      1302 1.00766E-01-9.18134E-03-2.35331E-01-4.14129E-02 1.17465E-01-1.69054E-01
 -1      1303-2.23339E-01-4.85492E-01 8.25068E-03 2.81991E-01-1.63544E-01 8.11333E-02
 -1      1304-4.73856E-01-8.66469E-01 1.88933E-02 7.66593E-01-3.43179E-01 1.18973E-01
 -1      1305-1.97463E-01-4.16760E-01-7.27320E-04 3.64251E-01-3.60636E-01 2.36745E-01
 -1      1306-1.15199E-01-3.19800E-01-6.22423E-02 2.59011E-01-2.50847E-01 2.43505E-01
 -1      1307-4.63823E-01-8.55457E-01 7.58577E-02 6.96837E-01-3.46453E-02 1.18392E-01
 -1      1308-2.48998E-01-4.22360E-01 2.36382E-01 5.86286E-01-1.69552E-01-1.68457E-01
 -1      1309-1.86311E-01-1.27925E-01-1.91625E-01 4.26157E-01 2.29894E-01-1.18967E-01
 -1      1310-1.74495E-01-1.74466E-01-4.04677E-02 4.07133E-02-2.73231E-01 3.91777E-02
 -1      1311-7.90342E-02-4.83965E-02 3.99899E-03-1.52999E-01-1.07438E-01-1.84790E-01
 -1      1312-2.83710E-02-6.44619E-02-1.95745E-01-1.85341E-01-9.60241E-02-3.65762E-01
 -1      1313-5.83926E-02-1.13175E-01 1.82897E-01 4.44003E-02-1.72420E-02-2.33416E-02
 -1      1314-1.13068E+00-5.12854E-01 7.75306E-02 6.88464E-01 4.10785E-03-9.94525E-02
 -1      1315-4.45543E-01-8.60707E-02-2.02890E-01 2.21054E-01 1.58951E-01-2.57796E-01
 -1      1316-6.60395E-01-6.01403E-01 2.49323E-01 4.40545E-01-1.33390E-01 9.25295E-02
 -1      1317-1.08597E+00-5.47091E-01 1.84096E-01 6.18576E-01 3.97916E-02-8.01136E-02
 -1      1318-7.40234E-01-5.30356E-01 9.86370E-02 4.48733E-01 1.55780E-01-1.76825E-01
 -1      1319-6.16060E-01-3.28118E-01-3.21879E-01 4.03155E-01-4.02799E-01 6.00635E-01
 -1      1320-1.74364E+00-1.08710E+00-8.81140E-03 1.02523E+00-2.21518E-01 2.28763E-01
 -1      1321-2.15293E-01-1.14096E-01-1.21994E-01 1.14183E-01-2.09877E-01 1.84018E-01
 -1      1322 5.13540E-02-1.57248E-01 7.75759E-02-1.27655E-01 3.77223E-02-7.94856E-02
 -1      1323-1.40154E-01-2.33414E-01-2.53823E-01-8.11893E-02-1.13851E-01-3.86377E-01
 -1      1324-2.65410E-01-2.33421E-01-7.01363E-02 9.08132E-02-1.27175E-01 3.83314E-02
 -1      1325-3.59415E-02-5.20297E-03-7.31103E-02-8.12256E-02 5.03825E-02-2.03174E-01
 -1      1326-6.51612E-01-1.34603E-02-7.51432E-02 1.67909E-01 8.21903E-02-3.22562E-01
 -1      1327-1.43408E+00-5.43090E-01 2.71924E-01 4.91701E-01-1.11463E-02 5.46916E-02
 -1      1328-1.78703E+00-3.14811E-01 1.85856E-01 2.13221E-01-5.63103E-02-2.96537E-02
 -1      1329-1.02796E+00-4.17307E-01 8.03906E-02 3.65639E-01 3.10361E-02-2.31041E-01
 -1      1330-8.58626E-01-2.07752E-01-3.29470E-01 2.86255E-01-2.72445E-01 7.91005E-01
 -1      1331-3.07297E+00-7.29710E-01-7.29115E-03 7.86661E-01-1.88755E-01 4.13860E-01
 -1      1332-6.56755E-01-3.41771E-01-3.81630E-01 1.68785E-01-1.61709E-01 5.10157E-01
 -1      1333 3.62687E-01-1.77524E-01 6.21097E-02-2.45803E-02 1.12012E-02-1.45042E-01
 -1      1334-2.83605E-01-4.45461E-01-2.63634E-01-1.72321E-01-1.56870E-01-1.65322E-01
 -1      1335-1.46681E-01-1.07021E-01 8.07124E-02 9.55586E-02-3.93760E-02 1.06951E-01
 -1      1336 1.34853E-01-7.52847E-02 4.10921E-02-1.59164E-01 1.49932E-02-2.07942E-01
 -1      1337 2.82829E+00 1.18735E+00 1.20469E+00 2.27657E-01 1.27934E-01 2.57086E+00
 -1      1338-2.10281E-01 2.25551E-01 1.08275E+00-1.24791E-01-5.79667E-02 9.68143E-01
 -1      1339-3.23742E-01 4.30208E-01 1.55796E+00-1.02269E-01-1.97286E-01 4.15128E-01
 -1      1340 2.38718E+00 6.88439E-01 8.97103E-01 4.94217E-01-1.56586E-01 1.38792E+00
 -1      1341 2.92481E-02-7.13695E-02 2.40333E-01 4.33832E-01-6.29339E-02 7.63249E-01
 -1      1342 9.13290E-01 7.64178E-02-6.75312E-01 2.01001E-01 2.74120E-01 3.24852E-01
 -1      1343 5.81219E-02 8.12674E-02 4.14608E-02 9.25142E-03-1.68678E-02-7.56544E-03
 -1      1344 2.11097E-02 1.75851E-02 1.61936E-02 2.11449E-02-1.28767E-02-2.77857E-03
 -1      1345 0.00000E+00 0.00000E+00 0.00000E+00 0.00000E+00 0.00000E+00 0.00000E+00
 -1      1346 7.49610E-01 2.42544E-01 1.27929E-01 2.40517E-01 9.48925E-01 1.20935E+00
 -1      1347-8.96678E-01 1.50963E+00 1.39154E-01 5.09618E-02 1.08510E+00 1.30380E+00
 -1      1348-9.00139E-01 1.50616E+00 1.31080E-01 5.09618E-02 1.04943E+00 1.27021E+00
 -1      1349 3.71749E-01 8.11586E-03 4.77208E-01-3.46950E-02 1.18515E+00 1.39788E+00
 -1      1350-4.25373E-01-4.27539E-01 4.52600E-01-3.67514E-01 2.46822E-01 4.51010E-02
 -1      1351-2.32347E+00-1.18811E+00-1.05347E+00-4.14547E-01 7.96472E-01 2.62589E+00
 -1      1352-3.42726E-01-1.13970E+00-3.13518E-01 2.99806E-01-6.43050E-01 6.84421E-01
 -1      1353 1.19867E+00 6.12252E-01 7.75133E-01-4.29186E-01-7.12760E-01 6.08394E-01
 -1      1354 1.27488E+00 1.75038E+00 9.07578E-01-5.58918E-01-1.17296E+00 9.14384E-01
 -1      1355-1.39652E-01-3.25760E-01-6.27886E-02-5.13044E-02-6.01349E-01 9.98266E-03
 -1      1356-5.10843E-01-1.22836E+00-5.21760E-01 1.56487E-01-1.03642E+00 2.63503E-01
 -1      1357-1.03647E-01-4.24483E-02-4.14711E-01-5.77495E-02-4.43860E-01 1.34851E-01
 -1      1358-4.85162E-02-3.95054E-02-1.14605E-01-8.06652E-03-4.80034E-01 6.81885E-02
 -1      1359 4.17989E-01 2.60454E-01-3.89285E-01-4.25839E-01-9.81438E-01 1.35610E-01
 -1      1360-6.67813E-02-2.28158E-01-4.06420E-01 1.38406E-03-8.99579E-01 1.11522E+00
 -1      1361-1.73676E+00-1.64590E+00-1.01480E+00 6.80749E-01-1.45379E+00 1.77142E+00
 -1      1362-3.89477E-01-1.16558E-01 4.77226E-02 1.64900E-01-1.08283E+00 5.56270E-01
 -1      1363-1.18901E+00-3.77570E-01 1.24587E-01 2.72400E-01 5.85901E-01 5.78930E-01
 -1      1364-9.09165E-01-5.07644E-01-4.25043E-01 3.61642E-01-9.96871E-01 7.27952E-01
 -1      1365-8.97202E-01-3.42387E-01-3.71877E-01 1.14755E-01 9.35911E-02 9.01487E-01
 -1      1366-2.14024E-01 9.12968E-03 7.26011E-01-1.63324E-01 4.05068E-01 8.53860E-01
 -1      1367 8.67188E-02 1.79084E-01 6.34568E-01 9.51707E-02 1.73043E-01 5.18332E-01
 -1      1368-4.58312E-01-1.14042E+00-5.39737E-01-1.64492E-01 7.13367E-01 6.21628E-01
 -1      1369-4.89427E-01-1.22360E+00-6.56569E-01 1.75133E-01-1.65237E-01 1.06710E-01
 -1      1370-6.46701E-02-1.04817E-01-2.02789E-02-3.32612E-02 4.20733E-01-8.60653E-03
 -1      1371 0.00000E+00 0.00000E+00 0.00000E+00 0.00000E+00 0.00000E+00 0.00000E+00
 -1      1372-1.61952E-02-2.37217E-01 1.49311E-01-2.27251E-02-8.19074E-03 5.98821E-02
 -1      1373-7.28594E-02-8.32461E-02-4.68317E-02-7.54632E-02 8.40128E-02-2.90196E-02
 -1      1374 3.27160E-01 1.08760E+00 2.70920E-01 1.32623E-01 4.54017E-01 2.69101E-01
 -1      1375 5.59781E-01 1.06279E+00 4.86770E-01 2.22242E-01 9.96266E-01 5.32527E-01
 -1      1376 6.15962E-01 8.86446E-01-4.32508E-02 3.54163E-01 5.26475E-01 1.20852E-01
 -1      1377-1.18790E-01-1.45587E-02-6.19230E-01 1.21509E-01 5.40373E-01-6.10696E-02
 -1      1378 6.93135E-01 6.98450E-01 3.86912E-01 3.09950E-01 8.43355E-01 1.65773E+00
 -1      1379 4.00944E-01-9.15172E-02-3.39569E-01-7.93173E-02-6.13190E-01 7.93307E-01
 -1      1380 4.41297E-01-3.42641E-02-6.76613E-01 1.87153E-01 3.94531E-01 8.07656E-01
 -1      1381 0.00000E+00 0.00000E+00 0.00000E+00 0.00000E+00 0.00000E+00 0.00000E+00
 -1      1382-2.97333E-01 7.03619E-02-3.04865E-01 7.73429E-01 9.59580E-02 1.76015E+00
 -1      1383 2.01279E+00 1.25448E+00 9.80181E-01 5.72101E-01 9.19873E-01 1.82326E+00
 -1      1384-5.83934E-02 2.44684E-01-4.41876E-01 1.13652E-01 3.15492E-01 9.34889E-02
 -1      1385-1.19448E-02 2.93160E-01-3.67474E-01 4.39597E-02-2.00353E-02 2.32125E-02
 -1      1386 4.35367E-02 1.74691E-01-8.39443E-03 5.08245E-03 1.57554E-01 1.20637E-01
 -1      1387 3.10975E-01 7.85724E-01 3.45892E-01 1.85609E-01 8.53470E-01 6.48542E-01
 -1      1388-1.95112E+00-1.30783E+00-9.77683E-01 5.87083E-01-9.18240E-01 1.59740E+00
 -1      1389-2.31698E+00-1.41193E+00-1.11867E+00 6.62445E-01-1.13724E+00 1.97433E+00
 -1      1390-7.33723E-01-7.43369E-01-4.43128E-01 3.14529E-01-6.48314E-01 4.45805E-01
 -1      1391-9.61190E-01-2.96255E-01 3.63524E-01 2.62790E-01 8.69054E-02-1.62691E-01
 -1      1392 2.23807E-01-4.47054E-01-6.16057E-02-8.99153E-02 1.23636E+00 1.52974E+00
 -1      1393-4.61654E-01-7.38432E-01-3.38582E-01-3.25011E-01 7.67324E-01 1.32242E+00
 -1      1394-3.19519E+00-1.47897E+00-1.40225E+00-3.01886E-01 8.46734E-01 2.58487E+00
 -1      1395-2.23352E+00-8.98745E-01-9.39681E-01-6.13399E-02-6.93284E-02 2.19816E+00
 -1      1396 5.45100E-02-2.57903E-01 7.46070E-01-1.87246E-01 1.20846E-01 4.02490E-01
 -1      1397-3.12345E-02-1.61492E-02-6.21251E-03-4.75119E-03-9.56315E-03 7.25350E-03
 -1      1398-1.16690E-01-1.43003E-01-1.40904E-01 7.02198E-02-9.42503E-01 5.28243E-01
 -1      1399 9.43327E-01 1.68297E-01 1.19761E-02 1.88112E-01-6.89274E-02 1.61916E+00
 -1      1400 1.16021E+00 3.80683E-01-1.10438E-02-1.41671E-01-3.76092E-01 2.41441E-01
 -1      1401 2.38478E+00 1.42546E+00 1.14307E+00-5.96008E-01-9.77858E-01 1.82940E+00
 -1      1402-1.94453E-01-1.21828E-01-4.02844E-01 5.58538E-04-4.75643E-01-4.44550E-02
 -1      1403 3.00180E-01 8.83263E-01-1.08581E-01-1.83867E-01-4.57021E-01 1.59574E-01
 -1      1404 1.12788E-01 3.90531E-01 5.77748E-02 6.98197E-02 1.27668E-01 8.15936E-02
 -1      1405-3.10597E-02 6.70860E-02-7.33839E-02-9.45670E-03-6.78371E-02 4.96499E-02
 -1      1406 9.59942E-03-4.19423E-02 1.32250E-02-2.93776E-03 2.01033E-01 2.28978E-02
 -1      1407 0.00000E+00 0.00000E+00 0.00000E+00 0.00000E+00 0.00000E+00 0.00000E+00
 -1      1408-3.56010E-01-4.75828E-01-2.49551E-01-1.91110E-01 5.25963E-01 7.03414E-01
 -1      1409 7.33057E-01 5.22072E-01 5.23422E-01-3.57297E-02-1.90251E-01-4.92919E-01
 -1      1410 7.96491E-01 1.61436E-01-2.42909E-01-1.27567E-01-4.67987E-01-6.53999E-01
 -1      1411 1.27111E+00 8.01924E-01 1.14196E+00 1.64192E-01 1.58293E-01-7.33018E-01
 -1      1412 7.72059E-01 2.03146E-01-2.02099E-01 4.68988E-02 4.11784E-01-6.27743E-01
 -1      1413-1.12303E+00-1.15958E+00-7.94072E-01-5.84629E-03 2.36134E-01 4.23054E-02
 -1      1414-1.29225E+00-1.51771E+00-5.80990E-01 1.25798E-02 8.78688E-02 1.30447E-02
 -1      1415 7.55924E-01 5.03636E-01 6.00328E-01-2.69870E-01 2.20476E-02-7.83647E-01
 -1      1416 1.35406E-01-4.39981E-01-5.78563E-01-3.77121E-01-3.18396E-01-9.44224E-01
 -1      1417-5.14536E-01-1.31631E-01 7.03089E-02 7.94202E-05-4.08274E-01-5.69937E-01
 -1      1418-1.41412E+00-1.02972E+00-1.30797E+00 1.59362E-01-2.66252E-01-9.50995E-01
 -1      1419-5.65804E-01-3.57195E-01-5.76444E-01 1.76976E-01-1.85729E-02-8.60310E-01
 -1      1420-2.03049E-01 3.97460E-01 6.89282E-01 3.81680E-01-4.05623E-01-1.04052E+00
 -1      1421 6.22649E-01 5.53580E-01-6.78881E-03-1.40547E-01 3.06298E-01-2.31400E-01
 -1      1422 1.63613E+00 1.40642E+00 9.32410E-01-5.78297E-02 5.51800E-01-4.66723E-01
 -1      1423 6.05040E-01 4.01464E-01 6.36192E-01 1.95979E-01-8.25189E-02-6.28264E-01
 -1      1424 3.09756E-01 1.37459E-01-4.59958E-01 3.28468E-01 1.24901E-01-6.73754E-01
 -1      1425 1.21548E+00 1.28569E+00 3.75966E-01-8.35486E-02 1.80760E-01-2.60565E-02
 -1      1426 1.74077E+00 1.60615E+00 8.63921E-01-6.32833E-02 3.16927E-01-1.47407E-01
 -1      1427 1.59771E+00 1.18598E+00 9.91932E-01 9.86346E-02-3.67014E-01-5.75504E-01
 -1      1428 1.61892E+00 1.18969E+00 4.83857E-01 2.09316E-01-4.36197E-01-4.02024E-01
 -1      1429-9.67882E-01-6.72639E-01-5.86036E-01-8.95160E-02 1.75670E-01-3.78003E-01
 -1      1430-1.08951E+00-2.43086E-01 3.45842E-01-1.44718E-01 6.67836E-01-6.72775E-01
 -1      1431-2.88379E-01-3.21206E-02 1.18385E-01-8.78218E-02 2.34488E-01-7.26913E-01
 -1      1432 7.25208E-02 3.58101E-01 8.20809E-01-2.35168E-01 3.94114E-01-8.04596E-01
 -1      1433-8.75120E-01-7.62696E-01-6.23787E-01 1.77282E-01 2.36418E-01-3.42864E-01
 -1      1434-7.75549E-01-6.77575E-01-2.67762E-01 2.11266E-01 5.89421E-01-2.58465E-01
 -1      1435 7.63345E-01 1.01334E+00 2.83280E-01 1.69138E-01-9.79241E-02-3.87851E-02
 -1      1436 1.07347E+00 1.26214E+00 5.61852E-01-2.90852E-03-2.20586E-01-7.38326E-02
 -1      1437-1.27653E+00-1.06963E+00-7.75639E-01 3.10708E-02-2.58889E-01-2.88057E-01
 -1      1438-1.21294E+00-9.19730E-01-2.07988E-01-1.33921E-01-2.71177E-01-2.32775E-01
 -1      1439-8.37216E-01-1.00487E+00-2.27661E-01-5.15896E-02-1.02727E-01 4.67489E-02
 -1      1440-1.75204E+00-1.78920E+00-9.02317E-01-2.28129E-02-2.94988E-01 7.33551E-02
 -1      1441 2.03600E+00 1.96822E+00 7.64460E-01-2.38496E-01 2.67847E-01-1.11971E-01
 -1      1442 2.24650E+00 2.16006E+00 1.53489E+00 5.35391E-02 4.59630E-01-3.99042E-01
 -1      1443 2.02901E+00 1.55462E+00 1.46040E+00-5.30292E-02 6.75494E-02-5.09193E-01
 -1      1444 1.73274E+00 1.32482E+00 1.06938E+00 5.78100E-02 5.01395E-03-5.84763E-01
 -1      1445 1.90130E+00 1.35195E+00 4.35243E-01-1.10656E-01 5.85333E-01-2.80870E-01
 -1      1446 2.20103E+00 2.02616E+00 1.99377E+00-7.78665E-02 6.44996E-01-9.25652E-01
 -1      1447-1.87916E+00-1.29879E+00-1.09808E+00 6.51505E-02 1.19122E-01-5.84715E-01
 -1      1448-2.06724E+00-2.27178E+00-1.71188E+00-1.75478E-01 3.78094E-01-1.09209E-01
 -1      1449-2.13191E+00-2.02293E+00-9.23360E-01 5.35506E-02 1.45269E-01-9.99659E-02
 -1      1450 4.11110E-02 6.54713E-02-1.35829E-01 2.91667E-01-8.04621E-02-4.35270E-01
 -1      1451-1.74274E+00-1.31824E+00-1.20765E+00-3.07828E-02-5.71627E-02-4.42582E-01
 -1      1452 1.07785E+00 1.36564E+00 2.82811E+00-9.59822E-03 6.65717E-02-1.25058E+00
 -1      1453-7.62031E-01-6.59249E-01-1.33499E+00 3.85286E-01 2.09851E-01-1.14880E+00
 -1      1454-2.71495E-01 4.00490E-01 1.59024E+00 5.61331E-01-6.63185E-01-1.35342E+00
 -1      1455 1.39186E+00 1.02421E+00 1.09200E+00 1.54082E-01-1.50328E-02-5.82335E-01
 -1      1456 1.75610E+00 1.34572E+00 1.87103E+00 3.29159E-01 2.03181E-01-1.22073E+00
 -1      1457 1.15417E+00 4.66852E-01-2.17213E-01 4.09083E-02 7.17776E-01-7.85832E-01
 -1      1458 9.66483E-01 6.85691E-01 5.87618E-01 3.01650E-01-9.13022E-02-5.58743E-01
 -1      1459-7.70710E-01-6.23553E-01-5.37908E-01 2.41669E-01 8.47709E-02-5.65646E-01
 -1      1460-1.15415E+00-1.27264E+00-2.58576E+00-2.92897E-01 2.07808E-01-1.07726E+00
 -1      1461 9.56032E-01 9.78501E-01 2.76809E+00 8.86588E-03-2.97168E-01-1.10090E+00
 -1      1462-1.90501E+00-1.69822E+00-1.86081E+00 1.13620E-01 4.09044E-01-6.68947E-01
 -1      1463-1.83157E+00-1.12131E+00-4.17790E-01 3.50770E-01 6.05931E-01-3.68566E-01
 -1      1464-1.39705E+00-9.44814E-01-8.50393E-01-1.23890E-01-2.08106E-02-4.52412E-01
 -1      1465-1.93408E+00-1.44805E+00-1.24230E+00-8.03398E-02-9.57481E-02-5.24213E-01
 -1      1466 2.11229E+00 2.04821E+00 9.17654E-01 1.69116E-01-1.61959E-01-2.50362E-02
 -1      1467 2.28708E+00 2.34936E+00 1.53727E+00-4.96724E-02-2.92657E-01-1.98857E-01
 -1      1468-1.34232E+00-4.64937E-01 3.56123E-01 1.59138E-01-6.40437E-01-8.77785E-01
 -1      1469-2.02744E+00-1.42279E+00-2.18081E+00 3.08809E-01-2.96605E-01-1.54323E+00
 -1      1470 8.96798E-01 7.48621E-01 1.45998E+00-4.92175E-01 1.21306E-01-1.34122E+00
 -1      1471 3.63749E-01-4.24067E-01-1.09792E+00-4.84281E-01-5.95531E-01-1.33013E+00
 -1      1472 7.17925E-01 8.22863E-01 1.28143E+00 4.42650E-01-1.64547E-01-1.18754E+00
 -1      1473 4.25188E-01 2.21331E-02-1.03929E+00 5.09074E-01 4.27280E-01-1.05184E+00
 -1      1474 9.14097E-01 6.37797E-01 5.73116E-01-2.54829E-01 3.30356E-02-5.45309E-01
 -1      1475-9.56723E-01-6.28648E-01-4.23623E-01-3.73116E-01-7.83367E-03-4.71394E-01
 -1      1476-3.49077E-02-2.00313E-01-4.03116E-02-3.31959E-01-5.48133E-02-5.12860E-01
 -1      1477 1.11403E+00 1.33785E+00 2.57838E+00 2.75243E-01 2.28807E-01-1.00763E+00
 -1      1478 1.75638E+00 1.34211E+00 1.25087E+00 6.30682E-03-1.36547E-02-5.95167E-01
 -1      1479 1.46470E+00 1.12733E+00 9.04152E-01-1.31990E-01 5.31350E-02-5.58358E-01
 -1      1480 9.83447E-01 1.27792E+00 2.34906E+00-2.50573E-01-1.80816E-01-8.65487E-01
 -1      1481 1.19343E+00 8.84429E-01 1.63544E+00-2.61416E-01-2.42238E-01-8.43687E-01
 -1      1482-1.74290E-01-3.52566E-01-1.66338E+00-1.91341E-01-4.58546E-01-5.36127E-01
 -1      1483 6.92108E-01 6.41130E-01 2.17788E+00-7.55962E-02 4.16935E-01-7.95702E-01
 -1      1484-6.00498E-02-2.35559E-01-1.47119E+00 1.99948E-01 3.51580E-01-5.58914E-01
 -1      1485 6.47731E-01 5.93157E-01 2.17142E+00 5.25849E-02-4.19134E-01-7.38836E-01
 -1      1486-1.63180E+00-1.28497E+00-1.15972E+00 1.91944E-01 1.03849E-01-7.10573E-01
 -1      1487-1.10770E+00-1.38016E+00-3.00628E+00-5.01854E-02-4.60970E-02-1.20099E+00
 -1      1488-9.80079E-01-3.82896E-01-5.43379E-01 1.99866E-01-1.41904E-01-4.56981E-01
 -1      1489 2.45661E-01 3.66699E-01 1.63579E+00 2.00939E-01-4.57821E-01-7.63139E-01
 -1      1490-2.23100E+00-2.00853E+00-8.12674E-01-1.99563E-01 3.20310E-02-1.23379E-01
 -1      1491-2.40229E+00-2.52807E+00-1.80904E+00 2.73876E-02-5.56035E-01-2.91019E-01
 -1      1492-1.18197E+00-9.56596E-01-1.58906E+00-2.66414E-01 3.50464E-01-7.97621E-01
 -1      1493 4.46159E-01-3.70150E-02-5.30723E-01 9.52871E-02 1.86040E-01-4.28554E-01
 -1      1494 2.24680E+00 1.84242E+00 1.93289E+00-4.95213E-02-5.50471E-01-8.88780E-01
 -1      1495 2.13550E+00 1.40338E+00 5.76353E-01 2.56049E-01-5.77004E-01-4.20622E-01
 -1      1496-1.90146E+00-1.62283E+00-1.52512E+00-1.85358E-01 2.96852E-01-4.22783E-01
 -1      1497-1.86828E+00-1.62908E+00-1.46858E+00-1.62756E-01-3.41774E-01-6.31307E-01
 -1      1498-1.84454E+00-1.46534E+00-3.36133E-01-2.98605E-01-5.34077E-01-3.26526E-01
 -1      1499-6.79885E-01-5.09724E-01-4.48795E-01-3.51493E-01 1.19399E-02-1.20605E+00
 -1      1500-3.60127E-01 2.28702E-02 1.34709E+00-5.52117E-01 5.53289E-01-1.25199E+00
 -1      1501-7.54506E-01-3.21545E-01-1.53782E-01 1.11351E-01 2.58793E-01-3.19609E-01
 -1      1502-1.69214E+00-1.07298E+00-1.33104E+00-2.59556E-01 2.88019E-01-7.96262E-01
 -1      1503-1.80036E+00-4.53719E-01 6.38498E-01-3.46541E-01 7.08847E-01-6.60128E-01
 -1      1504-6.47740E-01-1.93171E-02 4.80484E-01-1.51884E-01 1.37190E-01-4.66791E-01
 -1      1505 8.26502E-01 3.21909E-01 4.68102E-01-1.20803E-01-5.55232E-02-4.16380E-01
 -1      1506-5.16979E-01-6.82848E-03 4.55983E-01 1.36562E-01-1.37915E-01-4.57658E-01
 -1      1507 1.02678E+00 8.42154E-01 1.37269E+00 2.61006E-01 2.44803E-01-6.11907E-01
 -1      1508-1.05652E+00-8.56345E-01-1.48706E+00 3.09959E-01-2.24297E-01-6.70700E-01
 -1      1509 1.39585E+00 8.37132E-01 1.17689E+00-2.21631E-01-3.69029E-01-1.07479E+00
 -1      1510 1.44534E+00 2.68154E-01-5.46374E-01-1.65256E-01-6.86295E-01-6.98774E-01
 -1      1511-1.07577E+00-1.16874E+00-3.02272E+00-2.54415E-02 3.28140E-01-1.13602E+00
 -1      1512 1.08319E+00 1.34071E+00 2.81424E+00-5.03445E-02-4.16302E-02-1.14327E+00
 -1      1513-1.19713E+00-1.42126E+00-2.64431E+00 1.79278E-01-4.10183E-01-1.11263E+00
 -1      1514 1.10025E+00 4.06067E-01 4.60171E-01 1.58981E-01 1.58739E-01-3.72285E-01
 -1      1515 9.63839E-01 1.07541E+00 2.86097E+00 6.38803E-02 3.29232E-01-1.06625E+00
 -1      1516-7.08560E-01-7.09791E-01-2.22587E+00 5.86529E-02 4.85696E-01-7.98712E-01
 -1      1517 1.86881E-01 2.69137E-01 1.69822E+00-2.61607E-01 4.20113E-01-5.93922E-01
 -1      1518-1.18144E+00-1.13024E+00-2.72351E+00-5.04842E-02-3.63583E-01-1.07751E+00
 -1      1519 4.38884E-01-9.44818E-02-6.71536E-01-9.87120E-02-1.91572E-01-4.22188E-01
 -1      1520-7.51799E-01-6.02819E-01-2.25793E+00-1.26315E-01-4.04243E-01-8.72702E-01
 -1      1521 2.22478E-02-3.06065E-01-5.95181E-02-5.55758E-02 8.80088E-02 2.58668E-01
 -1      1522 1.54748E-01-3.00516E-02-7.74398E-02-6.19659E-03 2.22450E-01 8.83337E-02
 -1      1523 6.97017E-02 9.84669E-02 2.63437E-02 7.42598E-02-1.45893E-02 3.25116E-02
 -1      1524-1.26994E-01-4.21758E-01-7.95395E-02 3.07085E-02 2.82777E-01 4.68400E-02
 -1      1525 8.79159E-01 4.15741E-01-1.03848E-01-2.99284E-01-1.00162E-01 8.28893E-02
 -1      1526 5.06479E-02-1.55236E-01-6.25418E-02 3.88115E-02-2.15566E-01 2.91170E-01
 -1      1527 9.31252E-02-1.06382E-01-1.67923E-01-5.80948E-02-9.29424E-02 1.09801E+00
 -1      1528-2.47645E-02 7.88326E-03-6.90637E-02 7.08523E-03-2.01663E-01 1.35257E-01
 -1      1529 8.21017E-01 6.53583E-01-5.03110E-02 3.93749E-02-6.21703E-02 5.91130E-01
 -1      1530 1.85682E-02 3.37142E-01-5.18643E-02 1.08317E-01 3.31594E-01 5.30116E-01
 -1      1531 4.78370E-01 1.75541E-01-1.53617E-01 3.66599E-01 8.40085E-02-1.15120E-01
 -1      1532-1.35342E+00-4.41106E-01-6.36564E-02-1.25831E-01 2.46087E-03-5.56396E-02
 -1      1533-3.52831E-01 4.47695E-02-3.68659E-02 5.68126E-02-3.13879E-01-5.88888E-02
 -1      1534-2.00822E-01-9.90176E-02-1.06890E-01-5.62246E-02-1.20160E-01 6.24634E-01
 -1      1535-3.99915E-01-2.67953E-01 9.29481E-02-3.56838E-01 5.28177E-02-1.13084E-01
 -1      1536-1.32256E-01 8.96440E-02 2.22629E-02 5.23790E-02-5.90804E-01 3.38292E-01
 -1      1537-2.93636E-01-2.17894E-01-3.38778E-01-4.78733E-02 6.96043E-02 6.19448E-01
 -1      1538 8.07019E-01 2.45580E-01 2.70365E-01-9.58960E-02-4.11552E-02-1.31051E-01
 -1      1539-1.20565E-01-4.72671E-01-7.78484E-02-2.01538E-01 3.14985E-01 2.48998E-01
 -1      1540-8.77013E-02 2.65465E-01 9.72288E-02-6.38265E-02 3.00996E-01-1.08331E-01
 -1      1541-3.97774E-01-4.55974E-02-2.74536E-01-1.08002E-02-3.46608E-01 1.07924E-01
 -1      1542 1.59661E-01 1.46979E-01-9.81292E-02-1.77704E-01 1.55004E-02 1.25800E-01
 -1      1543 4.96870E-01 3.20253E-01 7.75127E-02-2.42611E-01-1.73240E-01 2.95477E-03
 -1      1544 9.58776E-02 1.07388E-01 4.19579E-01 1.23557E-01-3.33325E-01 9.75202E-01
 -1      1545-4.62767E-02-9.10681E-02-2.17944E-02-1.05808E-01-1.77956E-01 3.23782E-02
 -1      1546 1.77203E-01-1.83864E-01-2.65578E-01 1.23156E-01-3.50487E-01 9.63881E-01
 -1      1547-2.01969E-01-2.88667E-01-2.00048E-01-2.35212E-01 1.48751E-01 1.06511E+00
 -1      1548 1.50740E-01 4.61989E-01 1.68484E-01-2.14642E-01-3.86674E-01 6.13697E-01
 -1      1549-1.46962E+00-3.15337E-01-1.55826E-01 2.92510E-02-1.45602E-01 8.00575E-01
 -1      1550-1.41187E-01-5.81062E-02 5.73204E-02 2.31466E-01-3.10078E-01 5.00165E-01
 -1      1551 8.06621E-02-8.41200E-02 1.65753E-02-2.04160E-01 4.25893E-01 5.14014E-01
 -1      1552-5.81121E-01-8.96200E-03 2.25879E-01-1.83286E-01 4.02344E-01 8.83787E-01
 -1      1553-2.62190E-02 1.15596E-02 1.90903E-01 1.37616E-01-5.69244E-02 5.53416E-01
 -1      1554-1.04092E-02-4.51260E-02-6.56811E-02 3.21107E-02 7.07421E-03-5.29872E-01
 -1      1555-2.60609E-02 7.21031E-02 1.29730E-01 8.39146E-02 4.24558E-01 1.90406E-01
 -1      1556-9.27746E-03 2.55399E-02-3.70125E-02-1.46685E-01 4.45655E-01 1.57971E-01
 -1      1557-6.92867E-01-2.32841E-01-2.47853E-02-1.03210E-01 6.83941E-04 3.19072E-01
 -1      1558-5.28423E-02 2.29241E-02-6.99720E-02-1.38405E-01 1.74214E-01 1.73717E-02
 -1      1559-4.40769E-02 2.20153E-02-1.15161E-02-1.73948E-02 2.48182E-02 5.98687E-02
 -1      1560 3.69140E-01 6.95366E-02-3.75151E-02-7.38252E-02-4.29729E-02-4.62498E-02
 -1      1561 1.21772E+00 3.57089E-01 4.23261E-01-1.33674E-02 2.89954E-03-3.07537E-02
 -1      1562 5.89951E-01 1.30077E-02 9.15150E-02-1.80263E-01 4.04620E-02 9.32614E-01
 -1      1563 1.79462E-01 2.22298E-01 1.57663E-01 2.46565E-02 1.20425E-01 5.29151E-01
 -1      1564 7.62336E-01 2.94106E-01 6.68359E-02 2.26587E-01 2.65457E-01 8.84256E-01
 -1      1565-1.76697E+00-3.92266E-01-5.32296E-01 1.60022E-01-2.86367E-01 1.13521E+00
 -1      1566 4.54010E-01 1.41515E-01 9.19063E-02-2.17763E-01-3.17722E-01 7.24934E-01
 -1      1567-5.28470E-02-5.54463E-02 3.60769E-02-8.94206E-02 3.15132E-01 1.29593E-01
 -1      1568 1.28475E-01 2.76207E-01-4.69596E-03-1.33579E-01-5.95113E-02-3.49707E-03
 -1      1569-8.00459E-03-3.06479E-02 5.05931E-02-1.83279E-01-2.50702E-01 3.09879E-01
 -1      1570 2.80283E-01-2.03785E-03 7.95500E-02-1.05444E-01-2.26184E-01 4.60621E-03
 -1      1571 1.50629E-02-4.88500E-02 9.50622E-02 4.55679E-02-3.21091E-01 6.23808E-02
 -1      1572-1.78780E-01-9.28714E-02-2.06611E-01-2.24304E-02-5.47735E-04 6.76706E-02
 -1      1573-5.42875E-02 1.22571E-01-2.99468E-02 7.48652E-02-8.24500E-02 6.36704E-02
 -1      1574-1.39838E-01-1.23373E-01-4.34239E-02 9.85199E-02-1.40553E-01 5.39574E-02
 -1      1575 6.43246E-02-9.90577E-02-1.30394E-02-6.90326E-02-1.69437E-01 3.97757E-02
 -1      1576-4.64105E-02-1.07026E-01-3.05689E-01 5.60224E-02 3.98203E-01 4.58954E-01
 -1      1577-8.05227E-02-8.30654E-02-8.57400E-02 1.01443E-01 4.02207E-02-4.80330E-02
 -1      1578-6.07631E-01-2.22406E-01-1.07795E-01-1.73559E-02-2.09469E-01 3.31731E-01
 -1      1579 7.45187E-01 3.17594E-01-2.26422E-01 4.66321E-02 3.93571E-01 1.60356E-01
 -1      1580 4.85636E-01 3.60062E-01 1.44243E-01-3.05732E-01 6.02272E-02-3.85101E-02
 -1      1581-6.81125E-01-4.40246E-01-3.65457E-01-1.29526E-02-3.53191E-02 9.69299E-01
 -1      1582 6.60241E-01 2.04699E-01-8.37708E-02 2.48267E-02-2.29765E-01 1.85372E-01
 -1      1583-3.23552E-01-1.75985E-01-2.10251E-02-2.27625E-01 7.72079E-02-2.99080E-01
 -1      1584-1.13430E+00-3.68920E-01 4.78240E-01 2.40443E-01-3.23617E-01 5.40756E-01
 -1      1585 2.00125E-01 5.43004E-02-9.39344E-02-8.36270E-02-3.82204E-01 5.34504E-01
 -1      1586 3.51302E-02-1.74819E-01-3.87587E-02 2.30857E-01-5.41797E-01 3.82528E-01
 -1      1587-3.70795E-01 3.05879E-03-4.00883E-02 6.81887E-02-3.46469E-01 4.81218E-01
 -1      1588-2.80793E-02-2.55346E-02 3.85354E-02-1.15899E-01 8.40226E-02-2.93696E-02
 -1      1589 7.55623E-02-5.73275E-02-7.28691E-03-1.39305E-01 2.66740E-01 6.19302E-01
 -1      1590-1.09900E+00-3.51718E-01-8.45200E-02-1.64251E-01 1.40449E-02-2.26738E-02
 -1      1591 2.03889E-01 3.14436E-01 8.40183E-02 7.27190E-02 3.94024E-02 2.14367E-01
 -1      1592-1.85407E-01 1.79182E-01-1.13105E-01-2.55277E-01 1.83505E-02 1.70238E-01
 -1      1593 1.90503E-01 3.38206E-01 9.14453E-02-7.90856E-02-2.38423E-01 3.28738E-01
 -1      1594 5.94953E-03 2.54062E-02-1.81310E-01 5.51578E-02 2.28049E-01 3.00831E-03
 -1      1595-1.65777E-01 2.79056E-04 4.18110E-02 7.58546E-02-1.28925E-01 6.14613E-02
 -1      1596 6.96927E-02-5.93991E-02-1.38402E-02 1.50100E-01 7.04540E-02-2.58520E-02
 -1      1597-1.05346E-01-4.06243E-02-2.47260E-03 1.17173E-01 4.95090E-03-3.47760E-02
 -1      1598 1.32225E-01-1.70834E-02 6.90952E-02-2.12683E-02 7.74544E-02 9.20706E-01
 -1      1599 1.07907E-01-3.22588E-01 3.58860E-02-7.89938E-03-4.28807E-02 3.32916E-01
 -1      1600-3.85105E-01 2.60831E-02 2.20069E-01-1.37174E-01-1.02820E-01 1.88207E-01
 -1      1601-1.96957E-01-3.44408E-02-1.92870E-01-1.16063E-01 3.08784E-01 2.22991E-01
 -1      1602 9.48835E-02 1.03907E-01-1.57042E-01 1.55635E-02 1.14310E-01 8.59412E-01
 -1      1603 2.22324E-01-1.71639E-01-2.66556E-01-1.80060E-02 1.32042E-01 5.45956E-01
 -1      1604 4.23485E-02 5.39516E-02-9.14982E-03 4.28103E-02 1.50424E-02 2.88205E-02
 -1      1605-2.92239E-01-1.71671E-01 2.25135E-02 1.15970E-01-4.41809E-01 3.60983E-01
 -1      1606-2.01986E-02 5.80293E-02-7.25730E-02 1.23450E-01-1.45422E-02-4.32486E-03
 -1      1607 6.04280E-01 4.79284E-01-1.40754E-01 1.75715E-01-2.23557E-01 6.70902E-01
 -1      1608-4.88541E-02 1.53090E-01 5.72959E-02-1.23433E-01 1.40904E-01-3.02072E-02
 -1      1609 2.88418E-01 8.22492E-02 1.10444E-02-2.22322E-02-1.99633E-01-1.08463E-01
 -1      1610 1.20954E+00 4.50752E-01 2.27038E-01-3.56005E-02-7.50975E-02-1.25863E-01
 -1      1611-7.94741E-02-3.40979E-01 1.14053E-01 1.27210E-01-2.72581E-01 1.85670E-01
 -1      1612 1.01778E+00 3.64028E-01 1.94739E-01 3.95862E-01 1.81950E-01 1.00509E+00
 -1      1613-4.06508E-01-6.30739E-02 3.03778E-02 1.52052E-01-2.92991E-01 7.85961E-01
 -1      1614 3.18091E-01 1.03842E-01-1.20453E-03 1.91381E-02-1.46395E-01 4.36800E-01
 -1      1615-8.11241E-02-1.06897E-01-6.87229E-02-1.29561E-01-7.82008E-02 1.11609E-01
 -1      1616-1.06981E-02-1.92540E-01 8.24739E-02-1.96612E-02-8.20903E-03-3.20382E-02
 -1      1617-3.80086E-01-2.03603E-01-2.75284E-01-1.12665E-01 9.25408E-02 1.12528E+00
 -1      1618-1.35709E-01-3.56451E-01 9.28368E-02-2.05668E-01 5.26688E-01 3.39949E-01
 -1      1619 3.46264E-02 8.17721E-02 8.66821E-02-4.57337E-02 2.15909E-01-2.06431E-03
 -1      1620-1.37446E-01-1.69817E-02 2.79115E-02-1.95534E-01 4.21518E-02 9.14828E-02
 -1      1621 8.50564E-02 8.78646E-02 2.84606E-03 1.56365E-01 1.02500E-01-3.25347E-02
 -1      1622-8.24193E-03-3.57331E-02-4.92598E-02-9.27511E-02-7.24381E-02-1.24501E-01
 -1      1623-1.31160E-01-7.20126E-02-1.64485E-01-9.73322E-02 4.77909E-01 5.90275E-01
 -1      1624 1.26367E-01 4.17446E-01 7.78227E-02 1.09374E-01-6.64351E-02 1.34430E-01
 -1      1625-5.41445E-01-4.97404E-01-3.99840E-01 2.70549E-01-3.27163E-01 6.20581E-01
 -1      1626 2.12948E-01-2.39426E-01 1.06621E-01 1.14769E-01-1.03087E-01 7.11819E-01
 -1      1627-3.24446E-01-1.25461E-01 1.02415E-01 3.24928E-01-3.20741E-01 5.09010E-01
 -1      1628 7.53128E-01 3.31733E-01 3.72019E-01 2.45413E-01 3.15558E-01 7.50754E-01
 -1      1629-4.31739E-03-1.00305E-01-1.96134E-01 7.58058E-02-9.05778E-03 7.93389E-02
 -1      1630 5.45873E-01 8.49509E-02-2.38456E-01 3.00529E-01 3.96226E-01 5.27197E-01
 -1      1631-9.78183E-01-1.73139E-01-3.12639E-02 5.57022E-02-3.00990E-01 6.18201E-01
 -1      1632-2.71457E-01-1.90702E-01-5.26802E-01-8.97895E-02 4.78740E-01 1.06142E+00
 -1      1633-1.44058E-02 1.88921E-01-1.45771E-01-4.96916E-02 1.41025E-01 5.07180E-01
 -1      1634 2.17652E-01 2.44486E-01-7.66324E-02-1.78893E-01-3.87512E-02 6.87809E-01
 -1      1635 8.82901E-01 1.29977E+00 1.93887E-01-5.56555E-01-4.04675E-01 5.59421E-01
 -1      1636 1.03000E+00 4.18296E-01 2.18160E-01-2.95561E-01-6.54050E-02 5.90373E-02
 -1      1637-1.42761E-02 4.70270E-01 2.03038E-01-1.59590E-01-4.46806E-01 2.72745E-01
 -1      1638 3.94205E-01 3.17063E-01 4.52745E-02 2.44997E-01 4.47272E-01 6.39627E-01
 -1      1639 4.49177E-02-5.75017E-02-1.31544E-01-8.69753E-02-1.42649E-01-2.16808E-02
 -1      1640 2.14602E-02 3.86046E-02-2.13398E-01 1.84282E-01-2.75876E-01-1.00564E-01
 -1      1641-4.81504E-01-3.88783E-01 2.48384E-02-2.27298E-01-4.16594E-03-3.78087E-02
 -1      1642-5.65812E-02-1.85301E-02-1.86044E-01-1.30310E-02 1.93350E-01 1.52797E-02
 -1      1643 7.94236E-02 1.08246E-01-8.89943E-03-6.51631E-02 2.02171E-03 6.69841E-02
 -1      1644-8.36167E-02-1.44275E-01-1.06460E-01-1.54681E-01-1.57479E-01 1.27080E-02
 -1      1645-3.17918E-01-1.62404E-01 2.78386E-01-2.83885E-01 2.29451E-01 3.67020E-01
 -1      1646 7.75669E-02 2.21771E-01 1.69878E-01-2.92507E-01-5.14779E-03-2.85537E-01
 -1      1647-6.34887E-02-1.13739E-02-3.04838E-02-2.00996E-01 3.10893E-03-1.11487E-01
 -1      1648 4.14401E-01 6.25932E-02 2.89820E-02 2.63133E-02 1.90534E-02-4.74811E-02
 -1      1649 6.46036E-02 1.63645E-01 1.34160E-01 8.32252E-02 8.57930E-02-9.51401E-04
 -1      1650 1.63487E-01 2.91582E-01 1.03718E-01 1.52051E-01 5.10287E-01 5.50032E-01
 -1      1651-1.26119E-02 6.42418E-02 7.93648E-02-3.76274E-02 2.44989E-01 1.54595E-01
 -1      1652 9.95985E-02-1.15395E-01 4.98688E-02-1.51596E-02 2.78280E-01 1.05855E-01
 -1      1653 3.52601E-02-1.11596E-01-1.39430E-01-1.09857E-01-7.82633E-02 5.24256E-02
 -1      1654-1.24608E-03 1.94089E-01 4.93269E-03 1.69262E-01 4.43040E-01 1.86373E-02
 -1      1655 4.46333E-01 3.60466E-01 4.72875E-01-1.98064E-01-5.09014E-01 6.65041E-01
 -1      1656-5.24005E-01-3.41308E-01-8.90478E-02 3.87840E-01-1.65611E-01-1.72375E-01
 -1      1657-3.63942E-02-7.54472E-02-2.28153E-01 4.53550E-02-2.81737E-01 4.93605E-03
 -1      1658 1.90320E+00 5.14751E-01 2.18800E-01-1.75258E-02-1.01961E-01 1.53053E+00
 -1      1659-5.15630E-02-1.01388E-01-3.62825E-02 6.11291E-02 4.63736E-02 8.57252E-01
 -1      1660 1.23773E-02-1.38277E-01-2.51825E-01 1.51745E-01-1.51174E-01 7.06167E-01
 -1      1661 8.78625E-01 4.45216E-01 1.97559E-01 3.09734E-02 4.20822E-02-2.44345E-02
 -1      1662-4.07369E-02-2.50153E-02-7.09845E-02-1.22656E-01-1.28274E-01 1.64997E-02
 -1      1663 2.57375E-01-4.85080E-03 1.82383E-01-1.95466E-01-4.96245E-01 7.64919E-01
 -1      1664 1.20536E-01 7.60728E-02-1.13364E-01 6.67806E-02 3.98121E-01 3.68202E-01
 -1      1665 2.54957E-01 5.28907E-01 2.98455E-01-1.11682E-01-6.13924E-01 4.29901E-01
 -1      1666-1.36621E-01 5.43350E-03-1.19729E-01-7.88296E-02-3.83974E-01 4.31224E-01
 -1      1667-2.57459E-01-8.35121E-02-5.00075E-02 3.70503E-02 1.67425E-03-4.61319E-01
 -1      1668-1.87905E-01-1.37194E-01-1.04568E-01 7.84010E-02 4.09640E-02 1.65580E-01
 -1      1669 8.41213E-02-2.60576E-01 8.81011E-02-5.99744E-02 2.45092E-01 5.15352E-01
 -1      1670 5.43437E-01 5.24318E-01 4.84700E-01 1.95851E-01 5.33337E-01 9.72428E-01
 -1      1671 5.85613E-02 8.37894E-02-2.52910E-01-6.68356E-02-2.08912E-01 9.30458E-01
 -1      1672-1.18843E-01-1.23802E-01-7.45158E-02-2.05666E-01 5.11944E-02 2.52879E-02
 -1      1673-5.07288E-01-8.47482E-02-2.24211E-01 4.28758E-01 4.67408E-01 1.47272E+00
 -1      1674 1.43413E-01-2.20236E-01-1.77741E-01 7.40862E-02-2.54056E-01 1.09090E-02
 -1      1675 7.27910E-01 3.49595E-01 2.05160E-02-2.92053E-02-1.09809E-01 2.14805E-02
 -1      1676-1.05373E-01 4.01578E-02 1.79164E-01-1.27996E-01-1.50824E-01 1.28346E+00
 -1      1677-6.59482E-01-2.16547E-01-4.79906E-01 1.89641E-01-5.44354E-01 7.19092E-01
 -1      1678 9.45069E-01 2.07571E-01 3.17654E-01 3.42811E-02 9.78589E-02 9.71702E-01
 -1      1679 3.78489E-01 1.42063E-01-8.72874E-02 1.68322E-01-1.28901E-01 9.96744E-01
 -1      1680 4.31493E-01 4.60250E-01 7.67525E-02 8.57192E-02-4.64648E-01 5.67022E-01
 -1      1681-5.26640E-02-1.56939E-01-1.08477E-01 8.39966E-02 1.88117E-01 3.32762E-02
 -1      1682-7.64237E-01-3.62799E-01-1.61769E-01 2.07431E-01 1.15871E-02 9.89195E-01
 -1      1683 1.78411E-01 1.72770E-01 6.42134E-02 5.64969E-02-2.45644E-03-5.30008E-01
 -1      1684 2.60580E-01-7.74748E-02 2.98257E-01 2.46472E-02-3.15941E-01 9.26565E-01
 -1      1685 1.65037E-01-2.11445E-01 9.02812E-02 3.57267E-03-3.35374E-01 2.19273E-01
 -1      1686 8.99511E-02 1.28520E-01-8.82069E-02-6.62791E-02-4.12779E-01 4.97636E-01
 -1      1687-9.02604E-02-9.62738E-02-6.17797E-02 1.29105E-01-4.73170E-02-1.08088E-01
 -1      1688 9.36872E-01 4.36530E-02-5.12882E-01 2.70661E-01 2.52053E-01 5.79785E-01
 -1      1689-2.24682E-01-5.33024E-01-1.80476E-01 1.81764E-01-9.11247E-01 2.34143E-01
 -1      1690 4.26305E-01 4.46250E-01 3.06087E-01-2.95281E-01-5.29856E-01 5.66667E-01
 -1      1691-5.12825E-01-5.65833E-01-3.65065E-01-3.29527E-01 4.54371E-01 9.20210E-01
 -1      1692 5.74916E-01 3.43868E-01 1.00631E-01 2.77055E-01 3.92707E-01 3.79945E-01
 -1      1693-4.57415E-01-3.07200E-01-1.48851E-01-1.83519E-01 5.05564E-01 5.79151E-01
 -1      1694 1.10475E-01-1.56296E-01-1.27733E-01-4.49644E-03 2.29537E-01 1.19377E-01
 -1      1695 6.32032E-01 8.59154E-02-1.22872E-01-1.53962E-01-2.10249E-01 9.20032E-01
 -1      1696-1.58339E+00-6.07134E-01-2.11790E-01 3.60177E-02 3.85038E-02-2.54576E-02
 -1      1697-1.00129E+00-4.36265E-01-5.67180E-02-3.53739E-01 2.32506E-01 6.18339E-01
 -1      1698 2.60214E-01 1.81389E-01-1.29738E-01-1.64585E-01-6.66833E-02 4.80589E-01
 -1      1699-1.09389E+00-4.99308E-01-3.42697E-01-3.07410E-02-3.41755E-02 1.91305E-02
 -1      1700 3.90159E-01 3.81021E-01-2.72922E-01-2.83208E-01-2.39569E-01 4.94790E-01
 -1      1701 3.95878E-01 2.51904E-01-1.03608E-01-1.28917E-01-2.38275E-01 7.50641E-02
 -1      1702 3.55467E-01 9.26466E-01-1.26071E-01 4.00313E-01 4.21229E-01 1.78039E-01
 -1      1703-8.17378E-02-9.44331E-02-1.82064E-01 6.17358E-02-2.73895E-01 3.48167E-01
 -1      1704 1.41743E-01 2.14665E-01-3.87352E-02-1.74277E-01-1.12160E-01-5.43203E-03
 -1      1705-1.10961E-01 4.39584E-02 2.08342E-03-7.42259E-02 1.16716E-01 2.80670E-02
 -1      1706 3.24911E-01 2.72215E-01 1.46359E-01-3.93325E-01-1.09677E-01-1.31595E-01
 -1      1707-8.12061E-01-3.02567E-01 5.70085E-03 2.98701E-01-3.76620E-01 7.27584E-01
 -1      1708 1.49626E-01 5.83082E-01-4.54516E-01-1.94879E-01-2.96866E-01 2.76502E-01
 -1      1709 2.81702E-01-3.06931E-01-8.64927E-02-2.44453E-01 1.67240E-01 1.05586E+00
 -1      1710 9.09344E-01 2.88691E-01 2.22572E-01-3.87569E-02-1.24006E-01-5.66487E-02
 -1      1711-6.29211E-01 3.46790E-02 1.37440E-01-1.36922E-03 3.51023E-01 7.92693E-01
 -1      1712 5.79828E-03 1.67125E-02-8.22688E-03 1.18187E-02-7.76355E-03 7.98900E-02
 -1      1713-1.40623E-01 9.46341E-02 9.64232E-02 1.72371E-03-1.35348E-01-1.03536E-02
 -1      1714-1.51146E+00-4.91605E-01-7.85626E-02-3.05217E-02 2.63269E-02-1.78572E-03
 -1      1715 2.47065E-01 1.10362E-01 5.07223E-02-4.70798E-02-2.77903E-01 1.22113E-01
 -1      1716-9.52807E-01-4.37630E-01 1.20056E-01 1.76930E-01-1.50534E-02-4.88694E-02
 -1      1717 1.58289E-01-1.59728E-02-5.56146E-02 2.28684E-02 3.99164E-01-4.32989E-02
 -1      1718 1.08467E+00 3.69065E-01-2.35160E-02-3.36343E-01-1.62586E-04-2.03300E-02
 -1      1719-2.12942E-02-5.67389E-01-4.18619E-02-4.10158E-02 4.48308E-01 1.34601E-01
 -1      1720-1.58094E-01 1.10335E-01-9.00301E-02-1.02888E-01 1.27749E-01 9.47817E-02
 -1      1721 2.19025E-02 2.21030E-01 4.63903E-02-3.39497E-02 4.20022E-02-1.20620E-02
 -1      1722-1.78244E+00-4.15097E-01-4.00457E-02 2.22153E-02 4.65746E-02 1.31327E+00
 -1      1723-1.64720E-01-1.31484E-01 2.50433E-02-1.78934E-01-3.27093E-03 4.51278E-02
 -1      1724-1.24720E-01-1.73340E-01-1.30312E-01 1.08536E-01-2.95555E-01 4.47775E-01
 -1      1725 9.95792E-02 1.28359E-01 1.61818E-02-2.10337E-01 2.57389E-02-6.95738E-02
 -1      1726-3.96303E-01-1.73619E-01 2.97178E-01-2.12698E-01 2.77401E-01 6.92946E-01
 -1      1727-4.70666E-02-4.17884E-01 1.07625E-01-2.94156E-02 1.10412E-02-8.05738E-02
 -1      1728-4.01858E-01-1.99564E-01-1.49920E-02-2.56009E-01-3.80703E-01 6.81416E-01
 -1      1729-7.72714E-01-3.86044E-01-1.02718E-01-6.37650E-03 1.60530E-01 1.00373E-01
 -1      1730-3.50798E-01 7.16758E-02 4.71897E-02-7.32140E-02-7.16349E-02 7.26645E-01
 -1      1731 1.33139E-01 1.14673E-01-1.07172E-01-2.44136E-01 7.55739E-02 1.05675E-01
 -1      1732 3.39581E-01 7.68383E-01-5.74077E-01-4.76055E-01-4.04155E-01 2.80029E-01
 -1      1733 1.09069E-01 4.20016E-02-9.72541E-02-1.95634E-01-3.14819E-02-1.14778E-01
 -1      1734 6.37932E-02 1.98391E-01-3.09881E-02 4.74055E-02-3.04401E-01 3.32946E-01
 -1      1735 3.19494E-01 2.27686E-01-1.17080E-01-5.07028E-02 3.89635E-01 6.65976E-01
 -1      1736 1.05444E-01-6.98870E-02 2.56740E-01-3.08310E-02-4.88175E-01 3.32561E-01
 -1      1737 8.82617E-01 4.77215E-01 5.23843E-01-3.78904E-01-2.13869E-01 9.43348E-01
 -1      1738-4.13568E-02-5.43833E-01-3.64544E-02-1.66289E-02-3.73437E-01 1.00985E-01
 -1      1739 4.29672E-02 1.09587E-01 1.05255E-01-5.86931E-03 8.50670E-02-4.51808E-01
 -1      1740 6.14769E-01-8.71339E-02 5.57997E-01 2.73427E-01-6.94980E-02 8.19366E-01
 -1      1741-9.73426E-02 5.03124E-02-9.52079E-02 8.61792E-02-8.68728E-02 5.39323E-02
 -1      1742-1.75027E-01-1.60529E-01 7.12281E-02 1.44145E-01 3.18102E-02 3.92870E-01
 -1      1743-4.00473E-01-1.66633E-01-1.41993E-03 2.73919E-01-2.94105E-01 5.94837E-01
 -1      1744-9.28159E-01-3.14942E-01-2.83093E-01 1.14209E-01-3.10369E-01 6.20031E-01
 -1      1745-8.52979E-02-5.08752E-02-1.10299E-01-4.19575E-01-4.68099E-02-1.62993E-01
 -1      1746 9.87745E-01 3.64664E-01 2.84248E-01-4.72369E-04 4.38265E-02 3.37995E-02
 -1      1747-3.49719E-04-5.34760E-02 1.44227E-01 3.28332E-02 4.38036E-01 9.06711E-02
 -1      1748 8.74897E-01 2.01462E-01 8.04358E-02 3.54496E-02-1.20465E-01 1.89377E-02
 -1      1749 8.13486E-01 3.56947E-01 1.09982E-01-2.89643E-01-2.20591E-02-1.07652E-01
 -1      1750 1.52224E-01-8.06542E-02-8.18000E-02-9.20544E-02 3.32150E-01 1.65353E-01
 -1      1751-5.96422E-01-7.94527E-02 5.10735E-01-2.72931E-01 3.04850E-01 3.56859E-01
 -1      1752-2.50267E-01 5.39276E-04-2.06943E-02 3.50914E-02-3.05285E-01 1.85542E-01
 -1      1753 3.07040E-01 2.29944E-01-1.48017E-02-2.74519E-01 2.80559E-03 4.66036E-02
 -1      1754 1.87828E-01 6.85923E-01 4.33079E-01-1.71281E-01-1.42383E-01 4.33507E-01
 -1      1755 1.03542E-01 5.20705E-01-2.34724E-01-1.80497E-01-2.28238E-01 6.87491E-02
 -1      1756 5.67250E-01 5.27592E-02-1.89817E-01 2.10516E-01 3.43470E-01 8.89175E-01
 -1      1757-9.39287E-02-6.22609E-02 4.53432E-02-7.93105E-02 3.76009E-01 3.86210E-01
 -1      1758-4.38656E-01-2.60482E-01 1.24363E-01 2.23132E-01 2.29961E-01 4.85638E-01
 -1      1759-3.64485E-02 5.61770E-01-1.99104E-01-4.06457E-03-1.49174E-01 4.26805E-02
 -1      1760 1.26256E-01 8.04178E-02-1.76997E-02-9.47346E-02-5.94099E-03-1.96289E-02
 -1      1761-1.22239E-01 4.70520E-02 2.61353E-03 1.29411E-01-1.94569E-01 4.27740E-02
 -1      1762-1.61778E-02 3.48963E-01 7.44607E-02 2.33233E-01 3.33050E-01 3.99638E-01
 -1      1763 2.43410E-01 1.10632E-01-1.32748E-01 1.48621E-01 4.83892E-01 5.43178E-01
 -1      1764 1.22941E-01 5.13496E-02 4.35593E-02 1.25411E-01 1.07296E-02 1.31678E-02
 -1      1765-2.97495E-01-1.95054E-01 6.62466E-02 2.69618E-01-6.44700E-02-1.80953E-02
 -1      1766 9.40457E-01 9.55315E-01 1.71749E-01 6.30133E-01 5.59743E-01 6.77873E-01
 -1      1767-1.96819E-01-1.58124E-01-2.45889E-01-7.54527E-02-1.29566E-01 6.73519E-03
 -1      1768 4.87818E-02-2.33168E-01-2.78203E-02-4.28909E-02 3.80385E-01 9.70862E-02
 -1      1769 1.93123E-01-3.51726E-01 1.53194E-01-4.15105E-02 2.03851E-01 4.70492E-01
 -1      1770-1.47959E-01-4.59426E-02-6.06687E-02-1.99980E-02 1.04654E-01-3.78768E-02
 -1      1771-3.23654E-02 4.14978E-02-1.00372E-01-1.35052E-01-8.21871E-02 2.21724E-02
 -1      1772 2.61676E-02-2.45074E-01 2.09588E-02-3.76928E-02-4.37552E-01 2.43668E-01
 -1      1773 2.60815E-02 3.54809E-01 1.35073E-01 2.60516E-02-3.79922E-02 6.96160E-01
 -1      1774-8.93723E-02-3.15126E-01 9.53783E-02-1.30581E-01 6.99364E-01 1.23406E+00
 -1      1775 4.31359E-01 4.09503E-01-1.29503E-01 1.07424E-01 3.54799E-02 3.30398E-01
 -1      1776-1.16656E+00-3.30428E-01-9.79725E-02-2.70698E-01 4.13162E-02-1.01747E-01
 -1      1777-7.96721E-01-1.87708E-01 6.15714E-02-1.29049E-01-1.33609E-01 7.58575E-01
 -1      1778-1.54926E-01-7.32960E-02-2.67156E-01 1.43717E-01 2.14660E-01 9.39016E-01
 -1      1779-5.28146E-01-3.06861E-01-6.04274E-01-1.66684E-02 5.12823E-01 1.32857E+00
 -1      1780 7.67779E-01 2.58187E-01 1.53835E-01 7.94995E-02 1.34651E-01 2.20748E-01
 -1      1781-4.79286E-01-5.08276E-01-1.52703E-01 2.21810E-01-4.78396E-01 6.58553E-01
 -1      1782 5.10586E-01 3.90553E-01 9.47568E-03-2.88485E-01-9.17105E-02-2.53997E-01
 -1      1783 1.06131E+00 5.05393E-01 5.70616E-02-8.01008E-02-1.09389E-01-8.24273E-02
 -1      1784-9.18836E-02-4.86237E-01 4.28296E-02-2.96680E-02 3.67905E-01 4.40644E-02
 -1      1785 5.91463E-01 2.34581E-01 2.06283E-01-1.55976E-01 7.98853E-03 9.65649E-03
 -1      1786 5.67565E-02-4.03298E-02 1.33471E-01-2.32904E-01-1.19627E-01-8.05918E-02
 -1      1787-2.36133E-01 1.86058E-01-1.94860E-02 3.94413E-02-1.35537E-01 1.18830E-01
 -1      1788-3.41540E-02-4.69696E-02 4.05782E-02-6.62060E-02-1.63450E-01 6.83951E-02
 -1      1789 2.56359E-01 2.44601E-01-2.31487E-02-6.12762E-02-6.66196E-02 3.74671E-01
 -1      1790 1.01066E-01 2.65036E-01 2.35215E-01-7.60882E-02-3.38634E-01 3.49865E-01
 -1      1791-7.70363E-01-5.74152E-01 1.35239E-01-7.66572E-02 1.94774E-02 2.55567E-01
 -1      1792 1.56740E-01 2.29658E-01 9.74640E-02-1.16250E-02-8.65647E-02-5.13359E-01
 -1      1793-7.56210E-01-2.52180E-01-1.89469E-01-3.26290E-01 6.80814E-01 9.63705E-01
 -1      1794-1.02216E-01 1.27136E-01 1.00753E-01 3.92367E-02 1.90767E-01 4.88072E-01
 -1      1795 6.10127E-02 1.06518E-01-9.74349E-03-3.36800E-01-7.25214E-02-2.29604E-01
 -1      1796-2.89085E-01-6.51782E-02-2.73533E-02-1.47118E-01-2.72255E-01 3.62296E-01
 -1      1797 2.94061E-01 1.54489E-01-7.76368E-03-1.63949E-01-4.69208E-01 3.73094E-01
 -1      1798-3.92399E-02 1.18306E-01 1.61069E-02-1.09498E-01 5.15979E-02 1.21351E-02
 -1      1799 2.92563E-01 1.14954E-01 3.92534E-02-1.86367E-01-3.63671E-02-6.61146E-02
 -1      1800 1.10377E+00 4.30613E-01-1.30322E-01-4.00891E-01 1.47325E-02 1.56202E-02
 -1      1801-2.20322E-02-3.39667E-01-1.57420E-01-7.17427E-02-9.60087E-02-1.03556E-01
 -1      1802-3.41649E-01-2.91613E-01-6.34629E-02 7.34957E-02 3.11939E-03 8.67099E-02
 -1      1803 4.35633E-01 2.22194E-01 1.80227E-02 1.45094E-02-3.33038E-01 3.27082E-01
 -1      1804 1.09209E-01-1.67756E-01 6.30733E-02 6.17971E-02 7.31585E-02 4.00469E-02
 -1      1805-2.09160E-01-2.03793E-01-2.12716E-01 1.39905E-01-6.16015E-02 3.35710E-01
 -1      1806 2.12577E-01 3.12933E-01 8.87555E-02-1.15692E-01-7.43275E-02 1.19504E-01
 -1      1807 4.98071E-01 3.39130E-01 4.42474E-02-2.53010E-01-1.83083E-01 2.93704E-01
 -1      1808-1.27216E+00-3.13368E-01 2.55611E-01-1.19998E-01-8.82412E-02 1.09144E-01
 -1      1809-2.21962E-01-2.50216E-01-6.26084E-01 6.25465E-02 3.97763E-01 1.04669E-01
 -1      1810-4.05722E-02-5.58947E-02 4.47696E-02 1.75377E-02 1.71058E-01 4.12979E-02
 -1      1811-1.11374E-01-1.04320E-01-2.86209E-02 1.34630E-01-2.44297E-02 6.37266E-03
 -1      1812-1.07074E+00-1.63695E-01-3.59440E-01 9.81845E-02-3.55105E-01 4.92523E-01
 -1      1813 5.32790E-01 4.95781E-01 9.36703E-02 5.71365E-01 7.77912E-01 7.77249E-01
 -1      1814-1.13107E-01 9.32450E-02 8.93499E-03-1.72226E-01 7.43688E-02-1.37041E-02
 -1      1815 3.78672E-02-3.47038E-02-5.15809E-02-7.19582E-02-4.44631E-02-1.80893E-02
 -1      1816-2.98726E-01-1.31818E-01-5.95107E-02-2.93107E-01 9.33374E-02-1.01425E-01
 -1      1817 9.40373E-01 1.40633E-01-3.24874E-02-2.83226E-01-1.33741E-01 1.56110E+00
 -1      1818 1.18186E+00 3.53454E-01 1.63167E-02-1.54278E-01-1.44129E-02-1.40598E-02
 -1      1819-6.51493E-01-2.27558E-01-4.01539E-01 2.03080E-01-2.35202E-01 1.27514E+00
 -1      1820 5.13766E-01 3.49648E-01 9.30975E-02-3.82629E-01-6.99546E-02-1.77291E-01
 -1      1821 9.86616E-03-2.74051E-02-1.08052E-01-1.20973E-01-2.00866E-01 3.21914E-01
 -1      1822 1.33317E-01 7.06256E-02 1.11444E-02 1.10223E-01-3.58550E-02 4.65307E-02
 -1      1823-8.52973E-03-2.44381E-01 1.41721E-03-7.68330E-02-6.53783E-02 3.61643E-02
 -1      1824 3.19665E-01-1.82625E-01-5.33543E-01 1.48520E-01 3.13046E-01 5.70048E-01
 -1      1825-8.03070E-01-2.41094E-01 4.91261E-02 2.66078E-01-4.81286E-01 1.21053E+00
 -1      1826-1.41327E-01-2.00351E-01-1.86838E-02-2.43838E-01-2.75206E-02 9.00122E-02
 -1      1827-9.14016E-02-7.25767E-03-5.32207E-02-3.00841E-02-8.48614E-03 1.06129E-03
 -1      1828 3.44045E-01 3.02219E-01 5.91333E-01-8.51125E-03-2.27895E-01 9.08352E-01
 -1      1829-7.32274E-01-1.81157E-01 6.41638E-01-1.90727E-01 5.61497E-02 6.73736E-01
 -1      1830-3.39108E-03-3.53241E-02 2.66538E-02 1.72430E-02-2.00262E-02 3.44421E-02
 -1      1831 6.00532E-02 4.48421E-01 9.90545E-03-2.89536E-02 6.72243E-02-2.18474E-02
 -1      1832 7.57997E-02 4.91723E-01-6.78399E-02-9.87310E-02-5.65315E-02 1.79906E-01
 -1      1833-3.62063E-01-1.68181E-01 1.77932E-01 4.88902E-02-6.47392E-02 6.53623E-01
 -1      1834-1.34811E-01-3.63890E-01-3.65026E-01-1.97828E-03-5.20914E-01 1.61944E-01
 -1      1835 8.47062E-01 2.32033E-01 2.51950E-01 1.04043E-01-1.47937E-01 3.98258E-01
 -1      1836 1.30275E+00 6.23008E-01 2.38059E-01 4.32849E-02 9.88761E-02 2.57651E-02
 -1      1837 1.03833E+00 4.36721E-01 2.44356E-01 4.17056E-02 1.04983E-01 1.65691E-02
 -1      1838 2.07007E-01-1.75443E-01-1.25293E-01 3.50888E-03-1.13664E-01 8.11751E-01
 -1      1839 4.84328E-02-1.96792E-01-1.75247E-01 3.71063E-01 6.79588E-02-1.86721E-01
 -1      1840-2.10598E-01-1.18940E-01-3.51124E-02-2.58025E-01-2.17727E-02 9.88700E-02
 -1      1841-1.34989E-01-1.69208E-01-1.61167E-02-3.24513E-01 4.97533E-02-2.09136E-01
 -1      1842 1.59975E-01-2.66431E-01-1.82763E-01-3.00253E-02-2.44919E-01-3.96803E-02
 -1      1843-1.03989E-01-1.12039E-01-1.46650E-02-2.64050E-01 2.77105E-01 7.58125E-01
 -1      1844 8.55108E-02 6.54383E-02-3.66838E-02-2.64700E-01 6.94695E-03-2.36207E-01
 -1      1845-8.53856E-01-4.21788E-01-1.03250E-01-3.10292E-01 6.94232E-02-7.23898E-02
 -1      1846 1.70389E-01-3.45048E-01-1.98827E-01 2.84809E-01 7.13111E-02 4.06715E-01
 -1      1847-6.21920E-01-4.48284E-01-1.28641E-01 2.69895E-01-3.28341E-02 1.56304E-02
 -1      1848-8.84981E-01-2.40033E-01 7.96051E-02-3.36327E-01 1.00546E-01-2.78646E-02
 -1      1849 5.30415E-01 3.91578E-01 3.65376E-01-2.23578E-01-5.05594E-01 7.61619E-01
 -1      1850 2.40167E-02 1.54572E-01 1.77729E-02-4.37014E-02 1.59336E-01 9.58317E-02
 -1      1851-8.00944E-02 8.24939E-02-2.69217E-02-5.11729E-02-3.44329E-01 2.20540E-01
 -1      1852-1.03957E+00-4.22908E-01-1.21516E-03-5.09210E-02 4.30855E-02-1.51166E-01
 -1      1853 8.34017E-03-1.69803E-02 3.07473E-02-7.64079E-03 1.73767E-02 9.07702E-03
 -1      1854-2.22404E-01-2.04227E-01-5.30098E-02-1.07654E-01 2.60262E-01 2.01763E-01
 -1      1855-8.40307E-02 6.73032E-02-1.17362E-01-6.08271E-02-4.66847E-02-2.16145E-02
 -1      1856-4.25594E-01-6.58235E-01 1.31806E-02 3.26512E-01-8.37853E-02 3.31198E-01
 -1      1857 1.68936E-01 9.23795E-02 2.54408E-02 2.24338E-01 2.99764E-01 4.67011E-01
 -1      1858-1.14612E+00-4.83187E-01-2.11158E-01 2.75169E-01-1.16586E-01-1.32658E-01
 -1      1859-4.35140E-01-4.09029E-01-5.89729E-02 3.09800E-01-4.53361E-02-5.41371E-02
 -1      1860-2.87189E-02-2.36958E-01 6.51317E-02-1.06723E-01 1.80869E-01 1.68700E-01
 -1      1861-2.03849E-01 1.09877E-01 7.32954E-02 1.60390E-01-3.20214E-01 7.50317E-01
 -1      1862 2.18987E-03-7.14647E-03-9.57120E-03 9.42801E-02 8.54521E-02-6.85501E-02
 -1      1863-2.50076E-02 3.69302E-02 6.27143E-02-3.41854E-01-8.40346E-02-1.18337E-01
 -1      1864 3.07746E-01-6.78863E-02 2.87367E-01 1.03311E-01-1.26673E-01 6.58713E-01
 -1      1865-2.24355E-01-1.50154E-01 2.83826E-02-1.55536E-01-2.59899E-01 3.89836E-01
 -1      1866 5.47675E-01 2.62815E-01 1.08615E-01 3.46360E-02 1.13926E-01 2.49148E-01
 -1      1867-2.58928E-01-1.14451E-01-2.21798E-02 1.14046E-01-1.62581E-02 9.57296E-01
 -1      1868 9.90437E-02-1.19162E-01 1.66581E-01 1.73316E-03-2.95117E-02 7.55495E-02
 -1      1869-4.60310E-01-2.03178E-01-5.21927E-01-6.97422E-02-6.84732E-02 1.13412E+00
 -1      1870-1.42603E-01-3.83766E-02-7.65645E-02 2.13734E-02-2.82591E-01 1.68198E-01
 -1      1871-3.32745E-01 3.05932E-02-1.05548E-01 1.68756E-01-2.89774E-01 4.95892E-01
 -1      1872 7.44929E-01 2.36763E-01 9.58977E-02-4.93610E-02-6.05294E-03 1.10177E+00
 -1      1873-3.75248E-02-4.82019E-03 1.94193E-03 2.70451E-02 4.63197E-02 3.72185E-02
 -1      1874-7.62294E-02-3.59776E-01-2.64272E-02-1.62460E-01-2.84369E-01 7.01515E-01
 -1      1875-2.05179E-01-1.63498E-01 1.67321E-01 5.95468E-02 3.03072E-01 2.25033E-01
 -1      1876-5.64628E-01-3.65018E-01 2.18851E-01-3.16130E-01-4.62832E-03 5.20555E-02
 -1      1877 9.52754E-01 6.02091E-01 2.49942E-01 5.60435E-02-5.01552E-02 8.29484E-03
 -1      1878-1.71729E+00-7.51243E-01-2.28219E-01 4.84286E-03 6.90352E-02 1.06694E+00
 -1      1879 3.19149E-01 1.20994E-01 2.21883E-01-4.21808E-02 2.07054E-01 4.23985E-01
 -1      1880-1.15365E+00-1.39488E-01 2.83873E-01-2.97991E-01 1.95724E-01 6.52600E-01
 -1      1881 4.83759E-01 1.59048E-01-4.39720E-03 2.77641E-01 9.94772E-02-1.90773E-01
 -1      1882 1.89277E-01 1.17036E-01 2.17427E-01 5.06828E-02-7.84367E-02 5.13227E-01
 -1      1883 9.01320E-01 4.61354E-02 2.01168E-02 6.72304E-02-5.65449E-02 9.45547E-02
 -1      1884 4.05415E-02 5.82270E-02 1.13799E-01 1.50562E-02-8.35378E-02 1.76906E-01
 -1      1885-2.40242E-01-2.33829E-02 5.27679E-02-2.61423E-02 2.99507E-01 1.02114E-01
 -1      1886-7.10081E-01-1.77255E-01-8.62576E-02-2.69524E-01 6.94575E-02-1.42494E-01
 -1      1887-6.11529E-03 2.87942E-02-8.09794E-02 5.91847E-02-3.68542E-01 4.78049E-01
 -1      1888 3.38094E-01-3.15887E-01 1.92884E-01 8.69530E-03-2.56902E-01 1.04912E-01
 -1      1889 1.07951E+00 1.42752E-01 1.91094E-01 1.36945E-01-7.20558E-03-8.63990E-02
 -1      1890-4.02097E-01-3.10115E-01-1.76470E-01 1.49883E-01-1.29183E-01 1.39253E-01
 -1      1891-2.09684E-01-3.35925E-01-1.61554E-01 1.56997E-01-3.26922E-01 5.82672E-01
 -1      1892 3.91081E-02 3.63268E-01-2.81943E-01 4.65753E-02 1.37738E-01 1.94404E-01
 -1      1893 6.57202E-02 8.62862E-02-4.44809E-02-4.42719E-01-6.87844E-02-3.05669E-01
 -1      1894 2.14170E-01 2.02100E-01-6.28140E-02-3.21302E-01 4.79664E-03-2.21382E-01
 -1      1895 1.82150E-01 1.68180E-01 2.61648E-01 8.12292E-02 4.58465E-01 2.51815E-01
 -1      1896 6.51334E-02-6.54408E-02 1.77095E-02-7.92407E-02-2.35141E-02-1.30911E-01
 -1      1897 1.79462E-01 1.04692E-01-1.06358E-01 6.26897E-02 1.56662E-01 2.88394E-03
 -1      1898 1.01327E-01 1.21276E-01 1.16984E-02 1.12888E-01 1.37091E-02 3.00206E-03
 -1      1899 1.99345E-02-7.23951E-02 4.64626E-02 2.65987E-02 5.55469E-02-6.76490E-03
 -1      1900 2.95732E-01-3.94593E-02 7.51607E-03 7.47173E-02 1.13586E-01 7.53893E-02
 -1      1901 3.55877E-01 2.00017E-01 5.05686E-02 4.96405E-02 4.08133E-01 3.40819E-01
 -1      1902 7.13503E-01 7.18496E-01 1.93485E-01-1.91902E-01-4.60210E-02-1.70463E-02
 -1      1903 4.72245E-02 2.78896E-01 1.63361E-01 2.18888E-02 8.25936E-01 8.60740E-01
 -1      1904-6.21448E-02-4.22689E-01 4.47555E-02 1.23121E-01-2.51831E-01 2.50541E-02
 -1      1905-2.09880E-01-6.80901E-01-1.36730E-01 2.84567E-02-2.61853E-01 4.60577E-02
 -1      1906-2.58415E-02 3.59930E-02 1.04216E-02 4.70048E-02-1.20223E-01-1.32030E-02
 -1      1907 1.32596E+00 6.20265E-01 3.91428E-01-1.21597E-01 2.96839E-02 8.18020E-02
 -1      1908-8.51586E-02-1.53179E-01-2.91453E-01-5.69199E-01 2.68590E-02-1.24162E-01
 -1      1909 6.24657E-02-6.75856E-02 3.67504E-02 3.33149E-02 1.47564E-01-2.00259E-02
 -1      1910 2.93076E-01 4.71813E-01 1.58503E-01 2.83068E-01 2.55997E-02-2.36480E-02
 -1      1911 7.94286E-01 4.34751E-01 6.31415E-02-2.16717E-01 9.27198E-02-1.05349E-01
 -1      1912-2.97086E-01-1.19857E-01 7.45374E-01 6.36013E-01 8.18828E-01 1.30662E+00
 -1      1913-4.62039E-01-1.64864E-01 2.69872E-03 1.07026E-01-4.05853E-01 2.66879E-01
 -1      1914 9.33565E-01 5.18964E-01-3.58410E-01-4.23783E-01-3.21754E-01 3.99942E-01
 -1      1915-1.83326E-01-8.14628E-02-2.41655E-01 1.05477E-02-3.88935E-01 7.13090E-01
 -1      1916 1.00105E-01-3.55472E-02 3.12386E-02-2.40902E-02 6.59107E-02-1.43339E-02
 -1      1917 4.76882E-01 2.38523E-01 4.99182E-01 1.53435E-01 2.01771E-01 1.10973E+00
 -1      1918 1.93292E-02-4.70790E-01-6.10975E-03 4.12599E-02 1.75796E-01 1.04450E-01
 -1      1919 4.07158E-02-2.68665E-02 5.13873E-02-9.93247E-02-3.71267E-03-1.46530E-02
 -1      1920-2.23450E-01-1.08990E-01-3.01368E-01-3.50887E-02-9.49324E-02 3.91012E-02
 -1      1921 3.83723E-01 3.20580E-01 4.62457E-01 4.10863E-02-7.28892E-02 7.28393E-01
 -1      1922 2.41687E-01 1.48092E-01 1.01351E-02-3.11104E-01 1.22838E-02-3.99340E-02
 -1      1923 3.19676E-01-1.69891E-01 2.14796E-01 3.52022E-02 1.99788E-01 4.28539E-01
 -1      1924 3.38061E-02 1.21907E-01-3.36622E-02-3.80958E-02 4.01912E-02 8.35761E-01
 -1      1925 6.89958E-01 1.10069E-01 1.56768E-01-3.74927E-01-6.36418E-01 1.80013E-01
 -1      1926-1.40896E-01-4.30267E-01-3.84568E-03-1.10571E-01 5.88042E-01 4.84015E-01
 -1      1927-2.19305E-01-2.37522E-01-5.42879E-01 2.55240E-02 2.64997E-01 1.56972E-01
 -1      1928-3.93091E-01-3.38169E-01 6.72920E-02 3.50132E-01-2.39247E-01 4.79244E-01
 -1      1929 2.17305E-02-1.46363E-01 1.24497E-01 1.37097E-01-1.11366E-01 5.73882E-01
 -1      1930-1.87131E-01-3.05498E-01-3.48349E-01 2.79153E-02-4.35443E-01 2.71232E-01
 -1      1931 2.94004E-01 1.33050E-01 2.34543E-02 1.54920E-01-6.63654E-02 4.80128E-01
 -1      1932 2.93975E-01 7.75505E-01 1.47231E-01-2.57887E-01-3.50133E-01 2.05108E-01
 -1      1933 3.21161E-01 1.89873E-01-4.53652E-02-1.43869E-01 7.47390E-02-4.62022E-01
 -1      1934 1.21693E+00 3.95768E-01 2.55148E-01-9.23036E-02 6.36318E-02 2.38484E-01
 -1      1935-1.31074E+00-5.39653E-01-2.33878E-01-6.34889E-04 1.71092E-01 6.39989E-03
 -1      1936-4.28221E-01-1.82286E-01-1.14074E-02-1.09690E-01-1.85482E-01 3.75706E-01
 -1      1937-1.53733E-01-8.45667E-01-6.55572E-02 2.00238E-01-2.30662E-01 2.90719E-01
 -1      1938-6.29530E-01-3.21595E-01 8.26014E-02 1.44036E-03-9.53513E-04 3.50626E-02
 -1      1939-1.05615E-03 6.82064E-02 2.52596E-02 1.01275E-02 4.52449E-02 8.44353E-02
 -1      1940-9.79361E-01-3.49008E-01-2.25026E-01-2.95177E-01 4.19377E-02-9.15590E-03
 -1      1941-6.15840E-01-2.15420E-01-6.89296E-02 3.35141E-01-1.24773E-01-1.62947E-01
 -1      1942-1.72458E-01-3.05781E-01-1.17019E-01 1.29518E-01-3.02300E-01 9.90186E-02
 -1      1943-1.65670E-01 8.54175E-02-5.06749E-03-1.62244E-01-4.20536E-02-1.01193E-01
 -1      1944-3.97729E-02-1.27324E-01 1.11448E-01-6.27221E-02-2.64817E-01 1.46296E-01
 -1      1945 1.15891E+00 6.26657E-01-1.51188E-01-3.05016E-01 4.66601E-03 1.01326E-02
 -1      1946 4.57906E-01 2.38917E-01-7.76501E-02-4.26360E-03-2.69509E-01 2.17532E-01
 -1      1947-7.54303E-02 4.37374E-01 7.70839E-02 2.54123E-02-1.22473E-01 1.25841E-01
 -1      1948-3.88635E-01-5.15946E-03-1.69878E-01-2.41152E-01 2.34215E-02 9.44227E-02
 -1      1949-4.35039E-01-2.30642E-01 4.79168E-02-2.96455E-04 2.04367E-01 3.15229E-01
 -1      1950 3.93093E-01 1.38836E-02-2.49168E-03-3.87419E-01 3.03954E-02 9.08043E-03
 -1      1951 2.82002E-01 2.85607E-01 2.43371E-01-9.40007E-02-4.11814E-01 2.93501E-01
 -1      1952-1.06202E+00-4.38734E-01 1.10614E-02-2.46574E-01 3.26339E-01 7.75019E-01
 -1      1953 4.43664E-01 1.48844E-01-1.25709E-01-5.11322E-01-5.33809E-02-1.96552E-02
 -1      1954-1.48102E-01 2.72480E-02-3.78415E-01 1.18075E-02-9.64404E-02 3.18194E-01
 -1      1955-7.22118E-02-2.03492E-01 3.40348E-02-7.43551E-02-3.34052E-02 6.87470E-02
 -1      1956 1.65647E-04 2.71233E-02-2.52670E-02-6.61572E-02 6.21415E-02 2.52376E-02
 -1      1957 1.32368E-01-3.71085E-02-3.29825E-01-1.17785E-01-1.14411E-02 6.56155E-01
 -1      1958-5.75378E-01 1.06847E-01-7.56424E-02 1.06129E-01-3.18455E-01 7.93598E-01
 -1      1959 7.55974E-02-1.97734E-01-5.32828E-02-2.26024E-02-1.73896E-01-6.07547E-02
 -1      1960-2.85795E-02 5.55299E-02 1.29814E-01 1.89967E-01-2.83877E-01-5.22388E-02
 -1      1961 2.72974E-01 1.34519E-01-1.79485E-01 2.32997E-02 1.52353E-01 1.54380E-01
 -1      1962-2.50335E-01-2.42101E-01-1.21442E-02 1.99672E-01-1.14600E-01 7.57310E-01
 -1      1963 1.01220E+00 4.49072E-01 9.60409E-02-7.78943E-02-1.20337E-02 3.05741E-01
 -1      1964 7.85786E-01 5.58205E-01 1.64604E-01 1.82776E-01 9.13902E-03 1.80017E-02
 -1      1965 4.45987E-01 2.04314E-01 7.19755E-02-3.11962E-01-8.61083E-02-2.71296E-01
 -1      1966 8.31950E-02 3.28292E-01 6.11953E-02-1.22071E-01 3.94333E-01 7.71292E-02
 -1      1967 1.40646E-01 1.54936E-01 3.39569E-01-1.92902E-01-2.49078E-01 5.70244E-01
 -1      1968-1.69098E+00-7.45026E-01-1.76002E-03 1.91772E-02 6.25249E-02 2.00423E-01
 -1      1969 2.92956E-01-2.70611E-02 5.45462E-02-1.26361E-01-4.40254E-01 2.43673E-01
 -1      1970-3.55116E-01-3.61441E-01-1.29331E-02-2.22038E-01 9.49592E-02-5.67443E-02
 -1      1971 2.63330E-01 8.83377E-01 1.81194E-01-1.39675E-01 2.86631E-02 4.84306E-01
 -1      1972 1.06265E-02 5.25219E-02-9.27630E-02-6.84973E-02-9.12468E-02 1.45787E-02
 -1      1973-2.44654E-01-2.51893E-01-1.37320E-02 2.19730E-01-4.61879E-02-9.00872E-02
 -1      1974 2.79123E-01 1.75281E-01-1.03085E-02-3.59108E-01-5.70218E-02-2.62038E-01
 -1      1975 4.72150E-01 3.28046E-01-4.40291E-02-2.28999E-01-6.33178E-02-1.63397E-01
 -1      1976 4.68341E-01 2.45133E-01-1.47173E-01 1.73429E-01 2.26072E-01 4.78395E-01
 -1      1977-2.83905E-02-5.58159E-02-4.87875E-02 1.01003E-01 4.84870E-02-4.57797E-01
 -1      1978 1.20146E+00 2.29923E-01 9.41283E-02-2.85374E-01-6.22997E-03-1.17831E-01
 -1      1979 1.06399E+00 4.04660E-01 8.39257E-02-1.07808E-01-5.91566E-02-1.80848E-01
 -1      1980 1.76603E+00 5.38179E-01 1.88572E-01-8.94671E-02 4.68712E-02-6.09628E-02
 -1      1981 1.12492E-03 3.45466E-01 2.62099E-01-3.04603E-03 7.52631E-02 8.35732E-01
 -1      1982-3.14527E-01-1.14653E-01-1.70377E-01-1.88074E-02-2.09594E-01 1.63109E-01
 -1      1983 6.95420E-01 1.19466E-01 8.42595E-02 5.33344E-01-5.29655E-02-4.77696E-02
 -1      1984-1.58275E-02 1.03801E-01 2.10302E-01-7.37237E-02-3.16431E-01 2.15600E-01
 -1      1985-3.91880E-02 1.02906E-02-2.00399E-02 7.20118E-02-8.72883E-02-5.36664E-02
 -1      1986 9.60987E-03-2.37958E-01-6.70859E-02-2.05433E-01-4.26478E-02 6.86716E-02
 -1      1987 1.64154E-01-1.73634E-02-5.22094E-03-6.26984E-03-4.93553E-03 4.89910E-02
 -1      1988 1.63467E+00 8.29804E-01 5.28937E-01-9.16734E-01-6.33559E-01 8.38792E-01
 -1      1989 2.40781E-02-1.05247E-01-2.69445E-02 8.58146E-02-3.58890E-01 1.88047E-01
 -1      1990 2.81285E-01-6.43407E-02-1.66004E-01-1.08434E-01 4.30568E-01 3.68320E-01
 -1      1991 5.39789E-01 5.01608E-01 1.70560E-01 3.50581E-01 4.43271E-01 3.43182E-01
 -1      1992 4.97895E-01 2.72187E-01 1.73202E-01-1.46131E-01 2.80279E-02 4.93092E-03
 -1      1993-1.46807E-02 1.37895E-02-1.76655E-02 1.15230E-01 2.93483E-01-3.81519E-02
 -1      1994-9.58518E-01-2.92932E-01-8.93800E-01 6.93289E-02-4.15248E-01 3.07160E-01
 -1      1995-2.93275E-01 6.44984E-02 2.38350E-01-1.80592E-01 3.50984E-01 5.07738E-01
 -1      1996 1.38051E-01-2.77905E-01-6.71753E-02 1.87576E-01-1.51759E-01 3.45072E-01
 -1      1997 3.99291E-01 4.63954E-01 5.04635E-01-1.54856E-01-2.97624E-01 6.65635E-01
 -1      1998-1.13359E-01-1.39717E-01-8.93647E-02 2.41071E-01-5.98198E-01 4.18983E-01
 -1      1999-3.15059E-01-2.68386E-01-1.62607E-01-1.30377E-01 3.43550E-01 9.53908E-02
 -1      2000 3.50235E-01 5.33823E-01 4.52097E-01-9.88184E-02-5.39631E-01 4.82675E-01
 -1      2001-1.12958E+00-3.57948E-01 2.30486E-02-2.14964E-01 4.28680E-02-9.29540E-02
 -1      2002-1.75947E-01 3.00150E-02 1.39675E-01 9.54616E-03 9.54086E-02 6.41682E-02
 -1      2003-4.29452E-01-1.29346E-01-1.07422E-01-2.08949E-02-3.48228E-02-5.42161E-01
 -1      2004 5.61712E-01 2.14682E-01-1.01479E-01-1.97260E-01-6.77716E-02 4.79502E-01
 -1      2005-5.51054E-01-3.64525E-01-1.81817E-01-1.69252E-01 1.89184E-01 2.25273E-01
 -1      2006 3.31308E-01 1.77711E-01 4.67954E-02 1.87963E-01 2.33125E-01 5.95297E-01
 -1      2007-1.34755E-01-8.75331E-02-2.69474E-02-1.59666E-01-7.47584E-02-4.75833E-02
 -1      2008 8.48494E-02 1.31706E-01 8.49195E-02-3.57504E-01-1.45323E-02-1.13041E-01
 -1      2009-3.23544E-01-3.90573E-01-2.59115E-01-3.76691E-01-3.11734E-04 3.06893E-03
 -1      2010-1.15555E-01 4.22242E-02-3.34839E-02-5.12574E-02-4.29086E-01 2.76956E-01
 -1      2011-8.90824E-01-1.08160E-01 2.07616E-01 2.78817E-01-2.14954E-01 5.54403E-01
 -1      2012-1.61953E-01-5.60080E-02-1.74190E-01-3.15239E-01-6.34345E-01 1.00298E+00
 -1      2013-7.84432E-01-3.32635E-01-2.72509E-01-2.09314E-01-3.10094E-02 4.37454E-02
 -1      2014 1.39908E+00 5.58085E-01-1.56995E-02-2.09317E-01-7.60597E-02 1.33535E-02
 -1      2015 1.87829E-01 7.88466E-02 3.61847E-02 2.14906E-02 1.10098E-01 1.02210E-01
 -1      2016 4.08046E-01 8.05863E-02 5.70981E-02 2.26429E-01-1.89316E-02-1.44180E-02
 -1      2017 4.90888E-01 7.75515E-02-6.30374E-04-2.91162E-01-1.84764E-01 5.49824E-01
 -1      2018-3.71310E-01-3.19004E-01-1.00503E-01-1.66327E-01 1.17023E-02 3.34836E-02
 -1      2019 4.39289E-01 3.33254E-01 6.16729E-02-1.50374E-01-3.62736E-01 7.30679E-01
 -1      2020 9.63431E-02 1.60856E-01 5.93790E-02-1.67729E-01-7.52559E-02-3.43019E-03
 -1      2021 1.38230E-01-1.49036E-01 7.70964E-02 6.06635E-02 7.73441E-02-5.76560E-03
 -1      2022-1.10303E-01 5.87761E-02-1.02358E-01 1.09973E-02-1.13453E-01 2.31083E-02
 -1      2023 2.61998E-01 1.05237E-01-1.30052E-01 5.86434E-02 4.40555E-01-8.57574E-02
 -1      2024-7.38432E-01-1.40888E-01 1.78311E-02-3.61222E-01 4.26184E-01-2.23023E-01
 -1      2025 1.24098E+00 6.99246E-01 1.93221E-01-1.39705E-02 2.52289E-02-1.11266E-01
 -1      2026 1.32849E+00 7.04313E-01 1.74826E-01-6.96767E-02-5.75707E-02 1.08322E-01
 -1      2027-2.54230E-01-2.94886E-01 5.29230E-01 1.62620E-01-2.43303E-01 1.21321E-01
 -1      2028-8.42270E-01-3.60870E-01 1.76794E-01 1.17408E-01 1.17919E-02 1.03162E+00
 -1      2029 1.88871E-01 8.74318E-03 2.74093E-01-1.16720E-01-4.55161E-01 5.74245E-01
 -1      2030-1.70499E-01 9.00294E-02-1.77031E-01 6.70085E-02-3.88562E-01 1.94760E-01
 -1      2031 3.90739E-02 4.97855E-01 1.35070E-01-2.01767E-01-3.27908E-01 2.35616E-01
 -1      2032-3.32002E-01-9.24229E-02 1.23753E-01-7.43190E-03-3.54954E-01 5.43792E-01
 -1      2033-8.46422E-02-1.06461E-01-3.51569E-02 8.41230E-02 9.18124E-02-2.33094E-02
 -1      2034 1.33610E+00 2.49742E-01 1.23158E-01 1.98250E-02 1.99008E-02-1.62759E-02
 -1      2035 8.50279E-01 2.53739E-01 1.40059E-01-2.93503E-01-2.23576E-01-1.70064E-02
 -1      2036 2.31291E-01 6.83617E-02 1.32569E-01-8.45324E-03-2.53246E-01 1.35287E-01
 -1      2037-3.19847E-01-1.33011E-01 9.26924E-02-1.88115E-01 1.45602E-01-6.87921E-02
 -1      2038 3.96474E-02-3.56276E-02-2.26166E-01 4.41938E-01-7.22261E-03-1.82799E-01
 -1      2039-5.46602E-01-3.76630E-01 5.77216E-02-2.37611E-01 2.11844E-02 1.66639E-03
 -1      2040 1.14990E+00 5.47935E-01 4.80532E-02-1.51082E-01 1.07989E-01 1.10353E-01
 -1      2041-4.22352E-01-1.89621E-01-1.69444E-01-9.74889E-02 2.73749E-01 4.05899E-02
 -1      2042-1.55644E+00-2.82546E-01 6.06260E-02-8.24785E-02-1.78949E-02-8.38429E-02
 -1      2043-9.37617E-01 4.60456E-02-1.72607E-01 2.01051E-01-5.59194E-03-9.72473E-02
 -1      2044 2.83297E-01 2.96984E-01 6.41241E-01-2.01599E-01 3.69778E-02 7.29922E-01
 -1      2045-1.40225E+00-4.88693E-01-1.26179E-01-1.49521E-01 3.56791E-02-5.69335E-02
 -1      2046-4.05778E-01-3.34824E-01 8.55863E-02 1.67979E-01-5.07475E-02 7.23934E-02
 -1      2047 9.87382E-05 5.64684E-03 8.97143E-02-9.93506E-02 2.58819E-02 1.23962E-01
 -1      2048-8.72935E-01-3.73666E-01-1.09110E-01-2.54525E-01-3.45514E-02-2.03059E-01
 -1      2049-1.46724E-01-1.99019E-01-1.18942E-01-3.73956E-02 4.10903E-01 5.55495E-01
 -1      2050-6.71854E-01-3.63785E-01 8.67663E-02 3.50194E-01-1.11944E-02 3.39864E-03
 -1      2051 1.09039E+00 2.23172E-01-1.96068E-01-3.75392E-01-1.62210E-01 6.70686E-01
 -1      2052 1.00660E+00 3.09201E-01-4.27913E-01-4.56516E-01-3.21200E-01 4.72898E-01
 -1      2053 2.46824E-01-2.56051E-02 1.74229E-02-8.11539E-02-4.70004E-01 7.47011E-01
 -1      2054-7.03639E-01-3.93518E-01-2.06214E-01-5.88986E-02 2.85451E-02 1.18197E-01
 -1      2055-1.47970E-01-1.86411E-01 1.75266E-01 5.07428E-02-3.83673E-01 3.04148E-01
 -1      2056 1.06271E+00 5.20613E-01-9.93161E-02-5.37705E-01-2.80265E-03 1.52442E-01
 -1      2057-1.24504E-02-1.56577E-03-1.16302E-01-3.11852E-01-8.12216E-02-3.47886E-01
 -1      2058-3.20993E-01-1.80570E-03-1.15300E-01-1.75512E-01 2.07336E-01-8.90942E-02
 -1      2059 1.21195E-01-1.20633E-01 1.86527E-01-1.84021E-02-3.39754E-01 2.39417E-01
 -1      2060 4.58710E-01 2.81148E-01 4.74823E-02 2.13399E-01-8.87067E-03-4.22822E-01
 -1      2061-4.76214E-01-1.97859E-01 7.71154E-02 2.72596E-01-4.29784E-01-4.01741E-01
 -1      2062-5.51900E-01-2.59617E-01 1.00784E-02-1.98434E-02 1.29743E-01 2.80661E-02
 -1      2063 7.21380E-01 4.29608E-01 2.97770E-02-3.20088E-01-8.20064E-02-2.27167E-02
 -1      2064 1.62006E-01-2.06242E-01-2.09549E-01-8.03292E-02-9.90743E-02 4.95120E-01
 -1      2065 2.71788E-01 9.40286E-02 2.09276E-02 8.31140E-02-4.19209E-01 2.16169E-01
 -1      2066-7.28409E-01-2.71892E-01-1.15971E-01 1.95668E-01-8.78265E-02 4.23883E-03
 -1      2067 1.04779E-01-5.83694E-01 1.09065E-01 1.35999E-01-3.14465E-01 2.07428E-01
 -1      2068-1.64020E-01-1.84185E-01 1.93214E-02 1.35047E-01-2.87791E-01 1.29583E-01
 -1      2069 1.29382E+00 4.94178E-01 2.05335E-01 2.47559E-02 1.08143E-01 4.59738E-02
 -1      2070-1.18044E+00-1.57916E-01-1.54052E-01-1.75047E-01 1.44263E-01-8.74840E-02
 -1      2071 9.45967E-01 4.67062E-01-1.47381E-02 1.36178E-01-1.84458E-01 1.85517E-01
 -1      2072 8.16209E-01 2.69940E-01 2.87839E-01-2.89922E-01 4.41417E-02-4.12687E-02
 -1      2073 3.47803E-01 1.03712E+00 4.74139E-01-2.97035E-01-6.40004E-01 2.71702E-01
 -1      2074 2.85485E-02 6.00322E-02 8.65101E-02-1.45674E-02-7.41070E-02 5.02386E-02
 -1      2075-1.09365E+00-2.70805E-01 3.44938E-01-4.75953E-02 8.14939E-01 5.97212E-01
 -1      2076-2.75714E-03 1.16279E-01 7.99653E-02-1.12581E-01 9.94727E-02 9.15005E-04
 -1      2077-4.86456E-01-1.62084E-01 8.71394E-04-3.65806E-01 2.00908E-02-1.15125E-01
 -1      2078 9.97469E-01 1.20121E-01 2.23211E-01-1.14343E-01-4.43041E-02-1.03509E-01
 -1      2079 8.22891E-02 9.88434E-02-1.77145E-03 5.57518E-03-7.28996E-02-1.37558E-01
 -1      2080-1.32052E+00-2.54525E-01-5.75329E-02-2.07600E-01 3.26232E-01-3.29320E-02
 -1      2081-2.97535E-01-3.63251E-01 1.00746E-01-9.69406E-03-3.66604E-02 2.16907E-01
 -1      2082-5.20602E-01-3.43476E-01-1.66029E-01-1.90339E-01 1.67455E-01 1.06568E-01
 -1      2083-1.02879E+00 1.47977E-02-7.20571E-02-1.27189E-01 5.54282E-03-7.66807E-02
 -1      2084-4.44068E-01-3.11914E-01-6.54695E-01 2.27282E-01-3.21709E-01 1.10521E+00
 -1      2085 3.31406E-01 2.38999E-01 2.45165E-01-8.34529E-02 2.21980E-01 5.52016E-01
 -1      2086 1.36522E-01 2.95156E-01 1.87219E-01-4.23417E-01 3.44410E-02-2.57546E-01
 -1      2087 5.50138E-02 5.80488E-01-2.45530E-02 1.48133E-01-1.03712E-01 1.27488E-01
 -1      2088 1.23334E+00 5.22603E-01-1.47558E-01-1.63530E-01 6.97763E-03-1.21039E-01
 -1      2089-1.32258E-01 1.19121E-01-4.49300E-02 8.93949E-03-1.05402E-01 7.59825E-02
 -1      2090-2.17683E-02 1.00934E-01 1.47354E-01-1.56743E-01 1.41283E-02-7.93776E-02
 -1      2091 2.19884E-02-3.95689E-02-6.08463E-02 3.23452E-01 5.49807E-02 1.07574E+00
 -1      2092-2.68199E-01-2.83914E-01-8.86868E-02 3.06657E-01 1.45018E-02-4.35947E-01
 -1      2093 3.31703E-01 2.21239E-01 2.54081E-02 8.40968E-02 1.54446E-01 3.19914E-01
 -1      2094 1.24233E-01-2.82366E-02-1.02270E-01 5.70777E-03-1.84364E-02 1.91900E-02
 -1      2095 9.04282E-02 3.47717E-02 3.27702E-03-1.69963E-01-1.21436E-01-9.78183E-02
 -1      2096 9.35865E-02 1.05849E-02 1.17893E-01-7.93214E-02-1.14740E-01-3.56897E-02
 -1      2097-4.60147E-02-1.18176E-01-2.97219E-02-9.94947E-02-2.14878E-01-9.58257E-02
 -1      2098 1.42741E+00 4.63042E-01 3.04022E-01-1.13573E-01 5.53110E-02-8.00391E-02
 -1      2099-9.63538E-01-2.37902E-01-2.36289E-01 1.58176E-01 4.45450E-02-2.67786E-02
 -1      2100 5.31823E-01 1.93931E-01 4.21700E-02 4.40261E-01 8.08460E-02-2.06059E-01
 -1      2101 1.34981E+00 5.42702E-01 1.05046E-01-1.28044E-01-8.21012E-02-8.14020E-02
 -1      2102-1.82917E-01-1.29942E-01 1.10371E-01-2.77280E-01-5.79719E-02-1.81409E-01
 -1      2103 6.76311E-01 1.91987E-01-5.49108E-02-2.91319E-01 5.92792E-02-1.75637E-01
 -1      2104 1.93378E-01-1.14516E-01 1.26227E-01-1.72685E-01-5.56676E-02-8.08940E-02
 -1      2105-1.26711E+00-5.31961E-01-2.07116E-01 6.55197E-04-7.91489E-02 1.40101E-02
 -1      2106 6.07388E-01 1.72349E-01-2.78100E-02-4.56547E-01-5.39836E-02-1.13373E-02
 -1      2107-2.96316E-02 4.92856E-02 3.44476E-02 9.77016E-02-4.66094E-02 2.67967E-04
 -1      2108-1.85425E-02 9.07042E-03 1.98866E-02-5.25809E-02-3.63855E-01 5.07752E-01
 -1      2109-1.47998E-01-7.74145E-02 5.61864E-02 1.19674E-01-4.62132E-02-2.15595E-02
 -1      2110-6.38806E-01-1.70906E-01 1.32492E-01 2.50763E-01 1.51231E-01 6.35116E-01
 -1      2111-1.69676E-02-2.46030E-01 1.24967E-01 1.80444E-02 4.71847E-01 5.45414E-02
 -1      2112-5.81088E-01-3.77613E-01-1.48493E-01-3.09832E-01-7.05671E-02-3.94988E-02
 -1      2113 2.48733E-01 6.87704E-02-5.38914E-02 1.12285E-01-3.07330E-01 2.70781E-01
 -1      2114 1.73987E-01 7.15108E-01 3.42214E-01 1.61392E-01 5.46711E-01 7.05205E-01
 -1      2115 1.22146E-01 4.12625E-01-1.11052E-02 2.16604E-01 5.73781E-02-1.12321E-02
 -1      2116 1.41496E+00 5.51420E-01-4.01678E-01-7.30334E-03 9.60194E-02 1.07317E-01
 -1      2117 2.19950E-01 4.64715E-01 6.10074E-01-1.31111E-01-4.38757E-01 8.56548E-02
 -1      2118-1.25126E-02 1.12735E-01-2.67405E-02 2.55546E-01-1.69079E-01 7.54735E-01
 -1      2119 1.24949E+00 3.02360E-01-1.51049E-01 7.45003E-02 1.59920E-01 3.04436E-01
 -1      2120 1.29499E-02 2.87629E-01 9.29078E-03-9.71675E-02 1.68213E-02 5.68029E-02
 -1      2121-5.48745E-02-6.12822E-02 1.16958E-03 1.39523E-01-4.18406E-01 4.45020E-01
 -1      2122 6.50308E-02-6.82135E-02 1.85442E-01 1.94521E-01 3.81571E-02-1.12475E-01
 -1      2123-1.79869E-01-2.81014E-01-7.60393E-02 1.54533E-01-3.16573E-01 5.30757E-01
 -1      2124-2.23617E-01-4.37872E-01 1.67665E-03-6.80567E-02 1.88639E-01 1.11967E-01
 -1      2125 1.59786E-01 7.99819E-02 8.21813E-03-1.22700E-01-7.17400E-03-1.15879E-01
 -1      2126 5.88226E-03 7.39722E-02-1.49088E-01-8.63259E-02 3.26750E-01 6.99751E-01
 -1      2127 6.03748E-01 4.97638E-01-4.11783E-02 1.14936E-02 2.74665E-01 4.70376E-01
 -1      2128 4.24694E-02 5.02995E-01-1.78678E-01 4.98030E-04-7.41474E-02 4.50936E-02
 -1      2129 1.41383E+00 4.19476E-01 5.57240E-02-7.61211E-02-7.21928E-02-2.11308E-01
 -1      2130-4.02696E-01 2.98548E-02-3.68521E-01-1.61160E-01-4.81887E-01 3.81707E-01
 -1      2131 5.05745E-03 2.71226E-01-4.03258E-02-2.22717E-01-3.26312E-01 4.15444E-01
 -1      2132-1.33411E-01-3.63062E-01-2.46465E-01-1.42594E-01-1.04710E-01 8.76918E-01
 -1      2133-7.37822E-01-4.01227E-01-5.21929E-01-2.37224E-02 6.88172E-02-2.72331E-01
 -1      2134-6.42246E-01-5.89961E-01-7.84957E-02-4.83583E-01 6.54806E-01 7.17916E-01
 -1      2135-5.05776E-01-2.55757E-01-1.25211E-01-3.01700E-01 4.78319E-01 6.80615E-01
 -1      2136-1.31294E-01-6.09833E-01-2.05184E-01 8.10950E-02 5.39995E-01 4.99697E-02
 -1      2137-1.04072E+00-5.27805E-01-3.58759E-01-2.05921E-01 1.84521E-01-8.53541E-02
 -1      2138 2.15378E-02 9.56381E-02-2.08298E-03 1.12905E-01 3.43271E-01 4.87290E-01
 -1      2139 3.49602E-01 3.29353E-02 2.97303E-02 5.37137E-02 4.23143E-03 7.85446E-01
 -1      2140-9.45527E-01-3.19308E-01-2.09546E-01 9.29655E-03-1.34663E-01-2.70838E-02
 -1      2141-2.40991E-01-1.68910E-02-9.37656E-02-1.04803E-01 3.14537E-01 2.26933E-01
 -1      2142 2.89572E-01 3.42578E-01 2.39558E-01 1.66424E-01 4.52612E-01 7.35558E-01
 -1      2143-3.66162E-02-8.61119E-02-3.29894E-02-1.90826E-01-4.99522E-02-1.45663E-01
 -1      2144-6.40087E-01-3.89192E-01-8.12564E-02-9.19870E-02 8.86024E-03 8.89153E-03
 -1      2145 7.37628E-02 2.15828E-01 6.12974E-02 4.10971E-02-2.87102E-01-5.52821E-02
 -1      2146-6.56495E-01-8.24058E-02 6.66975E-02 1.01563E-01 8.60983E-02 1.51905E-01
 -1      2147 5.19473E-02-1.74276E-01-1.82328E-01-2.43392E-01-1.58530E-01 5.54676E-01
 -1      2148-9.79821E-01-3.60886E-01-2.23571E-01-1.13035E-01-4.26588E-03 6.32060E-02
 -1      2149 4.96392E-01 3.07591E-01-2.49173E-01-2.93516E-01-2.93347E-01 5.64250E-01
 -1      2150 3.46863E-02-9.01226E-02 1.47635E-01-2.33741E-01 4.96204E-01 5.06610E-01
 -1      2151 1.81860E-01-1.25489E-01-9.56622E-02 2.89907E-02-2.36227E-01 1.31055E-01
 -1      2152-1.42981E-01-1.07158E-01-8.13859E-02 6.46207E-02-2.08743E-01 8.40775E-02
 -1      2153 1.05759E+00 3.16078E-01 6.12921E-02 2.19620E-01 5.63590E-01 9.63147E-01
 -1      2154 3.49215E-01 7.19740E-02-1.08066E-01-1.63906E-01-1.58550E-01-2.33988E-01
 -1      2155 2.72634E-02 2.61776E-03-7.10283E-03 3.25639E-01-1.48912E-01-5.94593E-01
 -1      2156-4.88987E-01-3.92948E-01 4.21372E-01 2.58559E-01-1.68536E-01 3.95414E-01
 -1      2157 1.18971E+00 5.51484E-01 3.63385E-01-1.61194E-02-6.43333E-02-3.04764E-02
 -1      2158 4.29198E-02 4.08287E-01 3.02664E-02 2.86549E-02 4.10569E-01 4.16439E-02
 -1      2159-1.92501E-02-1.87616E-01-5.53522E-02 2.56342E-02 2.07111E-01 6.61583E-01
 -1      2160 5.21335E-01 9.16067E-02 1.20786E-02-1.02026E-01-2.88730E-02 8.22418E-01
 -1      2161 1.17259E+00 9.29885E-01 3.96760E-01 6.79685E-02-6.46928E-02-6.44164E-01
 -1      2162-1.98210E-01-3.47582E-01-6.16837E-01 6.23197E-02-5.11412E-01 5.00054E-01
 -1      2163-2.39305E-02-1.43537E-01-5.74611E-02 4.86872E-02 2.04100E-02-6.38282E-03
 -1      2164 5.70128E-01-7.06258E-02 5.98298E-02-4.00243E-01-1.47390E-01-1.81680E-01
 -1      2165 1.62582E+00 6.36146E-01 1.45997E-01-6.58629E-02-1.32672E-01-1.27274E-01
 -1      2166-3.14483E-01-1.20947E-01-3.61457E-01 9.80641E-02-4.54006E-01 6.40150E-01
 -1      2167-2.83034E-01-2.03016E-01 4.83372E-02-2.53207E-01 4.12544E-01 4.49732E-01
 -1      2168-7.83572E-02 5.93450E-01 3.76103E-01 2.26466E-01 1.57729E-01 7.08947E-02
 -1      2169-7.41373E-02-8.47973E-02-7.66930E-02-1.27422E-01-1.30524E-02 5.13856E-02
 -1      2170-9.80689E-01-2.88697E-01 5.13848E-02-2.63150E-01 9.13121E-03-8.11437E-02
 -1      2171 4.75597E-01 4.32201E-01 3.61699E-01 1.79655E-01 4.44572E-01 5.68428E-01
 -1      2172 1.56813E+00 7.32014E-01 3.02432E-01-7.53240E-02-3.31185E-02-8.94730E-02
 -1      2173 1.58675E-01 1.39341E-01-6.04398E-02 1.15922E-01 3.04675E-02 3.31895E-02
 -1      2174-1.47187E-01-1.62426E-01-1.08926E-01-1.65539E-01 3.35523E-01 7.90002E-02
 -1      2175-7.41801E-01-2.97339E-01-1.19580E-02 7.76635E-04-1.37673E-01-3.85195E-01
 -1      2176-4.62395E-01-2.24191E-01-1.60380E-01 3.94352E-01 3.73868E-02-2.48657E-01
 -1      2177-1.42480E-01-1.75261E-01-9.51067E-03-1.32732E-01 3.41970E-01 7.04426E-01
 -1      2178 1.71245E-01 2.49658E-01 7.99736E-03 1.61513E-01 2.44310E-01 6.92185E-01
 -1      2179-4.73959E-01-1.91146E-01 1.68985E-01-2.08236E-01 9.14757E-02-3.33630E-01
 -1      2180 5.26358E-02 2.01110E-01 5.43521E-01-1.40379E-02 1.99477E-01 1.52099E-01
 -1      2181-1.20732E-01-3.26756E-02 6.62929E-02 1.33378E-01-2.98163E-01 1.11308E-01
 -1      2182 2.54257E-01-1.68076E-01 1.02092E-01-4.98745E-02-2.45945E-01 3.26422E-01
 -1      2183 1.09129E+00 5.93723E-01 1.19522E-01-7.79563E-02-2.04004E-02-3.81176E-01
 -1      2184-4.92205E-01-1.95021E-01 1.36359E-01-4.28967E-01 1.28568E-01-2.93097E-01
 -1      2185 4.19487E-01 7.98397E-01 1.59064E-01 1.98258E-01 5.13871E-01 5.27799E-01
 -1      2186 4.87757E-01 2.08078E-01 3.73856E-01-1.64188E-01-3.30607E-01 7.80450E-01
 -1      2187-1.17571E-01-2.29746E-01-1.69706E-01-1.96630E-01 4.54386E-01 6.78010E-01
 -1      2188 6.28158E-02 2.68633E-03-2.46079E-02 7.01017E-02 1.14063E-01 2.76447E-02
 -1      2189-1.01008E+00-1.93058E-01-4.17297E-02-7.21069E-02-5.81108E-03 7.14884E-01
 -1      2190 3.38714E-01 2.58767E-01 5.50971E-02-2.87132E-01-5.44024E-02-3.61096E-02
 -1      2191 1.14614E-01 3.42318E-01 1.78020E-01 6.44407E-02 3.35884E-01 3.61177E-01
 -1      2192-1.18283E-01-2.52553E-01 7.90011E-02 7.73643E-03 8.32892E-02 3.77660E-03
 -1      2193-9.87677E-01-4.63715E-01-1.99767E-01 1.31835E-01-1.36217E-01-1.39474E-01
 -1      2194 2.40120E-02 3.15450E-01-2.58651E-02 6.64593E-02 2.00139E-01 3.12646E-02
 -1      2195 1.24940E+00 4.72094E-01 1.79802E-01 2.71543E-02 8.64114E-02-1.68297E-02
 -1      2196 7.35046E-02-9.31133E-02 2.51987E-01-2.13139E-01 4.22395E-02 1.49184E-02
 -1      2197 3.55080E-01 2.46380E-01 4.89283E-02 4.06175E-01-6.10836E-02-7.62436E-02
 -1      2198-8.87624E-02-1.50627E-01-2.43485E-03-1.17734E-01-3.33901E-01 3.98188E-01
 -1      2199 7.50636E-02-2.81493E-01 1.83666E-01 4.82539E-02-2.83679E-01 1.64125E-01
 -1      2200-6.08380E-01-1.68414E-01-9.28011E-02-4.57047E-01 2.06714E-02-1.22168E-01
 -1      2201 1.16306E+00 1.33640E-01-1.77800E-01-1.77200E-01 1.37911E-03 1.03373E-01
 -1      2202 7.24451E-02 2.98901E-01 3.60057E-01 5.02435E-02 4.04041E-01 4.55608E-01
 -1      2203 8.61053E-01 1.75058E-01-2.25976E-01-2.80173E-01-4.36200E-01-2.97196E-01
 -1      2204-4.00695E-02 4.24561E-02-7.63961E-02 5.13673E-03-2.81759E-02-4.61513E-01
 -1      2205 3.11828E-01 2.58848E-01 1.24047E-01-3.97070E-01 5.77036E-02 1.11434E-02
 -1      2206-5.58172E-01-2.83737E-01-1.78404E-01 1.11115E-02-2.83055E-01 3.07222E-01
 -1      2207-1.38151E+00-6.04083E-01-2.36368E-01-1.01981E-01 5.72106E-03-1.43888E-01
 -1      2208-3.57373E-02-4.84358E-02-2.98541E-02-2.48222E-01-9.53379E-02-9.93337E-02
 -1      2209 1.52696E+00 5.90103E-01 1.63863E-01 1.51564E-01 4.56651E-02-1.41598E-01
 -1      2210-5.11181E-01-2.08754E-01-2.43163E-01-3.43870E-01 5.67711E-02-2.14629E-01
 -1      2211-2.27949E-01-1.46277E-01-2.35497E-01-1.71612E-02 3.54460E-01 9.13757E-01
 -1      2212 3.68347E-02 2.68467E-01 9.93991E-03-8.91116E-02-1.90457E-01 7.00721E-01
 -1      2213-6.59790E-01-5.13052E-01-2.03869E-01 1.88763E-01-3.94050E-02 6.05645E-02
 -1      2214-1.30992E-01 1.00676E-01 6.64080E-02-3.49355E-04-3.71325E-03-9.12268E-02
 -1      2215 1.45116E-01 6.59366E-02 6.83851E-03-1.72077E-01 2.55807E-02-1.52328E-01
 -1      2216 1.56385E+00 7.59712E-01 2.98399E-01 1.00671E-01 1.22324E-01-1.64968E-02
 -1      2217 2.07679E-02-1.05652E-01 2.64226E-01 8.31688E-02 1.32818E-01 4.06090E-02
 -1      2218-1.77836E-02-2.31341E-02 2.51664E-02 3.97449E-01-1.58179E-03-2.25444E-01
 -1      2219 5.06262E-02 1.32751E-02-1.56438E-02-1.68754E-02 9.45617E-02 3.91244E-02
 -1      2220-2.24146E-03 3.13317E-01 8.76260E-01-1.38689E-02-3.54634E-01 8.30004E-01
 -1      2221 2.66698E-01 6.47847E-01-4.04638E-02-1.90902E-01-3.69732E-01 3.69475E-01
 -1      2222-5.75022E-02-2.13533E-01-5.27243E-02 9.01456E-02 1.51622E-01 3.96934E-02
 -1      2223-1.55690E-01-2.96058E-01-1.53435E-01 1.42844E-02-2.90289E-01 3.16591E-01
 -1      2224 2.73456E-01-7.03582E-02 1.99601E-01-1.90418E-01-3.70036E-01 1.51690E-01
 -1      2225 1.07106E+00 3.12099E-01 1.39900E-01 9.05363E-03 1.78006E-01-5.16159E-04
 -1      2226 8.76797E-02 3.23094E-02 1.32759E-01 3.33224E-01-8.38351E-02-1.06761E-01
 -1      2227-1.62602E-01-5.68868E-01 1.61791E-02-1.54144E-01 3.10014E-01 2.04800E-01
 -1      2228 2.37394E-01-3.58516E-01-8.63450E-02-1.44985E-01 2.37426E-01 3.95640E-01
 -1      2229-6.47780E-02 6.41384E-02-1.03495E-02 3.93403E-02-2.01556E-01 8.95055E-02
 -1      2230 2.90125E-01 3.11030E-01 1.26142E-01-1.93832E-01-1.30288E-01 1.04066E-01
 -1      2231 9.12933E-02-4.78410E-02-2.40783E-02 2.80723E-02 5.84041E-02 7.05248E-02
 -1      2232-6.28995E-02 1.40386E-01 1.52448E-01-1.93980E-02-2.99493E-01 1.98470E-01
 -1      2233-5.35270E-01-1.78127E-01-1.43229E-01-1.13282E-01-3.01357E-01 4.70775E-02
 -1      2234 1.43892E-01 1.60806E-01-1.34310E-01 2.63514E-01 4.26105E-01 1.87512E-02
 -1      2235-1.04602E+00-5.42763E-01-2.54998E-01 9.53848E-02 2.04425E-02-1.58012E-02
 -1      2236-9.57443E-01-4.77010E-01-2.58309E-01 7.34565E-03-1.27061E-02-4.79001E-02
 -1      2237 6.89777E-01-2.27175E-01 1.64601E-01-1.29233E-01-2.67192E-01 8.11961E-01
 -1      2238 3.51122E-01 1.84854E-01-5.15842E-02 1.49859E-01 2.89578E-01 3.13835E-01
 -1      2239-3.14721E-01-2.16911E-02 5.03441E-02-2.96157E-01 8.89382E-02-2.32294E-01
 -1      2240-9.22809E-01-4.49360E-01-2.34189E-01-1.01101E-01 9.83384E-02-6.12027E-02
 -1      2241-1.29026E-01 8.17792E-02-1.58650E-01-6.83468E-02 3.42730E-01 1.72158E-01
 -1      2242-4.43516E-01 2.09475E-01 1.44510E-01-4.08283E-02-2.45826E-01 1.65795E-01
 -1      2243-7.55104E-01-4.08516E-01-3.24274E-01-2.41028E-01 7.72800E-01 3.79472E-01
 -1      2244 2.20299E-01-4.48906E-01 1.77763E-01-7.01204E-02-2.78790E-01 1.41913E-01
 -1      2245-6.61966E-03-4.71414E-02 2.56074E-02-8.58983E-02 6.21936E-02 2.96032E-02
 -1      2246-5.00202E-03 1.96266E-01-1.26811E-01 1.09404E-01 3.26312E-01 2.83615E-01
 -1      2247-3.57000E-01 1.00579E-01 4.25074E-02 4.97644E-01 4.59844E-03-1.99795E-01
 -1      2248 7.14969E-01 1.52784E-01-7.17428E-02-2.48922E-01-1.74859E-01-2.35258E-01
 -1      2249-1.25911E-01-9.00503E-02-3.04819E-02-3.12368E-02-3.19822E-02-5.32050E-01
 -1      2250-9.57679E-02-1.48931E-02 1.15636E-02-4.07893E-01-1.08851E-01-7.54762E-01
 -1      2251-6.11343E-02 2.33717E-03 8.00934E-03-1.11822E-01-8.59146E-02-5.30146E-02
 -1      2252-4.26762E-03 1.31160E-01-5.69860E-02 5.27367E-02 4.18590E-01 3.47096E-01
 -1      2253-8.04575E-02 8.23631E-02-3.92092E-02 4.21449E-02-8.94822E-02 4.34136E-02
 -1      2254-3.84601E-01-2.00922E-01-1.47358E-02 2.38163E-01 1.01797E-01 7.43375E-01
 -1      2255 7.49338E-01 1.40380E-01 2.04879E-01-2.41650E-01-7.47480E-02-1.60327E-01
 -1      2256-4.39834E-01-1.45783E-01 1.25367E-01 1.03168E-01 1.87998E-01 6.04421E-01
 -1      2257-2.03120E-01-1.75557E-01-5.97891E-02-5.54240E-02-1.38628E-03-5.09204E-01
 -1      2258 3.72212E-02 5.85744E-02-3.76427E-02 3.00335E-02 5.29144E-02-4.12308E-01
 -1      2259-4.59040E-02-1.10059E-02-1.96105E-01 3.13527E-02-5.25758E-02 5.50069E-02
 -1      2260-1.24212E+00-4.04401E-01-1.57849E-01-2.84328E-01 2.94069E-02 7.75242E-02
 -1      2261 1.19914E+00 4.57004E-01 9.06855E-01 5.70508E-01 6.28410E-01 1.13495E+00
 -1      2262-9.45031E-01-4.55227E-01-2.11553E-01-2.21602E-01-2.88066E-02-6.10340E-02
 -1      2263-9.49344E-02-2.30406E-01-6.66917E-02 2.53844E-03-2.11810E-01 1.21464E-01
 -1      2264 3.10217E-01 3.54284E-01-5.60044E-03-2.32019E-01-3.83173E-01 5.76893E-01
 -1      2265-4.74732E-02-8.37728E-02 3.11352E-02-7.29302E-02-4.93166E-02 4.31669E-03
 -1      2266 2.60174E-01 7.54690E-01-1.07927E-01-3.31392E-01-3.59332E-01 5.27553E-01
 -1      2267 5.48832E-02-1.85575E-01 1.22566E-01 1.04076E-01 1.63821E-01 1.02353E-02
 -1      2268-5.12692E-01-4.79526E-02 1.39245E-02 9.67408E-02-2.34069E-01 6.04796E-01
 -1      2269 1.02692E+00 6.47556E-01 1.74242E-01-2.68565E-01 6.85571E-02-9.37077E-02
 -1      2270-4.56170E-02 2.12058E-02-1.34745E-01-2.45586E-01 2.75286E-02 7.45654E-01
 -1      2271 1.20749E-01-1.66935E-01-1.02346E-01-1.49322E-01 2.42063E-01 3.94763E-01
 -1      2272 2.96663E-01 8.29539E-02-1.58446E-01-1.13298E-01-2.28595E-01 7.48899E-01
 -1      2273 4.86380E-02-2.20155E-01 4.56430E-02 4.05060E-02-3.80553E-01-1.10013E-01
 -1      2274-1.80879E-01-2.23650E-02 1.30027E-02 2.18183E-01-3.08349E-02-7.25418E-02
 -1      2275-3.35770E-01-7.77277E-02-5.26190E-02-4.37861E-01 1.43025E-01-4.10950E-01
 -1      2276-1.60589E-01-1.92515E-01-5.59503E-02 2.10700E-01 8.93482E-03 2.39585E-02
 -1      2277-5.18572E-02 5.47288E-01 1.40225E-01 7.13994E-02-5.47543E-02 6.88450E-01
 -1      2278-1.33565E+00-5.34906E-01-1.85085E-01 4.76637E-02-1.15520E-01 1.04830E-01
 -1      2279 4.33724E-01 1.86700E-01-1.96928E-02 2.24209E-02 2.73111E-01 1.06301E-01
 -1      2280 1.23427E-01 2.74441E-01 4.09336E-01-5.60395E-02 6.38312E-02 3.64357E-01
 -1      2281-1.60992E+00-6.46273E-01-1.24667E-01-1.10739E-01 7.89766E-02-6.33124E-02
 -1      2282 4.24384E-01-7.93347E-02-2.93862E-02 4.55525E-01 1.09024E-01-8.71951E-02
 -1      2283 2.01234E-01 1.29421E-01-4.62076E-02-2.00993E-01 8.44089E-02-1.90309E-02
 -1      2284-1.10518E+00-4.48509E-01-2.88584E-01 1.13150E-01 7.96176E-02 6.69208E-02
 -1      2285-9.86582E-03-1.27233E-01 5.87318E-03-9.83286E-02 1.81811E-01 1.31854E-01
 -1      2286-4.18905E-01-5.67028E-01-1.15847E-01-2.20766E-01 3.12104E-01 3.82404E-01
 -1      2287 2.55797E-02-1.29753E-01-1.17028E-01 6.54011E-02 2.37414E-01 4.82244E-01
 -1      2288-7.04613E-01-4.38129E-01 3.47349E-02-3.81247E-01-5.51187E-02-2.42269E-02
 -1      2289-6.69318E-02-8.49427E-02-3.49169E-02-6.44776E-02 7.49241E-02 2.30517E-03
 -1      2290-6.40873E-02-3.95643E-01 9.16108E-04-5.38010E-02-3.92854E-02-8.87968E-03
 -1      2291-1.28781E+00-3.47666E-01-1.60553E-01-1.30463E-02-9.84868E-02-2.96406E-02
 -1      2292-4.98969E-02-3.03912E-01-3.19445E-01 8.76854E-02-1.34363E-02 5.09645E-01
 -1      2293 4.58095E-01 2.01538E-01 8.38250E-02-3.45593E-01-4.13104E-02-9.98156E-02
 -1      2294 2.07317E-01 1.31296E-01 2.38022E-02 8.30829E-02 5.42928E-02-4.32833E-01
 -1      2295-3.90580E-02 2.76765E-01 3.31695E-02-8.34642E-02 2.23124E-01-1.67196E-02
 -1      2296-1.70322E-01-2.20111E-01-1.75345E-01-7.35666E-02 1.20389E-01 7.02780E-02
 -1      2297-1.78095E-02 8.36077E-02-6.47622E-02 8.93042E-02 1.77386E-01 1.69849E-01
 -1      2298-9.69520E-01-1.52633E-01-1.77260E-01-4.65783E-02 7.65640E-02 7.03766E-02
 -1      2299-1.01116E-01-4.67356E-02-1.66975E-01 4.09298E-02-3.16389E-01 2.41639E-03
 -1      2300-1.23512E-01-2.23141E-01-1.46961E-01 1.17810E-01-2.10212E-01 3.55176E-01
 -1      2301-2.38072E+00-1.15889E+00 1.54911E-01-3.14035E-01 2.11766E-01-2.93754E-02
 -1      2302-6.61961E-01-4.72335E-01-4.82877E-02 2.08830E-01-5.36545E-02-1.97914E-01
 -1      2303 1.05543E+00 5.23992E-02-9.46526E-01-1.45833E-01-2.54651E-01 6.85739E-01
 -1      2304 8.25713E-02 2.09160E-02 1.27795E-01-1.19294E-01 2.35164E-01 2.71680E-01
 -1      2305 2.02862E-01 8.55354E-02 8.32161E-02 2.30959E-01 7.25498E-02 1.46664E-02
 -1      2306-3.40237E-01 2.76758E-01 1.83067E-01-1.39136E-01-7.76088E-02 2.11169E-02
 -1      2307-4.00873E-01-2.66447E-01-5.94470E-02-4.01776E-01-2.39065E-02 4.22011E-02
 -1      2308-1.96161E-01-2.04692E-02-4.85121E-02-3.86478E-02 2.16312E-01 8.66835E-01
 -1      2309 1.19988E-01-3.55238E-01-1.06826E-01-2.63656E-02-3.98567E-02 8.02078E-01
 -1      2310-1.38493E+00-4.42445E-01-1.38726E-01 1.47359E-01 2.82022E-02-7.26851E-02
 -1      2311 3.15097E-01-1.04208E-01 1.64997E-01-3.19461E-02-2.37731E-01 1.21680E-01
 -1      2312-4.20624E-01 9.94019E-03 5.80639E-02-1.58644E-01 1.90488E-01-1.93347E-01
 -1      2313 1.67493E-01 4.82130E-01-8.32868E-02 3.73744E-02 2.84193E-01 3.14410E-01
 -1      2314-2.65465E-01-2.78881E-01-7.00383E-02-1.07375E-01 1.05941E-01 1.18762E-01
 -1      2315-1.79096E-04 8.98100E-03-4.14438E-02 8.16020E-02-1.05049E-01 5.09974E-02
 -1      2316 1.02068E+00 3.28021E-01 1.52604E-01-3.85704E-01-3.30031E-02-2.02231E-02
 -1      2317-2.49143E-01-2.29372E-02 4.66587E-01-1.28040E-01-2.04757E-01 1.16316E+00
 -1      2318 3.58646E-01 2.91165E-01 2.64379E-02 1.12796E-01-1.96998E-02-4.27586E-01
 -1      2319 1.00027E-01 3.30077E-02 8.12478E-03 5.79449E-02 2.76324E-03-5.05210E-01
 -1      2320 1.10424E-01-6.80278E-02 2.46392E-01 1.99168E-01 3.15862E-01 5.06521E-01
 -1      2321-7.73611E-02 4.10828E-02 1.25362E-01-1.44983E-02 1.24545E-01 8.64033E-01
 -1      2322-1.02221E-01 2.11280E-01-1.93303E-01-4.98238E-02 2.03059E-01 5.73990E-01
 -1      2323 8.49263E-02 3.32694E-01 7.15356E-02-1.00408E-01-4.99853E-01 2.93457E-01
 -1      2324-1.67645E-01-6.32280E-02-2.31524E-01-4.71849E-02-2.27992E-01 2.97317E-01
 -1      2325 5.66237E-01 3.68859E-01-1.11373E-02-2.40115E-01 1.74983E-02 9.98184E-03
 -1      2326-2.67478E-01-9.88841E-02-9.12657E-03 5.94599E-01-8.59161E-02-2.70063E-01
 -1      2327-1.00438E-01-2.03122E-01-9.38504E-02 5.19610E-02 1.37951E-01 3.73175E-02
 -1      2328-5.86539E-01-3.02322E-01-1.47709E-01-6.39732E-01 1.13857E-01-4.94394E-01
 -1      2329-5.77209E-02-3.81105E-02-2.43400E-01-1.88950E-02-1.47988E-01 2.07751E-02
 -1      2330 6.50880E-02 4.16943E-02 4.99261E-02 3.86421E-02-2.67791E-01-4.19272E-02
 -1      2331 1.26017E-01 2.32431E-01 2.31214E-01 1.74242E-02 3.13989E-02 3.56893E-02
 -1      2332-1.86194E-01 4.33261E-03-6.42643E-02-1.35828E-01 9.18915E-02 4.14242E-02
 -1      2333-2.62253E-01-1.09576E-01 2.58440E-02-7.16885E-03-4.71134E-02-2.11699E-02
 -1      2334 4.12647E-01-7.68137E-02 2.78981E-01 3.78501E-02-8.49006E-02-2.53953E-02
 -1      2335-5.88352E-02-1.50311E-01-4.95609E-02-7.69833E-02 5.53996E-01 1.05320E-01
 -1      2336 5.24593E-01 3.52872E-01 6.76215E-02-2.79853E-01 4.22953E-03 1.47545E-01
 -1      2337-1.85280E-01 5.31608E-02 1.04405E-01 9.06606E-02 3.65270E-01 2.58875E-01
 -1      2338 1.56871E-01-7.64736E-02-1.91272E-02-1.66932E-02-3.08936E-01 2.11088E-02
 -1      2339-3.22183E-01-3.35613E-01-1.26496E+00-5.44659E-02-1.28343E-01 5.23753E-01
 -1      2340-6.06819E-02-8.24624E-02-1.22996E-01-3.18093E-01 2.24644E-03-8.37353E-02
 -1      2341 1.58355E-01 1.08531E-01 4.72310E-02 7.40118E-02 4.67876E-04-4.10120E-02
 -1      2342-1.73298E+00-4.92773E-01-2.62595E-02-1.87526E-01 2.51202E-01 1.31376E-01
 -1      2343 1.15723E+00 7.22627E-01 4.22343E-01 1.23227E-01-1.45530E-01-8.90773E-02
 -1      2344 2.74294E-01-9.59570E-02 2.01406E-01-2.72856E-01-6.22373E-02 4.30274E-02
 -1      2345-1.14025E+00-8.61958E-01-4.32858E-01 6.75470E-01 2.78557E-01 1.25224E+00
 -1      2346 4.40730E-01 3.92128E-01 6.65361E-02 6.07967E-03 6.56283E-02 4.39090E-01
 -1      2347 1.56993E+00 4.62979E-01 6.97584E-02-8.71182E-02 8.87741E-02-1.81984E-01
 -1      2348 1.44844E-01-3.30618E-01-8.48141E-04-1.28996E-01-3.68468E-01 2.17216E-01
 -1      2349-3.84912E-02 7.73063E-02 3.26967E-02 4.60988E-02 4.36417E-01 1.69255E-01
 -1      2350-2.41540E-01-1.23561E-01-1.41274E-01 3.79255E-02-2.77521E-01 4.85226E-01
 -1      2351 7.55898E-01 3.22649E-01-3.65456E-02 3.27055E-01 7.03855E-02-8.41886E-02
 -1      2352-3.26229E-03-4.23261E-02 5.13496E-02 3.26738E-02 2.73174E-02-4.92677E-01
 -1      2353 1.75337E-01-1.53128E-01 6.06237E-02 1.03775E-01 5.42198E-02 5.44780E-02
 -1      2354 3.55436E-01 4.88625E-01 2.82612E-01-2.33223E-01-7.78990E-02 1.15737E-01
 -1      2355-9.65126E-01-6.22191E-01-2.65738E-01-2.31655E-01 5.73496E-02-2.30300E-01
 -1      2356 8.29027E-02-8.09034E-02 1.08928E-01 5.10228E-01 1.18366E-01-1.09399E-01
 -1      2357-6.85582E-01-2.55811E-01-1.51892E-01-1.93056E-01-1.06514E-01 3.13430E-01
 -1      2358-8.65072E-01-1.20702E-01 2.24126E-01 1.71745E-01-4.57248E-01-9.48547E-02
 -1      2359 2.14600E-01 5.02234E-01 2.40764E-01-1.43175E-01-4.90403E-01 2.82149E-01
 -1      2360-9.59288E-02-6.31023E-02 8.68551E-02 2.83198E-02-2.42825E-01 1.49701E-01
 -1      2361 5.39273E-01 3.07379E-01 1.00583E-01-4.32502E-01-1.17807E-01-1.70413E-01
 -1      2362-9.15545E-01-6.44366E-01-1.90829E-01 2.08658E-01-1.03321E-01-3.29778E-02
 -1      2363-1.37257E-01-2.61992E-01-3.63425E-02 8.93239E-02 7.03810E-03-9.97660E-02
 -1      2364-6.14329E-01-1.00202E-02 8.38950E-02 5.08499E-01-1.10860E-01-1.96045E-01
 -1      2365-4.57707E-02-1.82663E-01-8.15627E-02 5.36628E-01-2.55193E-02-9.97927E-02
 -1      2366 3.59849E-01-5.85958E-02 1.47281E-01 1.80700E-02-2.44679E-02-8.27144E-02
 -1      2367 2.28388E-01 7.25029E-02-1.29021E-01 4.01632E-02 3.75982E-01 5.12651E-01
 -1      2368 1.22573E+00 6.83723E-01 1.17444E-01-3.35771E-01-4.47976E-02-8.46494E-02
 -1      2369-9.43520E-01-1.08732E-01-3.39293E-02-2.67057E-01 7.42804E-01 8.99502E-01
 -1      2370 9.95612E-02-9.25097E-03 3.50410E-02-1.06745E-01 4.01252E-01 2.44806E-01
 -1      2371 2.21890E-01-7.02499E-02 5.79194E-03-4.20791E-02-7.48659E-02 3.63826E-02
 -1      2372 1.09159E+00 4.92058E-01 2.28393E-01-1.55686E-01-2.77371E-02 3.98157E-02
 -1      2373 9.04910E-01 5.57867E-01 1.34741E-01 1.06265E-01 5.68233E-02 2.08566E-01
 -1      2374 5.06354E-01 1.37952E-01-6.74574E-02 3.81921E-01 8.58564E-02-1.18495E-01
 -1      2375 7.56575E-03-2.01705E-01-3.06883E-01-1.80503E-01 1.47925E-02 5.94222E-01
 -1      2376-1.11703E-01-1.30258E-01-2.34196E-02-3.78086E-02 3.23972E-01 4.33906E-01
 -1      2377-1.65557E-01 1.42417E-02 3.43764E-03 1.47958E-01 2.25770E-01 4.05671E-01
 -1      2378 7.89736E-01 4.04910E-01 3.33527E-01-2.77006E-01 2.66855E-03-2.00218E-01
 -1      2379 2.36768E-01 3.55547E-01 9.06633E-02-1.78378E-01-3.45256E-01 6.45150E-02
 -1      2380 6.86897E-01 1.60165E-01-2.75515E-03 4.22494E-01 4.68569E-01-2.84935E-01
 -1      2381 3.94093E-01 8.15321E-02-1.68861E-01-1.12035E-01-2.55845E-01 1.59833E-01
 -1      2382-1.80134E-02 2.52328E-02 5.37839E-03-1.07334E-02 4.30145E-01 1.25698E-01
 -1      2383-1.26839E-01-3.97397E-02 4.13660E-02-1.15868E-01 1.76923E-01 1.04994E-02
 -1      2384 6.37076E-02 5.32012E-01-4.27988E-01 1.67443E-01 3.46508E-01 2.84360E-01
 -1      2385 1.40897E-01 3.38079E-01 2.78647E-01 5.48875E-02 4.18038E-01 3.21800E-01
 -1      2386-1.06468E-01-2.75445E-02-2.92029E-01 1.15129E-02 2.38113E-01 6.40525E-01
 -1      2387-5.77292E-01-2.45402E-01-8.07682E-02 9.13134E-02 1.41897E-01-4.92349E-01
 -1      2388 9.75742E-01 3.19820E-01-3.78145E-02 3.05730E-01-6.56194E-02 1.35865E-01
 -1      2389 2.31829E-01 1.82319E-01 9.36451E-02-4.39556E-01 8.29314E-02 4.31775E-02
 -1      2390-5.85851E-01-2.77830E-01-6.20820E-02-1.30407E-01 1.08341E-01 1.09930E-01
 -1      2391-3.37409E-01 1.25265E-01-3.60651E-01 1.50973E-01-1.47282E-01 8.76068E-01
 -1      2392-3.11487E-01-1.40668E-01 5.42124E-02-2.09224E-01 1.49797E-01-1.07292E-01
 -1      2393 3.30217E-01-5.70537E-02 1.71199E-02 8.69860E-02 4.62841E-01 6.20224E-02
 -1      2394-2.55858E-01-1.47371E-01-1.35690E-02-1.34803E-01 3.79011E-01 7.61000E-01
 -1      2395-2.03704E-01 1.79956E-02 1.12586E-01 3.54200E-02 4.13205E-01 1.64711E-01
 -1      2396-1.37282E+00-5.30549E-01-2.03528E-01-7.72474E-03 1.32096E-01-4.86190E-04
 -1      2397-1.67218E-01-8.88537E-02 9.99046E-02-1.43773E-02 1.85061E-01 5.03572E-02
 -1      2398 8.06068E-01 3.92162E-01 3.09117E-01-1.18161E-01-9.55910E-02-1.24138E-01
 -1      2399 3.75353E-02-1.01665E-02 1.57353E-01-2.07068E-02 5.23696E-02-1.56006E-01
 -1      2400-1.00291E+00-4.20574E-01-1.60302E-01-1.74546E-01 8.12166E-02-8.86165E-02
 -1      2401-6.93621E-02-1.18174E-01-4.06079E-01-4.90757E-03 3.05275E-01 1.84823E-01
 -1      2402-4.06270E-01-2.14430E-01 3.02074E-02-3.54700E-01 6.90237E-02-2.96954E-01
 -1      2403-7.65713E-01-4.25284E-01-1.45902E-01 2.99238E-01-2.17715E-02 4.79242E-02
 -1      2404 6.49131E-01 3.05854E-01-1.17672E-01 1.45664E-01 2.89844E-01 2.61580E-01
 -1      2405 6.03439E-01 5.14220E-01 1.19095E-02 7.86116E-01 2.66886E-02-5.75402E-01
 -1      2406-3.88020E-01-3.09650E-01 1.61803E-01 2.93276E-01 9.95817E-02-1.57314E-01
 -1      2407-2.82937E-01-1.64886E-01 7.55406E-02 1.65354E-01-4.79601E-01 1.17721E-01
 -1      2408 8.01194E-01 4.10252E-01 2.06588E-02-2.87411E-01-9.33089E-03 2.94401E-02
 -1      2409 1.21776E-01 3.39308E-01-5.97926E-02 5.11001E-01 1.51149E-01-2.72590E-02
 -1      2410 1.56709E-01 8.52749E-03 6.32069E-02-6.41616E-02-2.93927E-01 1.28039E-01
 -1      2411-9.36349E-02 1.06677E-01 4.52753E-02-1.55925E-01-4.54624E-01 1.45001E-01
 -1      2412-3.83809E-03-8.91393E-03 3.95023E-02 2.58074E-01-2.73665E-02-2.11239E-01
 -1      2413-8.16260E-01-3.76940E-01-4.23075E-02 3.83144E-01-6.92589E-02 3.31102E-02
 -1      2414 1.02865E+00 5.62666E-01-9.78928E-02-3.26031E-01-9.02012E-02-1.84522E-01
 -1      2415-2.06641E-01-3.58150E-01-1.62763E-01 3.29278E-01 5.65654E-02 8.95241E-02
 -1      2416 7.27638E-01 4.11482E-01-3.73590E-03-2.92549E-01 1.07285E-01-9.66667E-02
 -1      2417-7.05254E-01-5.15393E-01-4.02340E-01-3.27875E-01-1.68562E-01 4.41741E-01
 -1      2418 1.65750E-01 1.71247E-01-2.54754E-02-1.09932E-01 2.63515E-01 2.27953E-01
 -1      2419-4.33847E-01-2.75887E-01-1.09484E-01 8.85385E-02 4.01720E-02 2.96599E-02
 -1      2420 1.62662E+00 5.13434E-01 1.10616E-01-1.00174E-01-4.92714E-02 8.61807E-02
 -1      2421-6.93547E-01-1.39736E-01 6.19157E-02 3.43140E-02 2.84067E-01 2.12250E-01
 -1      2422-7.07879E-01-2.44149E-01 2.31040E-01-3.08371E-01 2.62527E-02-2.07278E-01
 -1      2423-9.32526E-01-3.05524E-01-1.36457E-01-2.29138E-01 9.75739E-02-1.55066E-01
 -1      2424 1.05647E+00 2.70756E-01 2.04317E-01 4.22953E-02 6.07827E-02 4.58511E-02
 -1      2425 1.06728E+00 3.39300E-01 6.63681E-02 1.99540E-01 2.94491E-02-1.00648E-01
 -1      2426-6.95565E-02-9.32215E-02 8.66537E-02-1.17847E-01 5.74677E-01 3.93112E-01
 -1      2427-2.28660E-02-3.49009E-03 5.72470E-02-5.22216E-02 2.57238E-02 1.53848E-02
 -1      2428-4.37143E-02-6.26617E-02-6.81299E-03 7.56870E-02-1.19797E-03 7.38442E-03
 -1      2429-3.59981E-01-1.94178E-01 9.22599E-02-3.34059E-01-2.75933E-02-1.11540E-01
 -1      2430-5.25328E-01-2.26136E-01 4.81646E-03 2.29231E-01 7.97927E-02-3.85170E-01
 -1      2431-4.83515E-01-4.29278E-01-1.05273E-01 1.09428E-01-4.43480E-02 9.13562E-02
 -1      2432-1.38925E+00-3.47521E-01-2.10549E-01 1.21205E-01-1.65014E-03-1.84683E-01
 -1      2433-1.24991E+00-4.42593E-01 2.41684E-02-2.22747E-01-8.11516E-02-1.19817E-01
 -1      2434-2.44540E-01 3.88127E-02-6.12674E-02-1.11638E-02-3.09660E-02 5.29536E-02
 -1      2435-8.73727E-01-4.89358E-01-1.62044E-01-2.34251E-01-3.40515E-02-8.19970E-02
 -1      2436 4.38565E-01 1.91606E-01 2.16403E-01-4.10735E-02-5.67221E-02-5.39484E-01
 -1      2437 1.36891E-01-2.46400E-02 1.70790E-01-2.54201E-02 2.79246E-01 1.11267E-01
 -1      2438 9.47884E-01 4.54549E-01-1.84957E-01-8.80786E-02-1.70511E-01-2.14298E-01
 -1      2439-5.09853E-02 1.70681E-01 7.03485E-02-3.43541E-01 8.92964E-02 3.49071E-02
 -1      2440-1.06260E+00-5.88016E-01 1.54563E-01-6.72206E-05 2.77486E-02 1.29307E-01
 -1      2441 1.24080E+00 3.00940E-01-2.42174E-02 1.76940E-01 8.74321E-02 1.04800E-02
 -1      2442-9.14750E-01-2.58168E-01-5.16619E-02 2.32542E-01 1.50486E-02 1.75756E-03
 -1      2443-1.16817E+00-4.83166E-01-1.30060E-01 6.81478E-03-2.26154E-02-8.45145E-02
 -1      2444-1.68118E-01-1.70342E-02-6.78727E-02 6.78702E-02-1.93692E-01 6.51227E-02
 -1      2445 1.49350E+00 6.20565E-01 2.05386E-01 6.07136E-02-9.27517E-02-2.08730E-01
 -1      2446 3.91433E-01 6.20529E-01 1.65021E-01 3.13510E-01 4.76307E-01 1.10856E+00
 -1      2447 5.68008E-02 2.71933E-01-2.06453E-01 2.15561E-01-1.87875E-01 8.22612E-03
 -1      2448 1.60208E+00 6.34744E-01 2.27246E-01 1.14643E-02 1.77893E-02-7.96145E-02
 -1      2449 1.00053E+00 2.78954E-01 1.47757E-01 5.04572E-02-1.08289E-01-1.40736E-01
 -1      2450 2.77694E-01 3.83526E-01 2.31348E-02-1.85845E-01 3.23002E-02 1.51564E-01
 -1      2451-1.01627E+00-5.94731E-01-7.63829E-02 3.24278E-01-8.39114E-02-4.23182E-01
 -1      2452-1.05461E+00-2.11070E-01-1.55358E-01 2.16938E-01-1.49366E-01-1.18870E-01
 -1      2453 1.64311E-01 1.88045E-01 1.38566E-01 1.80126E-01 4.52888E-02 3.11942E-02
 -1      2454 8.19798E-02-1.79052E-02 4.58573E-03 1.76109E-01-6.85202E-03-8.20257E-02
 -1      2455-7.22542E-01-4.56574E-01-1.14929E-01 1.08112E-01-3.10786E-01 3.06919E-01
 -1      2456 1.38269E-02-6.19630E-02-1.28632E-01 9.95787E-02 2.63322E-02 3.92552E-02
 -1      2457 6.74227E-01 1.80143E-01 6.85566E-02 1.46307E-01 9.81680E-02 9.48961E-01
 -1      2458-4.69770E-01-1.37491E-01-1.11020E-01-8.89962E-02-5.35283E-03-4.73284E-01
 -1      2459 2.63481E-01 7.51022E-02-1.10664E-01-4.18362E-01-2.88447E-02-2.20533E-01
 -1      2460 4.12073E-02 3.35778E-01 8.18035E-02 7.96088E-02-5.43167E-02-1.65595E-02
 -1      2461-1.30206E+00-6.93420E-01-1.80143E-01-5.85674E-02-6.98761E-02-2.28319E-02
 -1      2462-5.06834E-02-3.22295E-01-8.38392E-02 3.30360E-02 4.78547E-01 9.65655E-02
 -1      2463-4.98711E-01-9.43402E-02 1.59255E-01 4.52584E-01 1.82771E-02-5.31276E-02
 -1      2464 3.72660E-01 1.91510E-01-2.06584E-02 1.55522E-01 5.60121E-02 1.62301E-01
 -1      2465 1.31034E+00 7.44310E-01 4.15597E-01 5.39466E-02 6.91373E-02-7.52189E-02
 -1      2466 3.96022E-01 1.08571E-01-3.69593E-02-4.22992E-01 7.69660E-02-1.23880E-01
 -1      2467 1.06091E+00 5.40527E-01 3.18063E-01-6.19272E-02-2.26799E-02 3.95882E-02
 -1      2468-6.26755E-02-6.20064E-01-8.68421E-02 5.52659E-02-4.61635E-01 2.52734E-01
 -1      2469-7.67940E-03-7.30393E-02-3.32190E-02-4.61169E-02-3.85833E-02 9.80862E-04
 -1      2470 1.21277E-01 6.11035E-02 1.29146E-01 4.07623E-01 1.44577E-01-1.13965E-01
 -1      2471-1.92697E-01-2.79292E-01-1.16689E-01 1.60264E-01-1.38816E-01 1.85555E-01
 -1      2472-1.83109E-01 1.55262E-01-6.94719E-03-3.20949E-01-9.06133E-02 5.23757E-02
 -1      2473 2.69682E-01 5.57403E-02-1.22790E-01-4.04282E-01-1.20734E-01-4.13372E-01
 -1      2474-6.28116E-01-6.78160E-01-1.94705E-02 4.31865E-02-4.02520E-02 5.52098E-01
 -1      2475-2.62670E-01-5.57641E-04 3.62643E-02-1.04072E-02-2.79100E-01 4.82442E-01
 -1      2476-1.78649E-01-1.81194E-01 4.29369E-02 2.29554E-01 1.29309E-02-5.93340E-02
 -1      2477 7.53045E-02-1.46692E-01-1.74631E-02-4.03644E-03 2.61935E-01 1.18023E-01
 -1      2478-1.76652E-01-1.81128E-01-3.12450E-01-3.03046E-01-1.31392E-02 9.98321E-01
 -1      2479-7.65884E-01-4.40195E-01-5.62585E-01-1.80675E-01 3.70487E-02 1.11176E+00
 -1      2480 6.40503E-01 8.58344E-02-1.08796E-01 2.27531E-01-8.86400E-02 5.02794E-01
 -1      2481 5.78246E-02-1.87626E-02-8.22975E-02 6.18342E-02-2.33927E-01 4.25186E-01
 -1      2482-6.23821E-01-3.73806E-01-1.27693E-01 4.48604E-01-1.21678E-01-6.57653E-03
 -1      2483 9.24384E-02 3.95136E-01-1.11299E-01 2.07971E-01-2.20390E-01 5.90065E-01
 -1      2484-6.82581E-02 1.54623E-01 3.34261E-01 2.51793E-01-4.59185E-02-1.73823E-01
 -1      2485-2.48996E-01-2.18701E-01-2.08951E-02 3.14660E-01 6.23796E-03-6.48372E-02
 -1      2486-1.02082E+00-2.40125E-01-2.04966E-01 1.23553E-01-6.10112E-02 3.17622E-02
 -1      2487-7.55244E-02 1.53946E-01-1.38740E-02 1.00870E-01-1.00607E-01 8.14657E-02
 -1      2488-8.67979E-01-1.33382E-01 2.58764E-02-1.71793E-01-5.90834E-03 1.12547E-01
 -1      2489-5.83947E-01-4.77694E-01-2.16060E-02 1.10496E-01-7.85908E-02 1.42337E-01
 -1      2490-5.95138E-01-2.74742E-01-3.99331E-02-1.63267E-01 2.34177E-01 5.58415E-02
 -1      2491 3.80423E-02-2.83241E-01 1.66299E-01 4.54747E-02-2.75400E-01 1.16112E-01
 -1      2492 1.48199E-02 1.03769E-02 2.90052E-01-4.18268E-02 3.79611E-01 8.88655E-01
 -1      2493 5.24128E-01 3.29848E-01 1.22762E+00 2.04892E-02 1.93398E-01 5.16015E-01
 -1      2494 3.36866E-01 2.16428E-01 4.34384E-02-1.25338E-01 9.37694E-02 7.59625E-01
 -1      2495-7.98156E-02-1.01294E-01-8.50971E-02-2.13454E-01-1.58114E-02 1.71913E-01
 -1      2496 1.23771E+00 3.58076E-01 6.42434E-02 3.38538E-01 7.39662E-02-8.42129E-02
 -1      2497 1.16841E+00 3.04630E-01 2.44630E-01 2.11354E-01-3.38199E-03-7.32800E-02
 -1      2498 6.78736E-01 2.98225E-01-1.26542E-01 4.29175E-01-2.47286E-02-1.93778E-01
 -1      2499-5.98589E-01-2.00863E-01-1.71161E-01 2.07157E-01-5.88454E-02-1.21137E-01
 -1      2500 2.44466E-02 9.28526E-02 6.63834E-02 2.68779E-02 5.16247E-01 5.32118E-01
 -1      2501 1.11775E+00 7.87504E-01 2.03228E-01-1.83018E-01-1.84122E-02-6.91191E-02
 -1      2502 6.39399E-01 2.45734E-01-1.14266E-02 2.90632E-01 5.09192E-02-2.31486E-02
 -1      2503 4.36714E-01 9.87541E-02-7.35191E-02 2.20968E-01 1.29578E-01-5.54380E-02
 -1      2504 1.24415E+00 5.61470E-01 3.47963E-01-2.00062E-02-2.22286E-02 9.97940E-02
 -1      2505 5.17263E-02 1.06702E-01-7.33900E-02 2.89408E-02-4.30695E-03-4.39629E-03
 -1      2506-2.00250E-02-6.64850E-02-2.09533E-01 1.23873E-01-7.92749E-02 1.01268E+00
 -1      2507 7.79836E-01 2.78718E-01 3.61271E-01 2.77143E-02 3.63734E-01 1.03388E+00
 -1      2508-2.06585E-01-6.31084E-02-1.61189E-01 1.75449E-01 3.35851E-01 4.17732E-01
 -1      2509-4.09155E-01-1.86716E-01-9.01020E-02 4.02742E-01-6.66296E-02-5.91197E-02
 -1      2510 1.21961E+00 5.10365E-01 2.03977E-01 2.32948E-02 3.71225E-02-3.48790E-02
 -1      2511-1.08425E-01-2.57966E-02 1.23876E-01 2.91830E-01 2.47470E-02-1.47189E-01
 -1      2512-6.67060E-02 4.06465E-02-3.16700E-02-4.51397E-01 1.06455E-01-2.17164E-01
 -1      2513-5.38603E-01-2.48713E-01-7.14247E-02-2.82924E-01-2.64846E-02-1.13126E-01
 -1      2514-2.71572E-01-1.67357E-01 5.08479E-02 3.12652E-01-7.79672E-02-1.62094E-01
 -1      2515-1.02680E+00-4.69403E-01-2.02821E-01-3.63867E-01-3.52048E-02-7.67210E-02
 -1      2516-1.46894E+00-5.99689E-01-9.07714E-02 1.83261E-02 3.94785E-02-1.61666E-01
 -1      2517-2.42216E-01 3.92234E-01 7.21686E-02-1.97003E-01 2.96926E-02 3.94820E-02
 -1      2518-1.58530E+00-5.57686E-01-7.42663E-02-9.11368E-02 6.53556E-02-1.92811E-01
 -1      2519 3.53415E-01 1.31786E-01 3.63319E-02 3.79608E-01-8.19089E-02 7.64764E-02
 -1      2520-7.66190E-01-5.46037E-01-8.61393E-01 2.23483E-01-6.71674E-01 1.14636E+00
 -1      2521-2.18337E-02-7.90886E-04-1.65082E-01-3.32403E-01-1.35904E-01-2.67056E-01
 -1      2522 2.89405E-01-1.43954E-01 1.57943E-02 2.68839E-01-1.69666E-02 9.38824E-02
 -1      2523 5.76277E-01 1.38227E-01 2.94396E-01 8.04859E-02 7.12052E-02 7.56595E-01
 -1      2524 5.93914E-01 3.99963E-01 3.52093E-01-1.04870E-01 4.66742E-02 1.01531E-01
 -1      2525 3.45290E-02 3.29326E-02-6.57910E-02-4.22689E-01-1.34246E-02-1.22705E-01
 -1      2526 6.35547E-01 2.92077E-01 2.14347E-01 9.38571E-02 1.32848E-01-6.09445E-02
 -1      2527 5.64711E-01 1.93785E-01 4.45917E-02 4.24567E-01 4.84502E-02-1.39053E-01
 -1      2528-8.84432E-01-4.24254E-01-2.23295E-01-2.46328E-01 8.58604E-02-9.05617E-02
 -1      2529-3.76368E-01-3.75088E-01 2.39117E-02 2.38550E-01-7.83424E-02-2.75469E-01
 -1      2530-2.23791E-02 5.70690E-02 1.27390E-02 9.67516E-02-4.04526E-02-3.91114E-02
 -1      2531-9.81787E-02-2.09031E-02-7.62369E-02 6.38009E-03 1.51821E-01-2.56434E-02
 -1      2532-1.26494E-01-2.78090E-01-1.32079E-01 1.91892E-01-1.46501E-02-4.97486E-02
 -1      2533 6.91523E-01 3.44042E-01 1.34730E-01-1.35121E-01-6.81124E-02 2.36207E-01
 -1      2534-3.09543E-01-2.72246E-01-2.50676E-01 6.36542E-02-9.39557E-02 1.48746E-01
 -1      2535-7.16299E-01-9.24042E-02-2.00333E-01-8.57130E-02 5.92384E-01 1.04134E+00
 -1      2536 5.01426E-01 4.81939E-01 2.12109E-01 2.87693E-01-1.12533E-02-4.66069E-02
 -1      2537 2.41390E-01 8.76749E-02 8.55069E-02 1.45366E-01 2.82502E-01 4.72967E-02
 -1      2538 6.77787E-01 3.08275E-01 6.28562E-02-1.64333E-01 2.05863E-01 2.97181E-01
 -1      2539-2.35657E-01-2.30202E-01-1.51486E-01-1.77953E-01 1.13741E-01 1.28111E-02
 -1      2540-3.66450E-02 4.57455E-02-1.03284E-01-3.42021E-03 3.39080E-02 8.28899E-03
 -1      2541-1.15484E-01-6.71324E-02 5.32724E-02 1.80668E-01-1.08622E-01-5.11535E-02
 -1      2542 6.62431E-01 3.28276E-01-6.69270E-02-1.82146E-01-2.46619E-01 7.27454E-01
 -1      2543-9.17192E-01-3.84918E-01 4.73812E-02 3.98519E-01 6.15639E-02-1.35785E-01
 -1      2544 2.58729E-01 2.36829E-01 5.20183E-03 2.30494E-01-1.76614E-03 2.50643E-02
 -1      2545 1.03161E+00 5.33787E-01 4.37770E-01-2.12805E-02-4.32988E-02-1.34483E-01
 -1      2546-4.38023E-01-1.01804E-01-8.64197E-02-3.95305E-01-5.96981E-03-8.58663E-02
 -1      2547-1.22565E+00-3.98277E-01-7.01420E-02 4.38735E-02 7.36212E-02-1.76396E-01
 -1      2548-1.24212E+00-2.63685E-01-1.33980E-01 1.67802E-01 9.34897E-03-4.01470E-02
 -1      2549 1.67904E+00 6.05547E-01 4.03083E-01 1.89877E-01 5.65937E-02 1.48238E-01
 -1      2550-1.07076E+00-5.37756E-01-1.24120E-01-1.07827E-01-2.45272E-02 1.41381E-01
 -1      2551-7.48327E-01-6.71463E-01-1.27273E-01 3.91814E-01 2.06011E-03-2.31863E-01
 -1      2552 1.22594E+00 6.16758E-01 2.17647E-01-8.09946E-03 9.99723E-03 5.63277E-02
 -1      2553-3.00552E-01-2.53269E-01-3.14726E-02-1.67600E-01-2.79430E-02-5.51830E-01
 -1      2554-2.07824E-02 3.91423E-02-9.22123E-02 1.76346E-01-6.71882E-02-7.49591E-02
 -1      2555 8.16946E-02 2.65165E-01 1.04556E-01 2.58403E-02 1.92255E-02 5.71690E-01
 -1      2556 2.36287E-01 1.86741E-01 1.25307E-01-8.06722E-02-1.10663E-01-4.44002E-02
 -1      2557 3.36024E-01 1.78574E-01 7.54605E-02-7.27935E-02-2.85415E-01 3.15321E-01
 -1      2558-9.54677E-01-3.48191E-01-1.29215E-01 2.07005E-01-8.88618E-03 1.19767E-02
 -1      2559-1.52636E+00-4.91649E-01-5.13555E-02-1.86569E-01 4.27143E-02 4.06761E-02
 -1      2560 1.14430E+00 5.10847E-01 1.88301E-01 4.34579E-02 4.79818E-03-7.12155E-02
 -1      2561-6.65287E-02 7.43087E-03 1.16522E-01 2.00168E-01-7.01550E-02-7.98541E-02
 -1      2562-1.15097E+00-2.60225E-01-7.55909E-01-1.29198E-01-1.23607E-01 4.68553E-01
 -1      2563-4.90543E-01-3.85953E-01 9.76794E-02 2.71624E-01-4.94216E-01 8.28841E-01
 -1      2564-3.04642E-01-3.78854E-01-9.54450E-02 2.45664E-01-2.62890E-01 2.75334E-01
 -1      2565-7.06560E-01-3.75953E-01 1.89728E-02 5.09637E-01-4.48531E-03-3.82712E-01
 -1      2566-5.06588E-01-4.77370E-01-2.53775E-01 1.48229E-01-3.50632E-01 9.24088E-01
 -1      2567-2.98376E-01-2.90701E-01 1.25161E-01 3.05471E-01-1.02486E-01-8.07648E-02
 -1      2568 9.69487E-01 3.58648E-01 9.08999E-02 2.33965E-01 1.25562E-01 7.20757E-02
 -1      2569-5.30407E-01-3.62340E-01 2.83832E-01 1.32076E-01 4.21591E-02-3.38108E-01
 -1      2570-6.35587E-01-2.89951E-01-6.72232E-02 9.00118E-02 4.99278E-02 2.70060E-01
 -1      2571-1.13541E+00-6.70611E-01 3.72686E-02-3.06964E-01 1.44727E-01-9.86406E-02
 -1      2572 1.56790E-01 2.31253E-02-1.56870E-01 3.39027E-01 8.63492E-02 5.10980E-03
 -1      2573 6.62661E-01 5.74771E-01 1.57887E-01-2.92913E-02 2.33419E-02-1.89427E-02
 -1      2574-3.15040E-01-1.11932E+00-2.93476E-01-2.27639E-01 5.75049E-01 4.18639E-01
 -1      2575 6.44493E-01 4.64382E-01 1.00493E-01-1.60483E-01-1.59631E-01 2.06457E-02
 -1      2576-3.79051E-01-4.39463E-02-2.30145E-01 1.39480E-01 1.31968E-01 7.37706E-01
 -1      2577-1.95938E-01-7.86440E-01-1.50143E-02-1.44783E-01 4.00531E-01 1.32505E-01
 -1      2578-3.64219E-01 8.19262E-02 2.70153E-01-6.69504E-02 2.56623E-01 6.12672E-01
 -1      2579 8.73499E-02 3.65402E-01-2.07963E-01 2.03754E-01 4.78858E-01 2.11276E-02
 -1      2580 3.04913E-01 1.18651E-01 1.98925E-01 7.21368E-02 3.24245E-02-1.34420E-01
 -1      2581 7.00261E-02 3.62620E-01 4.50436E-03 1.15461E-01-1.93901E-02 6.22409E-02
 -1      2582-4.95409E-01-2.70723E-01-2.00479E-01-6.71671E-02-1.52552E-01 4.15344E-01
 -1      2583-5.49637E-02 2.03515E-01 1.59671E-01-3.19145E-02 1.16311E-01 9.54305E-02
 -1      2584-8.62985E-01-3.65478E-01-1.00152E-01 2.91055E-01-1.21226E-01-1.31321E-01
 -1      2585-2.05475E-02 2.52718E-01 4.72543E-02 6.88243E-02-2.05513E-01 1.38744E-04
 -1      2586-7.74588E-01-4.96947E-01-5.53924E-03-8.50175E-02-4.81682E-02-4.83080E-01
 -1      2587 1.30881E-01 3.17217E-01 1.24659E-01 9.25890E-02 4.81685E-01 3.17834E-01
 -1      2588-3.01332E-01-1.64428E-01 3.53038E-02 3.29081E-01 1.05164E-02 3.63395E-02
 -1      2589-7.54270E-01-3.04947E-01-7.28217E-02 8.35419E-02 2.83130E-02-4.21824E-02
 -1      2590 8.05180E-02 1.56138E-01 2.10128E-01-1.81744E-02-2.02863E-02-6.05353E-03
 -1      2591-3.00123E-01 2.75017E-02 2.55739E-01 1.08556E-01 2.75196E-01 1.95960E-02
 -1      2592-3.29760E-01 5.39334E-02 1.22268E-01-2.79210E-02-1.19792E-01-1.64508E-01
 -1      2593-7.35686E-01-2.31833E-01-1.76080E-01 1.63708E-01 3.83447E-02-9.99016E-03
 -1      2594-2.72199E-02 2.48549E-01 1.27059E-01 3.14255E-02 1.21641E-01 4.80508E-02
 -1      2595 9.28950E-01 6.04150E-01 3.82528E-01 8.10322E-02 9.17052E-02-7.80404E-02
 -1      2596 9.86356E-02-5.42266E-03-1.23807E-02 1.87695E-01 5.21676E-03-6.54895E-03
 -1      2597-4.07274E-01-2.14766E-01 5.38243E-02 1.16595E-01-2.17416E-01 7.37356E-02
 -1      2598-1.14982E+00-3.51710E-01 1.39003E-01-3.57464E-01 2.78176E-03-1.44599E-01
 -1      2599 2.77480E-02-1.10744E-01 5.46852E-02 1.04580E-01 6.99959E-02-1.06017E-02
 -1      2600 3.91248E-01 1.05239E-01 1.04786E-01-1.52151E-01 3.65922E-01 5.23235E-01
 -1      2601-6.17428E-01-2.57786E-01-1.56718E-01 1.20488E-01-2.03162E-01 9.64052E-02
 -1      2602 3.26582E-01 3.70510E-01 2.28234E-01-2.11817E-01-7.59434E-02-6.47305E-02
 -1      2603-1.31805E+00-5.22910E-01-2.63836E-01 2.80123E-01-1.69891E-01-1.32479E-01
 -1      2604-2.58974E-01-1.20117E-01 3.71936E-03 2.89327E-01-3.74127E-02 2.89169E-02
 -1      2605 6.38897E-01 2.55125E-01 1.28033E-01-1.22122E-02-5.06555E-03-3.53354E-02
 -1      2606 1.14869E+00 4.96973E-01 2.17171E-01 1.97253E-01-9.08723E-02-6.43667E-02
 -1      2607-7.41061E-02-1.05081E-02-1.03815E-01 5.76761E-02-2.42322E-01 1.00319E-02
 -1      2608-8.95474E-01-1.41118E-01-1.32161E-01-1.10119E-01-1.11502E-01 2.91261E-02
 -1      2609-3.59228E-01 1.23616E-01-1.43579E-02-2.23621E-02 1.89721E-01 1.34685E-01
 -1      2610 3.08076E-01 4.52830E-01 3.22384E-01 4.72938E-02 4.28802E-01 3.63707E-01
 -1      2611 9.80738E-01 4.85888E-01 2.72733E-01-4.53946E-01 2.15803E-01-2.33139E-01
 -1      2612 1.30006E-01 9.65035E-02-2.12772E-01-2.33358E-01 1.00183E-02 4.99624E-02
 -1      2613 6.17817E-01 1.49265E-01-9.10522E-02-3.61922E-01-1.63099E-01-2.80850E-01
 -1      2614 6.70353E-02 4.83585E-02-8.67042E-02-7.56538E-02-3.08480E-02-4.10873E-01
 -1      2615-8.18437E-01-4.66906E-01-2.85460E-01 1.15990E-01 4.40252E-02 3.73275E-02
 -1      2616-8.11981E-01-6.23456E-01 1.03410E-02 1.74896E-03-7.94798E-02 1.86568E-01
 -1      2617-1.47411E-01 7.20707E-02 1.29166E-01-1.78259E-01-3.74093E-01 6.17493E-01
 -1      2618 5.30981E-01 4.56263E-01 1.43557E+00-8.15672E-02 1.71793E-01 6.99790E-01
 -1      2619-7.63023E-01-2.26789E-01-1.59661E-01 2.51571E-01-1.58398E-01-9.12472E-02
 -1      2620-2.65782E-02-5.67470E-02-5.66302E-03-1.48933E-01-1.04929E-01 6.26379E-02
 -1      2621-2.77625E-01-3.11021E-01 2.45458E-03 4.57453E-02 2.58616E-01 2.40874E-01
 -1      2622 2.20589E-01-4.17348E-02 2.41062E-01-1.01033E-01 1.75678E-01 3.63883E-01
 -1      2623-4.75298E-02-2.16482E-01 2.84681E-02-3.28438E-02-1.98786E-01-1.09284E-01
 -1      2624-2.04099E-01-1.04631E-01-6.50658E-02 4.79522E-01 4.49094E-02-8.35000E-02
 -1      2625 9.79309E-01 4.11067E-01 1.67068E-01 2.31818E-01 6.12212E-02-1.70371E-01
 -1      2626 3.80726E-01 1.51821E-01 1.65449E-01 4.75868E-03 1.57885E-01 4.09120E-01
 -1      2627-1.35216E+00-2.37655E-01-1.42776E-02-1.59081E-01-9.56569E-02-1.02791E-01
 -1      2628-3.24318E-01-4.86490E-01-2.24702E-01-1.91949E-01 3.33267E-01 1.99741E-01
 -1      2629-3.66201E-03-1.82989E-01-2.10415E-02-8.91805E-03 1.79260E-01 1.28802E-01
 -1      2630 6.90153E-02 8.40993E-02-1.17214E-01 6.28525E-02 2.34245E-01 2.90332E-01
 -1      2631-2.36937E-02-4.96296E-02 1.21792E-01-9.25707E-02 3.95698E-01 1.45320E-01
 -1      2632 4.29630E-01-1.06993E-01-1.50431E-01-4.20491E-02-1.29782E-01-1.08011E-01
 -1      2633 1.05946E-01 4.22813E-02 3.17561E-05 4.52323E-01 1.59166E-02-3.50876E-01
 -1      2634 1.17764E+00 4.35431E-01 1.51805E-01 3.44561E-01 6.07797E-02 3.10036E-02
 -1      2635-1.15659E+00-4.24473E-01-1.98727E-01 2.35126E-01 6.83084E-02-1.62159E-03
 -1      2636 3.58016E-01 9.52084E-02 4.38739E-02 9.04316E-02-1.95148E-01 3.07867E-01
 -1      2637 1.17466E-01 1.24420E-01 9.91064E-02 1.54263E-01-4.88979E-03-4.73317E-02
 -1      2638 1.13837E-01 1.16544E-01 4.69747E-02 6.32686E-02 1.32635E-01-4.24855E-02
 -1      2639-4.63744E-01 5.27613E-01 1.89416E-01-2.85374E-01-1.31429E-01-7.76963E-02
 -1      2640-2.24190E-01-2.98508E-01 7.15036E-03-3.26940E-02-1.90616E-01 8.70882E-02
 -1      2641 3.04275E-01 1.65852E-01 1.31319E-02-1.89210E-01-5.96438E-01 3.89170E-01
 -1      2642 1.57751E+00 5.72281E-01 9.98648E-02 2.77498E-01 5.19911E-01-2.72349E-01
 -1      2643-1.30424E+00-5.44146E-01-1.60327E-01 1.15699E-01 9.88300E-02-2.72955E-02
 -1      2644-7.79145E-02 2.41544E-01-1.10106E-01-1.60405E-01 1.76930E-01 7.87984E-02
 -1      2645 4.41318E-02 5.88399E-02-2.21944E-02 8.83971E-02 5.72559E-03 5.75753E-02
 -1      2646-6.93036E-01-2.67435E-01-4.43803E-03 8.02694E-03 1.32870E-01 2.40716E-02
 -1      2647-1.01588E+00-6.49700E-01-1.04553E-01 1.48216E-01-4.15858E-02 8.30626E-02
 -1      2648-1.35723E+00-6.11814E-01-2.05456E-01-7.32972E-02 6.19754E-02 1.79006E-01
 -1      2649-5.95389E-01-1.66203E-01-1.04696E-01 4.79649E-01-1.23743E-01-1.30290E-01
 -1      2650 3.47140E-01-7.24787E-03 3.63252E-02 2.30660E-01 5.69517E-02-2.83508E-01
 -1      2651-5.85280E-01-1.21082E-01 5.58237E-02 3.42371E-01-1.22822E-01-2.32830E-01
 -1      2652 3.89440E-01 3.56492E-01 1.11118E-01 3.77037E-01 8.34443E-02-2.24223E-01
 -1      2653 1.79194E-01 1.41836E-01 1.80779E-02 2.07604E-01 3.39679E-02 1.30816E-02
 -1      2654 3.79667E-01 1.98302E-01-2.47128E-01 3.23298E-01-2.57343E-02-1.37903E-01
 -1      2655-1.03599E+00-3.94869E-01-2.81480E-01 2.27408E-01 5.83467E-02-1.47924E-02
 -1      2656 1.29854E-01 3.40835E-02 2.27465E-02-4.38251E-02 4.17433E-02-4.98403E-01
 -1      2657-5.64824E-01-5.92226E-01-7.96874E-02-1.98309E-01 1.17195E-01-1.17334E-01
 -1      2658-1.16122E+00-4.48480E-01-2.64678E-01-8.27028E-02-3.17055E-03-2.05406E-02
 -1      2659-1.51827E-01-1.19353E-01-1.47529E-01 4.72989E-02-7.82022E-01 6.15829E-01
 -1      2660-2.70289E-01-1.37362E-01 6.44551E-02-3.86001E-01-1.25723E-01-7.96620E-03
 -1      2661-1.21841E+00-4.38423E-01-2.98414E-01-2.94818E-02 6.83583E-02-6.98421E-02
 -1      2662-1.13389E+00-6.09692E-01-2.31486E-01-8.85689E-02 9.61465E-02-1.91249E-01
 -1      2663 9.65143E-01 4.17528E-01 1.58709E-01 3.63636E-01 1.24222E-02-1.15957E-01
 -1      2664-1.10109E+00-6.41982E-01-1.97233E-01 9.13493E-02-7.24012E-02-2.35725E-02
 -1      2665 2.52997E-01 1.53262E-01 6.51258E-02 1.75681E-01-2.71812E-02 8.24069E-03
 -1      2666 1.45754E+00 5.53771E-01 2.24320E-01 9.22533E-02 7.99356E-02 5.41758E-02
 -1      2667 2.23673E-01 3.42552E-01-6.47446E-02 2.02300E-01 3.47653E-01 3.01850E-01
 -1      2668 1.00452E+00 6.90016E-01-4.82985E-02 5.97048E-02-1.71770E-01 1.84637E-01
 -1      2669 9.15608E-02 7.70557E-02 1.62167E-01 6.15631E-02 6.92032E-01 3.49253E-01
 -1      2670-9.60506E-01-5.97165E-01-2.10387E-01 3.41537E-02 1.04098E-02-9.86943E-02
 -1      2671 1.27823E+00 3.87816E-01 2.29170E-02 4.14992E-01 1.25011E-02-2.38340E-01
 -1      2672-1.24136E-02-3.13581E-01 8.48391E-02-8.29979E-02 3.00863E-01 1.17616E-01
 -1      2673 8.42728E-01 2.91023E-01 9.98457E-02 2.50564E-01 1.00358E-02-9.66801E-02
 -1      2674-9.36672E-02-3.96772E-03 1.43121E-01-1.36615E-01-4.68500E-02-1.28934E-01
 -1      2675 2.87456E-01 2.35102E-01 1.14142E-01-2.80198E-01-2.13686E-02 9.08983E-04
 -1      2676-2.31406E+00-9.88218E-01 3.97093E-01 3.20721E-01-2.21961E-01 3.02557E-02
 -1      2677 1.34743E-01 9.73836E-02 1.43847E-01 7.04480E-02-7.88387E-03 1.31423E-02
 -1      2678-1.39564E-01 7.53872E-02 6.44413E-02 7.55036E-02 3.33083E-01 3.91013E-02
 -1      2679 1.44621E-01-9.99125E-02 3.06080E-01-1.17214E-01 5.52723E-01 4.18542E-01
 -1      2680 4.94658E-01 1.18400E-01-1.06547E-01 7.15765E-02 3.99953E-02-6.19719E-03
 -1      2681 5.59945E-01 2.29075E-01 6.32423E-02 4.95388E-01-1.20453E-02-2.68009E-02
 -1      2682 2.08090E-01 1.48320E-01 9.32081E-02-1.56464E-01-3.42482E-01 1.24891E-01
 -1      2683 1.10051E+00 5.85718E-01-5.12670E-02-4.35575E-01-1.16084E-01-3.17339E-01
 -1      2684-7.59403E-01-5.66805E-01-7.12132E-03 4.07502E-01 1.57293E-01-8.55072E-02
 -1      2685-1.36005E-01 8.08644E-03 1.40373E-02 1.10317E-01-1.50081E-01 7.23311E-03
 -1      2686 1.58531E-01 6.84674E-02 1.44106E-01 1.93314E-01-7.43074E-02-2.52632E-01
 -1      2687 8.01839E-01 3.37449E-01-1.07718E-01 3.26533E-01 1.30012E-01-1.84249E-02
 -1      2688 3.17851E-01-9.02993E-02-8.02183E-02 1.32178E-01 2.21031E-01 3.07927E-04
 -1      2689 1.55203E+00 5.55505E-01 2.26424E-01 2.23306E-01 3.85782E-02-1.00127E-01
 -1      2690 1.05902E+00 6.50027E-02 1.82063E-01-2.12522E-02 2.03768E-03-9.69708E-03
 -1      2691-1.20479E+00-3.02761E-01-6.77166E-02 2.23434E-01-4.30418E-02-1.20928E-01
 -1      2692-1.03937E+00-5.42824E-01-5.12710E-02 6.67325E-02 4.98329E-02 7.65484E-02
 -1      2693 3.62606E-01 3.52145E-01 1.45890E-01 3.90455E-01 1.34800E-01-1.12310E-01
 -1      2694-6.79597E-01-3.65235E-01-2.38620E-02-4.36135E-01 1.18836E-01-2.45450E-01
 -1      2695-1.66761E-01 4.11205E-02-7.08768E-02-1.37502E-01 5.93924E-02-3.01336E-02
 -1      2696-2.55758E-01-2.92349E-01-1.25245E-01-2.27027E-02-2.33406E-03 5.00878E-01
 -1      2697 1.32488E+00 3.54416E-01 1.27859E-01 1.70067E-01 2.78977E-02-2.48868E-02
 -1      2698 1.82706E-01 1.49882E-01-1.59066E-01-1.49041E-01-9.43853E-02 5.07719E-01
 -1      2699 1.75616E-01-4.36408E-02-2.28985E-01 2.95256E-01 1.15372E-01-1.20518E-01
 -1      2700-3.64160E-01 1.41423E-01 1.74811E-01 1.97848E-01 6.44262E-02-1.40708E-01
 -1      2701-8.07004E-02 1.12536E-02 9.69697E-02-3.83228E-03-8.88823E-02-3.85701E-02
 -1      2702 3.65394E-01 1.30754E-01-9.15742E-03 2.97719E-01-4.77702E-02-4.69880E-02
 -1      2703 9.60974E-02 1.81083E-01 4.71518E-03 9.75607E-02-2.95089E-02 4.07108E-02
 -1      2704 1.60830E+00 4.67566E-01-2.23532E-02 1.31726E-01-1.26614E-02-8.82267E-02
 -1      2705-2.99288E-01-1.98589E-01-1.24371E-01 2.52092E-01-2.29611E-02 5.32336E-02
 -1      2706 1.05686E+00 3.64683E-01 4.43284E-01 1.03107E-01-3.10221E-02 1.18172E-01
 -1      2707-5.08585E-01-4.00798E-01 1.27670E-02 3.09541E-02-2.62761E-02-3.53580E-01
 -1      2708 1.17530E+00 4.39518E-01-3.39322E-01-2.10746E-01-1.54592E-01-2.42743E-01
 -1      2709-8.49322E-01-2.85624E-01-2.71428E-02 4.58333E-02 4.68675E-02 9.42579E-02
 -1      2710 1.23433E+00 7.29358E-02-3.12501E-02 2.69034E-01 4.84691E-02 7.68248E-03
 -1      2711 1.34313E+00 5.02595E-01 7.54758E-02 6.76146E-02 1.21746E-01-7.39418E-03
 -1      2712-2.62005E-01-1.16286E-01-1.65526E-02 1.98477E-01-9.20819E-02-2.06505E-02
 -1      2713 1.00796E+00 4.29226E-01 2.06716E-01 1.87125E-01 1.04856E-01-2.04932E-01
 -1      2714-5.54649E-02 3.52785E-01-1.76133E-02 5.84566E-02-1.06254E-01 1.46742E-01
 -1      2715 5.91645E-01 4.00745E-01 6.14139E-02 1.83990E-01 9.57560E-02 5.13490E-02
 -1      2716-2.99839E-03 9.43499E-03-5.21301E-03 6.65872E-02-1.33687E-02 1.05607E-02
 -1      2717 4.74286E-01 1.21795E-01 1.81280E-02 2.77676E-01 2.99224E-02-1.88066E-01
 -1      2718-1.29940E+00-1.15025E-01 1.52198E-02-1.69864E-01 1.84353E-02 6.45279E-02
 -1      2719 1.42318E+00 7.41636E-01-2.65431E-02 9.23868E-02 7.55120E-03-3.13008E-02
 -1      2720 4.56841E-01 2.15474E-01 8.42782E-02-4.30966E-01 1.55839E-03-1.20126E-01
 -1      2721 7.13620E-01 2.25988E-01-1.08195E-01 4.04867E-01 1.13437E-01-1.01898E-01
 -1      2722 1.65137E-01 2.35613E-02 2.99483E-02 6.83395E-01 5.39545E-02-4.66234E-02
 -1      2723 9.44855E-01 1.85247E-01 1.75039E-01-5.05565E-01-2.75961E-01-1.67667E-01
 -1      2724 3.65680E-01 2.72482E-02 7.89678E-02 1.32986E-01-3.42483E-02 6.48336E-01
 -1      2725-6.64786E-02-9.00924E-02 1.78645E-01 1.43333E-01-5.38749E-01 6.70252E-01
 -1      2726-1.45251E-01 4.21988E-02 8.76705E-02 2.09844E-01-3.44819E-01 4.89574E-01
 -1      2727-3.36596E-01-3.09916E-01-2.07082E-01 3.08750E-01-8.56351E-02-8.79592E-02
 -1      2728-1.13843E+00-5.04596E-01-3.71659E-01 6.51772E-02-3.46524E-02-7.54572E-02
 -1      2729-1.22467E+00-6.35588E-01-2.50217E-01 2.01253E-02-1.29135E-01-5.57795E-02
 -1      2730-2.88764E-01-3.22242E-01-4.54042E-01 6.49553E-01-3.24265E-01 7.04415E-01
 -1      2731-1.35206E-01-9.72895E-02-1.43743E-01 3.62929E-01 1.72557E-02-1.30887E-01
 -1      2732-1.71036E+00-7.56721E-01-3.52082E-01 1.17512E-01-5.99403E-02-2.61148E-02
 -1      2733-1.33129E+00-1.63155E-01-9.93427E-02 2.21120E-01-1.41653E-02-1.20566E-01
 -1      2734-1.30894E-01 2.60206E-01 8.95716E-02 3.36211E-02 1.32391E-01-5.56883E-02
 -1      2735 1.40284E+00 5.30853E-01 1.44574E-01-1.45791E-01 1.96971E-03-5.35298E-03
 -1      2736-1.24939E-01-2.96852E-02 5.02873E-01-3.53387E-02 4.74956E-01 4.80842E-01
 -1      2737-6.34172E-01-3.15543E-01-6.49690E-03 1.52580E-01 9.18677E-03 5.23808E-02
 -1      2738 1.76517E+00 5.87966E-01 1.67796E-01 1.72118E-01 1.18334E-01-1.04712E-01
 -1      2739-1.38950E+00-3.65776E-01-3.85094E-01 3.35514E-01-2.21344E-01 1.37596E+00
 -1      2740-2.00838E-01-2.47076E-01-2.20146E-01-5.44624E-01 4.57346E-03-4.42378E-01
 -1      2741 2.20188E-01 2.81122E-01-1.38945E-01-1.15251E-01 1.46453E-02 3.84769E-01
 -1      2742 6.52977E-01 1.51985E-01 1.05342E-01 5.42806E-01-6.51581E-03 3.72487E-02
 -1      2743 3.41250E-01 6.31586E-02 1.27824E-01 4.20231E-01-3.36181E-02-2.18387E-01
 -1      2744-1.32874E-01 3.20203E-02-1.70146E-02-1.17628E-01-2.73562E-02 1.32574E-01
 -1      2745-7.29494E-01-2.02394E-01 4.13828E-01 1.85237E-01 1.31941E-01 4.82784E-01
 -1      2746 6.65896E-01 2.21608E-01 1.87706E-01 8.32807E-02 8.79324E-02-5.78177E-02
 -1      2747 1.54466E-01-1.92504E-02-2.47824E-02 4.29651E-02 3.30837E-01 1.79239E-01
 -1      2748 3.94895E-01 3.97684E-02 3.43347E-03 9.20214E-02 3.73624E-01 4.39794E-02
 -1      2749 1.87987E-01 2.69788E-01 1.96396E-01 1.41121E-01 4.41724E-02 3.68865E-02
 -1      2750 2.40618E-01 5.75146E-02 1.06187E-01 5.70827E-02 3.26933E-01 7.05687E-02
 -1      2751 3.14842E-01 2.26160E-01 1.00145E-01 2.97429E-01 4.26244E-02-1.99197E-01
 -1      2752 6.57355E-01 3.40215E-01 4.57907E-02 2.56248E-01-5.38609E-02 2.54818E-02
 -1      2753-9.59818E-02-1.70504E-01-8.96497E-02-7.11760E-02-1.83547E-01 2.20824E-02
 -1      2754-1.28564E+00-6.28496E-01-1.31266E-01 2.51779E-01 2.66226E-03 3.37354E-02
 -1      2755 1.47129E+00 6.06012E-01 9.37339E-02 4.81216E-01 1.25288E-01 2.87809E-01
 -1      2756-1.08512E+00-4.22031E-01-2.69091E-01 2.76317E-01 9.88262E-02 3.24220E-02
 -1      2757 1.11732E+00 4.16244E-01 2.01618E-01-1.06372E-01 8.72583E-03-3.38605E-02
 -1      2758-1.16334E+00-3.40144E-01-1.93197E-01 4.02725E-01-9.95462E-02-4.77060E-02
 -1      2759-5.65722E-01-3.89999E-01-1.02596E-01 3.16381E-02-4.10116E-03 5.56180E-01
 -1      2760-2.61343E-01 3.07153E-01-6.44883E-02-1.69538E-01-7.47779E-02 8.84287E-02
 -1      2761 4.35235E-01 2.66105E-01 1.67043E-01 2.73372E-01-8.09142E-02 3.33757E-02
 -1      2762-1.62733E-02-4.92495E-03 1.08333E-01-6.47437E-02-1.30674E-01-5.10650E-02
 -1      2763 1.10544E+00 5.11427E-01 6.51104E-02 2.34310E-01-5.52129E-02-1.19413E-01
 -1      2764 1.18329E+00 5.83292E-01 1.54523E-02 2.07805E-01 1.64044E-01-1.20135E-01
 -1      2765-3.18963E-01-6.60492E-02-1.43542E-01 2.31898E-01-1.46970E-01-3.45975E-02
 -1      2766-2.26990E-03 2.00711E-01-6.46822E-02-7.50522E-02 9.44820E-02-6.91011E-02
 -1      2767 2.18127E-01 2.86577E-01 1.72366E-02 7.72694E-02-1.17072E-02 1.41468E-01
 -1      2768 4.65571E-01 1.81160E-01 1.48155E-01-2.96629E-01-1.65688E-01-1.58718E-01
 -1      2769 4.71681E-01 2.94672E-01 1.43952E-02 2.03571E-01-8.08933E-02 5.19340E-02
 -1      2770 2.01012E-01 8.06071E-03 2.33527E-01 7.15594E-02 6.63363E-01 5.39694E-01
 -1      2771-4.35293E-02-9.98890E-03-6.69962E-03 1.44654E-01-7.51768E-02-3.68367E-01
 -1      2772-1.18048E+00-3.53202E-01 8.91135E-02 2.05251E-01 6.08160E-02 3.72610E-02
 -1      2773 2.77613E-01-2.32357E-01-4.55260E-02 1.01996E-01 1.46302E-01 3.76789E-02
 -1      2774-1.37943E+00-3.12599E-01-1.89786E-02-2.96851E-02-6.54354E-02-1.50971E-01
 -1      2775-1.06761E+00-1.01420E-01-3.06995E-01-8.75980E-02 4.86406E-02 5.03798E-03
 -1      2776 6.83200E-01 9.62913E-02 9.75664E-02 3.56711E-01 7.32604E-02-1.12526E-01
 -1      2777 6.95836E-01 2.64166E-01 1.06384E-01 2.72740E-01-1.81745E-02-2.18523E-01
 -1      2778-1.66357E-01 2.57100E-02 7.19520E-03 7.78840E-02-1.34211E-01 1.76258E-02
 -1      2779-8.18241E-02 9.83853E-02 1.01494E-01-1.09885E-01 1.91940E-01 1.29890E-01
 -1      2780 1.00124E+00 4.25853E-01 2.99040E-02 3.29337E-01 1.34895E-01 2.37213E-02
 -1      2781 8.49876E-01 1.50559E-01 1.20444E-01 2.40071E-01 2.38836E-01-6.89384E-02
 -1      2782 1.05289E+00 4.77877E-01-2.54142E-01 2.55150E-01 4.98248E-02-3.01558E-01
 -1      2783-1.31328E+00-4.72076E-01-8.97221E-02-1.02729E-01 3.70147E-02-1.80744E-02
 -1      2784-1.74592E-01 1.70483E-01-5.29322E-02 1.80460E-01 2.05775E-02-8.52140E-02
 -1      2785-6.41919E-02 1.05356E-01-6.36893E-02 1.15187E-01-4.45800E-03-1.50370E-02
 -1      2786 6.88198E-01 2.60805E-01 2.41552E-02 3.23233E-01-9.11755E-03 7.76815E-02
 -1      2787 1.30344E-01-2.34440E-02 4.13858E-03 9.17765E-02-2.62933E-03 4.66794E-02
 -1      2788-8.18406E-01-2.98404E-01-1.16971E-01 2.86928E-01-4.80648E-02-6.18574E-02
 -1      2789-1.29035E-02-1.53653E-02-2.57442E-02 2.78080E-01-6.57308E-02-2.56858E-01
 -1      2790 3.71406E-01 9.15589E-02 1.34565E-02 2.15797E-01 4.16990E-01 1.67279E-01
 -1      2791 1.14127E-01 1.19679E-01 1.85499E-01 9.75822E-02 9.42304E-02-1.16177E-02
 -1      2792 7.57246E-01 3.01941E-01-2.47753E-01 4.50547E-01 1.41154E-02-1.15721E-01
 -1      2793 4.00503E-01-4.40944E-01-1.53419E-01-2.37513E-01 1.18239E-02-2.44310E-02
 -1      2794 1.01688E-01 1.43767E-01-3.33959E-03-4.70215E-02 4.28648E-01 6.90972E-02
 -1      2795 6.45071E-01 2.83388E-01 6.00933E-03 2.91904E-01 9.80603E-02-1.95264E-02
 -1      2796 1.05373E+00 5.15341E-01 1.95468E-01-4.34791E-01-1.75791E-02-2.54032E-01
 -1      2797-1.42306E-02 9.97161E-02-7.72456E-02-2.95865E-02-1.31384E-01-2.15611E-02
 -1      2798-1.33555E-01-1.33563E-01-1.65437E-01 3.59672E-01 1.09338E-01-4.20921E-02
 -1      2799 1.65630E-01-7.59198E-02-1.59848E-01 3.25914E-01-1.07256E-01-4.86487E-02
 -1      2800-6.21138E-02-9.13618E-02-1.16322E-01-1.09559E-01 2.91017E-01 6.86242E-03
 -1      2801-9.06928E-01-2.58601E-01-3.94234E-02 3.04459E-01 3.26017E-02-4.77314E-02
 -1      2802-2.89998E-01-2.62106E-01 8.94398E-02-2.59306E-01 6.89520E-02-2.11402E-01
 -1      2803 1.24973E-01 1.35330E-01-3.28594E-02 2.45518E-01-4.12728E-02-6.36140E-02
 -1      2804 1.14945E+00 4.84343E-01 6.98271E-02 1.40290E-01-3.42643E-02-2.27324E-02
 -1      2805 2.19198E-01 6.68400E-02 5.56921E-02-1.66566E-01-5.19277E-02-3.64124E-02
 -1      2806 1.66052E+00 8.58809E-01 1.96325E-02 8.57030E-02-5.45668E-02-4.36273E-02
 -1      2807-1.09938E-01-1.44317E-01-4.07419E-03 2.21290E-01-2.57493E-02 2.85315E-02
 -1      2808 1.45837E+00 6.00285E-01 2.33596E-01 2.02755E-01 2.59564E-02-6.75388E-02
 -1      2809 4.53785E-01-2.89261E-01 9.41314E-03 2.15962E-01-4.75617E-02-2.29951E-01
 -1      2810 1.68892E+00 6.12795E-01 1.29590E-01-1.47086E-02-4.45499E-02-7.81280E-03
 -1      2811 7.21006E-01 4.26485E-01 2.95881E-02 2.68533E-01-6.87891E-02-6.87204E-02
 -1      2812 8.47912E-01 3.85936E-01-1.26917E-02 1.53979E-01 1.22342E-01 3.00191E-02
 -1      2813-1.64180E-01 5.61561E-02 1.51509E-01 2.05638E-01 6.46340E-02 1.72428E-04
 -1      2814-4.31614E-02-4.43206E-02 3.82848E-02-9.49565E-03-2.20364E-02 3.72522E-02
 -1      2815-1.40059E+00-4.92746E-01-7.75709E-02 1.83383E-01-4.19898E-02-2.69291E-02
 -1      2816-5.85769E-01-2.38396E-01-1.32681E-01 3.82502E-01-1.55491E-01-2.62669E-01
 -1      2817-5.98270E-01-5.60470E-01-9.66856E-02 4.36994E-01-5.01335E-01 6.27771E-01
 -1      2818-1.55407E-02-8.03147E-02 1.92602E-01 7.38499E-02-4.14009E-01 6.16883E-01
 -1      2819 1.51340E+00 4.21940E-01-4.44757E-01 5.08811E-02-5.81436E-01 1.07655E+00
 -1      2820-1.47406E+00-4.37201E-01-2.34317E-01 1.74387E-01-1.27007E-02-4.07329E-02
 -1      2821-9.59823E-02-6.85097E-03-4.45431E-02 5.46550E-02 1.97716E-01 8.13594E-02
 -1      2822 6.83406E-01 1.70405E-01 2.92003E-01 1.75898E-01 4.74916E-02 6.04946E-02
 -1      2823-1.04000E+00-4.20072E-01-2.10458E-01 2.30076E-01-5.02738E-02-2.54052E-02
 -1      2824-8.94609E-01-3.51850E-01-1.04352E-04-3.42476E-01 4.25631E-02-1.11218E-01
 -1      2825 1.16964E+00 3.17164E-01 3.17038E-01 1.29118E-02-2.80751E-03-4.72522E-02
 -1      2826 4.21793E-01 3.56471E-01 2.40582E-01-1.64621E-01-2.38820E-02-2.01399E-01
 -1      2827-6.08581E-01-1.01187E-01-1.34089E-01 3.56079E-01-7.74009E-02-9.53271E-02
 -1      2828-9.72203E-01-6.20401E-01-1.63681E-02 5.57100E-01-1.13631E-02-2.73591E-01
 -1      2829-1.16213E+00-3.40941E-01 1.30442E-01 4.17475E-01-6.87826E-02-1.36163E-01
 -1      2830-1.29413E+00-5.21935E-01-1.98885E-01 1.36884E-02 1.19353E-02-2.03556E-02
 -1      2831 9.47408E-01 3.11806E-01 7.47032E-02 3.98886E-01 2.06569E-01-1.58381E-01
 -1      2832 8.03033E-02-1.36886E-01 4.52349E-03 9.12209E-02 7.08724E-02 7.03722E-02
 -1      2833-1.89150E-02-5.96610E-01 2.24257E-02-1.77710E-02 5.59204E-01 5.34105E-02
 -1      2834 9.44353E-01-1.83084E-02 1.20437E-01 1.44426E-01-5.03182E-02-1.08321E-01
 -1      2835 8.95000E-01 6.15299E-01 1.76127E-01 2.62621E-01-1.89025E-02-1.90647E-01
 -1      2836 3.42659E-02 9.79482E-02 3.39862E-02 7.49673E-02-1.41730E-03 4.14936E-02
 -1      2837-5.43886E-01-2.67904E-01-1.22421E+00-2.07448E-01-1.73129E-01 6.61992E-01
 -1      2838-1.09184E+00-3.59036E-01-2.27433E-01 3.94032E-01-4.31645E-02-2.26223E-02
 -1      2839 8.76217E-02-1.71153E-02-1.17768E-02 1.69115E-01 4.77798E-02-3.90330E-01
 -1      2840-2.13856E-01-2.21898E-01-1.27970E-01-6.41709E-02 1.15032E-01-3.84006E-01
 -1      2841 1.44301E+00 5.84815E-01-1.64434E-01 4.27958E-01 2.69507E-01-2.58521E-01
 -1      2842-3.12098E-01-2.05783E-01-6.96871E-02 6.66878E-01-1.10584E-01-5.29337E-01
 -1      2843-3.16715E+00-1.25246E+00 1.16189E-01 1.96392E-01-1.36584E-01-1.36660E-01
 -1      2844-7.17768E-01-2.69394E-01 9.97646E-03-4.11652E-01 1.54667E-01-2.59979E-01
 -1      2845-1.49007E+00-5.99933E-01 1.25155E-01-1.36584E-01 6.63833E-02-2.13908E-01
 -1      2846 1.12109E+00 5.10509E-01-1.84973E-01-3.24991E-01-1.77829E-01-2.77830E-01
 -1      2847 1.29714E+00 4.20242E-01 2.97769E-01-2.05466E-01-4.05150E-01 6.98961E-02
 -1      2848 8.85648E-01 7.24354E-01 3.66578E-01 1.80210E-01-1.05349E-01-4.39128E-01
 -1      2849 4.88635E-01 2.46465E-01-1.02950E-01-4.84267E-01 1.81616E-02-3.83560E-01
 -1      2850 3.96191E-01 3.90504E-01 2.50787E-01 1.80477E-01-4.04467E-02-4.59078E-01
 -1      2851-2.78781E-01-1.62283E-01 1.15786E-01-1.90567E-01-9.52855E-03-4.05597E-01
 -1      2852-4.77934E-01-5.64598E-01-7.95417E-02-5.20750E-01 6.39737E-02-3.28892E-01
 -1      2853 8.91257E-01 3.34786E-01 5.26128E-02 2.50556E-01 1.12787E-01-4.14994E-01
 -1      2854-1.67088E+00-1.06198E+00 6.16605E-02 7.28068E-01-1.43123E-01-4.06193E-01
 -1      2855 7.04255E-01 3.43924E-01 2.69835E-01-1.48316E-01-6.52352E-03-3.99537E-01
 -1      2856 1.97935E+00 5.39979E-01 6.21530E-03-1.21489E-01-1.35305E-01 1.08587E-01
 -1      2857 4.35646E-01-7.19290E-02-3.57878E-01-5.60247E-01-8.64592E-02-5.07751E-01
 -1      2858-1.56834E+00-6.24383E-01 1.80801E-02-4.63063E-01 3.39652E-01 1.17713E-02
 -1      2859 4.47077E-01 3.47720E-01 8.11587E-02-3.27427E-01-4.29057E-02-3.68520E-01
 -1      2860 1.46379E+00 8.42569E-01 5.76322E-02-1.56725E-02 9.02907E-02-4.38635E-01
 -1      2861-3.88910E-01-2.54942E-01-1.33388E-01-7.64041E-02-5.56341E-03-4.37621E-01
 -1      2862-9.90659E-01-3.09230E-01-1.42822E-01 4.71264E-02-3.55312E-02-1.58232E-01
 -1      2863-4.25551E-01-2.29778E-01-3.60607E-02 1.69323E-01 7.77149E-02-4.56662E-01
 -1      2864-1.76022E-01-1.59380E-01 2.45630E-02 1.70715E-01 5.28373E-02-4.15920E-01
 -1      2865-3.17182E+00-1.42202E+00 5.48494E-02-4.71005E-02-1.10640E-02 9.18110E-02
 -1      2866 1.37365E+00 1.07718E+00 2.06531E-01 1.71838E-01-2.33457E-02-5.36857E-01
 -1      2867-8.98932E-01-4.02754E-01 9.72984E-02-1.11554E-01-7.02281E-02-3.93694E-01
 -1      2868 8.24173E-01 4.14291E-01-9.15778E-02-1.87589E-01 9.81377E-02-4.75370E-01
 -1      2869-3.88881E-01-5.09763E-01-1.00824E-01 1.65301E-01 2.24909E-02-5.87278E-01
 -1      2870-2.43639E+00-1.31065E+00 2.01181E-01 4.10714E-01-2.72204E-01-1.08830E-01
 -1      2871 1.57051E+00 9.44548E-01-6.07013E-02-1.63148E-01 3.85683E-02-2.25287E-01
 -1      2872-8.44792E-01-5.62632E-01-1.24993E-02-4.01336E-02-5.29848E-02-4.18438E-01
 -1      2873 5.58500E-01 2.92090E-01-2.53132E-05 3.63085E-01 1.52478E-01-3.20964E-01
 -1      2874 2.55744E+00 1.19067E+00 8.32187E-02 5.40782E-01 2.37194E-01-3.15327E-01
 -1      2875 4.71211E-01 4.93647E-01 1.12604E-02-1.91941E-01 1.02583E-01-4.09736E-01
 -1      2876-2.87830E-01-1.32310E-01-3.67198E-02-3.49527E-01-2.50439E-02-3.06371E-01
 -1      2877-1.60070E+00-5.75669E-01 3.43054E-01-4.11970E-01 2.93123E-01-3.30114E-02
 -1      2878-1.17249E+00-8.37580E-01-2.52632E-01 2.52354E-01 6.79136E-03-4.06106E-01
 -1      2879-1.85660E-01-2.08862E-01-1.32810E-01 7.57210E-02-1.76001E-02-4.06315E-01
 -1      2880 2.58915E+00 9.37993E-01 1.45921E-01-7.18854E-02 4.33492E-02-3.73297E-01
 -1      2881 4.20235E-01 4.00439E-01 2.43985E-01 4.57374E-02 4.09479E-02-3.31302E-01
 -1      2882 1.88135E-01 7.86678E-02-2.41081E-03 2.32650E-01-3.04041E-03-3.78196E-01
 -1      2883 6.67984E-01 4.36834E-01 3.73433E-02 5.08993E-01 2.32377E-02-4.02348E-01
 -1      2884 1.82871E+00 1.29873E+00 1.46493E-01-5.84027E-01 3.12395E-01-6.24149E-01
 -1      2885-1.55680E+00-5.18763E-01-3.11776E-01 3.25592E-01-2.60155E-01-1.09533E-02
 -1      2886 2.61254E+00 1.28785E+00-1.70653E-01 1.27386E-01 1.41007E-01-1.72162E-01
 -1      2887 1.15525E+00 5.17338E-01 1.78318E-01-1.82638E-01-4.13933E-02-2.58837E-01
 -1      2888 1.70795E+00 7.77161E-01-1.72682E-02-6.60027E-01-4.00076E-01-5.56986E-02
 -1      2889-7.04709E-01-5.24538E-01-4.69718E-01-1.90548E-02 9.64603E-02-5.18500E-01
 -1      2890-1.45845E+00-5.67412E-01-5.29901E-02-3.54316E-01 1.76165E-01-1.86503E-01
 -1      2891-1.17164E+00-2.23655E-01 1.28435E-01-2.32779E-01 4.02331E-01-6.03322E-02
 -1      2892 3.30503E+00 1.56999E+00 4.66249E-01-6.71182E-02-3.03038E-01 1.46454E-01
 -1      2893 4.48664E-01-1.57055E-03-7.12886E-02 2.48853E-01 3.31960E-01-1.22240E-01
 -1      2894 2.47706E+00 1.23218E+00-1.97726E-01 2.28747E-01 2.03583E-01 2.10207E-01
 -1      2895-5.56936E-01-2.69632E-01 1.01579E-01 5.34548E-01 5.89807E-02-5.51616E-01
 -1      2896-5.78617E-01-5.45898E-02-1.10290E-02 7.99745E-01-1.26982E-01-4.45035E-01
 -1      2897-2.08082E+00-1.15976E+00-2.03077E-01-2.99406E-01-1.78888E-02-5.11611E-01
 -1      2898 1.42184E+00 5.78521E-01 8.10523E-02 5.77734E-01 4.09972E-01-3.63227E-01
 -1      2899-1.52420E+00-8.33070E-01-2.26287E-01-3.93957E-01-2.58707E-02-3.44882E-01
 -1      2900-3.26463E-02-3.77153E-02-6.93608E-02 5.83446E-01-1.94226E-02-3.64825E-01
 -1      2901 1.06503E+00 7.35663E-01 4.08821E-02-2.30869E-01 9.62098E-02-5.61657E-01
 -1      2902 5.46806E-01 2.87762E-01 1.40029E-01 3.65890E-01-5.57275E-04-4.38015E-01
 -1      2903-2.65498E+00-1.24596E+00-1.55529E-01 5.90800E-01-4.51645E-01 1.91003E-01
 -1      2904 2.74873E+00 1.50460E+00 2.86027E-01-2.09608E-01 1.12941E-01-5.83453E-01
 -1      2905 1.63656E+00 1.03725E+00 2.81468E-01 6.69531E-02-1.32458E-01-4.26480E-01
 -1      2906-2.67716E+00-1.50786E+00-9.28149E-01 5.69856E-01-4.69072E-02-1.01103E+00
 -1      2907 4.94523E-01 2.94708E-01 3.78271E-01-5.84990E-02-6.50910E-02-6.50218E-01
 -1      2908-2.27368E+00-1.32978E+00-1.12549E-01 1.52144E-01 3.53929E-02-7.31760E-01
 -1      2909-2.49217E+00-1.65550E+00-1.06769E-01-1.89579E-01-8.15742E-02-1.99897E-01
 -1      2910 2.20839E+00 1.24584E+00 2.22293E-01 7.04132E-01-2.78089E-02-6.06140E-01
 -1      2911 1.59269E+00 7.90224E-01-2.52888E-01-2.83581E-01-3.68407E-01-1.35652E-01
 -1      2912-1.36560E+00-2.58607E-01 3.95631E-02 1.94647E-01-2.31816E-01 1.14473E-01
 -1      2913-2.07675E+00-1.15380E+00-7.83183E-02-1.66163E-01-8.80705E-02-4.54218E-01
 -1      2914 1.11383E+00 5.63924E-01-1.11533E-01 2.21201E-01 3.91119E-01-1.40188E-01
 -1      2915-7.57540E-01-3.66162E-01 1.49569E-01 2.31897E-01-3.50477E-01-5.38641E-01
 -1      2916-1.05749E+00-1.04362E+00-9.85209E-02-1.17848E+00 1.51874E-02-7.73026E-01
 -1      2917-5.97377E-02 3.40377E-02-4.33465E-02-5.39312E-01-2.89447E-02-4.05132E-01
 -1      2918-4.88991E-01-1.81122E-01-1.64560E-01-4.90299E-03 2.78005E-03-5.53940E-01
 -1      2919-4.36730E-01-1.73922E-01-5.56333E-02 5.06404E-01-1.66532E-01-3.38409E-01
 -1      2920 1.06056E+00 9.91583E-01 6.74365E-01 6.43928E-01-1.82713E-01-6.11439E-01
 -1      2921-7.20963E-01-7.44148E-01-5.21396E-01 4.44523E-01 1.48514E-01-5.34964E-01
 -1      2922 3.74051E+00 2.47172E+00 1.07502E+00 2.16092E-01 1.04104E-01-7.94574E-01
 -1      2923-1.16898E+00-9.64915E-01-5.16242E-01 2.41328E-01 1.84764E-01-6.77119E-01
 -1      2924-3.43701E+00-2.08724E+00-8.13643E-01-2.37564E-01-3.34610E-02-7.63345E-01
 -1      2925 2.81524E-01-2.09934E-02 1.88239E-02 3.62570E-01 2.81287E-01-7.30217E-01
 -1      2926 3.91371E-01 2.54641E-01 8.62171E-01-6.37209E-02-9.01452E-02-6.06616E-01
 -1      2927 6.43894E-01 2.08646E-01 2.39715E-01 3.89524E-03 3.26245E-02-6.05019E-01
 -1      2928 4.55168E+00 2.72068E+00 8.33835E-01-1.58612E-01 1.43534E-01-8.03383E-01
 -1      2929 2.96375E+00 1.74288E+00 3.97267E-01-9.13133E-01 1.99223E-01-9.88142E-01
 -1      2930 3.36781E-01 2.74984E-01 8.27106E-01 1.57123E-02 1.90963E-02-6.13461E-01
 -1      2931 4.42952E+00 2.91122E+00 1.63273E+00-4.98117E-01-7.10879E-03-1.09239E+00
 -1      2932 1.04295E+00 9.07676E-01 1.32671E+00 3.11586E-02-3.05847E-02-9.51433E-01
 -1      2933 4.19401E-01 1.39830E-01 9.01412E-02 4.65537E-02-1.33085E-01-4.43141E-01
 -1      2934-1.18785E-01-1.55468E-01-3.21446E-01-1.65289E-01-7.66019E-02-1.94689E-01
 -1      2935 4.12746E-01 3.32086E-01-2.14720E-01 9.10241E-01 1.27226E-01-3.92808E-01
 -1      2936 3.06737E-01 1.53788E-01 2.78767E-01-1.51710E-01 1.65755E-01-2.43228E-01
 -1      2937 5.75184E-01 3.34049E-01 3.26585E-01 4.27578E-02-1.94908E-02-6.30872E-01
 -1      2938 1.01153E+00 5.77659E-01 2.05929E-01 9.88869E-01-1.52269E-02-7.79429E-01
 -1      2939-5.46427E-01-2.46001E-01-2.69797E-01-6.06673E-02-1.42139E-01-5.21448E-01
 -1      2940-3.44120E-01-2.84083E-01-8.29101E-01-9.32889E-03-1.34822E-01-5.77793E-01
 -1      2941 1.64163E+00 6.69909E-01 4.34540E-02 2.08111E-01 1.09456E-01-5.59019E-03
 -1      2942-2.24117E-02-6.05658E-02-1.68350E-01 1.77488E-01 5.59575E-02-1.73446E-01
 -1      2943 4.43482E-02 3.25134E-02-1.44717E-02 1.33630E-01-1.62431E-02-3.46962E-01
 -1      2944-3.16481E-01-1.25053E-01 4.99377E-02-5.36829E-02-9.89433E-02-4.10546E-01
 -1      2945 4.43195E-01 1.91147E-01 1.58681E-01 1.14780E-01-1.82967E-01-3.96946E-01
 -1      2946-3.98453E-01-3.52469E-01-1.03825E+00-2.77901E-02-2.52281E-02-6.79153E-01
 -1      2947 3.02432E-01 1.14393E-01 7.51137E-01-2.80229E-02-1.95367E-01-5.32666E-01
 -1      2948-2.00635E+00-1.05809E+00-6.57554E-02 7.25303E-01-2.63520E-01-2.72591E-03
 -1      2949 1.41048E+00 9.80899E-01 1.28892E+00 7.85965E-02 1.28128E-01-7.48926E-01
 -1      2950-1.91523E-01-4.53572E-02 1.16315E-01 9.70351E-02 9.45871E-03-2.09990E-01
 -1      2951 1.39734E-01 1.13309E-01 3.97277E-01 1.77506E-01-1.58334E-01-3.24125E-01
 -1      2952 5.19882E-01 2.26133E-01 7.25408E-01 1.43775E-01-2.32311E-01-6.53242E-01
 -1      2953 1.42878E+00 5.56643E-01-2.08389E-02-2.87339E-02-2.63857E-01 1.18330E-01
 -1      2954-5.36099E-01-1.78450E-01-3.32155E-01 1.09239E-01 1.25359E-01-5.21300E-01
 -1      2955-2.47529E-01-6.12921E-02-4.25821E-01 2.42367E-02 1.44467E-01-3.61490E-01
 -1      2956 2.29736E-01 4.59814E-02-1.41174E-01 1.23175E-01-3.01065E-02-3.01374E-01
 -1      2957 9.39411E-01 6.03696E-01 2.97037E-01-8.89563E-01-8.23821E-02-8.77670E-01
 -1      2958 1.02706E+00 8.60876E-01 8.86374E-01-1.57954E-02-1.35883E-01-5.51399E-01
 -1      2959 1.88120E+00 1.48396E+00 4.36421E-01 5.08694E-01-1.66889E-01-4.44625E-01
 -1      2960 8.49574E-01 5.87294E-01 7.94406E-01-8.58714E-02-1.71025E-01-7.03435E-01
 -1      2961 2.65377E-01 2.88241E-01 7.06757E-01 2.89421E-01-2.39841E-01-5.04737E-01
 -1      2962 2.30651E-01 4.12168E-02 3.18275E-01 9.50707E-02-1.21685E-01-3.79091E-01
 -1      2963-1.59751E+00-6.71944E-01-1.25876E-02 8.20612E-01-3.75155E-01-1.71616E-01
 -1      2964 3.07501E-01 2.30274E-01 3.66614E-01 1.97814E-01-2.29700E-01-2.86770E-01
 -1      2965-1.88593E-01-9.18484E-02 1.26038E-01-7.78938E-02 2.82733E-02-2.51021E-01
 -1      2966-3.10760E-01-1.46906E-01-5.91532E-01-1.37473E-02-1.40115E-01-4.72691E-01
 -1      2967-7.30833E-01-3.18454E-01-2.23485E-01 1.64169E-02-1.63012E-01-4.08563E-01
 -1      2968-2.49762E-02-2.37625E-02 7.18790E-03-1.56557E-01-9.57398E-03-2.83032E-01
 -1      2969 6.99593E-01 2.77662E-01 1.98770E-01 6.47243E-01 1.69160E-01-4.37965E-01
 -1      2970 3.51848E+00 2.26017E+00 5.61234E-01 4.14167E-01-7.04517E-02-6.78428E-01
 -1      2971 9.63078E-01 6.62975E-01 1.31862E+00 1.01957E-01-1.60836E-01-7.29035E-01
 -1      2972 5.24315E-01 2.20262E-01 8.74751E-02-4.64256E-02 1.09817E-01-4.73515E-01
 -1      2973 4.32400E-01 4.06198E-03-2.16981E-01 1.56127E-01 3.01405E-02-3.05380E-01
 -1      2974-8.83305E-01-7.47852E-01-1.17295E+00-7.83200E-02 1.44423E-01-9.30651E-01
 -1      2975 2.12812E-02-6.11577E-02-5.18844E-01 2.27555E-01 1.55552E-01-3.71801E-01
 -1      2976-1.27413E+00-5.83866E-01-1.17913E-01 1.44550E-02-2.01935E-01 9.87773E-02
 -1      2977-8.94006E-01-7.79278E-01-1.32212E+00-6.32035E-02-9.73511E-02-8.51515E-01
 -1      2978-4.96036E-01-2.17570E-01-1.13991E-01-8.01636E-02-1.78241E-01-5.52891E-01
 -1      2979-1.05708E+00-2.66410E-01-2.22458E-01 1.08271E+00-2.11550E-01-8.60321E-01
 -1      2980 2.19474E-01 2.76888E-02 2.37613E-01-8.29506E-02 6.54389E-02-3.48267E-01
 -1      2981-4.80328E-01-4.38989E-01-1.24769E+00-3.59611E-02 1.67996E-01-8.56468E-01
 -1      2982-4.43130E+00-2.66078E+00-6.48046E-01-1.63780E-01 2.03453E-02-6.74740E-01
 -1      2983-5.47203E-01-2.68067E-01-2.91733E-01 1.17469E-01 2.01305E-01-4.35082E-01
 -1      2984-1.19927E+00-8.82104E-01-7.55098E-01 1.63955E-02-2.02999E-01-5.69337E-01
 -1      2985-1.77504E-01-2.64875E-01-6.76156E-01-3.07180E-01-1.35234E-01-3.39920E-01
 -1      2986-9.07237E-01-3.80784E-01-2.65020E-01-5.57470E-01 3.44551E-01-3.52013E-01
 -1      2987-5.00994E-01-2.09973E-01-4.53240E-01-8.07722E-03-7.62719E-02-6.20661E-01
 -1      2988-3.85262E+00-2.53069E+00-5.01935E-01 2.16120E-01-1.14164E-01-5.45090E-01
 -1      2989-4.44033E-01-1.17979E-01 3.58013E-01 1.57559E-01 2.84030E-02-3.04592E-01
 -1      2990 6.15396E-01 2.98012E-01 1.95897E-01-2.13559E-02-8.38411E-02-3.23075E-01
 -1      2991 6.22752E-01 3.60619E-01 8.32857E-01 1.39711E-01-2.15333E-01-4.53191E-01
 -1      2992-3.42625E-01-1.84759E-01-2.53604E-01 1.44987E-01 1.58207E-01-2.35366E-01
 -1      2993-2.44014E+00-1.59804E+00-2.41681E-01 2.79782E-01 8.62478E-02-7.25108E-01
 -1      2994 4.27414E-01 2.43913E-01-1.75526E-02-4.70818E-02 1.37961E-01-3.70188E-01
 -1      2995 3.25342E-01 2.67919E-01 9.55392E-01 6.03557E-02 1.03739E-01-6.43879E-01
 -1      2996-4.79187E-01-2.08099E-01-3.51789E-01-1.44400E-01-2.14653E-01-4.22834E-01
 -1      2997 2.76408E-02 5.89279E-02 3.12357E-01-2.05589E-01 1.45783E-01-2.96239E-01
 -1      2998-2.32719E-01-4.62785E-02-2.99800E-01-9.00217E-02-9.21530E-02-3.73401E-01
 -1      2999-6.29091E-01-5.35649E-01-1.02947E+00-5.62742E-02-2.39905E-01-6.40937E-01
 -1      3000 4.31963E-02 7.82811E-02 6.20652E-01-3.42983E-01 2.86123E-01-3.06011E-01
 -1      3001 7.15631E-01 4.97643E-01 9.48313E-01-1.92509E-01 1.86106E-01-4.69860E-01
 -1      3002 3.37731E-01 3.34224E-01 2.23656E-01 5.14998E-01 2.81006E-01-9.39502E-01
 -1      3003-3.34430E+00-1.45802E+00-8.51444E-01-6.71908E-01 3.79853E-01-1.17567E+00
 -1      3004-5.42870E-01-1.83164E-01-1.36127E-01 9.99111E-02 1.58426E-01-3.89118E-01
 -1      3005-3.31032E-01-2.00455E-01-6.79128E-01 2.09264E-02 1.68278E-01-4.58784E-01
 -1      3006-3.89119E+00-2.20998E+00-1.40656E+00 1.87251E-01 2.32733E-02-1.24985E+00
 -1      3007-8.27426E-01-6.93872E-01-1.47726E+00 5.54362E-02 1.62957E-01-1.07152E+00
 -1      3008-4.26827E-01-2.06301E-01-1.42121E-01 5.25298E-02 1.22960E-01-5.31024E-01
 -1      3009-8.36873E-01-6.29031E-01-5.82503E-01-2.84658E-02 2.93631E-01-6.67245E-01
 -1      3010 1.69526E-01-1.49860E-02-1.94569E-01-1.43732E-01-4.07172E-02-2.74562E-01
 -1      3011-1.40430E+00-1.01882E+00-8.65895E-01 1.73610E-01 2.90658E-01-4.60606E-01
 -1      3012-1.18661E+00-8.50281E-01-1.29068E+00 8.02401E-02 1.97372E-01-6.65848E-01
 -1      3013-1.13509E+00-9.04221E-01-1.31168E+00 7.82730E-02-1.86763E-01-8.59067E-01
 -1      3014 4.01884E-01 1.96774E-01 5.90516E-01 1.78960E-02 1.97546E-01-4.62762E-01
 -1      3015 5.17163E-01 2.39005E-01 4.90424E-01-4.63055E-02 5.46977E-02-5.81831E-01
 -1      3016-5.97003E-01-3.04239E-01-6.13315E-01 1.16565E-01 2.44889E-01-4.20309E-01
 -1      3017 8.42284E-01 6.41018E-01 5.83795E-01 3.06765E-02 1.35717E-01-4.86096E-01
 -1      3018 1.40549E+00 1.05158E+00 1.50249E+00-5.16457E-02-6.98532E-02-8.37971E-01
 -1      3019-6.76246E-01-1.77656E-01 2.28371E-01-2.55624E-01 4.64033E-02-3.05351E-01
 -1      3020-2.08484E-01-1.50952E-01-3.67378E-01-1.68093E-01-1.59864E-01-2.48188E-01
 -1      3021 4.07022E-01-7.62690E-03-2.89659E-01-1.58445E-01-1.14681E-01-2.82347E-01
 -1      3022 9.41681E-01 5.25831E-01 2.09790E-01 7.38445E-02 1.38341E-01-2.37803E-01
 -1      3023 5.05730E-01 2.92880E-01 4.84500E-01-1.78610E-01 2.42830E-01-4.64697E-01
 -1      3024 9.58367E-01 7.39815E-01 1.09379E+00-2.75390E-02 2.43194E-01-6.26589E-01
 -1      3025-5.60046E-01-4.79578E-01-9.15612E-01-1.41895E-01-2.40046E-01-5.00237E-01
 -1      3026 3.20418E-02 6.30196E-01 5.70102E-01 9.56286E-03 2.27100E-01 1.98886E-01
 -1      3027-1.00829E-01-5.77753E-02-2.79134E-01-1.94894E-01-1.50883E-02-7.44434E-01
 -1      3028 1.88381E-01 3.46810E-01 5.16294E-01 3.61844E-02 3.82975E-01-6.00748E-01
 -1      3029-4.81979E-01 7.15587E-02 2.32676E-01-1.98925E-01 4.35366E-01-1.39373E-01
 -1      3030-1.37024E-01-2.69781E-01-3.54846E-01-6.08077E-02-1.07178E-01-3.67540E-01
 -1      3031-5.18138E-02-1.88569E-01-7.19594E-01-1.52872E-01-4.47872E-01-5.62933E-01
 -1      3032-2.60748E-02-2.52524E-02-2.98913E-01-3.43728E-02 1.65333E-01-6.63025E-01
 -1      3033 2.89579E-01 4.31374E-01 4.03036E-01-3.02290E-02 8.31764E-03-1.89226E-01
 -1      3034 3.69108E-01 4.03896E-01 4.31793E-01 8.48503E-02 3.17569E-02-4.05992E-01
 -1      3035-1.35152E-02 1.30933E-01-2.32966E-02 5.48599E-02-7.24172E-03-3.69326E-01
 -1      3036 2.58100E-02 1.54899E-01 3.80488E-01 2.08286E-01-1.84251E-01-2.35502E-01
 -1      3037-2.74414E-01-6.85583E-01-8.01852E-01-4.17913E-02 2.92419E-01 2.05645E-01
 -1      3038 1.55749E+00 1.63362E+00 1.11899E+00 5.12926E-02 1.67932E-01-1.46837E-01
 -1      3039-2.23185E-01 5.22019E-01 6.34204E-01 9.20827E-02-1.74355E-01 8.65544E-02
 -1      3040 3.72261E-02 5.23766E-01 6.42817E-01 1.27851E-01-6.40283E-04-1.22919E-01
 -1      3041-3.58547E-01-4.25583E-01-3.82062E-01 7.04299E-02 1.62820E-01-4.27512E-01
 -1      3042 5.22019E-01 3.14965E-01 1.26430E-01 4.55551E-01 9.35128E-02-7.46691E-01
 -1      3043 9.93815E-02-2.51525E-01-6.92620E-01 3.01023E-01 3.76889E-01-3.29991E-01
 -1      3044-1.05315E-01 2.73146E-01 4.19363E-01-7.81073E-02 2.30385E-01 9.16076E-03
 -1      3045 6.06744E-01-1.14209E-01-1.56129E-01-9.27506E-02-2.20060E-01-8.26495E-02
 -1      3046-6.08456E-01-4.63331E-02-8.31202E-02 4.73614E-01-1.89844E-01-1.31251E+00
 -1      3047 7.19862E-02 8.59418E-02 2.46215E-01 1.06186E-01-1.62597E-02-5.25303E-01
 -1      3048 5.58833E-02 1.38603E-02-1.04045E-01 1.29603E-01 6.56115E-02-4.29624E-01
 -1      3049 1.50464E+00 8.53604E-01 9.11930E-01 4.35676E-01 5.53095E-02-8.00731E-01
 -1      3050-1.32420E+00-7.28844E-01-8.02729E-01 1.32935E-01-3.74294E-01-8.70060E-01
 -1      3051-3.20197E-01-4.94873E-01-3.85665E-01 3.27298E-02 1.36625E-01-2.18446E-01
 -1      3052-5.28926E-02-1.59361E-02-1.66037E-01 1.42649E-01-1.06794E-01-8.90661E-01
 -1      3053 1.90876E-02-1.24005E-02 1.47368E-01 8.30961E-02-5.37056E-02-4.23566E-01
 -1      3054 4.40160E-01 1.41833E-01 1.97498E-01-3.39159E-01-1.55801E-01-9.51728E-01
 -1      3055 1.18831E+00 7.26305E-01 8.11708E-01 2.16179E-01 4.11336E-01-1.08685E+00
 -1      3056-1.58906E+00-1.19714E+00-1.11141E+00 2.33806E-01 3.83357E-01-4.42083E-01
 -1      3057-1.08276E-01 1.03750E-01 1.20523E-01-4.67374E-02-1.23328E-01-4.76666E-01
 -1      3058 2.30014E-01 3.90992E-01 6.52577E-01-6.82602E-03 1.92617E-01-3.37747E-01
 -1      3059 1.64771E+00 1.90963E+00 1.21695E+00 9.07658E-02-1.75778E-01-5.20971E-02
 -1      3060-3.39651E-01-3.77464E-01-4.33525E-01-2.96001E-01-4.69528E-01-1.44702E-01
 -1      3061-1.42873E-01 1.43707E-01 5.80633E-01 2.54503E-01-5.23340E-01-1.93648E-01
 -1      3062-1.57014E-01-2.66142E-01-5.85195E-01 1.01089E-01 5.19799E-01-4.61098E-01
 -1      3063-6.53864E-01-4.14446E-01-7.92549E-02-5.26857E-01 7.40080E-02-8.88445E-01
 -1      3064 1.22407E-01 2.90829E-01 3.38263E-01-3.02171E-02 6.63465E-03-3.06705E-01
 -1      3065 8.33517E-02 4.62593E-01 6.82902E-01 3.29840E-02 6.85667E-02-2.45805E-02
 -1      3066 3.30535E+00 2.64645E+00 1.60500E+00-1.32850E-02 3.82883E-02-6.53297E-01
 -1      3067 1.56786E+00 8.26862E-01 5.45514E-01-2.94546E-01-1.69136E-01-9.08199E-01
 -1      3068-1.12145E-01-2.61727E-01-4.90065E-01 1.17263E-01-1.80522E-01-4.35717E-01
 -1      3069-4.07035E-01-2.03406E-01-2.28700E-01 3.10800E-01-4.09308E-02-6.82054E-01
 -1      3070 2.16670E+00 1.56459E+00 1.37135E+00 6.85160E-02-4.66122E-01-5.96758E-01
 -1      3071 8.62142E-02-2.92471E-01-4.40263E-01 2.01857E-01 8.14637E-02 1.17053E-02
 -1      3072-1.59967E-01-3.25176E-01-4.15680E-01 2.00705E-01 4.43362E-01-1.37069E-01
 -1      3073-1.13752E-01 1.31490E-01-1.73489E-02-7.68846E-02 2.71807E-01-3.70002E-01
 -1      3074-1.13568E+00-8.08952E-01-2.93803E-01-6.15987E-02-8.14640E-02-2.55260E-01
 -1      3075-2.16963E-01-5.51915E-01-6.44594E-01-1.09067E-01 3.32288E-03 2.61124E-01
 -1      3076 1.23966E+00 1.09430E+00 1.02081E+00-2.12098E-01 5.41015E-01-3.00504E-01
 -1      3077 3.57726E-02-6.32068E-02 6.60794E-02-1.23415E-01-1.89952E-01-3.12083E-01
 -1      3078-1.51062E+00-1.98597E+00-1.35407E+00 7.17175E-02 3.77062E-01-2.64649E-02
 -1      3079-3.62235E-01-2.65802E-01-5.39880E-01-4.15233E-03 3.59893E-02-4.87593E-01
 -1      3080 2.21622E-01 2.88613E-01 1.33136E-01 2.11090E-01-2.92761E-01-7.45578E-02
 -1      3081 8.18618E-02 2.55430E-01 4.41806E-01 1.59218E-01-8.51253E-03-4.03321E-01
 -1      3082-7.14142E-01-3.30839E-01-3.15494E-01-7.85979E-02 1.85649E-01-5.65110E-01
 -1      3083-2.04051E+00-6.64701E-01-3.94542E-01-2.37264E-01 6.53759E-01-1.03014E+00
 -1      3084-1.58029E+00-1.13537E+00-9.10710E-01-1.78142E-01-3.22135E-01-4.46030E-01
 -1      3085-1.36243E-01-2.22113E-01-2.46374E-01 1.84366E-01-4.15185E-01-4.84763E-01
 -1      3086-1.72243E-01-4.10438E-01-6.33824E-01-3.55314E-02-1.60027E-01-3.04459E-01
 -1      3087-2.96718E+00-2.28112E+00-1.21518E+00 2.46799E-02 1.76096E-01-4.07059E-01
 -1      3088-9.41356E-03 8.02462E-02 2.22399E-01-6.89299E-02 4.63816E-02-4.63249E-01
 -1      3089-2.13955E+00-2.20543E+00-1.07855E+00-1.29725E-01-2.99298E-01-7.04053E-02
 -1      3090 1.87375E-03-3.14755E-01-3.51896E-01-4.35144E-02-2.48774E-01 4.28737E-02
 -1      3091 3.27865E-01 4.75073E-01 7.31866E-01 2.81307E-02-2.15582E-01-1.23964E-01
 -1      3092 2.22736E+00 1.58004E+00 1.01125E+00 5.16389E-02 1.07116E-01-4.72746E-01
 -1      3093-4.85265E-01-2.27432E-01 3.73131E-01 3.16268E-01-1.49078E-01-4.74287E-01
 -1      3094-2.65793E-01-4.24568E-02 3.20646E-01 6.12869E-02 4.15236E-01-3.04858E-01
 -1      3095 3.97739E-02 1.35397E-01 5.22490E-01 1.43823E-01 2.69274E-01-7.23559E-01
 -1      3096-2.55170E+00-2.15615E+00-1.48618E+00-6.27932E-02-1.69260E-01-4.62427E-01
 -1      3097 1.07403E-01-2.78166E-02-2.25935E-01 2.18903E-01-2.87169E-02-6.30698E-01
 -3
 9999
