    1C
    1U meshsolid_t.inp                                                  
    1UUSER                                                              
    1UDATE              11.july.2016                                    
    1UTIME              01:26:47                                        
    1UHOST                                                              
    1UPGM               CalculiX                                        
    1UVERSION           Version 2.10                             
    1UCOMPILETIME       Sa 5. MÃ¤r 12:23:33 CET 2016                    
    1UDIR                                                               
    1UDBN                                                               
    1UMAT    1PDMS                                                      
    2C                          2766                                     1
 -1         1 2.32070E+00-4.50000E-01 5.00000E-01
 -1         2 2.32070E+00-4.50000E-01 1.45000E+00
 -1         3 8.13414E+00 9.00000E-01 1.45000E+00
 -1         4 5.28227E+00 4.50000E-01 1.45000E+00
 -1         5 5.28227E+00-4.50000E-01 1.45000E+00
 -1         6 8.13414E+00 4.50000E-01 1.45000E+00
 -1         7 1.10957E+01 4.50000E-01 5.00000E-01
 -1         8 1.10957E+01-4.50000E-01 1.45000E+00
 -1         9 1.10957E+01 4.50000E-01 1.45000E+00
 -1        10 5.28227E+00 4.50000E-01 5.00000E-01
 -1        11 2.32070E+00 4.50000E-01 1.45000E+00
 -1        12 5.28227E+00-4.50000E-01 5.00000E-01
 -1        13 8.13414E+00-4.50000E-01 1.45000E+00
 -1        14 8.13414E+00-4.50000E-01 5.00000E-01
 -1        15 8.13414E+00 9.00000E-01 5.00000E-01
 -1        16 5.28227E+00-9.00000E-01 1.45000E+00
 -1        17 8.13414E+00-9.00000E-01 1.45000E+00
 -1        18 5.28227E+00 9.00000E-01 1.45000E+00
 -1        19 7.68717E+00 2.69706E+00 1.45000E+00
 -1        20 1.00789E+01 4.66189E+00 1.45000E+00
 -1        21 7.34276E+00 3.52855E+00 1.45000E+00
 -1        22 5.22459E+00 1.18994E+00 1.45000E+00
 -1        23 7.17055E+00 3.94429E+00 1.45000E+00
 -1        24 1.00789E+01 4.66189E+00 5.00000E-01
 -1        25 1.04233E+01 3.83040E+00 1.45000E+00
 -1        26 4.70797E+00 2.43718E+00 1.45000E+00
 -1        27 1.97184E+00 1.30384E+00 1.45000E+00
 -1        28 2.31626E+00 4.72349E-01 1.45000E+00
 -1        29 5.05239E+00 1.60569E+00 1.45000E+00
 -1        30 5.05239E+00 1.60569E+00 5.00000E-01
 -1        31 5.22459E+00 1.18994E+00 5.00000E-01
 -1        32 4.53576E+00 2.85293E+00 1.45000E+00
 -1        33 4.70797E+00 2.43718E+00 5.00000E-01
 -1        34 7.85938E+00 2.28131E+00 1.45000E+00
 -1        35 7.68717E+00 2.69706E+00 5.00000E-01
 -1        36 7.85938E+00 2.28131E+00 5.00000E-01
 -1        37 7.17055E+00 3.94429E+00 5.00000E-01
 -1        38 7.34276E+00 3.52855E+00 5.00000E-01
 -1        39 4.53576E+00 2.85293E+00 5.00000E-01
 -1        40 1.32279E+00 1.95918E+00 1.45000E+00
 -1        41 1.95918E+00 1.32279E+00 5.00000E-01
 -1        42 5.43351E+00 6.06990E+00 1.45000E+00
 -1        43 4.05332E+00 3.41693E+00 1.45000E+00
 -1        44 7.52765E+00 8.16405E+00 5.00000E-01
 -1        45 7.52765E+00 8.16405E+00 1.45000E+00
 -1        46 5.43351E+00 6.06990E+00 5.00000E-01
 -1        47 1.95918E+00 1.32279E+00 1.45000E+00
 -1        48 8.16405E+00 7.52765E+00 1.45000E+00
 -1        49 6.06990E+00 5.43351E+00 1.45000E+00
 -1        50 4.37152E+00 3.09873E+00 1.45000E+00
 -1        51 3.09873E+00 4.37152E+00 1.45000E+00
 -1        52 3.41693E+00 4.05332E+00 1.45000E+00
 -1        53 6.38810E+00 5.11531E+00 5.00000E-01
 -1        54 6.38810E+00 5.11531E+00 1.45000E+00
 -1        55 5.11531E+00 6.38810E+00 1.45000E+00
 -1        56 4.37152E+00 3.09873E+00 5.00000E-01
 -1        57 4.72349E-01 2.31626E+00 5.00000E-01
 -1        58 2.28131E+00 7.85938E+00 1.45000E+00
 -1        59 3.52855E+00 7.34276E+00 1.45000E+00
 -1        60 2.85293E+00 4.53576E+00 1.45000E+00
 -1        61 2.69706E+00 7.68717E+00 1.45000E+00
 -1        62 2.43718E+00 4.70797E+00 1.45000E+00
 -1        63 1.30384E+00 1.97184E+00 1.45000E+00
 -1        64 4.72349E-01 2.31626E+00 1.45000E+00
 -1        65 3.83040E+00 1.04233E+01 1.45000E+00
 -1        66 4.66189E+00 1.00789E+01 1.45000E+00
 -1        67 2.69706E+00 7.68717E+00 5.00000E-01
 -1        68 3.83040E+00 1.04233E+01 5.00000E-01
 -1        69 1.60569E+00 5.05239E+00 1.45000E+00
 -1        70 1.30384E+00 1.97184E+00 5.00000E-01
 -1        71 3.52855E+00 7.34276E+00 5.00000E-01
 -1        72 2.43718E+00 4.70797E+00 5.00000E-01
 -1        73 1.18994E+00 5.22459E+00 5.00000E-01
 -1        74 1.18994E+00 5.22459E+00 1.45000E+00
 -1        75 3.94429E+00 7.17055E+00 5.00000E-01
 -1        76 3.94429E+00 7.17055E+00 1.45000E+00
 -1        77 4.50000E-01 1.10957E+01 1.45000E+00
 -1        78-4.50000E-01 8.13414E+00 1.45000E+00
 -1        79 4.50000E-01 5.28227E+00 1.45000E+00
 -1        80-4.50000E-01 1.10957E+01 1.45000E+00
 -1        81-4.50000E-01 1.10957E+01 5.00000E-01
 -1        82-4.50000E-01 2.32070E+00 5.00000E-01
 -1        83-4.50000E-01 5.28227E+00 5.00000E-01
 -1        84-4.50000E-01 2.32070E+00 1.45000E+00
 -1        85 4.50000E-01 2.32070E+00 1.45000E+00
 -1        86 4.50000E-01 8.13414E+00 1.45000E+00
 -1        87 9.00000E-01 5.28227E+00 5.00000E-01
 -1        88-9.00000E-01 5.28227E+00 5.00000E-01
 -1        89-9.00000E-01 5.28227E+00 1.45000E+00
 -1        90-4.50000E-01 5.28227E+00 1.45000E+00
 -1        91 9.00000E-01 8.13414E+00 5.00000E-01
 -1        92-4.50000E-01 8.13414E+00 5.00000E-01
 -1        93 9.00000E-01 5.28227E+00 1.45000E+00
 -1        94 9.00000E-01 8.13414E+00 1.45000E+00
 -1        95-9.00000E-01 8.13414E+00 5.00000E-01
 -1        96-9.00000E-01 8.13414E+00 1.45000E+00
 -1        97-1.30384E+00 1.97184E+00 1.45000E+00
 -1        98-1.60569E+00 5.05239E+00 1.45000E+00
 -1        99-2.28131E+00 7.85938E+00 1.45000E+00
 -1       100-2.43718E+00 4.70797E+00 1.45000E+00
 -1       101-2.69706E+00 7.68717E+00 1.45000E+00
 -1       102-2.85293E+00 4.53576E+00 1.45000E+00
 -1       103-3.52855E+00 7.34276E+00 1.45000E+00
 -1       104-3.83040E+00 1.04233E+01 1.45000E+00
 -1       105-3.94429E+00 7.17055E+00 1.45000E+00
 -1       106-4.66189E+00 1.00789E+01 1.45000E+00
 -1       107-1.30384E+00 1.97184E+00 5.00000E-01
 -1       108-4.72349E-01 2.31626E+00 1.45000E+00
 -1       109-1.18994E+00 5.22459E+00 1.45000E+00
 -1       110-2.85293E+00 4.53576E+00 5.00000E-01
 -1       111-1.95918E+00 1.32279E+00 1.45000E+00
 -1       112-1.95918E+00 1.32279E+00 5.00000E-01
 -1       113-3.41693E+00 4.05332E+00 1.45000E+00
 -1       114-4.37152E+00 3.09873E+00 1.45000E+00
 -1       115-1.32279E+00 1.95918E+00 1.45000E+00
 -1       116-7.52765E+00 8.16405E+00 1.45000E+00
 -1       117-6.06990E+00 5.43351E+00 5.00000E-01
 -1       118-8.16405E+00 7.52765E+00 1.45000E+00
 -1       119-4.37152E+00 3.09873E+00 5.00000E-01
 -1       120-4.05332E+00 3.41693E+00 1.45000E+00
 -1       121-4.05332E+00 3.41693E+00 5.00000E-01
 -1       122-5.43351E+00 6.06990E+00 5.00000E-01
 -1       123-5.11531E+00 6.38810E+00 1.45000E+00
 -1       124-5.11531E+00 6.38810E+00 5.00000E-01
 -1       125-5.43351E+00 6.06990E+00 1.45000E+00
 -1       126-6.06990E+00 5.43351E+00 1.45000E+00
 -1       127-3.09873E+00 4.37152E+00 1.45000E+00
 -1       128-3.09873E+00 4.37152E+00 5.00000E-01
 -1       129-6.38810E+00 5.11531E+00 5.00000E-01
 -1       130-6.38810E+00 5.11531E+00 1.45000E+00
 -1       131-1.97184E+00 1.30384E+00 1.45000E+00
 -1       132-2.31626E+00 4.72349E-01 1.45000E+00
 -1       133-1.04233E+01 3.83040E+00 1.45000E+00
 -1       134-4.53576E+00 2.85293E+00 1.45000E+00
 -1       135-4.70797E+00 2.43718E+00 1.45000E+00
 -1       136-7.34276E+00 3.52855E+00 1.45000E+00
 -1       137-1.00789E+01 4.66189E+00 5.00000E-01
 -1       138-1.00789E+01 4.66189E+00 1.45000E+00
 -1       139-4.70797E+00 2.43718E+00 5.00000E-01
 -1       140-5.05239E+00 1.60569E+00 1.45000E+00
 -1       141-5.22459E+00 1.18994E+00 1.45000E+00
 -1       142-5.22459E+00 1.18994E+00 5.00000E-01
 -1       143-7.68717E+00 2.69706E+00 5.00000E-01
 -1       144-7.68717E+00 2.69706E+00 1.45000E+00
 -1       145-7.85938E+00 2.28131E+00 1.45000E+00
 -1       146-7.17055E+00 3.94429E+00 1.45000E+00
 -1       147-8.13414E+00 4.50000E-01 1.45000E+00
 -1       148-5.28227E+00 4.50000E-01 1.45000E+00
 -1       149-5.28227E+00-4.50000E-01 1.45000E+00
 -1       150-5.28227E+00 9.00000E-01 1.45000E+00
 -1       151-8.13414E+00-4.50000E-01 1.45000E+00
 -1       152-5.28227E+00-9.00000E-01 1.45000E+00
 -1       153-2.32070E+00 4.50000E-01 1.45000E+00
 -1       154-1.10957E+01 4.50000E-01 1.45000E+00
 -1       155-1.10957E+01-4.50000E-01 1.45000E+00
 -1       156-2.32070E+00-4.50000E-01 1.45000E+00
 -1       157-5.28227E+00 4.50000E-01 5.00000E-01
 -1       158-5.28227E+00-4.50000E-01 5.00000E-01
 -1       159-8.13414E+00 4.50000E-01 5.00000E-01
 -1       160-8.13414E+00 9.00000E-01 1.45000E+00
 -1       161-8.13414E+00-9.00000E-01 1.45000E+00
 -1       162-5.28227E+00-9.00000E-01 5.00000E-01
 -1       163-1.97184E+00-1.30384E+00 1.45000E+00
 -1       164-2.31626E+00-4.72349E-01 1.45000E+00
 -1       165-4.70797E+00-2.43718E+00 1.45000E+00
 -1       166-7.17055E+00-3.94429E+00 1.45000E+00
 -1       167-7.34276E+00-3.52855E+00 1.45000E+00
 -1       168-7.68717E+00-2.69706E+00 1.45000E+00
 -1       169-7.85938E+00-2.28131E+00 1.45000E+00
 -1       170-1.04233E+01-3.83040E+00 1.45000E+00
 -1       171-1.00789E+01-4.66189E+00 1.45000E+00
 -1       172-1.97184E+00-1.30384E+00 5.00000E-01
 -1       173-2.31626E+00-4.72349E-01 5.00000E-01
 -1       174-7.68717E+00-2.69706E+00 5.00000E-01
 -1       175-5.05239E+00-1.60569E+00 1.45000E+00
 -1       176-5.22459E+00-1.18994E+00 1.45000E+00
 -1       177-4.70797E+00-2.43718E+00 5.00000E-01
 -1       178-4.53576E+00-2.85293E+00 5.00000E-01
 -1       179-4.53576E+00-2.85293E+00 1.45000E+00
 -1       180-1.32279E+00-1.95918E+00 1.45000E+00
 -1       181-4.05332E+00-3.41693E+00 1.45000E+00
 -1       182-4.37152E+00-3.09873E+00 1.45000E+00
 -1       183-3.09873E+00-4.37152E+00 1.45000E+00
 -1       184-6.06990E+00-5.43351E+00 1.45000E+00
 -1       185-6.38810E+00-5.11531E+00 1.45000E+00
 -1       186-5.43351E+00-6.06990E+00 1.45000E+00
 -1       187-7.52765E+00-8.16405E+00 5.00000E-01
 -1       188-7.52765E+00-8.16405E+00 1.45000E+00
 -1       189-5.43351E+00-6.06990E+00 5.00000E-01
 -1       190-3.41693E+00-4.05332E+00 1.45000E+00
 -1       191-1.95918E+00-1.32279E+00 1.45000E+00
 -1       192-8.16405E+00-7.52765E+00 5.00000E-01
 -1       193-8.16405E+00-7.52765E+00 1.45000E+00
 -1       194-4.05332E+00-3.41693E+00 5.00000E-01
 -1       195-3.09873E+00-4.37152E+00 5.00000E-01
 -1       196-6.38810E+00-5.11531E+00 5.00000E-01
 -1       197-5.11531E+00-6.38810E+00 1.45000E+00
 -1       198-1.30384E+00-1.97184E+00 5.00000E-01
 -1       199-2.85293E+00-4.53576E+00 1.45000E+00
 -1       200-4.72349E-01-2.31626E+00 1.45000E+00
 -1       201-2.43718E+00-4.70797E+00 1.45000E+00
 -1       202-2.69706E+00-7.68717E+00 1.45000E+00
 -1       203-1.60569E+00-5.05239E+00 1.45000E+00
 -1       204-3.52855E+00-7.34276E+00 1.45000E+00
 -1       205-3.83040E+00-1.04233E+01 1.45000E+00
 -1       206-1.18994E+00-5.22459E+00 1.45000E+00
 -1       207-4.72349E-01-2.31626E+00 5.00000E-01
 -1       208-1.60569E+00-5.05239E+00 5.00000E-01
 -1       209-1.30384E+00-1.97184E+00 1.45000E+00
 -1       210-4.66189E+00-1.00789E+01 1.45000E+00
 -1       211-1.18994E+00-5.22459E+00 5.00000E-01
 -1       212-2.28131E+00-7.85938E+00 1.45000E+00
 -1       213-2.69706E+00-7.68717E+00 5.00000E-01
 -1       214-3.94429E+00-7.17055E+00 5.00000E-01
 -1       215-2.85293E+00-4.53576E+00 5.00000E-01
 -1       216-3.94429E+00-7.17055E+00 1.45000E+00
 -1       217-4.50000E-01-2.32070E+00 1.45000E+00
 -1       218-4.50000E-01-2.32070E+00 5.00000E-01
 -1       219-4.50000E-01-5.28227E+00 1.45000E+00
 -1       220 4.50000E-01-2.32070E+00 1.45000E+00
 -1       221 4.50000E-01-8.13414E+00 1.45000E+00
 -1       222 4.50000E-01-1.10957E+01 1.45000E+00
 -1       223-4.50000E-01-1.10957E+01 1.45000E+00
 -1       224 4.50000E-01-5.28227E+00 1.45000E+00
 -1       225 4.50000E-01-5.28227E+00 5.00000E-01
 -1       226-4.50000E-01-5.28227E+00 5.00000E-01
 -1       227-9.00000E-01-5.28227E+00 1.45000E+00
 -1       228 9.00000E-01-5.28227E+00 5.00000E-01
 -1       229-4.50000E-01-8.13414E+00 1.45000E+00
 -1       230 4.50000E-01-8.13414E+00 5.00000E-01
 -1       231-9.00000E-01-8.13414E+00 1.45000E+00
 -1       232 9.00000E-01-8.13414E+00 1.45000E+00
 -1       233 9.00000E-01-5.28227E+00 1.45000E+00
 -1       234 4.72349E-01-2.31626E+00 5.00000E-01
 -1       235 4.66189E+00-1.00789E+01 1.45000E+00
 -1       236 2.69706E+00-7.68717E+00 1.45000E+00
 -1       237 1.30384E+00-1.97184E+00 1.45000E+00
 -1       238 2.28131E+00-7.85938E+00 1.45000E+00
 -1       239 3.52855E+00-7.34276E+00 1.45000E+00
 -1       240 3.52855E+00-7.34276E+00 5.00000E-01
 -1       241 2.43718E+00-4.70797E+00 1.45000E+00
 -1       242 4.72349E-01-2.31626E+00 1.45000E+00
 -1       243 3.83040E+00-1.04233E+01 5.00000E-01
 -1       244 3.83040E+00-1.04233E+01 1.45000E+00
 -1       245 1.60569E+00-5.05239E+00 5.00000E-01
 -1       246 1.18994E+00-5.22459E+00 1.45000E+00
 -1       247 1.60569E+00-5.05239E+00 1.45000E+00
 -1       248 2.43718E+00-4.70797E+00 5.00000E-01
 -1       249 2.28131E+00-7.85938E+00 5.00000E-01
 -1       250 1.18994E+00-5.22459E+00 5.00000E-01
 -1       251 3.94429E+00-7.17055E+00 1.45000E+00
 -1       252 2.85293E+00-4.53576E+00 1.45000E+00
 -1       253 1.95918E+00-1.32279E+00 1.45000E+00
 -1       254 1.32279E+00-1.95918E+00 1.45000E+00
 -1       255 4.05332E+00-3.41693E+00 1.45000E+00
 -1       256 5.43351E+00-6.06990E+00 1.45000E+00
 -1       257 5.11531E+00-6.38810E+00 1.45000E+00
 -1       258 6.06990E+00-5.43351E+00 1.45000E+00
 -1       259 7.52765E+00-8.16405E+00 1.45000E+00
 -1       260 8.16405E+00-7.52765E+00 1.45000E+00
 -1       261 4.05332E+00-3.41693E+00 5.00000E-01
 -1       262 3.41693E+00-4.05332E+00 1.45000E+00
 -1       263 3.41693E+00-4.05332E+00 5.00000E-01
 -1       264 7.52765E+00-8.16405E+00 5.00000E-01
 -1       265 3.09873E+00-4.37152E+00 5.00000E-01
 -1       266 3.09873E+00-4.37152E+00 1.45000E+00
 -1       267 4.37152E+00-3.09873E+00 1.45000E+00
 -1       268 5.43351E+00-6.06990E+00 5.00000E-01
 -1       269 6.38810E+00-5.11531E+00 1.45000E+00
 -1       270 4.37152E+00-3.09873E+00 5.00000E-01
 -1       271 2.31626E+00-4.72349E-01 1.45000E+00
 -1       272 5.05239E+00-1.60569E+00 1.45000E+00
 -1       273 4.70797E+00-2.43718E+00 1.45000E+00
 -1       274 4.53576E+00-2.85293E+00 1.45000E+00
 -1       275 1.04233E+01-3.83040E+00 1.45000E+00
 -1       276 7.34276E+00-3.52855E+00 1.45000E+00
 -1       277 1.00789E+01-4.66189E+00 1.45000E+00
 -1       278 7.68717E+00-2.69706E+00 1.45000E+00
 -1       279 1.97184E+00-1.30384E+00 1.45000E+00
 -1       280 5.05239E+00-1.60569E+00 5.00000E-01
 -1       281 7.34276E+00-3.52855E+00 5.00000E-01
 -1       282 7.85938E+00-2.28131E+00 1.45000E+00
 -1       283 7.17055E+00-3.94429E+00 1.45000E+00
 -1       284 7.85938E+00-2.28131E+00 5.00000E-01
 -1       285 5.22459E+00-1.18994E+00 1.45000E+00
 -1       286 1.47118E+01-2.92635E+00 5.00000E-01
 -1       287-5.74025E+00-1.38582E+01-5.00000E-01
 -1       288 1.06066E+01 1.06066E+01-5.00000E-01
 -1       289 1.24720E+01 8.33355E+00-5.00000E-01
 -1       290-2.92635E+00 1.47118E+01-5.00000E-01
 -1       291-1.24720E+01 8.33355E+00 5.00000E-01
 -1       292-1.38582E+01 5.74025E+00-5.00000E-01
 -1       293 1.38582E+01 5.74025E+00-5.00000E-01
 -1       294 1.47118E+01 2.92635E+00-5.00000E-01
 -1       295 2.92635E+00 1.47118E+01-5.00000E-01
 -1       296-1.47118E+01 2.92635E+00 5.00000E-01
 -1       297-1.50000E+01 0.00000E+00-5.00000E-01
 -1       298-1.24720E+01 8.33355E+00-5.00000E-01
 -1       299 0.00000E+00 1.50000E+01-5.00000E-01
 -1       300 1.50000E+01 0.00000E+00-5.00000E-01
 -1       301 0.00000E+00-1.50000E+01-5.00000E-01
 -1       302 2.92635E+00-1.47118E+01 5.00000E-01
 -1       303 1.47118E+01-2.92635E+00-5.00000E-01
 -1       304 2.92635E+00-1.47118E+01-5.00000E-01
 -1       305 5.74025E+00-1.38582E+01 5.00000E-01
 -1       306 8.33355E+00-1.24720E+01 5.00000E-01
 -1       307 8.33355E+00-1.24720E+01-5.00000E-01
 -1       308-2.92635E+00-1.47118E+01-5.00000E-01
 -1       309 0.00000E+00-1.50000E+01 5.00000E-01
 -1       310-1.06066E+01-1.06066E+01-5.00000E-01
 -1       311-8.33355E+00-1.24720E+01 5.00000E-01
 -1       312-1.24720E+01-8.33355E+00-5.00000E-01
 -1       313 1.06066E+01-1.06066E+01-5.00000E-01
 -1       314 5.74025E+00-1.38582E+01-5.00000E-01
 -1       315 8.33355E+00 1.24720E+01-5.00000E-01
 -1       316 5.74025E+00 1.38582E+01-5.00000E-01
 -1       317-5.74025E+00 1.38582E+01-5.00000E-01
 -1       318-8.33355E+00 1.24720E+01-5.00000E-01
 -1       319-1.06066E+01 1.06066E+01-5.00000E-01
 -1       320-1.47118E+01 2.92635E+00-5.00000E-01
 -1       321-1.10957E+01 4.50000E-01 5.00000E-01
 -1       322-1.04233E+01 3.83040E+00 5.00000E-01
 -1       323-8.13414E+00-9.00000E-01 5.00000E-01
 -1       324-8.13414E+00-4.50000E-01 5.00000E-01
 -1       325-1.10957E+01-4.50000E-01 5.00000E-01
 -1       326-1.24720E+01-8.33355E+00 5.00000E-01
 -1       327-1.38582E+01-5.74025E+00 5.00000E-01
 -1       328-1.50000E+01 0.00000E+00 5.00000E-01
 -1       329-7.17055E+00 3.94429E+00 5.00000E-01
 -1       330-7.34276E+00 3.52855E+00 5.00000E-01
 -1       331-1.06066E+01 1.06066E+01 5.00000E-01
 -1       332-8.16405E+00 7.52765E+00 5.00000E-01
 -1       333-7.85938E+00 2.28131E+00 5.00000E-01
 -1       334-5.28227E+00 9.00000E-01 5.00000E-01
 -1       335-8.13414E+00 9.00000E-01 5.00000E-01
 -1       336-6.06990E+00-5.43351E+00 5.00000E-01
 -1       337-7.34276E+00-3.52855E+00 5.00000E-01
 -1       338-1.06066E+01-1.06066E+01 5.00000E-01
 -1       339-1.00789E+01-4.66189E+00 5.00000E-01
 -1       340-1.04233E+01-3.83040E+00 5.00000E-01
 -1       341-4.53576E+00 2.85293E+00 5.00000E-01
 -1       342-3.52855E+00-7.34276E+00 5.00000E-01
 -1       343-4.66189E+00-1.00789E+01 5.00000E-01
 -1       344-4.37152E+00-3.09873E+00 5.00000E-01
 -1       345-7.17055E+00-3.94429E+00 5.00000E-01
 -1       346-3.52855E+00 7.34276E+00 5.00000E-01
 -1       347-4.66189E+00 1.00789E+01 5.00000E-01
 -1       348-3.94429E+00 7.17055E+00 5.00000E-01
 -1       349-2.31626E+00 4.72349E-01 5.00000E-01
 -1       350-5.05239E+00 1.60569E+00 5.00000E-01
 -1       351-2.32070E+00 4.50000E-01 5.00000E-01
 -1       352-1.95918E+00-1.32279E+00 5.00000E-01
 -1       353-1.97184E+00 1.30384E+00 5.00000E-01
 -1       354-2.43718E+00 4.70797E+00 5.00000E-01
 -1       355-1.32279E+00 1.95918E+00 5.00000E-01
 -1       356-3.41693E+00 4.05332E+00 5.00000E-01
 -1       357-9.00000E-01-5.28227E+00 5.00000E-01
 -1       358-1.32279E+00-1.95918E+00 5.00000E-01
 -1       359-2.43718E+00-4.70797E+00 5.00000E-01
 -1       360-3.41693E+00-4.05332E+00 5.00000E-01
 -1       361-2.32070E+00-4.50000E-01 5.00000E-01
 -1       362-5.05239E+00-1.60569E+00 5.00000E-01
 -1       363-7.85938E+00-2.28131E+00 5.00000E-01
 -1       364-5.22459E+00-1.18994E+00 5.00000E-01
 -1       365-5.11531E+00-6.38810E+00 5.00000E-01
 -1       366-4.50000E-01-8.13414E+00 5.00000E-01
 -1       367-1.18994E+00 5.22459E+00 5.00000E-01
 -1       368-4.72349E-01 2.31626E+00 5.00000E-01
 -1       369-1.60569E+00 5.05239E+00 5.00000E-01
 -1       370 4.50000E-01 8.13414E+00 5.00000E-01
 -1       371 4.50000E-01-2.32070E+00 5.00000E-01
 -1       372 4.50000E-01 2.32070E+00 5.00000E-01
 -1       373 1.60569E+00 5.05239E+00 5.00000E-01
 -1       374 4.50000E-01 5.28227E+00 5.00000E-01
 -1       375 1.97184E+00-1.30384E+00 5.00000E-01
 -1       376 4.53576E+00-2.85293E+00 5.00000E-01
 -1       377 4.70797E+00-2.43718E+00 5.00000E-01
 -1       378 1.95918E+00-1.32279E+00 5.00000E-01
 -1       379 1.32279E+00-1.95918E+00 5.00000E-01
 -1       380 3.94429E+00-7.17055E+00 5.00000E-01
 -1       381 3.09873E+00 4.37152E+00 5.00000E-01
 -1       382 3.41693E+00 4.05332E+00 5.00000E-01
 -1       383 1.32279E+00 1.95918E+00 5.00000E-01
 -1       384 2.85293E+00 4.53576E+00 5.00000E-01
 -1       385 4.66189E+00-1.00789E+01 5.00000E-01
 -1       386 5.11531E+00-6.38810E+00 5.00000E-01
 -1       387 5.22459E+00-1.18994E+00 5.00000E-01
 -1       388 2.31626E+00-4.72349E-01 5.00000E-01
 -1       389 1.97184E+00 1.30384E+00 5.00000E-01
 -1       390 2.31626E+00 4.72349E-01 5.00000E-01
 -1       391 6.38810E+00-5.11531E+00 5.00000E-01
 -1       392 5.28227E+00-9.00000E-01 5.00000E-01
 -1       393 1.06066E+01 1.06066E+01 5.00000E-01
 -1       394 8.16405E+00 7.52765E+00 5.00000E-01
 -1       395 4.66189E+00 1.00789E+01 5.00000E-01
 -1       396 8.33355E+00 1.24720E+01 5.00000E-01
 -1       397 5.74025E+00 1.38582E+01 5.00000E-01
 -1       398 5.11531E+00 6.38810E+00 5.00000E-01
 -1       399 2.28131E+00 7.85938E+00 5.00000E-01
 -1       400 2.92635E+00 1.47118E+01 5.00000E-01
 -1       401 0.00000E+00 1.50000E+01 5.00000E-01
 -1       402 4.50000E-01 1.10957E+01 5.00000E-01
 -1       403-2.92635E+00 1.47118E+01 5.00000E-01
 -1       404-3.83040E+00 1.04233E+01 5.00000E-01
 -1       405-2.28131E+00 7.85938E+00 5.00000E-01
 -1       406-2.69706E+00 7.68717E+00 5.00000E-01
 -1       407-5.74025E+00 1.38582E+01 5.00000E-01
 -1       408-8.33355E+00 1.24720E+01 5.00000E-01
 -1       409-7.52765E+00 8.16405E+00 5.00000E-01
 -1       410 1.24720E+01 8.33355E+00 5.00000E-01
 -1       411 6.06990E+00 5.43351E+00 5.00000E-01
 -1       412 1.47118E+01 2.92635E+00 5.00000E-01
 -1       413 1.38582E+01 5.74025E+00 5.00000E-01
 -1       414 1.50000E+01 0.00000E+00 5.00000E-01
 -1       415 1.10957E+01-4.50000E-01 5.00000E-01
 -1       416 1.04233E+01 3.83040E+00 5.00000E-01
 -1       417 8.13414E+00 4.50000E-01 5.00000E-01
 -1       418 1.38582E+01-5.74025E+00 5.00000E-01
 -1       419 8.13414E+00-9.00000E-01 5.00000E-01
 -1       420 1.04233E+01-3.83040E+00 5.00000E-01
 -1       421 7.68717E+00-2.69706E+00 5.00000E-01
 -1       422 1.24720E+01-8.33355E+00 5.00000E-01
 -1       423 7.17055E+00-3.94429E+00 5.00000E-01
 -1       424 1.00789E+01-4.66189E+00 5.00000E-01
 -1       425 8.16405E+00-7.52765E+00 5.00000E-01
 -1       426 6.06990E+00-5.43351E+00 5.00000E-01
 -1       427 2.69706E+00-7.68717E+00 5.00000E-01
 -1       428 4.50000E-01-1.10957E+01 5.00000E-01
 -1       429 9.00000E-01-8.13414E+00 5.00000E-01
 -1       430-9.00000E-01-8.13414E+00 5.00000E-01
 -1       431-2.28131E+00-7.85938E+00 5.00000E-01
 -1       432-2.92635E+00-1.47118E+01 5.00000E-01
 -1       433-4.50000E-01-1.10957E+01 5.00000E-01
 -1       434-3.83040E+00-1.04233E+01 5.00000E-01
 -1       435-5.74025E+00-1.38582E+01 5.00000E-01
 -1       436 5.28227E+00 9.00000E-01 5.00000E-01
 -1       437 2.32070E+00 4.50000E-01 5.00000E-01
 -1       438 4.05332E+00 3.41693E+00 5.00000E-01
 -1       439 2.85293E+00-4.53576E+00 5.00000E-01
 -1       440 1.30384E+00-1.97184E+00 5.00000E-01
 -1       441-1.38582E+01 5.74025E+00 5.00000E-01
 -1       442 1.06066E+01-1.06066E+01 5.00000E-01
 -1       443 1.38582E+01-5.74025E+00-5.00000E-01
 -1       444 1.24720E+01-8.33355E+00-5.00000E-01
 -1       445-8.33355E+00-1.24720E+01-5.00000E-01
 -1       446-1.47118E+01-2.92635E+00-5.00000E-01
 -1       447-1.47118E+01-2.92635E+00 5.00000E-01
 -1       448-1.38582E+01-5.74025E+00-5.00000E-01
 -1       449 3.80149E+00 4.50000E-01 1.45000E+00
 -1       450 3.80149E+00-4.50000E-01 1.45000E+00
 -1       451 6.70821E+00 9.00000E-01 1.45000E+00
 -1       452 6.70821E+00-9.00000E-01 1.45000E+00
 -1       453 9.61492E+00 4.50000E-01 1.45000E+00
 -1       454 9.61492E+00-4.50000E-01 1.45000E+00
 -1       455 9.61492E+00 4.50000E-01 5.00000E-01
 -1       456 3.80149E+00 4.50000E-01 5.00000E-01
 -1       457 3.80149E+00-4.50000E-01 5.00000E-01
 -1       458 9.61492E+00-4.50000E-01 5.00000E-01
 -1       459 6.70821E+00-9.00000E-01 5.00000E-01
 -1       460 6.70821E+00 9.00000E-01 5.00000E-01
 -1       461 9.05523E+00 3.26373E+00 1.45000E+00
 -1       462 8.71083E+00 4.09522E+00 1.45000E+00
 -1       463 6.54199E+00 1.73563E+00 1.45000E+00
 -1       464 5.85316E+00 3.39861E+00 1.45000E+00
 -1       465 3.68432E+00 1.03902E+00 1.45000E+00
 -1       466 3.33991E+00 1.87051E+00 1.45000E+00
 -1       467 8.71083E+00 4.09522E+00 5.00000E-01
 -1       468 3.33991E+00 1.87051E+00 5.00000E-01
 -1       469 3.68432E+00 1.03902E+00 5.00000E-01
 -1       470 9.05523E+00 3.26373E+00 5.00000E-01
 -1       471 6.54199E+00 1.73563E+00 5.00000E-01
 -1       472 5.85316E+00 3.39861E+00 5.00000E-01
 -1       473 7.11697E+00 6.48058E+00 1.45000E+00
 -1       474 6.48058E+00 7.11697E+00 1.45000E+00
 -1       475 5.37981E+00 4.10702E+00 1.45000E+00
 -1       476 4.10702E+00 5.37981E+00 1.45000E+00
 -1       477 3.00625E+00 2.36986E+00 1.45000E+00
 -1       478 2.36986E+00 3.00625E+00 1.45000E+00
 -1       479 6.48058E+00 7.11697E+00 5.00000E-01
 -1       480 2.36986E+00 3.00625E+00 5.00000E-01
 -1       481 3.00625E+00 2.36986E+00 5.00000E-01
 -1       482 7.11697E+00 6.48058E+00 5.00000E-01
 -1       483 5.37981E+00 4.10702E+00 5.00000E-01
 -1       484 4.10702E+00 5.37981E+00 5.00000E-01
 -1       485 1.73563E+00 6.54199E+00 1.45000E+00
 -1       486 4.09522E+00 8.71083E+00 1.45000E+00
 -1       487 3.26373E+00 9.05523E+00 1.45000E+00
 -1       488 1.87051E+00 3.33991E+00 1.45000E+00
 -1       489 1.03902E+00 3.68432E+00 1.45000E+00
 -1       490 3.39861E+00 5.85316E+00 1.45000E+00
 -1       491 3.26373E+00 9.05523E+00 5.00000E-01
 -1       492 1.03902E+00 3.68432E+00 5.00000E-01
 -1       493 1.87051E+00 3.33991E+00 5.00000E-01
 -1       494 4.09522E+00 8.71083E+00 5.00000E-01
 -1       495 3.39861E+00 5.85316E+00 5.00000E-01
 -1       496 1.73563E+00 6.54199E+00 5.00000E-01
 -1       497-9.00000E-01 6.70821E+00 1.45000E+00
 -1       498 4.50000E-01 9.61492E+00 1.45000E+00
 -1       499-4.50000E-01 9.61492E+00 1.45000E+00
 -1       500 4.50000E-01 3.80149E+00 1.45000E+00
 -1       501-4.50000E-01 3.80149E+00 1.45000E+00
 -1       502 9.00000E-01 6.70821E+00 1.45000E+00
 -1       503-4.50000E-01 9.61492E+00 5.00000E-01
 -1       504-4.50000E-01 3.80149E+00 5.00000E-01
 -1       505 4.50000E-01 3.80149E+00 5.00000E-01
 -1       506 4.50000E-01 9.61492E+00 5.00000E-01
 -1       507 9.00000E-01 6.70821E+00 5.00000E-01
 -1       508-9.00000E-01 6.70821E+00 5.00000E-01
 -1       509-1.73563E+00 6.54199E+00 1.45000E+00
 -1       510-1.03902E+00 3.68432E+00 1.45000E+00
 -1       511-1.87051E+00 3.33991E+00 1.45000E+00
 -1       512-3.26373E+00 9.05523E+00 1.45000E+00
 -1       513-4.09522E+00 8.71083E+00 1.45000E+00
 -1       514-3.39861E+00 5.85316E+00 1.45000E+00
 -1       515-4.09522E+00 8.71083E+00 5.00000E-01
 -1       516-1.87051E+00 3.33991E+00 5.00000E-01
 -1       517-1.03902E+00 3.68432E+00 5.00000E-01
 -1       518-3.26373E+00 9.05523E+00 5.00000E-01
 -1       519-1.73563E+00 6.54199E+00 5.00000E-01
 -1       520-3.39861E+00 5.85316E+00 5.00000E-01
 -1       521-6.48058E+00 7.11697E+00 1.45000E+00
 -1       522-7.11697E+00 6.48058E+00 1.45000E+00
 -1       523-4.10702E+00 5.37981E+00 1.45000E+00
 -1       524-5.37981E+00 4.10702E+00 1.45000E+00
 -1       525-2.36986E+00 3.00625E+00 1.45000E+00
 -1       526-3.00625E+00 2.36986E+00 1.45000E+00
 -1       527-7.11697E+00 6.48058E+00 5.00000E-01
 -1       528-3.00625E+00 2.36986E+00 5.00000E-01
 -1       529-2.36986E+00 3.00625E+00 5.00000E-01
 -1       530-6.48058E+00 7.11697E+00 5.00000E-01
 -1       531-4.10702E+00 5.37981E+00 5.00000E-01
 -1       532-5.37981E+00 4.10702E+00 5.00000E-01
 -1       533-8.71083E+00 4.09522E+00 1.45000E+00
 -1       534-9.05523E+00 3.26373E+00 1.45000E+00
 -1       535-5.85316E+00 3.39861E+00 1.45000E+00
 -1       536-6.54199E+00 1.73563E+00 1.45000E+00
 -1       537-3.33991E+00 1.87051E+00 1.45000E+00
 -1       538-3.68432E+00 1.03902E+00 1.45000E+00
 -1       539-9.05523E+00 3.26373E+00 5.00000E-01
 -1       540-3.68432E+00 1.03902E+00 5.00000E-01
 -1       541-3.33991E+00 1.87051E+00 5.00000E-01
 -1       542-8.71083E+00 4.09522E+00 5.00000E-01
 -1       543-5.85316E+00 3.39861E+00 5.00000E-01
 -1       544-6.54199E+00 1.73563E+00 5.00000E-01
 -1       545-9.61492E+00 4.50000E-01 1.45000E+00
 -1       546-9.61492E+00-4.50000E-01 1.45000E+00
 -1       547-6.70821E+00 9.00000E-01 1.45000E+00
 -1       548-6.70821E+00-9.00000E-01 1.45000E+00
 -1       549-3.80149E+00 4.50000E-01 1.45000E+00
 -1       550-3.80149E+00-4.50000E-01 1.45000E+00
 -1       551-9.61492E+00-4.50000E-01 5.00000E-01
 -1       552-3.80149E+00-4.50000E-01 5.00000E-01
 -1       553-3.80149E+00 4.50000E-01 5.00000E-01
 -1       554-9.61492E+00 4.50000E-01 5.00000E-01
 -1       555-6.70821E+00 9.00000E-01 5.00000E-01
 -1       556-6.70821E+00-9.00000E-01 5.00000E-01
 -1       557-3.33991E+00-1.87051E+00 1.45000E+00
 -1       558-3.68432E+00-1.03902E+00 1.45000E+00
 -1       559-5.85316E+00-3.39861E+00 1.45000E+00
 -1       560-6.54199E+00-1.73563E+00 1.45000E+00
 -1       561-8.71083E+00-4.09522E+00 1.45000E+00
 -1       562-9.05523E+00-3.26373E+00 1.45000E+00
 -1       563-8.71083E+00-4.09522E+00 5.00000E-01
 -1       564-3.33991E+00-1.87051E+00 5.00000E-01
 -1       565-3.68432E+00-1.03902E+00 5.00000E-01
 -1       566-9.05523E+00-3.26373E+00 5.00000E-01
 -1       567-6.54199E+00-1.73563E+00 5.00000E-01
 -1       568-5.85316E+00-3.39861E+00 5.00000E-01
 -1       569-2.36986E+00-3.00625E+00 1.45000E+00
 -1       570-3.00625E+00-2.36986E+00 1.45000E+00
 -1       571-4.10702E+00-5.37981E+00 1.45000E+00
 -1       572-5.37981E+00-4.10702E+00 1.45000E+00
 -1       573-6.48058E+00-7.11697E+00 1.45000E+00
 -1       574-7.11697E+00-6.48058E+00 1.45000E+00
 -1       575-6.48058E+00-7.11697E+00 5.00000E-01
 -1       576-2.36986E+00-3.00625E+00 5.00000E-01
 -1       577-3.00625E+00-2.36986E+00 5.00000E-01
 -1       578-7.11697E+00-6.48058E+00 5.00000E-01
 -1       579-5.37981E+00-4.10702E+00 5.00000E-01
 -1       580-4.10702E+00-5.37981E+00 5.00000E-01
 -1       581-3.39861E+00-5.85316E+00 1.45000E+00
 -1       582-1.03902E+00-3.68432E+00 1.45000E+00
 -1       583-1.87051E+00-3.33991E+00 1.45000E+00
 -1       584-3.26373E+00-9.05523E+00 1.45000E+00
 -1       585-4.09522E+00-8.71083E+00 1.45000E+00
 -1       586-1.73563E+00-6.54199E+00 1.45000E+00
 -1       587-3.26373E+00-9.05523E+00 5.00000E-01
 -1       588-1.03902E+00-3.68432E+00 5.00000E-01
 -1       589-1.87051E+00-3.33991E+00 5.00000E-01
 -1       590-4.09522E+00-8.71083E+00 5.00000E-01
 -1       591-3.39861E+00-5.85316E+00 5.00000E-01
 -1       592-1.73563E+00-6.54199E+00 5.00000E-01
 -1       593-9.00000E-01-6.70821E+00 1.45000E+00
 -1       594 4.50000E-01-3.80149E+00 1.45000E+00
 -1       595-4.50000E-01-3.80149E+00 1.45000E+00
 -1       596 4.50000E-01-9.61492E+00 1.45000E+00
 -1       597-4.50000E-01-9.61492E+00 1.45000E+00
 -1       598 9.00000E-01-6.70821E+00 1.45000E+00
 -1       599 4.50000E-01-9.61492E+00 5.00000E-01
 -1       600 4.50000E-01-3.80149E+00 5.00000E-01
 -1       601-4.50000E-01-3.80149E+00 5.00000E-01
 -1       602-4.50000E-01-9.61492E+00 5.00000E-01
 -1       603-9.00000E-01-6.70821E+00 5.00000E-01
 -1       604 9.00000E-01-6.70821E+00 5.00000E-01
 -1       605 3.39861E+00-5.85316E+00 1.45000E+00
 -1       606 4.09522E+00-8.71083E+00 1.45000E+00
 -1       607 3.26373E+00-9.05523E+00 1.45000E+00
 -1       608 1.87051E+00-3.33991E+00 1.45000E+00
 -1       609 1.03902E+00-3.68432E+00 1.45000E+00
 -1       610 1.73563E+00-6.54199E+00 1.45000E+00
 -1       611 4.09522E+00-8.71083E+00 5.00000E-01
 -1       612 1.87051E+00-3.33991E+00 5.00000E-01
 -1       613 1.03902E+00-3.68432E+00 5.00000E-01
 -1       614 3.26373E+00-9.05523E+00 5.00000E-01
 -1       615 1.73563E+00-6.54199E+00 5.00000E-01
 -1       616 3.39861E+00-5.85316E+00 5.00000E-01
 -1       617 3.00625E+00-2.36986E+00 1.45000E+00
 -1       618 2.36986E+00-3.00625E+00 1.45000E+00
 -1       619 5.37981E+00-4.10702E+00 1.45000E+00
 -1       620 4.10702E+00-5.37981E+00 1.45000E+00
 -1       621 7.11697E+00-6.48058E+00 1.45000E+00
 -1       622 6.48058E+00-7.11697E+00 1.45000E+00
 -1       623 7.11697E+00-6.48058E+00 5.00000E-01
 -1       624 3.00625E+00-2.36986E+00 5.00000E-01
 -1       625 2.36986E+00-3.00625E+00 5.00000E-01
 -1       626 6.48058E+00-7.11697E+00 5.00000E-01
 -1       627 4.10702E+00-5.37981E+00 5.00000E-01
 -1       628 5.37981E+00-4.10702E+00 5.00000E-01
 -1       629 3.68432E+00-1.03902E+00 1.45000E+00
 -1       630 3.33991E+00-1.87051E+00 1.45000E+00
 -1       631 6.54199E+00-1.73563E+00 1.45000E+00
 -1       632 5.85316E+00-3.39861E+00 1.45000E+00
 -1       633 9.05523E+00-3.26373E+00 1.45000E+00
 -1       634 8.71083E+00-4.09522E+00 1.45000E+00
 -1       635 9.05523E+00-3.26373E+00 5.00000E-01
 -1       636 3.68432E+00-1.03902E+00 5.00000E-01
 -1       637 3.33991E+00-1.87051E+00 5.00000E-01
 -1       638 8.71083E+00-4.09522E+00 5.00000E-01
 -1       639 5.85316E+00-3.39861E+00 5.00000E-01
 -1       640 6.54199E+00-1.73563E+00 5.00000E-01
 -1       641 9.47007E+00 1.15393E+01 5.00000E-01
 -1       642 9.47007E+00 1.15393E+01-5.00000E-01
 -1       643 1.48559E+01-1.46318E+00 5.00000E-01
 -1       644 1.48559E+01-1.46318E+00-5.00000E-01
 -1       645-4.33330E+00-1.42850E+01 5.00000E-01
 -1       646-4.33330E+00-1.42850E+01-5.00000E-01
 -1       647 1.15393E+01 9.47007E+00 5.00000E-01
 -1       648 1.15393E+01 9.47007E+00-5.00000E-01
 -1       649-4.33330E+00 1.42850E+01 5.00000E-01
 -1       650-4.33330E+00 1.42850E+01-5.00000E-01
 -1       651-1.31651E+01 7.03690E+00-5.00000E-01
 -1       652-1.31651E+01 7.03690E+00 5.00000E-01
 -1       653 1.42850E+01 4.33330E+00 5.00000E-01
 -1       654 1.42850E+01 4.33330E+00-5.00000E-01
 -1       655 1.31651E+01 7.03690E+00 5.00000E-01
 -1       656 1.31651E+01 7.03690E+00-5.00000E-01
 -1       657 7.03690E+00 1.31651E+01 5.00000E-01
 -1       658 7.03690E+00 1.31651E+01-5.00000E-01
 -1       659 1.46318E+00 1.48559E+01 5.00000E-01
 -1       660 1.46318E+00 1.48559E+01-5.00000E-01
 -1       661 4.33330E+00 1.42850E+01 5.00000E-01
 -1       662 4.33330E+00 1.42850E+01-5.00000E-01
 -1       663-1.48559E+01 1.46318E+00-5.00000E-01
 -1       664-1.48559E+01 1.46318E+00 5.00000E-01
 -1       665-1.15393E+01 9.47007E+00-5.00000E-01
 -1       666-1.15393E+01 9.47007E+00 5.00000E-01
 -1       667-7.03690E+00 1.31651E+01 5.00000E-01
 -1       668-7.03690E+00 1.31651E+01-5.00000E-01
 -1       669-1.46318E+00 1.48559E+01 5.00000E-01
 -1       670-1.46318E+00 1.48559E+01-5.00000E-01
 -1       671-9.47007E+00 1.15393E+01 5.00000E-01
 -1       672-9.47007E+00 1.15393E+01-5.00000E-01
 -1       673 1.48559E+01 1.46318E+00 5.00000E-01
 -1       674 1.48559E+01 1.46318E+00-5.00000E-01
 -1       675 1.46318E+00-1.48559E+01 5.00000E-01
 -1       676 1.46318E+00-1.48559E+01-5.00000E-01
 -1       677 1.42850E+01-4.33330E+00 5.00000E-01
 -1       678 1.42850E+01-4.33330E+00-5.00000E-01
 -1       679 4.33330E+00-1.42850E+01 5.00000E-01
 -1       680 4.33330E+00-1.42850E+01-5.00000E-01
 -1       681 7.03690E+00-1.31651E+01 5.00000E-01
 -1       682 7.03690E+00-1.31651E+01-5.00000E-01
 -1       683-1.46318E+00-1.48559E+01 5.00000E-01
 -1       684-1.46318E+00-1.48559E+01-5.00000E-01
 -1       685-9.47007E+00-1.15393E+01 5.00000E-01
 -1       686-9.47007E+00-1.15393E+01-5.00000E-01
 -1       687-1.31651E+01-7.03690E+00-5.00000E-01
 -1       688-1.31651E+01-7.03690E+00 5.00000E-01
 -1       689-1.48559E+01-1.46318E+00-5.00000E-01
 -1       690-1.48559E+01-1.46318E+00 5.00000E-01
 -1       691 1.31651E+01-7.03690E+00-5.00000E-01
 -1       692 1.15393E+01-9.47007E+00-5.00000E-01
 -1       693 9.47007E+00-1.15393E+01-5.00000E-01
 -1       694-7.03690E+00-1.31651E+01-5.00000E-01
 -1       695-1.15393E+01-9.47007E+00-5.00000E-01
 -1       696-1.42850E+01-4.33330E+00-5.00000E-01
 -1       697-1.42850E+01 4.33330E+00-5.00000E-01
 -1       698-1.15393E+01-9.47007E+00 5.00000E-01
 -1       699-1.42850E+01 4.33330E+00 5.00000E-01
 -1       700-1.42850E+01-4.33330E+00 5.00000E-01
 -1       701 1.31651E+01-7.03690E+00 5.00000E-01
 -1       702 1.15393E+01-9.47007E+00 5.00000E-01
 -1       703 9.47007E+00-1.15393E+01 5.00000E-01
 -1       704-7.03690E+00-1.31651E+01 5.00000E-01
 -1       705 4.54188E+00 4.50000E-01 1.45000E+00
 -1       706 3.06109E+00 4.50000E-01 1.45000E+00
 -1       707 4.54188E+00-4.50000E-01 1.45000E+00
 -1       708 5.99524E+00 9.00000E-01 1.45000E+00
 -1       709 8.87453E+00 4.50000E-01 1.45000E+00
 -1       710 1.03553E+01-4.50000E-01 1.45000E+00
 -1       711 7.42117E+00 9.00000E-01 5.00000E-01
 -1       712 5.99524E+00 9.00000E-01 5.00000E-01
 -1       713 3.00029E+00 7.55684E-01 1.45000E+00
 -1       714 4.36836E+00 1.32235E+00 1.45000E+00
 -1       715 2.65587E+00 1.58718E+00 1.45000E+00
 -1       716 4.36836E+00 1.32235E+00 5.00000E-01
 -1       717 6.51185E+00 3.67145E+00 5.00000E-01
 -1       718 5.19446E+00 3.12577E+00 5.00000E-01
 -1       719 3.52978E+00 2.89339E+00 1.45000E+00
 -1       720 1.84633E+00 2.48271E+00 1.45000E+00
 -1       721 7.64051E+00 7.00412E+00 5.00000E-01
 -1       722 7.55684E-01 3.00029E+00 1.45000E+00
 -1       723 3.12577E+00 5.19446E+00 1.45000E+00
 -1       724 3.67145E+00 6.51185E+00 1.45000E+00
 -1       725 4.50000E-01 3.06109E+00 1.45000E+00
 -1       726 4.50000E-01 4.54188E+00 1.45000E+00
 -1       727-4.50000E-01 3.06109E+00 1.45000E+00
 -1       728 9.00000E-01 7.42117E+00 1.45000E+00
 -1       729-3.67145E+00 6.51185E+00 1.45000E+00
 -1       730-3.12577E+00 5.19446E+00 1.45000E+00
 -1       731-3.67145E+00 6.51185E+00 5.00000E-01
 -1       732-3.12577E+00 5.19446E+00 5.00000E-01
 -1       733-1.84633E+00 2.48271E+00 1.45000E+00
 -1       734-2.89339E+00 3.52978E+00 1.45000E+00
 -1       735-2.48271E+00 1.84633E+00 1.45000E+00
 -1       736-2.89339E+00 3.52978E+00 5.00000E-01
 -1       737-2.65587E+00 1.58718E+00 1.45000E+00
 -1       738-4.02394E+00 2.15385E+00 1.45000E+00
 -1       739-3.00029E+00 7.55684E-01 1.45000E+00
 -1       740-4.02394E+00 2.15385E+00 5.00000E-01
 -1       741-7.20068E+00 2.00847E+00 5.00000E-01
 -1       742-5.88329E+00 1.46278E+00 5.00000E-01
 -1       743-3.06109E+00 4.50000E-01 1.45000E+00
 -1       744-4.54188E+00 4.50000E-01 1.45000E+00
 -1       745-3.06109E+00-4.50000E-01 1.45000E+00
 -1       746-4.54188E+00 4.50000E-01 5.00000E-01
 -1       747-7.42117E+00-9.00000E-01 5.00000E-01
 -1       748-5.99524E+00-9.00000E-01 5.00000E-01
 -1       749-2.65587E+00-1.58718E+00 1.45000E+00
 -1       750-4.36836E+00-1.32235E+00 1.45000E+00
 -1       751-5.88329E+00-1.46278E+00 1.45000E+00
 -1       752-7.20068E+00-2.00847E+00 1.45000E+00
 -1       753-9.73927E+00-3.54707E+00 1.45000E+00
 -1       754-4.36836E+00-1.32235E+00 5.00000E-01
 -1       755-6.51185E+00-3.67145E+00 5.00000E-01
 -1       756-5.19446E+00-3.12577E+00 5.00000E-01
 -1       757-1.84633E+00-2.48271E+00 1.45000E+00
 -1       758-3.52978E+00-2.89339E+00 1.45000E+00
 -1       759-4.87567E+00-3.60287E+00 1.45000E+00
 -1       760-5.88396E+00-4.61117E+00 1.45000E+00
 -1       761-7.64051E+00-7.00412E+00 1.45000E+00
 -1       762-4.61117E+00-5.88396E+00 5.00000E-01
 -1       763-3.60287E+00-4.87567E+00 5.00000E-01
 -1       764-7.55684E-01-3.00029E+00 1.45000E+00
 -1       765-2.15385E+00-4.02394E+00 1.45000E+00
 -1       766-1.46278E+00-5.88329E+00 1.45000E+00
 -1       767-2.15385E+00-4.02394E+00 5.00000E-01
 -1       768-1.46278E+00-5.88329E+00 5.00000E-01
 -1       769 4.50000E-01-3.06109E+00 1.45000E+00
 -1       770-4.50000E-01-4.54188E+00 1.45000E+00
 -1       771 4.50000E-01-8.87453E+00 1.45000E+00
 -1       772-4.50000E-01-1.03553E+01 1.45000E+00
 -1       773 9.00000E-01-7.42117E+00 5.00000E-01
 -1       774 9.00000E-01-5.99524E+00 5.00000E-01
 -1       775 1.58718E+00-2.65587E+00 1.45000E+00
 -1       776 1.32235E+00-4.36836E+00 1.45000E+00
 -1       777 1.46278E+00-5.88329E+00 1.45000E+00
 -1       778 2.00847E+00-7.20068E+00 1.45000E+00
 -1       779 1.32235E+00-4.36836E+00 5.00000E-01
 -1       780 2.48271E+00-1.84633E+00 1.45000E+00
 -1       781 2.89339E+00-3.52978E+00 1.45000E+00
 -1       782 4.87567E+00-3.60287E+00 1.45000E+00
 -1       783 6.59344E+00-5.95705E+00 1.45000E+00
 -1       784 7.00412E+00-7.64051E+00 1.45000E+00
 -1       785 2.89339E+00-3.52978E+00 5.00000E-01
 -1       786 3.00029E+00-7.55684E-01 1.45000E+00
 -1       787 4.02394E+00-2.15385E+00 1.45000E+00
 -1       788 5.88329E+00-1.46278E+00 1.45000E+00
 -1       789 8.37120E+00-2.98040E+00 1.45000E+00
 -1       790 9.39487E+00-4.37855E+00 1.45000E+00
 -1       791 4.02394E+00-2.15385E+00 5.00000E-01
 -1       792 7.20068E+00-2.00847E+00 5.00000E-01
 -1       793 5.88329E+00-1.46278E+00 5.00000E-01
 -1       794 1.00383E+01 1.10730E+01 5.00000E-01
 -1       795-5.03678E+00-1.40716E+01 5.00000E-01
 -1       796 1.20056E+01 8.90181E+00 5.00000E-01
 -1       797-3.62983E+00 1.44984E+01 5.00000E-01
 -1       798 1.44984E+01 3.62983E+00 5.00000E-01
 -1       799 1.28186E+01 7.68523E+00 5.00000E-01
 -1       800 1.35117E+01 6.38858E+00 5.00000E-01
 -1       801 1.28186E+01 7.68523E+00-5.00000E-01
 -1       802 6.38858E+00 1.35117E+01 5.00000E-01
 -1       803 7.68523E+00 1.28186E+01 5.00000E-01
 -1       804 6.38858E+00 1.35117E+01-5.00000E-01
 -1       805 3.62983E+00 1.44984E+01 5.00000E-01
 -1       806 5.03678E+00 1.40716E+01 5.00000E-01
 -1       807 3.62983E+00 1.44984E+01-5.00000E-01
 -1       808-1.49279E+01 7.31588E-01-5.00000E-01
 -1       809-1.20056E+01 8.90181E+00-5.00000E-01
 -1       810-1.10730E+01 1.00383E+01 5.00000E-01
 -1       811-7.68523E+00 1.28186E+01 5.00000E-01
 -1       812-6.38858E+00 1.35117E+01 5.00000E-01
 -1       813-7.68523E+00 1.28186E+01-5.00000E-01
 -1       814-2.19476E+00 1.47838E+01 5.00000E-01
 -1       815-7.31588E-01 1.49279E+01 5.00000E-01
 -1       816-2.19476E+00 1.47838E+01-5.00000E-01
 -1       817-1.00383E+01 1.10730E+01 5.00000E-01
 -1       818-8.90181E+00 1.20056E+01 5.00000E-01
 -1       819-1.00383E+01 1.10730E+01-5.00000E-01
 -1       820 1.47838E+01 2.19476E+00 5.00000E-01
 -1       821 1.49279E+01 7.31588E-01 5.00000E-01
 -1       822 1.47838E+01 2.19476E+00-5.00000E-01
 -1       823 7.31588E-01-1.49279E+01 5.00000E-01
 -1       824 5.03678E+00-1.40716E+01 5.00000E-01
 -1       825 3.62983E+00-1.44984E+01 5.00000E-01
 -1       826 5.03678E+00-1.40716E+01-5.00000E-01
 -1       827 6.38858E+00-1.35117E+01 5.00000E-01
 -1       828 7.68523E+00-1.28186E+01-5.00000E-01
 -1       829-7.31588E-01-1.49279E+01 5.00000E-01
 -1       830-2.19476E+00-1.47838E+01 5.00000E-01
 -1       831-7.31588E-01-1.49279E+01-5.00000E-01
 -1       832-1.00383E+01-1.10730E+01 5.00000E-01
 -1       833-1.47838E+01-2.19476E+00-5.00000E-01
 -1       834 1.28186E+01-7.68523E+00-5.00000E-01
 -1       835 1.10730E+01-1.00383E+01-5.00000E-01
 -1       836 1.00383E+01-1.10730E+01-5.00000E-01
 -1       837 8.90181E+00-1.20056E+01-5.00000E-01
 -1       838-6.38858E+00-1.35117E+01-5.00000E-01
 -1       839-7.68523E+00-1.28186E+01-5.00000E-01
 -1       840-1.10730E+01-1.00383E+01-5.00000E-01
 -1       841-1.20056E+01-8.90181E+00-5.00000E-01
 -1       842-1.44984E+01-3.62983E+00-5.00000E-01
 -1       843-1.40716E+01 5.03678E+00-5.00000E-01
 -1       844-1.20056E+01-8.90181E+00 5.00000E-01
 -1       845-1.44984E+01 3.62983E+00 5.00000E-01
 -1       846-1.40716E+01-5.03678E+00 5.00000E-01
 -1       847 1.35117E+01-6.38858E+00 5.00000E-01
 -1       848 1.20056E+01-8.90181E+00 5.00000E-01
 -1       849 1.00383E+01-1.10730E+01 5.00000E-01
 -1       850-6.38858E+00-1.35117E+01 5.00000E-01
 -1       851 3.06109E+00-4.50000E-01 1.45000E+00
 -1       852 7.42117E+00 9.00000E-01 1.45000E+00
 -1       853 7.42117E+00-9.00000E-01 1.45000E+00
 -1       854 5.99524E+00-9.00000E-01 1.45000E+00
 -1       855 1.03553E+01 4.50000E-01 1.45000E+00
 -1       856 8.87453E+00-4.50000E-01 1.45000E+00
 -1       857 4.54188E+00-4.50000E-01 5.00000E-01
 -1       858 8.87453E+00 4.50000E-01 5.00000E-01
 -1       859 1.03553E+01 4.50000E-01 5.00000E-01
 -1       860 3.06109E+00 4.50000E-01 5.00000E-01
 -1       861 4.54188E+00 4.50000E-01 5.00000E-01
 -1       862 3.06109E+00-4.50000E-01 5.00000E-01
 -1       863 1.03553E+01-4.50000E-01 5.00000E-01
 -1       864 8.87453E+00-4.50000E-01 5.00000E-01
 -1       865 7.42117E+00-9.00000E-01 5.00000E-01
 -1       866 5.99524E+00-9.00000E-01 5.00000E-01
 -1       867 8.02680E+00 3.81189E+00 1.45000E+00
 -1       868 9.73927E+00 3.54707E+00 1.45000E+00
 -1       869 8.37120E+00 2.98040E+00 1.45000E+00
 -1       870 9.39487E+00 4.37855E+00 1.45000E+00
 -1       871 7.20068E+00 2.00847E+00 1.45000E+00
 -1       872 5.88329E+00 1.46278E+00 1.45000E+00
 -1       873 5.19446E+00 3.12577E+00 1.45000E+00
 -1       874 6.51185E+00 3.67145E+00 1.45000E+00
 -1       875 4.02394E+00 2.15385E+00 1.45000E+00
 -1       876 8.02680E+00 3.81189E+00 5.00000E-01
 -1       877 9.39487E+00 4.37855E+00 5.00000E-01
 -1       878 2.65587E+00 1.58718E+00 5.00000E-01
 -1       879 4.02394E+00 2.15385E+00 5.00000E-01
 -1       880 3.00029E+00 7.55684E-01 5.00000E-01
 -1       881 9.73927E+00 3.54707E+00 5.00000E-01
 -1       882 8.37120E+00 2.98040E+00 5.00000E-01
 -1       883 7.20068E+00 2.00847E+00 5.00000E-01
 -1       884 5.88329E+00 1.46278E+00 5.00000E-01
 -1       885 2.48271E+00 1.84633E+00 1.45000E+00
 -1       886 5.88396E+00 4.61117E+00 1.45000E+00
 -1       887 7.64051E+00 7.00412E+00 1.45000E+00
 -1       888 6.59344E+00 5.95705E+00 1.45000E+00
 -1       889 5.95705E+00 6.59344E+00 1.45000E+00
 -1       890 7.00412E+00 7.64051E+00 1.45000E+00
 -1       891 4.87567E+00 3.60287E+00 1.45000E+00
 -1       892 3.60287E+00 4.87567E+00 1.45000E+00
 -1       893 4.61117E+00 5.88396E+00 1.45000E+00
 -1       894 2.89339E+00 3.52978E+00 1.45000E+00
 -1       895 5.95705E+00 6.59344E+00 5.00000E-01
 -1       896 7.00412E+00 7.64051E+00 5.00000E-01
 -1       897 1.84633E+00 2.48271E+00 5.00000E-01
 -1       898 2.89339E+00 3.52978E+00 5.00000E-01
 -1       899 3.52978E+00 2.89339E+00 5.00000E-01
 -1       900 2.48271E+00 1.84633E+00 5.00000E-01
 -1       901 6.59344E+00 5.95705E+00 5.00000E-01
 -1       902 3.60287E+00 4.87567E+00 5.00000E-01
 -1       903 4.61117E+00 5.88396E+00 5.00000E-01
 -1       904 5.88396E+00 4.61117E+00 5.00000E-01
 -1       905 4.87567E+00 3.60287E+00 5.00000E-01
 -1       906 2.15385E+00 4.02394E+00 1.45000E+00
 -1       907 1.58718E+00 2.65587E+00 1.45000E+00
 -1       908 1.46278E+00 5.88329E+00 1.45000E+00
 -1       909 2.00847E+00 7.20068E+00 1.45000E+00
 -1       910 4.37855E+00 9.39487E+00 1.45000E+00
 -1       911 3.81189E+00 8.02680E+00 1.45000E+00
 -1       912 2.98040E+00 8.37120E+00 1.45000E+00
 -1       913 3.54707E+00 9.73927E+00 1.45000E+00
 -1       914 1.32235E+00 4.36836E+00 1.45000E+00
 -1       915 2.98040E+00 8.37120E+00 5.00000E-01
 -1       916 3.54707E+00 9.73927E+00 5.00000E-01
 -1       917 7.55684E-01 3.00029E+00 5.00000E-01
 -1       918 1.32235E+00 4.36836E+00 5.00000E-01
 -1       919 2.15385E+00 4.02394E+00 5.00000E-01
 -1       920 1.58718E+00 2.65587E+00 5.00000E-01
 -1       921 4.37855E+00 9.39487E+00 5.00000E-01
 -1       922 3.81189E+00 8.02680E+00 5.00000E-01
 -1       923 1.46278E+00 5.88329E+00 5.00000E-01
 -1       924 2.00847E+00 7.20068E+00 5.00000E-01
 -1       925 3.67145E+00 6.51185E+00 5.00000E-01
 -1       926 3.12577E+00 5.19446E+00 5.00000E-01
 -1       927-9.00000E-01 5.99524E+00 1.45000E+00
 -1       928-9.00000E-01 7.42117E+00 1.45000E+00
 -1       929 4.50000E-01 1.03553E+01 1.45000E+00
 -1       930 4.50000E-01 8.87453E+00 1.45000E+00
 -1       931-4.50000E-01 8.87453E+00 1.45000E+00
 -1       932-4.50000E-01 1.03553E+01 1.45000E+00
 -1       933-4.50000E-01 4.54188E+00 1.45000E+00
 -1       934 9.00000E-01 5.99524E+00 1.45000E+00
 -1       935 4.50000E-01 1.03553E+01 5.00000E-01
 -1       936-4.50000E-01 8.87453E+00 5.00000E-01
 -1       937-4.50000E-01 1.03553E+01 5.00000E-01
 -1       938-4.50000E-01 3.06109E+00 5.00000E-01
 -1       939-4.50000E-01 4.54188E+00 5.00000E-01
 -1       940 4.50000E-01 4.54188E+00 5.00000E-01
 -1       941 4.50000E-01 3.06109E+00 5.00000E-01
 -1       942 4.50000E-01 8.87453E+00 5.00000E-01
 -1       943-3.81189E+00 8.02680E+00 1.45000E+00
 -1       944-1.32235E+00 4.36836E+00 1.45000E+00
 -1       945-9.00000E-01 5.99524E+00 5.00000E-01
 -1       946-9.00000E-01 7.42117E+00 5.00000E-01
 -1       947 9.00000E-01 7.42117E+00 5.00000E-01
 -1       948 9.00000E-01 5.99524E+00 5.00000E-01
 -1       949-7.55684E-01 3.00029E+00 1.45000E+00
 -1       950-2.00847E+00 7.20068E+00 1.45000E+00
 -1       951-1.46278E+00 5.88329E+00 1.45000E+00
 -1       952-1.58718E+00 2.65587E+00 1.45000E+00
 -1       953-2.15385E+00 4.02394E+00 1.45000E+00
 -1       954-3.54707E+00 9.73927E+00 1.45000E+00
 -1       955-2.98040E+00 8.37120E+00 1.45000E+00
 -1       956-4.37855E+00 9.39487E+00 1.45000E+00
 -1       957-3.81189E+00 8.02680E+00 5.00000E-01
 -1       958-4.37855E+00 9.39487E+00 5.00000E-01
 -1       959-1.58718E+00 2.65587E+00 5.00000E-01
 -1       960-2.15385E+00 4.02394E+00 5.00000E-01
 -1       961-1.32235E+00 4.36836E+00 5.00000E-01
 -1       962-7.55684E-01 3.00029E+00 5.00000E-01
 -1       963-3.54707E+00 9.73927E+00 5.00000E-01
 -1       964-2.98040E+00 8.37120E+00 5.00000E-01
 -1       965-2.00847E+00 7.20068E+00 5.00000E-01
 -1       966-1.46278E+00 5.88329E+00 5.00000E-01
 -1       967-4.61117E+00 5.88396E+00 1.45000E+00
 -1       968-7.00412E+00 7.64051E+00 1.45000E+00
 -1       969-5.95705E+00 6.59344E+00 1.45000E+00
 -1       970-6.59344E+00 5.95705E+00 1.45000E+00
 -1       971-7.64051E+00 7.00412E+00 1.45000E+00
 -1       972-3.60287E+00 4.87567E+00 1.45000E+00
 -1       973-4.87567E+00 3.60287E+00 1.45000E+00
 -1       974-5.88396E+00 4.61117E+00 1.45000E+00
 -1       975-3.52978E+00 2.89339E+00 1.45000E+00
 -1       976-6.59344E+00 5.95705E+00 5.00000E-01
 -1       977-7.64051E+00 7.00412E+00 5.00000E-01
 -1       978-2.48271E+00 1.84633E+00 5.00000E-01
 -1       979-3.52978E+00 2.89339E+00 5.00000E-01
 -1       980-1.84633E+00 2.48271E+00 5.00000E-01
 -1       981-4.87567E+00 3.60287E+00 5.00000E-01
 -1       982-7.00412E+00 7.64051E+00 5.00000E-01
 -1       983-5.95705E+00 6.59344E+00 5.00000E-01
 -1       984-5.88396E+00 4.61117E+00 5.00000E-01
 -1       985-4.61117E+00 5.88396E+00 5.00000E-01
 -1       986-3.60287E+00 4.87567E+00 5.00000E-01
 -1       987-6.51185E+00 3.67145E+00 1.45000E+00
 -1       988-9.39487E+00 4.37855E+00 1.45000E+00
 -1       989-8.02680E+00 3.81189E+00 1.45000E+00
 -1       990-8.37120E+00 2.98040E+00 1.45000E+00
 -1       991-9.73927E+00 3.54707E+00 1.45000E+00
 -1       992-5.19446E+00 3.12577E+00 1.45000E+00
 -1       993-5.88329E+00 1.46278E+00 1.45000E+00
 -1       994-7.20068E+00 2.00847E+00 1.45000E+00
 -1       995-4.36836E+00 1.32235E+00 1.45000E+00
 -1       996-8.37120E+00 2.98040E+00 5.00000E-01
 -1       997-9.73927E+00 3.54707E+00 5.00000E-01
 -1       998-3.00029E+00 7.55684E-01 5.00000E-01
 -1       999-4.36836E+00 1.32235E+00 5.00000E-01
 -1      1000-2.65587E+00 1.58718E+00 5.00000E-01
 -1      1001-9.39487E+00 4.37855E+00 5.00000E-01
 -1      1002-8.02680E+00 3.81189E+00 5.00000E-01
 -1      1003-6.51185E+00 3.67145E+00 5.00000E-01
 -1      1004-5.19446E+00 3.12577E+00 5.00000E-01
 -1      1005-7.42117E+00 9.00000E-01 1.45000E+00
 -1      1006-1.03553E+01 4.50000E-01 1.45000E+00
 -1      1007-8.87453E+00 4.50000E-01 1.45000E+00
 -1      1008-8.87453E+00-4.50000E-01 1.45000E+00
 -1      1009-1.03553E+01-4.50000E-01 1.45000E+00
 -1      1010-5.99524E+00 9.00000E-01 1.45000E+00
 -1      1011-5.99524E+00-9.00000E-01 1.45000E+00
 -1      1012-7.42117E+00-9.00000E-01 1.45000E+00
 -1      1013-4.54188E+00-4.50000E-01 1.45000E+00
 -1      1014-8.87453E+00-4.50000E-01 5.00000E-01
 -1      1015-1.03553E+01-4.50000E-01 5.00000E-01
 -1      1016-3.06109E+00-4.50000E-01 5.00000E-01
 -1      1017-4.54188E+00-4.50000E-01 5.00000E-01
 -1      1018-3.06109E+00 4.50000E-01 5.00000E-01
 -1      1019-1.03553E+01 4.50000E-01 5.00000E-01
 -1      1020-8.87453E+00 4.50000E-01 5.00000E-01
 -1      1021-7.42117E+00 9.00000E-01 5.00000E-01
 -1      1022-5.99524E+00 9.00000E-01 5.00000E-01
 -1      1023-4.02394E+00-2.15385E+00 1.45000E+00
 -1      1024-3.00029E+00-7.55684E-01 1.45000E+00
 -1      1025-5.19446E+00-3.12577E+00 1.45000E+00
 -1      1026-6.51185E+00-3.67145E+00 1.45000E+00
 -1      1027-8.02680E+00-3.81189E+00 1.45000E+00
 -1      1028-9.39487E+00-4.37855E+00 1.45000E+00
 -1      1029-8.37120E+00-2.98040E+00 1.45000E+00
 -1      1030-8.02680E+00-3.81189E+00 5.00000E-01
 -1      1031-9.39487E+00-4.37855E+00 5.00000E-01
 -1      1032-2.65587E+00-1.58718E+00 5.00000E-01
 -1      1033-4.02394E+00-2.15385E+00 5.00000E-01
 -1      1034-3.00029E+00-7.55684E-01 5.00000E-01
 -1      1035-9.73927E+00-3.54707E+00 5.00000E-01
 -1      1036-8.37120E+00-2.98040E+00 5.00000E-01
 -1      1037-7.20068E+00-2.00847E+00 5.00000E-01
 -1      1038-5.88329E+00-1.46278E+00 5.00000E-01
 -1      1039-2.89339E+00-3.52978E+00 1.45000E+00
 -1      1040-2.48271E+00-1.84633E+00 1.45000E+00
 -1      1041-3.60287E+00-4.87567E+00 1.45000E+00
 -1      1042-4.61117E+00-5.88396E+00 1.45000E+00
 -1      1043-5.95705E+00-6.59344E+00 1.45000E+00
 -1      1044-7.00412E+00-7.64051E+00 1.45000E+00
 -1      1045-6.59344E+00-5.95705E+00 1.45000E+00
 -1      1046-3.52978E+00-2.89339E+00 5.00000E-01
 -1      1047-5.95705E+00-6.59344E+00 5.00000E-01
 -1      1048-7.00412E+00-7.64051E+00 5.00000E-01
 -1      1049-1.84633E+00-2.48271E+00 5.00000E-01
 -1      1050-2.89339E+00-3.52978E+00 5.00000E-01
 -1      1051-2.48271E+00-1.84633E+00 5.00000E-01
 -1      1052-7.64051E+00-7.00412E+00 5.00000E-01
 -1      1053-6.59344E+00-5.95705E+00 5.00000E-01
 -1      1054-5.88396E+00-4.61117E+00 5.00000E-01
 -1      1055-4.87567E+00-3.60287E+00 5.00000E-01
 -1      1056-1.32235E+00-4.36836E+00 1.45000E+00
 -1      1057-3.67145E+00-6.51185E+00 1.45000E+00
 -1      1058-3.12577E+00-5.19446E+00 1.45000E+00
 -1      1059-1.58718E+00-2.65587E+00 1.45000E+00
 -1      1060-4.37855E+00-9.39487E+00 1.45000E+00
 -1      1061-2.98040E+00-8.37120E+00 1.45000E+00
 -1      1062-3.54707E+00-9.73927E+00 1.45000E+00
 -1      1063-3.81189E+00-8.02680E+00 1.45000E+00
 -1      1064-2.00847E+00-7.20068E+00 1.45000E+00
 -1      1065-2.98040E+00-8.37120E+00 5.00000E-01
 -1      1066-3.54707E+00-9.73927E+00 5.00000E-01
 -1      1067-7.55684E-01-3.00029E+00 5.00000E-01
 -1      1068-1.32235E+00-4.36836E+00 5.00000E-01
 -1      1069-1.58718E+00-2.65587E+00 5.00000E-01
 -1      1070-4.37855E+00-9.39487E+00 5.00000E-01
 -1      1071-3.81189E+00-8.02680E+00 5.00000E-01
 -1      1072-2.00847E+00-7.20068E+00 5.00000E-01
 -1      1073-3.67145E+00-6.51185E+00 5.00000E-01
 -1      1074-3.12577E+00-5.19446E+00 5.00000E-01
 -1      1075 4.50000E-01-4.54188E+00 1.45000E+00
 -1      1076-9.00000E-01-7.42117E+00 1.45000E+00
 -1      1077-9.00000E-01-5.99524E+00 1.45000E+00
 -1      1078-4.50000E-01-3.06109E+00 1.45000E+00
 -1      1079 4.50000E-01-1.03553E+01 1.45000E+00
 -1      1080-4.50000E-01-8.87453E+00 1.45000E+00
 -1      1081 9.00000E-01-5.99524E+00 1.45000E+00
 -1      1082 9.00000E-01-7.42117E+00 1.45000E+00
 -1      1083-4.50000E-01-4.54188E+00 5.00000E-01
 -1      1084 4.50000E-01-8.87453E+00 5.00000E-01
 -1      1085 4.50000E-01-1.03553E+01 5.00000E-01
 -1      1086 4.50000E-01-3.06109E+00 5.00000E-01
 -1      1087 4.50000E-01-4.54188E+00 5.00000E-01
 -1      1088-4.50000E-01-3.06109E+00 5.00000E-01
 -1      1089-4.50000E-01-1.03553E+01 5.00000E-01
 -1      1090-4.50000E-01-8.87453E+00 5.00000E-01
 -1      1091-9.00000E-01-7.42117E+00 5.00000E-01
 -1      1092-9.00000E-01-5.99524E+00 5.00000E-01
 -1      1093 2.15385E+00-4.02394E+00 1.45000E+00
 -1      1094 3.12577E+00-5.19446E+00 1.45000E+00
 -1      1095 3.67145E+00-6.51185E+00 1.45000E+00
 -1      1096 3.81189E+00-8.02680E+00 1.45000E+00
 -1      1097 4.37855E+00-9.39487E+00 1.45000E+00
 -1      1098 3.54707E+00-9.73927E+00 1.45000E+00
 -1      1099 2.98040E+00-8.37120E+00 1.45000E+00
 -1      1100 7.55684E-01-3.00029E+00 1.45000E+00
 -1      1101 3.81189E+00-8.02680E+00 5.00000E-01
 -1      1102 4.37855E+00-9.39487E+00 5.00000E-01
 -1      1103 1.58718E+00-2.65587E+00 5.00000E-01
 -1      1104 2.15385E+00-4.02394E+00 5.00000E-01
 -1      1105 7.55684E-01-3.00029E+00 5.00000E-01
 -1      1106 3.54707E+00-9.73927E+00 5.00000E-01
 -1      1107 2.98040E+00-8.37120E+00 5.00000E-01
 -1      1108 3.12577E+00-5.19446E+00 5.00000E-01
 -1      1109 3.67145E+00-6.51185E+00 5.00000E-01
 -1      1110 2.00847E+00-7.20068E+00 5.00000E-01
 -1      1111 1.46278E+00-5.88329E+00 5.00000E-01
 -1      1112 3.52978E+00-2.89339E+00 1.45000E+00
 -1      1113 1.84633E+00-2.48271E+00 1.45000E+00
 -1      1114 5.88396E+00-4.61117E+00 1.45000E+00
 -1      1115 4.61117E+00-5.88396E+00 1.45000E+00
 -1      1116 3.60287E+00-4.87567E+00 1.45000E+00
 -1      1117 7.64051E+00-7.00412E+00 1.45000E+00
 -1      1118 5.95705E+00-6.59344E+00 1.45000E+00
 -1      1119 6.59344E+00-5.95705E+00 5.00000E-01
 -1      1120 7.64051E+00-7.00412E+00 5.00000E-01
 -1      1121 2.48271E+00-1.84633E+00 5.00000E-01
 -1      1122 3.52978E+00-2.89339E+00 5.00000E-01
 -1      1123 1.84633E+00-2.48271E+00 5.00000E-01
 -1      1124 7.00412E+00-7.64051E+00 5.00000E-01
 -1      1125 5.95705E+00-6.59344E+00 5.00000E-01
 -1      1126 4.87567E+00-3.60287E+00 5.00000E-01
 -1      1127 5.88396E+00-4.61117E+00 5.00000E-01
 -1      1128 4.61117E+00-5.88396E+00 5.00000E-01
 -1      1129 3.60287E+00-4.87567E+00 5.00000E-01
 -1      1130 4.36836E+00-1.32235E+00 1.45000E+00
 -1      1131 2.65587E+00-1.58718E+00 1.45000E+00
 -1      1132 7.20068E+00-2.00847E+00 1.45000E+00
 -1      1133 6.51185E+00-3.67145E+00 1.45000E+00
 -1      1134 5.19446E+00-3.12577E+00 1.45000E+00
 -1      1135 9.73927E+00-3.54707E+00 1.45000E+00
 -1      1136 8.02680E+00-3.81189E+00 1.45000E+00
 -1      1137 8.37120E+00-2.98040E+00 5.00000E-01
 -1      1138 9.73927E+00-3.54707E+00 5.00000E-01
 -1      1139 3.00029E+00-7.55684E-01 5.00000E-01
 -1      1140 4.36836E+00-1.32235E+00 5.00000E-01
 -1      1141 2.65587E+00-1.58718E+00 5.00000E-01
 -1      1142 9.39487E+00-4.37855E+00 5.00000E-01
 -1      1143 8.02680E+00-3.81189E+00 5.00000E-01
 -1      1144 6.51185E+00-3.67145E+00 5.00000E-01
 -1      1145 5.19446E+00-3.12577E+00 5.00000E-01
 -1      1146 8.90181E+00 1.20056E+01 5.00000E-01
 -1      1147 8.90181E+00 1.20056E+01-5.00000E-01
 -1      1148 1.00383E+01 1.10730E+01-5.00000E-01
 -1      1149 1.47838E+01-2.19476E+00 5.00000E-01
 -1      1150 1.49279E+01-7.31588E-01 5.00000E-01
 -1      1151 1.49279E+01-7.31588E-01-5.00000E-01
 -1      1152 1.47838E+01-2.19476E+00-5.00000E-01
 -1      1153-3.62983E+00-1.44984E+01 5.00000E-01
 -1      1154-3.62983E+00-1.44984E+01-5.00000E-01
 -1      1155-5.03678E+00-1.40716E+01-5.00000E-01
 -1      1156 1.10730E+01 1.00383E+01 5.00000E-01
 -1      1157 1.10730E+01 1.00383E+01-5.00000E-01
 -1      1158 1.20056E+01 8.90181E+00-5.00000E-01
 -1      1159-5.03678E+00 1.40716E+01 5.00000E-01
 -1      1160-5.03678E+00 1.40716E+01-5.00000E-01
 -1      1161-3.62983E+00 1.44984E+01-5.00000E-01
 -1      1162-1.35117E+01 6.38858E+00-5.00000E-01
 -1      1163-1.28186E+01 7.68523E+00-5.00000E-01
 -1      1164-1.28186E+01 7.68523E+00 5.00000E-01
 -1      1165-1.35117E+01 6.38858E+00 5.00000E-01
 -1      1166 1.40716E+01 5.03678E+00 5.00000E-01
 -1      1167 1.40716E+01 5.03678E+00-5.00000E-01
 -1      1168 1.44984E+01 3.62983E+00-5.00000E-01
 -1      1169 1.35117E+01 6.38858E+00-5.00000E-01
 -1      1170 7.68523E+00 1.28186E+01-5.00000E-01
 -1      1171 2.19476E+00 1.47838E+01 5.00000E-01
 -1      1172 7.31588E-01 1.49279E+01 5.00000E-01
 -1      1173 7.31588E-01 1.49279E+01-5.00000E-01
 -1      1174 2.19476E+00 1.47838E+01-5.00000E-01
 -1      1175 5.03678E+00 1.40716E+01-5.00000E-01
 -1      1176-1.47838E+01 2.19476E+00-5.00000E-01
 -1      1177-1.47838E+01 2.19476E+00 5.00000E-01
 -1      1178-1.49279E+01 7.31588E-01 5.00000E-01
 -1      1179-1.10730E+01 1.00383E+01-5.00000E-01
 -1      1180-1.20056E+01 8.90181E+00 5.00000E-01
 -1      1181-6.38858E+00 1.35117E+01-5.00000E-01
 -1      1182-7.31588E-01 1.49279E+01-5.00000E-01
 -1      1183-8.90181E+00 1.20056E+01-5.00000E-01
 -1      1184 1.49279E+01 7.31588E-01-5.00000E-01
 -1      1185 2.19476E+00-1.47838E+01 5.00000E-01
 -1      1186 2.19476E+00-1.47838E+01-5.00000E-01
 -1      1187 7.31588E-01-1.49279E+01-5.00000E-01
 -1      1188 1.40716E+01-5.03678E+00 5.00000E-01
 -1      1189 1.44984E+01-3.62983E+00 5.00000E-01
 -1      1190 1.44984E+01-3.62983E+00-5.00000E-01
 -1      1191 1.40716E+01-5.03678E+00-5.00000E-01
 -1      1192 3.62983E+00-1.44984E+01-5.00000E-01
 -1      1193 7.68523E+00-1.28186E+01 5.00000E-01
 -1      1194 6.38858E+00-1.35117E+01-5.00000E-01
 -1      1195-2.19476E+00-1.47838E+01-5.00000E-01
 -1      1196-8.90181E+00-1.20056E+01 5.00000E-01
 -1      1197-8.90181E+00-1.20056E+01-5.00000E-01
 -1      1198-1.00383E+01-1.10730E+01-5.00000E-01
 -1      1199-1.28186E+01-7.68523E+00-5.00000E-01
 -1      1200-1.35117E+01-6.38858E+00-5.00000E-01
 -1      1201-1.35117E+01-6.38858E+00 5.00000E-01
 -1      1202-1.28186E+01-7.68523E+00 5.00000E-01
 -1      1203-1.49279E+01-7.31588E-01-5.00000E-01
 -1      1204-1.49279E+01-7.31588E-01 5.00000E-01
 -1      1205-1.47838E+01-2.19476E+00 5.00000E-01
 -1      1206 1.35117E+01-6.38858E+00-5.00000E-01
 -1      1207 1.20056E+01-8.90181E+00-5.00000E-01
 -1      1208-1.40716E+01-5.03678E+00-5.00000E-01
 -1      1209-1.44984E+01 3.62983E+00-5.00000E-01
 -1      1210-1.10730E+01-1.00383E+01 5.00000E-01
 -1      1211-1.40716E+01 5.03678E+00 5.00000E-01
 -1      1212-1.44984E+01-3.62983E+00 5.00000E-01
 -1      1213 1.28186E+01-7.68523E+00 5.00000E-01
 -1      1214 1.10730E+01-1.00383E+01 5.00000E-01
 -1      1215 8.90181E+00-1.20056E+01 5.00000E-01
 -1      1216-7.68523E+00-1.28186E+01 5.00000E-01
 -1      1217 2.98935E+00-4.86511E+00 5.00000E-01
 -1      1218 1.58456E+00 2.22095E+00 5.00000E-01
 -1      1219 1.43302E+00 2.28372E+00 5.00000E-01
 -1      1220-6.14017E-01-2.65828E+00 5.00000E-01
 -1      1221-4.50000E-01-2.65828E+00 5.00000E-01
 -1      1222-4.86511E+00-2.98935E+00 5.00000E-01
 -1      1223 2.22095E+00 1.58456E+00 5.00000E-01
 -1      1224 2.28372E+00 1.43302E+00 5.00000E-01
 -1      1225-6.14017E-01 2.65828E+00 5.00000E-01
 -1      1226-4.50000E-01 2.65828E+00 5.00000E-01
 -1      1227 1.64099E+00-1.64099E+00 5.00000E-01
 -1      1228 4.50000E-01 2.32070E+00 9.75000E-01
 -1      1229 2.31626E+00 4.72349E-01 9.75000E-01
 -1      1230-2.65828E+00 6.14017E-01 5.00000E-01
 -1      1231-2.65828E+00 4.50000E-01 5.00000E-01
 -1      1232-5.43183E-01-2.48727E+00 5.00000E-01
 -1      1233-4.50000E-01-2.48727E+00 5.00000E-01
 -1      1234 2.22095E+00-1.58456E+00 5.00000E-01
 -1      1235 2.28372E+00-1.43302E+00 5.00000E-01
 -1      1236 4.72349E-01 2.31626E+00 9.75000E-01
 -1      1237 6.14017E-01-2.65828E+00 5.00000E-01
 -1      1238 4.50000E-01-2.65828E+00 5.00000E-01
 -1      1239-2.65828E+00-6.14017E-01 5.00000E-01
 -1      1240-2.65828E+00-4.50000E-01 5.00000E-01
 -1      1241-2.22095E+00-1.58456E+00 5.00000E-01
 -1      1242-2.28372E+00-1.43302E+00 5.00000E-01
 -1      1243 6.14017E-01 2.65828E+00 5.00000E-01
 -1      1244 4.50000E-01 2.65828E+00 5.00000E-01
 -1      1245-1.58456E+00 2.22095E+00 5.00000E-01
 -1      1246-1.43302E+00 2.28372E+00 5.00000E-01
 -1      1247 2.65828E+00 6.14017E-01 5.00000E-01
 -1      1248 2.65828E+00 4.50000E-01 5.00000E-01
 -1      1249 2.09006E+00 1.45367E+00 5.00000E-01
 -1      1250 2.12572E+00 1.36758E+00 5.00000E-01
 -1      1251 2.32070E+00-4.50000E-01 9.75000E-01
 -1      1252 1.64099E+00 1.64099E+00 1.45000E+00
 -1      1253 2.65828E+00-6.14017E-01 5.00000E-01
 -1      1254 2.65828E+00-4.50000E-01 5.00000E-01
 -1      1255-2.32070E+00 4.50000E-01 9.75000E-01
 -1      1256 2.14405E+00 8.88094E-01 5.00000E-01
 -1      1257 1.45367E+00 2.09006E+00 5.00000E-01
 -1      1258 1.36758E+00 2.12572E+00 5.00000E-01
 -1      1259-1.64099E+00 1.64099E+00 5.00000E-01
 -1      1260-2.22095E+00 1.58456E+00 5.00000E-01
 -1      1261-2.28372E+00 1.43302E+00 5.00000E-01
 -1      1262 1.64099E+00 1.64099E+00 5.00000E-01
 -1      1263-4.50000E-01-2.32070E+00 9.75000E-01
 -1      1264 0.00000E+00-2.32070E+00 5.00000E-01
 -1      1265 0.00000E+00 2.32070E+00 5.00000E-01
 -1      1266-5.43183E-01 2.48727E+00 5.00000E-01
 -1      1267-4.50000E-01 2.48727E+00 5.00000E-01
 -1      1268 1.30384E+00 1.97184E+00 9.75000E-01
 -1      1269 8.88094E-01 2.14405E+00 5.00000E-01
 -1      1270-1.58456E+00-2.22095E+00 5.00000E-01
 -1      1271-1.43302E+00-2.28372E+00 5.00000E-01
 -1      1272 1.32279E+00 1.95918E+00 9.75000E-01
 -1      1273 1.97184E+00-1.30384E+00 9.75000E-01
 -1      1274-1.30384E+00-1.97184E+00 9.75000E-01
 -1      1275-8.88094E-01-2.14405E+00 5.00000E-01
 -1      1276 1.95918E+00 1.32279E+00 9.75000E-01
 -1      1277-2.48727E+00-5.43183E-01 5.00000E-01
 -1      1278-2.48727E+00-4.50000E-01 5.00000E-01
 -1      1279-2.32070E+00 0.00000E+00 5.00000E-01
 -1      1280-2.14405E+00-8.88094E-01 5.00000E-01
 -1      1281-6.80222E-01-2.23015E+00 5.00000E-01
 -1      1282 1.58456E+00-2.22095E+00 5.00000E-01
 -1      1283 1.43302E+00-2.28372E+00 5.00000E-01
 -1      1284-8.88094E-01 2.14405E+00 5.00000E-01
 -1      1285 8.88094E-01-2.14405E+00 5.00000E-01
 -1      1286 0.00000E+00-2.32070E+00 1.45000E+00
 -1      1287-4.50000E-01 2.32070E+00 9.75000E-01
 -1      1288 4.50000E-01-2.32070E+00 9.75000E-01
 -1      1289-2.31626E+00 4.72349E-01 9.75000E-01
 -1      1290-1.80008E+00 1.48189E+00 5.00000E-01
 -1      1291 2.32070E+00 0.00000E+00 5.00000E-01
 -1      1292-2.05795E+00-1.09597E+00 5.00000E-01
 -1      1293 1.48189E+00 1.80008E+00 5.00000E-01
 -1      1294 1.09597E+00 2.05795E+00 5.00000E-01
 -1      1295 5.43183E-01-2.48727E+00 5.00000E-01
 -1      1296 4.50000E-01-2.48727E+00 5.00000E-01
 -1      1297 2.09006E+00-1.45367E+00 5.00000E-01
 -1      1298 2.12572E+00-1.36758E+00 5.00000E-01
 -1      1299 1.95918E+00-1.32279E+00 9.75000E-01
 -1      1300 1.97184E+00 1.30384E+00 9.75000E-01
 -1      1301-1.45367E+00 2.09006E+00 5.00000E-01
 -1      1302-1.36758E+00 2.12572E+00 5.00000E-01
 -1      1303-1.32279E+00 1.95918E+00 9.75000E-01
 -1      1304 4.72349E-01-2.31626E+00 9.75000E-01
 -1      1305-1.95918E+00 1.32279E+00 9.75000E-01
 -1      1306 5.43183E-01 2.48727E+00 5.00000E-01
 -1      1307 4.50000E-01 2.48727E+00 5.00000E-01
 -1      1308-4.72349E-01-2.31626E+00 9.75000E-01
 -1      1309 1.19990E+00 2.01489E+00 5.00000E-01
 -1      1310 1.40234E+00 1.87963E+00 5.00000E-01
 -1      1311-1.30384E+00 1.97184E+00 9.75000E-01
 -1      1312 2.02462E+00-1.38823E+00 5.00000E-01
 -1      1313 2.04673E+00-1.33486E+00 5.00000E-01
 -1      1314-1.64099E+00-1.64099E+00 5.00000E-01
 -1      1315 2.14405E+00-8.88094E-01 5.00000E-01
 -1      1316 2.05795E+00-1.09597E+00 5.00000E-01
 -1      1317 2.25000E-01-2.32070E+00 5.00000E-01
 -1      1318-2.40176E+00-5.07766E-01 5.00000E-01
 -1      1319-2.40176E+00-4.50000E-01 5.00000E-01
 -1      1320-1.45367E+00-2.09006E+00 5.00000E-01
 -1      1321-1.36758E+00-2.12572E+00 5.00000E-01
 -1      1322-1.48189E+00-1.80008E+00 5.00000E-01
 -1      1323 2.48727E+00 5.43183E-01 5.00000E-01
 -1      1324 2.48727E+00 4.50000E-01 5.00000E-01
 -1      1325-2.48727E+00 5.43183E-01 5.00000E-01
 -1      1326-2.48727E+00 4.50000E-01 5.00000E-01
 -1      1327-2.31626E+00-4.72349E-01 9.75000E-01
 -1      1328-2.32070E+00-4.50000E-01 9.75000E-01
 -1      1329 1.97184E+00-1.30384E+00 7.37500E-01
 -1      1330 2.02462E+00 1.38823E+00 5.00000E-01
 -1      1331 2.04673E+00 1.33486E+00 5.00000E-01
 -1      1332-5.07766E-01-2.40176E+00 5.00000E-01
 -1      1333-4.50000E-01-2.40176E+00 5.00000E-01
 -1      1334-2.25000E-01-2.32070E+00 5.00000E-01
 -1      1335-2.25000E-01 2.32070E+00 5.00000E-01
 -1      1336-1.97184E+00-1.30384E+00 9.75000E-01
 -1      1337-5.07766E-01 2.40176E+00 5.00000E-01
 -1      1338-4.50000E-01 2.40176E+00 5.00000E-01
 -1      1339-2.32070E+00-2.25000E-01 5.00000E-01
 -1      1340 1.38823E+00 2.02462E+00 5.00000E-01
 -1      1341 1.33486E+00 2.04673E+00 5.00000E-01
 -1      1342 2.05795E+00 1.09597E+00 5.00000E-01
 -1      1343 1.32279E+00 1.95918E+00 7.37500E-01
 -1      1344-2.31626E+00-4.72349E-01 7.37500E-01
 -1      1345 1.95918E+00 1.32279E+00 7.37500E-01
 -1      1346-6.80222E-01 2.23015E+00 5.00000E-01
 -1      1347-2.23015E+00-6.80222E-01 5.00000E-01
 -1      1348 6.80222E-01 2.23015E+00 5.00000E-01
 -1      1349-3.37500E-01 2.32070E+00 5.00000E-01
 -1      1350 1.80008E+00 1.48189E+00 5.00000E-01
 -1      1351 1.30384E+00 1.97184E+00 7.37500E-01
 -1      1352-2.14405E+00 8.88094E-01 5.00000E-01
 -1      1353 5.07766E-01-2.40176E+00 5.00000E-01
 -1      1354 4.50000E-01-2.40176E+00 5.00000E-01
 -1      1355 2.32070E+00 4.50000E-01 9.75000E-01
 -1      1356 1.45367E+00-2.09006E+00 5.00000E-01
 -1      1357 1.36758E+00-2.12572E+00 5.00000E-01
 -1      1358 1.30384E+00-1.97184E+00 9.75000E-01
 -1      1359-2.09006E+00 1.45367E+00 5.00000E-01
 -1      1360-2.12572E+00 1.36758E+00 5.00000E-01
 -1      1361 4.50000E-01-2.32070E+00 7.37500E-01
 -1      1362-1.32279E+00-1.95918E+00 9.75000E-01
 -1      1363-2.09006E+00-1.45367E+00 5.00000E-01
 -1      1364-2.12572E+00-1.36758E+00 5.00000E-01
 -1      1365-4.50000E-01 2.32070E+00 7.37500E-01
 -1      1366 1.95918E+00-1.32279E+00 7.37500E-01
 -1      1367 1.80008E+00-1.48189E+00 5.00000E-01
 -1      1368-1.95918E+00-1.32279E+00 9.75000E-01
 -1      1369 4.90057E-01-2.35901E+00 5.00000E-01
 -1      1370 4.50000E-01-2.35901E+00 5.00000E-01
 -1      1371 4.72349E-01-2.31626E+00 7.37500E-01
 -1      1372-1.80008E+00-1.48189E+00 5.00000E-01
 -1      1373 4.50000E-01-2.32070E+00 6.18750E-01
 -1      1374-2.05795E+00 1.09597E+00 5.00000E-01
 -1      1375-2.40176E+00 5.07766E-01 5.00000E-01
 -1      1376-2.40176E+00 4.50000E-01 5.00000E-01
 -1      1377 3.37500E-01-2.32070E+00 5.00000E-01
 -1      1378 2.48727E+00-5.43183E-01 5.00000E-01
 -1      1379 2.48727E+00-4.50000E-01 5.00000E-01
 -1      1380-2.32070E+00 2.25000E-01 5.00000E-01
 -1      1381-4.50000E-01-2.32070E+00 7.37500E-01
 -1      1382-1.38823E+00 2.02462E+00 5.00000E-01
 -1      1383-1.33486E+00 2.04673E+00 5.00000E-01
 -1      1384 1.32279E+00-1.95918E+00 9.75000E-01
 -1      1385 2.31626E+00-4.72349E-01 9.75000E-01
 -1      1386-2.32070E+00 4.50000E-01 7.37500E-01
 -1      1387 1.09597E+00-2.05795E+00 5.00000E-01
 -1      1388-1.48189E+00 1.80008E+00 5.00000E-01
 -1      1389-2.02462E+00 1.38823E+00 5.00000E-01
 -1      1390-2.04673E+00 1.33486E+00 5.00000E-01
 -1      1391-1.97184E+00 1.30384E+00 9.75000E-01
 -1      1392-2.31626E+00 4.72349E-01 7.37500E-01
 -1      1393 2.40176E+00 5.07766E-01 5.00000E-01
 -1      1394 2.40176E+00 4.50000E-01 5.00000E-01
 -1      1395-2.23015E+00 6.80222E-01 5.00000E-01
 -1      1396-1.09597E+00 2.05795E+00 5.00000E-01
 -1      1397 2.23015E+00 6.80222E-01 5.00000E-01
 -1      1398-1.09597E+00-2.05795E+00 5.00000E-01
 -1      1399-4.72349E-01-2.31626E+00 7.37500E-01
 -1      1400 2.32070E+00 2.25000E-01 5.00000E-01
 -1      1401 6.80222E-01-2.23015E+00 5.00000E-01
 -1      1402 5.76285E-01-2.27321E+00 5.00000E-01
 -1      1403 2.01489E+00 1.19990E+00 5.00000E-01
 -1      1404 1.35551E+00 1.99190E+00 5.00000E-01
 -1      1405 1.31850E+00 2.00723E+00 5.00000E-01
 -1      1406 1.25187E+00 1.99337E+00 5.00000E-01
 -1      1407-5.76285E-01 2.27321E+00 5.00000E-01
 -1      1408-4.72349E-01 2.31626E+00 9.75000E-01
 -1      1409 1.32279E+00 1.95918E+00 6.18750E-01
 -1      1410-2.35901E+00-4.90057E-01 5.00000E-01
 -1      1411-2.35901E+00-4.50000E-01 5.00000E-01
 -1      1412-2.32070E+00-3.37500E-01 5.00000E-01
 -1      1413 1.87963E+00 1.40234E+00 5.00000E-01
 -1      1414 2.32070E+00 4.50000E-01 7.37500E-01
 -1      1415 5.07766E-01 2.40176E+00 5.00000E-01
 -1      1416 4.50000E-01 2.40176E+00 5.00000E-01
 -1      1417 4.72349E-01 2.31626E+00 7.37500E-01
 -1      1418 1.97184E+00 1.30384E+00 7.37500E-01
 -1      1419 4.72349E-01-2.31626E+00 6.18750E-01
 -1      1420 2.31626E+00 4.72349E-01 7.37500E-01
 -1      1421-1.40234E+00-1.87963E+00 5.00000E-01
 -1      1422-1.30384E+00 1.97184E+00 7.37500E-01
 -1      1423-1.97184E+00 1.30384E+00 7.37500E-01
 -1      1424 1.99190E+00-1.35551E+00 5.00000E-01
 -1      1425 2.00723E+00-1.31850E+00 5.00000E-01
 -1      1426 2.01489E+00-1.19990E+00 5.00000E-01
 -1      1427-2.02462E+00-1.38823E+00 5.00000E-01
 -1      1428-2.04673E+00-1.33486E+00 5.00000E-01
 -1      1429-1.38823E+00-2.02462E+00 5.00000E-01
 -1      1430-1.33486E+00-2.04673E+00 5.00000E-01
 -1      1431-4.72349E-01 2.31626E+00 7.37500E-01
 -1      1432-1.97184E+00-1.30384E+00 7.37500E-01
 -1      1433-2.27321E+00-5.76285E-01 5.00000E-01
 -1      1434-1.95918E+00-1.32279E+00 7.37500E-01
 -1      1435 2.32070E+00-2.25000E-01 5.00000E-01
 -1      1436-1.87963E+00 1.40234E+00 5.00000E-01
 -1      1437 2.25000E-01 2.32070E+00 5.00000E-01
 -1      1438-4.90057E-01-2.35901E+00 5.00000E-01
 -1      1439-4.50000E-01-2.35901E+00 5.00000E-01
 -1      1440-2.32070E+00-4.50000E-01 7.37500E-01
 -1      1441-1.30384E+00-1.97184E+00 7.37500E-01
 -1      1442 1.97184E+00-1.30384E+00 6.18750E-01
 -1      1443 1.38823E+00-2.02462E+00 5.00000E-01
 -1      1444 1.33486E+00-2.04673E+00 5.00000E-01
 -1      1445-1.32279E+00 1.95918E+00 7.37500E-01
 -1      1446-2.01489E+00-1.19990E+00 5.00000E-01
 -1      1447-5.76285E-01-2.27321E+00 5.00000E-01
 -1      1448-1.32279E+00-1.95918E+00 7.37500E-01
 -1      1449-4.50000E-01-2.32070E+00 6.18750E-01
 -1      1450-1.87963E+00-1.40234E+00 5.00000E-01
 -1      1451 1.95918E+00-1.32279E+00 6.18750E-01
 -1      1452 1.30384E+00 1.97184E+00 6.18750E-01
 -1      1453 1.48189E+00-1.80008E+00 5.00000E-01
 -1      1454 1.87963E+00-1.40234E+00 5.00000E-01
 -1      1455 1.30384E+00-1.97184E+00 7.37500E-01
 -1      1456-2.32070E+00-4.50000E-01 6.18750E-01
 -1      1457 1.32279E+00-1.95918E+00 7.37500E-01
 -1      1458 2.23015E+00-6.80222E-01 5.00000E-01
 -1      1459-2.35901E+00 4.90057E-01 5.00000E-01
 -1      1460-2.35901E+00 4.50000E-01 5.00000E-01
 -1      1461-3.37500E-01-2.32070E+00 5.00000E-01
 -1      1462-2.01489E+00 1.19990E+00 5.00000E-01
 -1      1463-2.32070E+00 3.37500E-01 5.00000E-01
 -1      1464-1.35551E+00-1.99190E+00 5.00000E-01
 -1      1465-1.31850E+00-2.00723E+00 5.00000E-01
 -1      1466-1.19990E+00-2.01489E+00 5.00000E-01
 -1      1467 2.40176E+00-5.07766E-01 5.00000E-01
 -1      1468 2.40176E+00-4.50000E-01 5.00000E-01
 -1      1469-1.25187E+00-1.99337E+00 5.00000E-01
 -1      1470-2.31626E+00 4.72349E-01 6.18750E-01
 -1      1471-2.27321E+00 5.76285E-01 5.00000E-01
 -1      1472-1.32279E+00-1.95918E+00 6.18750E-01
 -1      1473-1.99190E+00 1.35551E+00 5.00000E-01
 -1      1474-2.00723E+00 1.31850E+00 5.00000E-01
 -1      1475 1.99190E+00 1.35551E+00 5.00000E-01
 -1      1476 2.00723E+00 1.31850E+00 5.00000E-01
 -1      1477 4.50000E-01 2.32070E+00 7.37500E-01
 -1      1478-1.95918E+00 1.32279E+00 7.37500E-01
 -1      1479 4.90057E-01 2.35901E+00 5.00000E-01
 -1      1480 4.50000E-01 2.35901E+00 5.00000E-01
 -1      1481-1.35551E+00 1.99190E+00 5.00000E-01
 -1      1482-1.31850E+00 2.00723E+00 5.00000E-01
 -1      1483-1.19990E+00 2.01489E+00 5.00000E-01
 -1      1484 4.50000E-01 2.32070E+00 6.18750E-01
 -1      1485-4.72349E-01-2.31626E+00 6.18750E-01
 -1      1486-1.91941E+00-1.36256E+00 5.00000E-01
 -1      1487 4.72349E-01 2.31626E+00 6.18750E-01
 -1      1488 5.76285E-01 2.27321E+00 5.00000E-01
 -1      1489 2.35901E+00 4.90057E-01 5.00000E-01
 -1      1490 2.35901E+00 4.50000E-01 5.00000E-01
 -1      1491-2.32070E+00 4.50000E-01 6.18750E-01
 -1      1492-1.95918E+00 1.32279E+00 6.18750E-01
 -1      1493 2.32070E+00 3.37500E-01 5.00000E-01
 -1      1494 2.27321E+00 5.76285E-01 5.00000E-01
 -1      1495-1.40234E+00 1.87963E+00 5.00000E-01
 -1      1496 3.37500E-01 2.32070E+00 5.00000E-01
 -1      1497 2.31626E+00-4.72349E-01 7.37500E-01
 -1      1498-1.95918E+00-1.32279E+00 6.18750E-01
 -1      1499 2.32070E+00 4.50000E-01 6.18750E-01
 -1      1500-1.30384E+00-1.97184E+00 6.18750E-01
 -1      1501 2.32070E+00-4.50000E-01 7.37500E-01
 -1      1502-2.31626E+00-4.72349E-01 6.18750E-01
 -1      1503-1.97184E+00 1.30384E+00 6.18750E-01
 -1      1504 1.97184E+00 1.30384E+00 6.18750E-01
 -1      1505 1.95918E+00 1.32279E+00 6.18750E-01
 -1      1506-1.30384E+00 1.97184E+00 6.18750E-01
 -1      1507 1.35551E+00-1.99190E+00 5.00000E-01
 -1      1508 1.31850E+00-2.00723E+00 5.00000E-01
 -1      1509 1.97184E+00-1.30384E+00 5.59375E-01
 -1      1510 1.19990E+00-2.01489E+00 5.00000E-01
 -1      1511 2.31626E+00 4.72349E-01 6.18750E-01
 -1      1512-1.32279E+00 1.95918E+00 6.18750E-01
 -1      1513 2.32070E+00-3.37500E-01 5.00000E-01
 -1      1514 2.35901E+00-4.90057E-01 5.00000E-01
 -1      1515 2.35901E+00-4.50000E-01 5.00000E-01
 -1      1516 2.27321E+00-5.76285E-01 5.00000E-01
 -1      1517 2.32070E+00-4.50000E-01 6.18750E-01
 -1      1518 1.40234E+00-1.87963E+00 5.00000E-01
 -1      1519 1.30384E+00-1.97184E+00 6.18750E-01
 -1      1520 1.32279E+00-1.95918E+00 6.18750E-01
 -1      1521 2.31626E+00-4.72349E-01 6.18750E-01
 -1      1522-4.30523E+00-1.03939E+01-5.00000E-01
 -1      1523 9.35357E+00 6.24987E+00-5.00000E-01
 -1      1524-7.95528E+00 7.95528E+00-5.00000E-01
 -1      1525 9.92119E+00 1.34652E+00-5.00000E-01
 -1      1526-1.03939E+01-4.30523E+00-5.00000E-01
 -1      1527 6.33052E+00-4.71995E+00-5.00000E-01
 -1      1528-1.20307E+01 4.98325E+00 5.00000E-01
 -1      1529-1.23742E+01-2.46139E+00 5.00000E-01
 -1      1530-1.23742E+01 2.46139E+00 5.00000E-01
 -1      1531-1.30219E+01 0.00000E+00 5.00000E-01
 -1      1532 1.12873E+01 3.98919E+00-5.00000E-01
 -1      1533-9.20789E+00 9.20789E+00 5.00000E-01
 -1      1534 1.04291E+01-2.77951E+00-5.00000E-01
 -1      1535-1.04904E+01 7.00943E+00 5.00000E-01
 -1      1536-1.04904E+01-7.00943E+00 5.00000E-01
 -1      1537-1.20307E+01-4.98325E+00 5.00000E-01
 -1      1538 0.00000E+00 0.00000E+00 5.00000E-01
 -1      1539 9.20789E+00 9.20789E+00 5.00000E-01
 -1      1540-1.12589E+01-7.39583E-01-5.00000E-01
 -1      1541 7.00943E+00 1.04904E+01 5.00000E-01
 -1      1542 4.98325E+00 1.20307E+01 5.00000E-01
 -1      1543 2.46139E+00 1.23742E+01 5.00000E-01
 -1      1544 0.00000E+00 1.30219E+01 5.00000E-01
 -1      1545-2.46139E+00 1.23742E+01 5.00000E-01
 -1      1546 1.06184E+01 6.92596E+00 5.00000E-01
 -1      1547-4.98325E+00 1.20307E+01 5.00000E-01
 -1      1548-7.00943E+00 1.04904E+01 5.00000E-01
 -1      1549 1.20307E+01 4.98325E+00 5.00000E-01
 -1      1550-1.70909E+00 6.07021E-01-5.00000E-01
 -1      1551-3.81952E+00 1.29160E+01 5.00000E-01
 -1      1552 1.30219E+01 0.00000E+00 5.00000E-01
 -1      1553 1.23742E+01-2.46139E+00 5.00000E-01
 -1      1554-6.85460E+00 2.56205E+00-5.00000E-01
 -1      1555 1.23742E+01 2.46139E+00 5.00000E-01
 -1      1556 1.20307E+01-4.98325E+00 5.00000E-01
 -1      1557 9.20720E+00 1.83143E+00 5.00000E-01
 -1      1558 1.04904E+01-7.00943E+00 5.00000E-01
 -1      1559 9.20789E+00-9.20789E+00 5.00000E-01
 -1      1560 7.00943E+00-1.04904E+01 5.00000E-01
 -1      1561 4.98325E+00-1.20307E+01 5.00000E-01
 -1      1562 5.93136E+00 8.87689E+00-5.00000E-01
 -1      1563 2.46139E+00-1.23742E+01 5.00000E-01
 -1      1564 4.27570E+00 3.17751E+00-5.00000E-01
 -1      1565 0.00000E+00-1.30219E+01 5.00000E-01
 -1      1566-2.46139E+00-1.23742E+01 5.00000E-01
 -1      1567-4.98325E+00-1.20307E+01 5.00000E-01
 -1      1568-7.00943E+00-1.04904E+01 5.00000E-01
 -1      1569-9.20789E+00-9.20789E+00 5.00000E-01
 -1      1570-1.30922E+01-1.81454E-01-5.00000E-01
 -1      1571-1.29160E+01-3.81952E+00 5.00000E-01
 -1      1572 9.05892E+00-6.95903E+00-5.00000E-01
 -1      1573-1.23408E+01-4.12763E+00-5.00000E-01
 -1      1574 1.09059E+01-5.72676E+00 5.00000E-01
 -1      1575 9.06720E+00-6.05851E+00 5.00000E-01
 -1      1576 8.46497E+00 5.65611E+00 5.00000E-01
 -1      1577-3.81952E+00-1.29160E+01 5.00000E-01
 -1      1578 9.98512E+00-1.98617E+00 5.00000E-01
 -1      1579-4.53326E+00-4.53326E+00-5.00000E-01
 -1      1580-1.11734E+00 1.22673E+01 5.00000E-01
 -1      1581-7.88420E+00-9.46435E+00 5.00000E-01
 -1      1582 1.17611E+01-3.66219E+00 5.00000E-01
 -1      1583 3.66219E+00 1.17611E+01 5.00000E-01
 -1      1584 1.02879E+01 7.96759E+00-5.00000E-01
 -1      1585 1.21502E+01-4.06980E+00-5.00000E-01
 -1      1586 6.05851E+00-9.06720E+00 5.00000E-01
 -1      1587-1.08902E+01 2.91938E+00-5.00000E-01
 -1      1588 5.59636E+00 1.12499E+01-5.00000E-01
 -1      1589-9.70524E-01 7.79171E+00-5.00000E-01
 -1      1590-1.18338E+01 6.43215E+00 5.00000E-01
 -1      1591-1.25454E+01-5.45531E+00-5.00000E-01
 -1      1592 1.31335E+01-2.83168E+00-5.00000E-01
 -1      1593 8.64079E+00 3.68283E+00-5.00000E-01
 -1      1594 1.27711E+01 2.72174E+00-5.00000E-01
 -1      1595 5.72676E+00-1.09059E+01 5.00000E-01
 -1      1596 6.72630E+00 1.11459E+00-5.00000E-01
 -1      1597 1.04306E+01-8.08470E+00-5.00000E-01
 -1      1598-1.33720E+01-3.67222E+00-5.00000E-01
 -1      1599-2.12747E+00-1.06955E+01 5.00000E-01
 -1      1600-9.39629E+00-7.23591E+00-5.00000E-01
 -1      1601-9.06720E+00-6.05851E+00 5.00000E-01
 -1      1602-1.07117E+01 2.16677E+00 5.00000E-01
 -1      1603 9.46435E+00-7.88420E+00 5.00000E-01
 -1      1604-7.25253E+00-1.49553E+00-5.00000E-01
 -1      1605 1.11734E+00 1.22673E+01 5.00000E-01
 -1      1606-1.33945E+01 1.41395E+00 5.00000E-01
 -1      1607 1.11853E+01 2.36749E+00-5.00000E-01
 -1      1608 3.78288E+00-9.13282E+00-5.00000E-01
 -1      1609 3.27559E+00 1.20645E+01-5.00000E-01
 -1      1610 2.12747E+00-1.06955E+01 5.00000E-01
 -1      1611 2.12747E+00 1.06955E+01 5.00000E-01
 -1      1612 9.75082E+00 5.93638E+00 5.00000E-01
 -1      1613-7.03214E+00 1.03068E+01-5.00000E-01
 -1      1614 8.47152E+00 1.04711E+01 5.00000E-01
 -1      1615 0.00000E+00-1.12497E+01-5.00000E-01
 -1      1616 5.26113E+00-7.87385E+00 5.00000E-01
 -1      1617-9.31739E+00-7.22448E+00 5.00000E-01
 -1      1618-1.04711E+01 8.47152E+00 5.00000E-01
 -1      1619 6.23716E+00 5.73270E+00-5.00000E-01
 -1      1620-9.09163E-01-1.29808E+01-5.00000E-01
 -1      1621-9.06720E+00 6.05851E+00 5.00000E-01
 -1      1622 2.56456E+00 6.52149E+00-5.00000E-01
 -1      1623-9.45815E+00-2.19048E+00-5.00000E-01
 -1      1624 5.65612E+00 8.46499E+00 5.00000E-01
 -1      1625-3.53010E+00-1.16684E+01 5.00000E-01
 -1      1626 1.19177E+01 6.38580E+00 5.00000E-01
 -1      1627-9.20720E+00-1.83143E+00 5.00000E-01
 -1      1628-1.09059E+01-5.72676E+00 5.00000E-01
 -1      1629 1.07498E+01-8.35275E+00 5.00000E-01
 -1      1630-1.13962E+01 3.14225E+00 5.00000E-01
 -1      1631-6.05195E+00-7.52708E+00-5.00000E-01
 -1      1632-5.85724E+00 1.17379E+01-5.00000E-01
 -1      1633-1.16848E+01 1.15139E+00-5.00000E-01
 -1      1634 7.54915E+00 1.03154E+01-5.00000E-01
 -1      1635-2.12747E+00 1.06955E+01 5.00000E-01
 -1      1636-6.05851E+00 9.06720E+00 5.00000E-01
 -1      1637 5.46588E+00 1.25652E+01-5.00000E-01
 -1      1638 2.63606E+00-1.25731E+00-5.00000E-01
 -1      1639-1.28014E+01 2.71580E+00-5.00000E-01
 -1      1640-7.49189E-01 1.13564E+01-5.00000E-01
 -1      1641-1.03287E+01 6.77108E+00-5.00000E-01
 -1      1642 3.81952E+00-1.29160E+01 5.00000E-01
 -1      1643 1.17002E+01 5.83710E+00-5.00000E-01
 -1      1644-1.11234E+00 4.60738E-01 5.00000E-01
 -1      1645 7.55367E+00 7.44771E+00-5.00000E-01
 -1      1646-1.14340E+01-4.94699E+00-5.00000E-01
 -1      1647 1.30134E+01-9.12376E-01-5.00000E-01
 -1      1648 1.11734E+00-1.22673E+01 5.00000E-01
 -1      1649-7.87385E+00-5.26113E+00 5.00000E-01
 -1      1650-1.69491E+00 1.35075E+01 5.00000E-01
 -1      1651-1.17328E+01 5.02095E+00-5.00000E-01
 -1      1652-7.46360E+00-4.42043E+00-5.00000E-01
 -1      1653-1.04711E+01-8.47152E+00 5.00000E-01
 -1      1654 6.27027E-01 3.42025E+00-5.00000E-01
 -1      1655 6.73503E+00-1.18307E+01 5.00000E-01
 -1      1656-4.76650E+00 3.08966E-01-5.00000E-01
 -1      1657-3.53010E+00 1.16684E+01 5.00000E-01
 -1      1658 1.24933E+01-5.42744E+00-5.00000E-01
 -1      1659-1.30406E+01-1.94219E+00-5.00000E-01
 -1      1660-2.60603E+00-7.39301E+00-5.00000E-01
 -1      1661-9.15036E+00 9.41152E+00-5.00000E-01
 -1      1662 1.01153E+01-4.99100E+00-5.00000E-01
 -1      1663-1.23522E+01-1.04087E+00-5.00000E-01
 -1      1664-1.93988E+00-9.75171E+00-5.00000E-01
 -1      1665-1.35095E+01-1.69992E+00 5.00000E-01
 -1      1666-1.29160E+01 3.81952E+00 5.00000E-01
 -1      1667 1.66005E+00 9.45461E+00-5.00000E-01
 -1      1668-1.86107E-01 1.31395E+01-5.00000E-01
 -1      1669 9.71761E+00-9.40156E+00-5.00000E-01
 -1      1670-1.84747E+00-9.28785E+00 5.00000E-01
 -1      1671 1.17820E+01-2.76786E+00-5.00000E-01
 -1      1672 9.15214E+00-8.24397E+00-5.00000E-01
 -1      1673-3.26072E+00 4.27207E+00-5.00000E-01
 -1      1674 2.32361E+00 1.37872E+00-5.00000E-01
 -1      1675 1.11102E+01-2.57289E+00 5.00000E-01
 -1      1676-1.36614E+01 9.76190E-01-5.00000E-01
 -1      1677-6.43215E+00-1.18338E+01 5.00000E-01
 -1      1678-6.05851E+00-9.06720E+00 5.00000E-01
 -1      1679-1.41395E+00-1.33945E+01 5.00000E-01
 -1      1680-9.03330E+00-9.26888E+00-5.00000E-01
 -1      1681 1.14865E+01 7.22883E+00-5.00000E-01
 -1      1682-7.77761E+00-7.99578E+00-5.00000E-01
 -1      1683-7.91401E+00-6.18234E+00-5.00000E-01
 -1      1684 1.27780E+01 4.23212E+00-5.00000E-01
 -1      1685-1.84747E+00 9.28785E+00 5.00000E-01
 -1      1686-1.12265E+01-2.67244E+00-5.00000E-01
 -1      1687-1.72452E+00-1.37593E+01-5.00000E-01
 -1      1688-1.06368E+01 8.25390E+00-5.00000E-01
 -1      1689-8.71057E+00 4.56840E+00-5.00000E-01
 -1      1690 4.50816E+00 9.66623E-01-5.00000E-01
 -1      1691-1.02834E+01 4.38237E+00-5.00000E-01
 -1      1692 6.47320E+00 3.30096E+00-5.00000E-01
 -1      1693 2.44515E+00 3.20545E+00-5.00000E-01
 -1      1694-1.33796E+01 3.67455E+00-5.00000E-01
 -1      1695 8.47152E+00-1.04711E+01 5.00000E-01
 -1      1696-8.90987E+00 7.15312E-01-5.00000E-01
 -1      1697-1.02009E+01 1.54701E+00-5.00000E-01
 -1      1698-6.80987E+00 5.09362E-01-5.00000E-01
 -1      1699-5.67523E+00 1.56092E+00-5.00000E-01
 -1      1700 1.07701E+01 2.25001E+00 5.00000E-01
 -1      1701 1.33945E+01 1.41395E+00 5.00000E-01
 -1      1702 1.29160E+01 3.81952E+00 5.00000E-01
 -1      1703 1.84747E+00-9.28785E+00 5.00000E-01
 -1      1704-1.23873E+01-2.93777E+00-5.00000E-01
 -1      1705-1.19416E+01 3.71751E+00-5.00000E-01
 -1      1706 1.33945E+01-1.41395E+00 5.00000E-01
 -1      1707 1.31317E+01-3.59935E+00 5.00000E-01
 -1      1708 1.16684E+01 3.53010E+00 5.00000E-01
 -1      1709 3.34572E+00 2.22813E+00-5.00000E-01
 -1      1710 1.03722E+01 5.16380E+00-5.00000E-01
 -1      1711-8.35275E+00-1.07498E+01 5.00000E-01
 -1      1712-1.17847E+01 6.50090E+00-5.00000E-01
 -1      1713-1.20095E+01 8.47917E-02-5.00000E-01
 -1      1714-8.47152E+00 1.04711E+01 5.00000E-01
 -1      1715-6.43215E+00 1.18338E+01 5.00000E-01
 -1      1716 4.48752E+00 1.18040E+01-5.00000E-01
 -1      1717 3.49276E+00 1.01251E+01-5.00000E-01
 -1      1718 1.04774E+01 8.41572E+00 5.00000E-01
 -1      1719-4.93918E-01-3.89035E+00-5.00000E-01
 -1      1720-1.23019E+01-1.12644E+00 5.00000E-01
 -1      1721 1.16622E+01 4.83925E-01-5.00000E-01
 -1      1722 7.91562E+00 5.26666E+00-5.00000E-01
 -1      1723-3.58017E+00 2.12584E+00-5.00000E-01
 -1      1724-8.01906E+00-2.91028E+00-5.00000E-01
 -1      1725 1.42304E+00 2.35604E+00-5.00000E-01
 -1      1726 3.19568E+00-1.18010E+01-5.00000E-01
 -1      1727-9.33541E+00 7.75087E+00-5.00000E-01
 -1      1728 6.32102E+00-7.80352E+00-5.00000E-01
 -1      1729-9.42925E+00 7.72666E+00 5.00000E-01
 -1      1730-5.75463E+00 1.07469E+01 5.00000E-01
 -1      1731 8.48024E+00-9.25139E-01-5.00000E-01
 -1      1732-2.99501E+00-2.03244E+00-5.00000E-01
 -1      1733 9.79468E+00 2.79620E+00-5.00000E-01
 -1      1734-6.79394E-01-1.52761E+00-5.00000E-01
 -1      1735 9.69097E-01 7.63551E+00-5.00000E-01
 -1      1736 4.58481E+00 1.06122E+01-5.00000E-01
 -1      1737 1.30372E+00 1.14801E+01-5.00000E-01
 -1      1738-9.31198E+00 1.85227E+00 5.00000E-01
 -1      1739 5.62137E+00-1.81192E+00-5.00000E-01
 -1      1740-2.35851E+00 1.26962E+01-5.00000E-01
 -1      1741 1.32506E+01-3.93422E+00-5.00000E-01
 -1      1742-1.07469E+01 5.75463E+00 5.00000E-01
 -1      1743 7.72666E+00 9.42925E+00 5.00000E-01
 -1      1744 1.05778E+01-6.50679E+00-5.00000E-01
 -1      1745 1.13435E+01-4.99584E+00-5.00000E-01
 -1      1746 3.78984E+00-1.16695E+01 5.00000E-01
 -1      1747-6.07073E+00-3.05088E+00-5.00000E-01
 -1      1748 8.27275E+00 1.93303E+00-5.00000E-01
 -1      1749 5.69792E+00-1.68978E-01-5.00000E-01
 -1      1750 1.09502E+01 5.60203E+00 5.00000E-01
 -1      1751 1.19173E+01 4.81850E+00-5.00000E-01
 -1      1752-7.84116E+00 9.26744E+00-5.00000E-01
 -1      1753-8.40895E+00 1.06108E+01-5.00000E-01
 -1      1754-8.95292E+00-4.97824E+00-5.00000E-01
 -1      1755 7.78739E+00-7.69714E+00-5.00000E-01
 -1      1756-1.70826E+00-1.14568E+01-5.00000E-01
 -1      1757-3.44038E+00-8.90207E+00-5.00000E-01
 -1      1758 1.16277E+01 7.52107E+00 5.00000E-01
 -1      1759-5.07797E+00 3.45975E+00-5.00000E-01
 -1      1760-1.52061E+00 2.91618E+00-5.00000E-01
 -1      1761-2.31692E-01 9.53506E+00-5.00000E-01
 -1      1762-5.19336E+00-1.20554E+01-5.00000E-01
 -1      1763-1.11959E+01-6.78653E+00-5.00000E-01
 -1      1764-1.01874E+01-5.74225E+00-5.00000E-01
 -1      1765-1.05996E+01-8.22658E+00-5.00000E-01
 -1      1766 6.94635E+00-6.26365E+00-5.00000E-01
 -1      1767 7.37591E+00 8.88128E+00-5.00000E-01
 -1      1768-3.16214E+00-3.18040E-01-5.00000E-01
 -1      1769-4.60738E-01-1.11234E+00 5.00000E-01
 -1      1770 6.79232E+00-1.03684E+01-5.00000E-01
 -1      1771 6.71552E+00-1.17842E+01-5.00000E-01
 -1      1772 4.21367E+00 5.25557E+00-5.00000E-01
 -1      1773 1.84294E+00-1.01046E+01-5.00000E-01
 -1      1774 8.05175E+00 4.80370E-01-5.00000E-01
 -1      1775 3.21963E-01 1.06766E+01-5.00000E-01
 -1      1776-1.01856E+01-9.30246E+00-5.00000E-01
 -1      1777-2.04661E+00-1.26057E+01-5.00000E-01
 -1      1778-2.85284E+00 1.35552E+01 5.00000E-01
 -1      1779-4.46133E+00 7.94060E+00-5.00000E-01
 -1      1780-4.36635E+00-6.50004E+00-5.00000E-01
 -1      1781-1.61705E+00-2.78987E+00-5.00000E-01
 -1      1782-1.20062E+01 0.00000E+00 5.00000E-01
 -1      1783 4.55911E+00 9.20216E+00-5.00000E-01
 -1      1784-1.18306E+01-6.74037E+00 5.00000E-01
 -1      1785 6.90228E-01 5.53663E+00-5.00000E-01
 -1      1786-2.36415E+00-5.15073E+00-5.00000E-01
 -1      1787-4.51993E+00 1.44371E+00-5.00000E-01
 -1      1788 7.14329E+00-8.97816E+00-5.00000E-01
 -1      1789 2.59962E+00 4.86006E+00-5.00000E-01
 -1      1790 3.24810E+00 5.70483E+00-5.00000E-01
 -1      1791 1.81367E+00 5.67456E+00-5.00000E-01
 -1      1792 4.86885E+00-1.07705E+01-5.00000E-01
 -1      1793 3.53399E+00-1.04768E+01-5.00000E-01
 -1      1794-4.47505E+00-1.31138E+00-5.00000E-01
 -1      1795 5.31775E+00 4.24857E+00-5.00000E-01
 -1      1796 8.94398E+00 7.58561E+00-5.00000E-01
 -1      1797 5.97799E+00 7.29446E+00-5.00000E-01
 -1      1798 1.36962E+01-1.83306E+00-5.00000E-01
 -1      1799 6.81591E+00 4.56155E+00-5.00000E-01
 -1      1800 9.31986E+00 7.97397E+00 5.00000E-01
 -1      1801-1.74814E+00-4.04702E+00-5.00000E-01
 -1      1802-1.06853E+01 3.83075E-01-5.00000E-01
 -1      1803 6.43215E+00 1.18338E+01 5.00000E-01
 -1      1804 7.87385E+00-5.26113E+00 5.00000E-01
 -1      1805 1.18307E+01-6.73503E+00 5.00000E-01
 -1      1806-1.16684E+01-3.53010E+00 5.00000E-01
 -1      1807-2.79589E+00-3.30235E+00-5.00000E-01
 -1      1808-7.22448E+00 9.31739E+00 5.00000E-01
 -1      1809-5.26113E+00 7.87385E+00 5.00000E-01
 -1      1810 4.13299E+00-6.17492E-01-5.00000E-01
 -1      1811-1.07097E+01-2.28674E+00 5.00000E-01
 -1      1812 4.44854E+00 2.07802E+00-5.00000E-01
 -1      1813-3.62073E+00-5.44629E+00-5.00000E-01
 -1      1814-8.22505E+00-1.06016E+01-5.00000E-01
 -1      1815-1.20391E+00-1.21311E+01 5.00000E-01
 -1      1816 2.41777E+00 1.32980E+01-5.00000E-01
 -1      1817-4.36813E+00-2.92478E+00-5.00000E-01
 -1      1818 6.76253E+00 1.18721E+01-5.00000E-01
 -1      1819 6.26224E+00 1.01337E+01-5.00000E-01
 -1      1820-5.75463E+00-1.07469E+01 5.00000E-01
 -1      1821-1.87182E+00-1.62122E+00-5.00000E-01
 -1      1822 7.52046E+00 5.02501E+00 5.00000E-01
 -1      1823-9.17734E+00 2.92038E+00-5.00000E-01
 -1      1824 7.52160E+00 3.69282E+00-5.00000E-01
 -1      1825 4.15526E+00 7.42029E+00-5.00000E-01
 -1      1826 6.83745E+00 6.63470E+00-5.00000E-01
 -1      1827 5.02731E+00 6.33431E+00-5.00000E-01
 -1      1828 9.15092E+00 9.41260E+00-5.00000E-01
 -1      1829 5.37970E+00 3.14585E+00-5.00000E-01
 -1      1830-5.90003E+00-7.31302E-01-5.00000E-01
 -1      1831 4.92068E+00-1.24227E+01-5.00000E-01
 -1      1832 5.51077E+00-9.24583E+00-5.00000E-01
 -1      1833 5.92717E+00-1.10314E+01-5.00000E-01
 -1      1834 1.50545E+00 6.70416E+00-5.00000E-01
 -1      1835 8.29580E+00-1.00085E+01-5.00000E-01
 -1      1836-9.57043E+00-6.64670E-01-5.00000E-01
 -1      1837-6.75167E+00-1.14170E+01-5.00000E-01
 -1      1838 3.37205E+00 3.95343E+00-5.00000E-01
 -1      1839-2.96347E+00 9.73634E-01-5.00000E-01
 -1      1840 8.41857E+00-5.34775E+00-5.00000E-01
 -1      1841 4.72083E+00-6.25679E+00-5.00000E-01
 -1      1842 1.09512E+00 1.35590E+01-5.00000E-01
 -1      1843-4.32832E+00-1.30024E+01-5.00000E-01
 -1      1844-2.36598E-01 1.64910E+00-5.00000E-01
 -1      1845-3.90334E+00 3.27083E+00-5.00000E-01
 -1      1846-4.62157E+00-7.97792E+00-5.00000E-01
 -1      1847-6.34366E+00 5.81823E+00-5.00000E-01
 -1      1848-1.02079E+01-9.47162E+00 5.00000E-01
 -1      1849-6.14601E+00-5.69577E+00-5.00000E-01
 -1      1850-9.09873E+00-6.12197E+00-5.00000E-01
 -1      1851 1.15472E+01-7.42242E+00-5.00000E-01
 -1      1852-7.67264E+00-9.35513E+00-5.00000E-01
 -1      1853-6.20614E+00 8.46419E+00-5.00000E-01
 -1      1854-8.79062E+00 6.20526E+00-5.00000E-01
 -1      1855-7.07667E+00-3.42088E+00-5.00000E-01
 -1      1856-7.34598E-02-6.53202E+00-5.00000E-01
 -1      1857 8.50209E+00 1.09392E+01-5.00000E-01
 -1      1858 9.13593E+00 5.02505E+00-5.00000E-01
 -1      1859-4.24616E-01-2.69626E+00-5.00000E-01
 -1      1860-1.13249E+01-3.75132E+00-5.00000E-01
 -1      1861 6.07907E+00 2.14750E+00-5.00000E-01
 -1      1862 3.60322E+00 1.31279E+01 5.00000E-01
 -1      1863-2.04222E+00 1.79648E+00-5.00000E-01
 -1      1864 1.69491E+00 1.35075E+01 5.00000E-01
 -1      1865-1.27200E+01 1.59321E+00-5.00000E-01
 -1      1866-1.15835E+01 7.62155E+00-5.00000E-01
 -1      1867 9.41715E+00-5.88378E+00-5.00000E-01
 -1      1868 7.22448E+00-9.31739E+00 5.00000E-01
 -1      1869-1.17863E+01 2.25959E+00-5.00000E-01
 -1      1870 1.00924E+00-1.77157E+00-5.00000E-01
 -1      1871 1.35808E+01 1.70694E+00-5.00000E-01
 -1      1872-7.65752E+00 5.44028E+00-5.00000E-01
 -1      1873-1.16900E+01 1.48427E+00 5.00000E-01
 -1      1874-9.59161E-01-1.04868E+01-5.00000E-01
 -1      1875 1.03002E+01 9.14710E+00-5.00000E-01
 -1      1876 1.09677E+01-3.85409E+00-5.00000E-01
 -1      1877-5.17000E+00-3.65517E+00-5.00000E-01
 -1      1878 1.03685E+01-8.91917E-01-5.00000E-01
 -1      1879-3.60901E+00 1.31636E+01-5.00000E-01
 -1      1880-2.93722E+00-1.07555E+01-5.00000E-01
 -1      1881 7.41214E-01 1.24736E+01-5.00000E-01
 -1      1882 1.64379E+00-1.29396E+01-5.00000E-01
 -1      1883-9.23942E+00-3.55164E+00-5.00000E-01
 -1      1884 6.83974E-01 8.78458E+00-5.00000E-01
 -1      1885-4.63180E+00-9.20794E+00-5.00000E-01
 -1      1886-1.14413E+01 7.96317E+00 5.00000E-01
 -1      1887-7.87385E+00 5.26113E+00 5.00000E-01
 -1      1888 1.69491E+00-1.35075E+01 5.00000E-01
 -1      1889 1.84747E+00 9.28785E+00 5.00000E-01
 -1      1890-2.72822E+00 2.98440E+00-5.00000E-01
 -1      1891-5.27963E+00-2.17494E+00-5.00000E-01
 -1      1892 3.94840E-01-5.81292E-02-5.00000E-01
 -1      1893-6.22910E+00-1.72784E+00-5.00000E-01
 -1      1894-8.97731E-01-5.30892E+00-5.00000E-01
 -1      1895 5.75463E+00 1.07469E+01 5.00000E-01
 -1      1896 7.34167E+00 2.57582E+00-5.00000E-01
 -1      1897 3.73687E-01-9.79559E+00-5.00000E-01
 -1      1898 2.51913E+00 1.09979E+01-5.00000E-01
 -1      1899 2.39148E-01-1.36780E+01-5.00000E-01
 -1      1900-7.72518E-01-9.21599E+00-5.00000E-01
 -1      1901 8.17510E+00 6.43028E+00-5.00000E-01
 -1      1902-7.32438E+00 6.75485E+00-5.00000E-01
 -1      1903-7.33518E+00 3.97910E+00-5.00000E-01
 -1      1904 1.43293E+00-1.15003E+01-5.00000E-01
 -1      1905 1.95050E-01-1.24565E+01-5.00000E-01
 -1      1906-1.08999E+01 5.79101E+00-5.00000E-01
 -1      1907-7.56768E+00-1.16022E+01 5.00000E-01
 -1      1908 3.40533E+00 1.11673E+00-5.00000E-01
 -1      1909 1.34974E+01-2.53482E+00 5.00000E-01
 -1      1910 1.21311E+01-1.20391E+00 5.00000E-01
 -1      1911-6.70895E+00 1.53839E+00-5.00000E-01
 -1      1912-7.94842E+00-2.90567E-01-5.00000E-01
 -1      1913 1.52361E+00-7.97562E+00-5.00000E-01
 -1      1914 2.27461E+00-5.53956E+00-5.00000E-01
 -1      1915 7.82304E+00-1.14316E+01 5.00000E-01
 -1      1916-1.29039E+01 4.77305E+00-5.00000E-01
 -1      1917-3.25686E+00-6.49443E+00-5.00000E-01
 -1      1918 5.62366E+00 9.44271E-01-5.00000E-01
 -1      1919 1.03130E+00-3.37981E+00-5.00000E-01
 -1      1920 9.44123E+00-1.86646E+00-5.00000E-01
 -1      1921-5.00710E+00 2.39412E+00-5.00000E-01
 -1      1922-7.11238E+00-7.03390E+00-5.00000E-01
 -1      1923-5.26113E+00-7.87385E+00 5.00000E-01
 -1      1924 3.01282E+00-6.77349E-02-5.00000E-01
 -1      1925 3.59587E+00-1.31202E+01-5.00000E-01
 -1      1926 2.48138E+00 8.10187E+00-5.00000E-01
 -1      1927-4.35028E+00 5.94622E+00-5.00000E-01
 -1      1928 2.46437E+00-8.92296E+00-5.00000E-01
 -1      1929 1.02272E+01 9.42814E+00 5.00000E-01
 -1      1930-1.30555E+01 4.84426E+00 5.00000E-01
 -1      1931-1.35568E+01-2.85606E+00 5.00000E-01
 -1      1932 7.07897E+00-5.84263E-01-5.00000E-01
 -1      1933-5.65512E+00-4.67686E+00-5.00000E-01
 -1      1934-2.75136E+00 7.03553E+00-5.00000E-01
 -1      1935-1.30985E+00 4.98121E+00-5.00000E-01
 -1      1936-5.28192E+00 4.86916E+00-5.00000E-01
 -1      1937-8.17596E-02 6.70717E+00-5.00000E-01
 -1      1938 9.40699E+00 7.98527E-02-5.00000E-01
 -1      1939-2.06622E+00-6.31705E+00-5.00000E-01
 -1      1940-3.67316E+00-7.48093E+00-5.00000E-01
 -1      1941 1.36870E+01 2.40027E-01-5.00000E-01
 -1      1942 3.19676E+00-7.25487E+00-5.00000E-01
 -1      1943 1.03935E+01 6.79718E+00-5.00000E-01
 -1      1944-2.38466E-01 1.19746E+00 5.00000E-01
 -1      1945-7.16438E+00 1.16132E+01-5.00000E-01
 -1      1946-5.02154E+00 1.27552E+01-5.00000E-01
 -1      1947 4.31242E+00 1.30384E+01-5.00000E-01
 -1      1948 9.87338E+00 4.03123E+00-5.00000E-01
 -1      1949-2.06438E+00 4.01287E+00-5.00000E-01
 -1      1950 1.70293E+00-3.07322E-01-5.00000E-01
 -1      1951 2.16150E+00 1.22048E+01-5.00000E-01
 -1      1952-1.05432E+01-1.69429E+00-5.00000E-01
 -1      1953 2.85284E+00-1.35552E+01 5.00000E-01
 -1      1954 1.21311E+01 1.20391E+00 5.00000E-01
 -1      1955-7.52300E+00 1.17353E+01 5.00000E-01
 -1      1956 4.72830E+00-7.85019E+00-5.00000E-01
 -1      1957 1.39020E+00 4.47948E+00-5.00000E-01
 -1      1958 1.21851E+01 1.61849E+00-5.00000E-01
 -1      1959 6.17086E+00 9.58586E+00 5.00000E-01
 -1      1960-2.45593E+00 5.09610E+00-5.00000E-01
 -1      1961-6.02993E+00 7.12848E+00-5.00000E-01
 -1      1962-1.71831E+00 1.36962E+01-5.00000E-01
 -1      1963-1.18163E+00 1.24734E+01-5.00000E-01
 -1      1964-7.12086E+00-1.03453E+01-5.00000E-01
 -1      1965-3.19941E+00 5.97506E+00-5.00000E-01
 -1      1966-3.72968E+00 1.09340E+01-5.00000E-01
 -1      1967-4.97184E+00-5.56096E+00-5.00000E-01
 -1      1968-3.61847E-01 2.80631E+00-5.00000E-01
 -1      1969 3.98058E+00-2.33195E+00-5.00000E-01
 -1      1970-6.89429E+00 7.69393E+00-5.00000E-01
 -1      1971-6.41509E+00 4.66990E+00-5.00000E-01
 -1      1972-1.14319E+01-7.82659E+00 5.00000E-01
 -1      1973 1.05196E+01 3.65911E-01-5.00000E-01
 -1      1974-3.39091E+00-4.30407E+00-5.00000E-01
 -1      1975-7.98065E+00 2.97018E+00-5.00000E-01
 -1      1976-5.45460E+00-6.53697E+00-5.00000E-01
 -1      1977-5.58087E+00-1.07801E+01-5.00000E-01
 -1      1978-7.79581E+00-1.15648E+01-5.00000E-01
 -1      1979 7.76974E+00-1.11314E+01-5.00000E-01
 -1      1980 9.67440E-01 1.12404E+00-5.00000E-01
 -1      1981-3.09473E+00-1.33375E+01-5.00000E-01
 -1      1982-8.43651E-01 3.89036E+00-5.00000E-01
 -1      1983-3.22550E+00-1.20337E+01-5.00000E-01
 -1      1984-2.03202E+00-4.89456E-01-5.00000E-01
 -1      1985-9.11891E+00 1.80871E+00-5.00000E-01
 -1      1986 2.83416E+00-3.77969E+00-5.00000E-01
 -1      1987-1.86836E-01 4.81610E+00-5.00000E-01
 -1      1988-6.15810E+00-9.15997E+00-5.00000E-01
 -1      1989 5.83221E+00-6.70811E+00-5.00000E-01
 -1      1990 8.95776E+00-3.69875E+00-5.00000E-01
 -1      1991-7.90456E+00 1.75711E+00-5.00000E-01
 -1      1992 1.21828E+01-6.50200E+00-5.00000E-01
 -1      1993 7.10990E-01-5.11407E+00-5.00000E-01
 -1      1994 1.33173E+00-6.58267E+00-5.00000E-01
 -1      1995-4.90387E+00 9.63489E+00-5.00000E-01
 -1      1996 4.67535E+00 1.30599E+01 5.00000E-01
 -1      1997 5.99001E-01-7.39330E+00-5.00000E-01
 -1      1998 1.11234E+00-4.60738E-01 5.00000E-01
 -1      1999-3.79720E+00 6.85252E+00-5.00000E-01
 -1      2000 2.78731E+00 9.21333E+00-5.00000E-01
 -1      2001-1.08883E+00-7.70058E+00-5.00000E-01
 -1      2002 2.45746E+00-1.37010E+01-5.00000E-01
 -1      2003 1.16873E+01-1.36869E+00-5.00000E-01
 -1      2004-9.73947E+00 5.45960E+00-5.00000E-01
 -1      2005-6.07592E+00 9.62901E+00-5.00000E-01
 -1      2006-8.55658E+00-1.35710E+00-5.00000E-01
 -1      2007 2.15321E+00-2.56015E+00-5.00000E-01
 -1      2008-1.09619E+00-6.66878E+00-5.00000E-01
 -1      2009-2.04212E+00-8.50716E+00-5.00000E-01
 -1      2010 5.63409E+00-5.60193E+00-5.00000E-01
 -1      2011 7.37558E+00-2.41557E+00-5.00000E-01
 -1      2012-1.46465E+00 6.48034E+00-5.00000E-01
 -1      2013 3.46661E+00-6.00426E+00-5.00000E-01
 -1      2014 8.86652E-01 7.99045E-01 5.00000E-01
 -1      2015-1.10176E-01-8.28702E+00-5.00000E-01
 -1      2016 3.57765E+00 8.39796E+00-5.00000E-01
 -1      2017 3.74409E+00-8.11448E+00-5.00000E-01
 -1      2018-4.68391E+00 1.16259E+01-5.00000E-01
 -1      2019-5.37240E+00 6.27836E+00-5.00000E-01
 -1      2020-2.74133E+00 1.37056E+01-5.00000E-01
 -1      2021 7.51068E+00-3.86600E+00-5.00000E-01
 -1      2022-2.74884E+00 9.10816E+00-5.00000E-01
 -1      2023-3.32012E+00 1.20299E+01-5.00000E-01
 -1      2024-6.28904E+00 3.54387E+00-5.00000E-01
 -1      2025-6.17515E-01 5.78849E+00-5.00000E-01
 -1      2026 5.23655E+00-3.44625E+00-5.00000E-01
 -1      2027-1.15642E+01-7.78254E+00-5.00000E-01
 -1      2028 1.74994E+00-4.40385E+00-5.00000E-01
 -1      2029-2.59784E+00-1.35621E+01 5.00000E-01
 -1      2030-4.21531E+00-1.15100E+01-5.00000E-01
 -1      2031 4.02602E+00-3.54571E+00-5.00000E-01
 -1      2032 6.67915E+00-1.58869E+00-5.00000E-01
 -1      2033-3.29700E+00 8.07251E+00-5.00000E-01
 -1      2034-2.12806E+00 1.13366E+01-5.00000E-01
 -1      2035 2.17128E+00-7.17671E+00-5.00000E-01
 -1      2036 8.37043E-01-8.81509E+00-5.00000E-01
 -1      2037-2.71904E+00 1.03006E+01-5.00000E-01
 -1      2038-5.49493E+00 1.06345E+01-5.00000E-01
 -1      2039 8.53215E+00-2.60652E+00-5.00000E-01
 -1      2040-3.98822E+00 8.96912E+00-5.00000E-01
 -1      2041 3.22155E+00-4.87175E+00-5.00000E-01
 -1      2042-1.55016E+00 9.67477E+00-5.00000E-01
 -1      2043 5.22492E+00-4.56289E+00-5.00000E-01
 -1      2044 6.39113E+00-3.56125E+00-5.00000E-01
 -1      2045-2.12211E+00 8.02868E+00-5.00000E-01
 -1      2046 4.27366E+00-5.23685E+00-5.00000E-01
 -1      2047 5.05342E-01 1.51010E+00 5.00000E-01
 -1      2048 3.95299E+00 2.56345E+00-5.00000E-01
 -1      2049 5.05372E+00 3.47149E-01-5.00000E-01
 -1      2050-1.21090E+00 1.21090E+00 5.00000E-01
 -1      2051-9.80009E-01-3.26308E+00-5.00000E-01
 -1      2052 5.17173E-01-2.58259E+00-5.00000E-01
 -1      2053 3.02916E+00-2.14389E+00-5.00000E-01
 -1      2054-2.14831E+00 2.52725E+00-5.00000E-01
 -1      2055-5.77615E+00 5.31890E-01-5.00000E-01
 -1      2056 5.11053E-01 2.50370E+00-5.00000E-01
 -1      2057-5.11779E+00-2.90713E+00-5.00000E-01
 -1      2058 2.96196E+00 1.65024E+00-5.00000E-01
 -1      2059-5.14957E+00 9.89904E-01-5.00000E-01
 -1      2060-6.98044E-01 1.68523E+00 5.00000E-01
 -1      2061-4.23753E+00 2.55840E+00-5.00000E-01
 -1      2062-1.23479E+00-2.09443E+00-5.00000E-01
 -1      2063 4.84224E+00 3.66875E+00-5.00000E-01
 -1      2064 2.24092E+00 4.51896E-01-5.00000E-01
 -1      2065 1.88793E+00-1.72094E+00-5.00000E-01
 -1      2066 4.58372E+00-2.91710E+00-5.00000E-01
 -1      2067 6.00384E+00-1.00649E+00-5.00000E-01
 -1      2068-2.85108E+00 1.77493E+00-5.00000E-01
 -1      2069 9.24620E-01-8.35036E-01-5.00000E-01
 -1      2070-2.40457E+00-2.59042E+00-5.00000E-01
 -1      2071-9.07904E-01 3.21270E+00-5.00000E-01
 -1      2072-2.49623E+00 2.43056E-01-5.00000E-01
 -1      2073-4.72306E+00 2.94818E+00-5.00000E-01
 -1      2074 3.33633E+00-8.24647E-01-5.00000E-01
 -1      2075-1.11311E+00 2.04500E+00-5.00000E-01
 -1      2076 1.53059E+00 3.26629E+00-5.00000E-01
 -1      2077-2.75227E+00 3.72840E+00-5.00000E-01
 -1      2078-2.70863E+00-1.13918E+00-5.00000E-01
 -1      2079-7.81580E+00 7.30903E-01-5.00000E-01
 -1      2080-5.66738E+00 1.04069E+00-5.00000E-01
 -1      2081-3.31131E+00 5.12649E+00-5.00000E-01
 -1      2082-1.71247E+00 0.00000E+00 5.00000E-01
 -1      2083-5.13392E-01 2.20452E+00-5.00000E-01
 -1      2084-2.58008E+00-4.10812E+00-5.00000E-01
 -1      2085 2.91602E+00 6.21612E-01-5.00000E-01
 -1      2086-4.75220E+00-3.30849E+00-5.00000E-01
 -1      2087-1.41952E+00 1.32950E+00-5.00000E-01
 -1      2088 0.00000E+00-1.71247E+00 5.00000E-01
 -1      2089-1.21090E+00-1.21090E+00 5.00000E-01
 -1      2090-5.31528E+00-1.33513E+00-5.00000E-01
 -1      2091 1.95584E+00 2.75457E+00-5.00000E-01
 -1      2092 4.74828E+00 9.44490E-01 5.00000E-01
 -1      2093 1.43074E-01-1.80083E+00-5.00000E-01
 -1      2094-3.93674E+00-2.08595E+00-5.00000E-01
 -1      2095-3.60425E+00-1.09802E+00-5.00000E-01
 -1      2096-2.61993E+00-5.54383E-01-5.00000E-01
 -1      2097 2.73484E+00-6.34143E-01-5.00000E-01
 -1      2098 5.06494E+00 9.06999E-01-5.00000E-01
 -1      2099 1.30387E+00 5.18264E+00-5.00000E-01
 -1      2100 3.46595E+00 4.81579E+00-5.00000E-01
 -1      2101-4.74829E+00-9.44478E-01 5.00000E-01
 -1      2102 3.66097E+00 3.74744E-01-5.00000E-01
 -1      2103 4.62778E+00-1.52548E+00-5.00000E-01
 -1      2104-2.47775E+00-1.70573E+00-5.00000E-01
 -1      2105 2.54445E+00 4.03069E+00-5.00000E-01
 -1      2106-3.79068E+00 4.39747E-01-5.00000E-01
 -1      2107 1.71247E+00 0.00000E+00 5.00000E-01
 -1      2108-2.86360E+00-4.71050E+00-5.00000E-01
 -1      2109-2.24638E+00 1.09792E+00-5.00000E-01
 -1      2110 1.69886E+00 9.67363E-01-5.00000E-01
 -1      2111-1.05499E+00-4.49739E+00-5.00000E-01
 -1      2112-1.37826E+00-5.93320E+00-5.00000E-01
 -1      2113 4.47295E-01-4.16866E+00-5.00000E-01
 -1      2114-9.44490E-01 4.74828E+00 5.00000E-01
 -1      2115-2.61380E+00 4.36749E+00-5.00000E-01
 -1      2116 6.42210E-01 4.74453E+00-5.00000E-01
 -1      2117 2.62438E+00-7.99839E+00-5.00000E-01
 -1      2118 4.02539E+00-2.68968E+00 5.00000E-01
 -1      2119 1.67462E+00 1.68428E+00-5.00000E-01
 -1      2120 2.68968E+00-4.02539E+00 5.00000E-01
 -1      2121 9.44490E-01-4.74828E+00 5.00000E-01
 -1      2122 1.39370E+00-5.69099E+00-5.00000E-01
 -1      2123 1.95719E+00-3.46948E+00-5.00000E-01
 -1      2124-1.36921E+00 5.73264E+00-5.00000E-01
 -1      2125 2.52867E+00-4.50279E+00-5.00000E-01
 -1      2126 8.74559E-01 1.85863E+00-5.00000E-01
 -1      2127 2.48780E+00-1.85349E+00-5.00000E-01
 -1      2128-2.11202E+00 3.16967E+00-5.00000E-01
 -1      2129 2.58478E+00 2.31709E+00-5.00000E-01
 -1      2130-4.74828E+00 9.44490E-01 5.00000E-01
 -1      2131-4.02539E+00 2.68968E+00 5.00000E-01
 -1      2132-1.82458E+00-2.22301E+00-5.00000E-01
 -1      2133-1.28203E+00-1.49264E+00-5.00000E-01
 -1      2134 4.82635E+00 3.11476E+00-5.00000E-01
 -1      2135-4.91690E+00-5.54469E-01-5.00000E-01
 -1      2136 1.48113E+00-2.31107E+00-5.00000E-01
 -1      2137-9.44478E-01-4.74829E+00 5.00000E-01
 -1      2138-4.06338E-01-2.08018E+00-5.00000E-01
 -1      2139 5.27322E+00-1.15307E+00-5.00000E-01
 -1      2140 7.65258E-01-1.27241E+00 5.00000E-01
 -1      2141 1.45430E+00-9.71787E-01 5.00000E-01
 -1      2142-2.13979E+00-3.19947E+00-5.00000E-01
 -1      2143-9.18543E-01-4.38945E-01-5.00000E-01
 -1      2144-2.73945E-01 3.49447E+00-5.00000E-01
 -1      2145-1.60232E+00 2.34706E+00-5.00000E-01
 -1      2146-8.31195E-01 1.50091E+00-5.00000E-01
 -1      2147 1.23212E+00 5.76712E+00-5.00000E-01
 -1      2148 2.99793E+00 4.41704E+00-5.00000E-01
 -1      2149-2.68968E+00 4.02539E+00 5.00000E-01
 -1      2150 2.31408E+00-1.70165E-01-5.00000E-01
 -1      2151-1.71280E+00 6.21654E-01 5.00000E-01
 -1      2152-7.77690E-02 1.80926E+00 5.00000E-01
 -1      2153-2.68968E+00-4.02539E+00 5.00000E-01
 -1      2154-5.60314E+00-2.32090E+00 1.45000E+00
 -1      2155-3.14305E+00 3.44082E-01-5.00000E-01
 -1      2156 2.68968E+00 4.02539E+00 5.00000E-01
 -1      2157-1.94320E+00 8.01777E-02-5.00000E-01
 -1      2158 5.44194E-01-1.77340E+00 5.00000E-01
 -1      2159-3.51471E+00-2.83332E+00-5.00000E-01
 -1      2160 5.85724E-01-2.06940E+00-5.00000E-01
 -1      2161-3.98924E+00-3.64510E-01-5.00000E-01
 -1      2162-4.90279E+00-1.05365E+00-5.00000E-01
 -1      2163 1.77846E+00-5.37720E-01 5.00000E-01
 -1      2164 1.60862E+00 3.29726E-01-5.00000E-01
 -1      2165 1.83070E-01-3.36244E+00-5.00000E-01
 -1      2166 1.46345E+00 9.77904E-01 5.00000E-01
 -1      2167 9.44490E-01 4.74828E+00 5.00000E-01
 -1      2168 1.75095E-02-2.40106E+00-5.00000E-01
 -1      2169 5.76499E-01-5.96563E+00-5.00000E-01
 -1      2170 9.01856E-01-5.58061E+00-5.00000E-01
 -1      2171 1.62888E+00-1.03592E+00-5.00000E-01
 -1      2172 4.69658E+00-8.99186E-01-5.00000E-01
 -1      2173 1.63600E+00-2.92445E+00-5.00000E-01
 -1      2174 2.43070E+00-5.86822E+00 1.45000E+00
 -1      2175-1.45813E+00-8.42348E-01-5.00000E-01
 -1      2176 2.54304E+00-5.28870E+00 1.45000E+00
 -1      2177 3.07690E+00-4.30832E+00-5.00000E-01
 -1      2178 2.82053E-01 1.94970E+00-5.00000E-01
 -1      2179 1.02463E+00 1.53339E+00 5.00000E-01
 -1      2180-1.66092E+00-6.87973E-01 5.00000E-01
 -1      2181-6.21654E-01-1.71280E+00 5.00000E-01
 -1      2182 1.18398E+00-1.50218E+00 5.00000E-01
 -1      2183 2.11592E+00-7.17357E-01-5.00000E-01
 -1      2184-1.61009E+00-1.09933E+00 5.00000E-01
 -1      2185-1.61690E+00 1.04834E+00 5.00000E-01
 -1      2186-4.02539E+00-2.68968E+00 5.00000E-01
 -1      2187-4.27304E-01 1.94427E+00 5.00000E-01
 -1      2188-1.91585E+00-3.61157E-01 5.00000E-01
 -1      2189 1.16904E+00 1.74955E+00 5.00000E-01
 -1      2190 2.42946E-01-2.00331E+00 5.00000E-01
 -1      2191-4.50000E-01-2.83713E+00 9.84564E-01
 -1      2192-1.04834E+00-1.61690E+00 5.00000E-01
 -1      2193-3.10699E-01-1.95318E+00 5.00000E-01
 -1      2194 4.74828E+00-9.44490E-01 5.00000E-01
 -1      2195 1.24132E+00 1.85774E+00 5.00000E-01
 -1      2196 1.71457E+00 1.14567E+00 5.00000E-01
 -1      2197-4.24395E-01 2.13335E+00 5.00000E-01
 -1      2198 3.40167E-01 1.90601E+00 5.00000E-01
 -1      2199-1.95710E+00-6.56173E-01 5.00000E-01
 -1      2200-4.99085E-01-2.08683E+00 5.00000E-01
 -1      2201 1.80481E+00 5.04037E-01 5.00000E-01
 -1      2202-1.10372E+00 1.60943E+00 5.00000E-01
 -1      2203 1.50147E+00 2.44896E+00 9.84562E-01
 -1      2204 1.40390E+00 2.21342E+00 8.03377E-01
 -1      2205-4.50000E-01-2.58218E+00 8.03376E-01
 -1      2206 1.68458E+00 2.32097E+00 9.92005E-01
 -1      2207 1.84022E+00 1.22961E+00 5.00000E-01
 -1      2208 9.89882E-01-1.80184E+00 5.00000E-01
 -1      2209-1.95318E+00 3.10699E-01 5.00000E-01
 -1      2210-1.73233E+00 1.25504E+00 5.00000E-01
 -1      2211 5.13521E-01-2.04552E+00 5.00000E-01
 -1      2212 2.03636E+00 2.25000E-01 5.00000E-01
 -1      2213 1.22275E+00-1.73998E+00 5.00000E-01
 -1      2214 1.27759E+00 1.91204E+00 5.00000E-01
 -1      2215 1.70999E+00-1.14261E+00 5.00000E-01
 -1      2216 0.00000E+00 2.32070E+00 9.50658E-01
 -1      2217 6.68151E-01 2.78897E+00 9.92005E-01
 -1      2218-1.68458E+00 2.32097E+00 9.92005E-01
 -1      2219-4.50000E-01 2.85968E+00 9.75000E-01
 -1      2220-8.88094E-01-2.14405E+00 9.50659E-01
 -1      2221 4.50000E-01-2.83713E+00 9.84564E-01
 -1      2222 2.06004E+00 4.80240E-01 5.00000E-01
 -1      2223 2.44896E+00-1.50147E+00 9.84562E-01
 -1      2224 3.27308E+00-1.50530E+00-5.00000E-01
 -1      2225 2.14405E+00 8.88094E-01 9.50659E-01
 -1      2226 2.10100E+00-9.92031E-01 8.31909E-01
 -1      2227 1.64099E+00 1.64099E+00 9.50654E-01
 -1      2228-2.13321E+00-3.37500E-01 5.00000E-01
 -1      2229 2.00797E+00-2.36644E-01 5.00000E-01
 -1      2230-1.51010E+00-2.46979E+00 9.75000E-01
 -1      2231-1.19845E+00 1.79358E+00 5.00000E-01
 -1      2232-2.32097E+00 1.68458E+00 9.92005E-01
 -1      2233-2.44896E+00-1.50147E+00 9.84562E-01
 -1      2234-2.32070E+00 0.00000E+00 9.50658E-01
 -1      2235 6.68151E-01-2.78897E+00 9.92005E-01
 -1      2236-1.40697E+00-2.22082E+00 8.09069E-01
 -1      2237 2.46979E+00 1.51010E+00 9.75000E-01
 -1      2238 8.88094E-01-2.14405E+00 9.50659E-01
 -1      2239 9.92031E-01 2.10100E+00 8.31909E-01
 -1      2240 1.51912E+00 2.15551E+00 7.63007E-01
 -1      2241 1.12500E-01-2.32070E+00 8.31908E-01
 -1      2242 2.56337E-01-2.32070E+00 6.95641E-01
 -1      2243 5.78600E-01-2.57277E+00 7.92948E-01
 -1      2244-1.68458E+00-2.32097E+00 9.92005E-01
 -1      2245 1.51010E+00-2.46979E+00 9.75000E-01
 -1      2246 2.32097E+00-1.68458E+00 9.92005E-01
 -1      2247-4.50000E-01 2.61576E+00 7.98228E-01
 -1      2248-1.12500E-01 2.32070E+00 7.25329E-01
 -1      2249 1.40697E+00-2.22082E+00 8.09069E-01
 -1      2250-2.14405E+00-8.88094E-01 9.50659E-01
 -1      2251-1.64099E+00-1.64099E+00 9.50654E-01
 -1      2252 1.90322E+00 1.27170E+00 5.00000E-01
 -1      2253 1.50934E+00 1.77263E+00 7.62109E-01
 -1      2254 1.12492E+00 2.04595E+00 6.95642E-01
 -1      2255-2.35183E+00-1.71544E+00 9.75000E-01
 -1      2256 4.50000E-01-2.57277E+00 7.37128E-01
 -1      2257 2.22082E+00 1.40697E+00 8.09069E-01
 -1      2258-1.64099E+00 1.64099E+00 9.50654E-01
 -1      2259-2.85968E+00 4.50000E-01 9.75000E-01
 -1      2260-1.50792E+00 2.14431E+00 8.03458E-01
 -1      2261-2.85968E+00-4.50000E-01 9.75000E-01
 -1      2262-6.84850E-01-2.82928E+00 9.75000E-01
 -1      2263 2.20472E+00-1.40030E+00 7.37123E-01
 -1      2264-1.12500E-01-2.32070E+00 7.23152E-01
 -1      2265 4.50000E-01 2.85968E+00 9.75000E-01
 -1      2266 2.04595E+00-1.12492E+00 6.95642E-01
 -1      2267-2.59019E+00-4.50000E-01 8.09069E-01
 -1      2268-2.32070E+00 1.86174E-01 7.62112E-01
 -1      2269-2.15551E+00-1.51912E+00 8.09629E-01
 -1      2270-1.40030E+00 2.20472E+00 7.96686E-01
 -1      2271 2.04732E+00-5.04649E-01 5.00000E-01
 -1      2272-5.78600E-01-2.57277E+00 8.09629E-01
 -1      2273 2.78897E+00-6.68151E-01 9.92005E-01
 -1      2274-1.51912E+00-2.15551E+00 7.92948E-01
 -1      2275-2.20056E+00-4.37747E-01 5.00000E-01
 -1      2276-1.25504E+00-1.73233E+00 5.00000E-01
 -1      2277 2.57277E+00-5.78600E-01 7.92948E-01
 -1      2278 2.32070E+00 0.00000E+00 9.50658E-01
 -1      2279-2.08683E+00 4.99085E-01 5.00000E-01
 -1      2280-2.32070E+00 3.08430E-01 6.46290E-01
 -1      2281 1.83793E+00-1.22808E+00 5.00000E-01
 -1      2282 1.64099E+00-1.64099E+00 9.50654E-01
 -1      2283-2.15551E+00 1.51912E+00 7.92948E-01
 -1      2284-2.83832E-01-2.32070E+00 6.69593E-01
 -1      2285 2.16697E+00-1.53058E+00 7.88285E-01
 -1      2286 1.71544E+00-2.35183E+00 9.75000E-01
 -1      2287 2.82928E+00 6.84850E-01 9.75000E-01
 -1      2288-3.37500E-01-2.17500E+00 5.00000E-01
 -1      2289 3.60010E-01-2.14121E+00 5.00000E-01
 -1      2290-2.81250E-01 2.18078E+00 5.00000E-01
 -1      2291 1.42674E+00 2.06313E+00 6.61191E-01
 -1      2292-4.42852E-01 2.22625E+00 5.00000E-01
 -1      2293 5.78600E-01 2.57277E+00 7.92948E-01
 -1      2294-2.57277E+00-5.78600E-01 7.63008E-01
 -1      2295 2.35183E+00 1.71544E+00 9.75000E-01
 -1      2296-2.14405E+00 8.88094E-01 9.50659E-01
 -1      2297 4.50000E-01 2.59019E+00 8.09069E-01
 -1      2298 4.97036E-01 2.08189E+00 5.00000E-01
 -1      2299 2.17595E+00 3.40766E-01 5.00000E-01
 -1      2300-1.06004E+00-1.83873E+00 5.00000E-01
 -1      2301 2.17243E+00 1.53604E+00 8.00304E-01
 -1      2302-1.20242E+00-1.86778E+00 5.00000E-01
 -1      2303-4.50000E-01 2.48694E+00 6.76934E-01
 -1      2304-2.17500E+00 3.37500E-01 5.00000E-01
 -1      2305-2.82928E+00 6.84850E-01 9.75000E-01
 -1      2306-2.18710E+00-7.84158E-01 7.25329E-01
 -1      2307 1.44211E+00 1.83986E+00 6.42263E-01
 -1      2308-4.54870E-01-2.19795E+00 5.00000E-01
 -1      2309-5.41736E-01 2.15832E+00 5.00000E-01
 -1      2310 7.16093E-01-2.21530E+00 7.62112E-01
 -1      2311 1.51912E+00-2.15551E+00 8.09629E-01
 -1      2312 2.18792E+00 4.68606E-01 5.00000E-01
 -1      2313-7.84158E-01-2.18710E+00 7.25329E-01
 -1      2314 2.85968E+00-4.50000E-01 9.75000E-01
 -1      2315 2.59019E+00-4.50000E-01 8.09069E-01
 -1      2316 2.32070E+00 1.86174E-01 7.62112E-01
 -1      2317 2.85968E+00 4.50000E-01 9.75000E-01
 -1      2318 4.50000E-01-2.44452E+00 6.16228E-01
 -1      2319 3.36038E-01-2.32070E+00 6.14050E-01
 -1      2320-1.87970E+00 1.14391E+00 5.00000E-01
 -1      2321-1.83422E+00-1.12507E+00 5.00000E-01
 -1      2322 6.13899E-01-2.25763E+00 6.51235E-01
 -1      2323 1.72053E+00 1.56144E+00 7.25327E-01
 -1      2324 5.25474E-01-2.44452E+00 6.31504E-01
 -1      2325 1.72053E+00-1.56144E+00 7.25327E-01
 -1      2326-2.26005E+00-4.49566E-01 5.00000E-01
 -1      2327-6.68151E-01 2.78897E+00 9.92005E-01
 -1      2328-2.21342E+00-1.40390E+00 8.03377E-01
 -1      2329-7.84158E-01 2.18710E+00 8.31909E-01
 -1      2330 4.50000E-01-2.38039E+00 5.72452E-01
 -1      2331 1.40030E+00 2.20472E+00 6.39785E-01
 -1      2332-3.53788E-01 2.23289E+00 5.00000E-01
 -1      2333 2.07908E+00 1.44269E+00 6.78768E-01
 -1      2334-1.87522E+00 1.25299E+00 5.00000E-01
 -1      2335 4.80011E-01-2.18777E+00 5.00000E-01
 -1      2336-1.70146E+00-1.29241E+00 5.00000E-01
 -1      2337-1.92086E+00 1.28349E+00 5.00000E-01
 -1      2338 2.32070E+00 3.08430E-01 6.46290E-01
 -1      2339 1.90207E+00-1.27093E+00 5.00000E-01
 -1      2340-2.57277E+00 5.78600E-01 7.63008E-01
 -1      2341 2.08816E+00-1.35202E+00 6.48640E-01
 -1      2342 2.15883E+00-3.51387E-01 5.00000E-01
 -1      2343-1.25606E+00 1.87980E+00 5.00000E-01
 -1      2344 2.59488E+00 5.87757E-01 8.00305E-01
 -1      2345-1.36120E+00 2.11033E+00 6.65468E-01
 -1      2346 3.93750E-01-2.23815E+00 5.00000E-01
 -1      2347 2.18710E+00 7.84158E-01 7.25329E-01
 -1      2348-1.56144E+00-1.72053E+00 7.25327E-01
 -1      2349 1.84142E+00-1.44055E+00 6.69938E-01
 -1      2350-2.44896E+00 1.50147E+00 9.84562E-01
 -1      2351-1.90303E+00-1.21445E+00 5.00000E-01
 -1      2352-2.07280E+00 1.06010E+00 7.62112E-01
 -1      2353-1.82007E+00-1.29952E+00 5.00000E-01
 -1      2354-1.04318E+00 2.07981E+00 7.79454E-01
 -1      2355-4.52148E-01 2.27304E+00 5.00000E-01
 -1      2356-5.17084E-01 2.22837E+00 5.00000E-01
 -1      2357 1.38466E+00 2.02105E+00 5.91501E-01
 -1      2358 1.52120E+00-1.76077E+00 7.25327E-01
 -1      2359-2.32070E+00-2.81250E-01 6.72039E-01
 -1      2360 1.53087E+00-1.37177E+00 5.00000E-01
 -1      2361 7.84158E-01 2.18710E+00 7.23152E-01
 -1      2362-1.72053E+00 1.56144E+00 7.25327E-01
 -1      2363 5.32776E-01 2.46214E+00 6.69684E-01
 -1      2364 3.37500E-01 2.17450E+00 5.00000E-01
 -1      2365-2.19795E+00 4.54870E-01 5.00000E-01
 -1      2366-5.78600E-01 2.57277E+00 7.63008E-01
 -1      2367 5.52313E-01-2.28314E+00 5.88082E-01
 -1      2368 2.09011E+00 1.01832E+00 7.39536E-01
 -1      2369-2.20472E+00 1.40030E+00 7.37123E-01
 -1      2370-6.51270E-01 2.24215E+00 6.95642E-01
 -1      2371-1.98765E+00-1.06039E+00-5.00000E-01
 -1      2372 2.12083E+00 1.36555E+00 6.73439E-01
 -1      2373-1.74065E+00-1.54132E+00 7.39533E-01
 -1      2374-1.30319E+00-1.86003E+00 5.00000E-01
 -1      2375-1.44211E+00-1.83986E+00 6.68831E-01
 -1      2376 2.47291E+00 5.37236E-01 6.78768E-01
 -1      2377-1.28029E+00-1.91607E+00 5.00000E-01
 -1      2378-1.42095E+00-2.05734E+00 6.31504E-01
 -1      2379-3.93750E-01-2.25700E+00 5.00000E-01
 -1      2380-4.54269E-01-2.25849E+00 5.00000E-01
 -1      2381-2.25168E+00-6.28254E-01 6.68833E-01
 -1      2382 4.59094E-01-2.25100E+00 5.00000E-01
 -1      2383-1.83986E+00 1.44211E+00 6.68831E-01
 -1      2384 1.43909E+00-2.07548E+00 6.74809E-01
 -1      2385 2.01545E+00-1.19855E+00 6.14050E-01
 -1      2386 1.15040E+00-1.89539E+00 5.00000E-01
 -1      2387-5.35292E-01-2.46822E+00 6.74809E-01
 -1      2388-2.03642E+00-1.14794E+00 6.72040E-01
 -1      2389-1.43350E+00 2.06989E+00 6.68639E-01
 -1      2390-1.28504E+00 1.92318E+00 5.00000E-01
 -1      2391-2.07548E+00-1.43909E+00 6.74809E-01
 -1      2392-1.89348E+00-1.28812E+00 5.00000E-01
 -1      2393 1.35122E+00-2.08623E+00 6.47174E-01
 -1      2394 1.35122E+00 2.08623E+00 6.16224E-01
 -1      2395 1.19855E+00 2.01545E+00 6.14050E-01
 -1      2396-2.44452E+00 4.50000E-01 6.16228E-01
 -1      2397 2.05734E+00-1.42095E+00 6.31504E-01
 -1      2398-1.50934E+00 1.77263E+00 7.62109E-01
 -1      2399 4.56704E-01 2.19613E+00 5.00000E-01
 -1      2400-1.36555E+00-2.12083E+00 6.73439E-01
 -1      2401-2.44452E+00-4.50000E-01 6.16228E-01
 -1      2402-2.32070E+00-3.51193E-01 5.99692E-01
 -1      2403 2.24582E+00 3.98704E-01 5.00000E-01
 -1      2404-2.05734E+00 1.42095E+00 6.31504E-01
 -1      2405-4.50000E-01-2.44452E+00 6.16228E-01
 -1      2406-3.52831E-01-2.32070E+00 5.98140E-01
 -1      2407-2.03642E+00 1.14794E+00 6.42264E-01
 -1      2408-2.21530E+00 7.16093E-01 7.62112E-01
 -1      2409-2.25763E+00 6.13899E-01 6.51235E-01
 -1      2410 2.18137E+00-4.84985E-01 5.00000E-01
 -1      2411-1.39191E+00-1.89006E+00 5.98697E-01
 -1      2412-2.25921E+00 4.49399E-01 5.00000E-01
 -1      2413 1.32719E+00 2.02820E+00 5.73352E-01
 -1      2414-6.28254E-01-2.25168E+00 6.65954E-01
 -1      2415-1.83986E+00-1.44211E+00 6.54247E-01
 -1      2416-1.32668E+00 2.02698E+00 5.72449E-01
 -1      2417 2.04114E+00-1.33254E+00 5.82910E-01
 -1      2418 1.40954E-01 2.32070E+00 7.39535E-01
 -1      2419 2.87871E-01 2.32070E+00 6.59681E-01
 -1      2420 6.28254E-01 2.25168E+00 6.65954E-01
 -1      2421-2.32070E+00 3.69462E-01 5.82385E-01
 -1      2422-7.06645E-01 1.95044E+00 5.00000E-01
 -1      2423-1.89006E+00 1.39191E+00 5.98697E-01
 -1      2424-1.14794E+00-2.03642E+00 6.65954E-01
 -1      2425-1.14794E+00 2.03642E+00 6.57067E-01
 -1      2426 1.89031E+00-1.39166E+00 5.98359E-01
 -1      2427-1.44211E+00 1.83986E+00 6.42263E-01
 -1      2428 4.50000E-01 2.44452E+00 6.16228E-01
 -1      2429 3.57459E-01 2.32070E+00 5.93756E-01
 -1      2430 3.93750E-01 2.25520E+00 5.00000E-01
 -1      2431 2.18710E+00-7.84158E-01 7.23152E-01
 -1      2432 2.25231E+00 4.63010E-01 5.00000E-01
 -1      2433-2.38171E+00-4.50000E-01 5.73354E-01
 -1      2434-1.35122E+00-2.08623E+00 5.85493E-01
 -1      2435-4.50000E-01-2.38171E+00 5.73354E-01
 -1      2436-2.02864E+00-1.39225E+00 5.99866E-01
 -1      2437 2.32070E+00 3.69462E-01 5.82385E-01
 -1      2438 2.03389E+00 1.15405E+00 6.59682E-01
 -1      2439 2.00725E+00 1.21834E+00 5.93756E-01
 -1      2440-2.44452E+00 5.25474E-01 6.31504E-01
 -1      2441 2.48466E+00-4.50000E-01 6.72540E-01
 -1      2442 2.23587E+00-4.07094E-01 5.00000E-01
 -1      2443-2.44452E+00-5.25474E-01 6.31504E-01
 -1      2444-2.08623E+00 1.35122E+00 6.16224E-01
 -1      2445-2.00623E+00 1.22083E+00 5.91208E-01
 -1      2446 1.83986E+00 1.44211E+00 6.65952E-01
 -1      2447-5.09939E-01-2.40701E+00 5.99866E-01
 -1      2448 1.41923E+00-1.86274E+00 6.41382E-01
 -1      2449 1.26384E+00-1.85366E+00 5.00000E-01
 -1      2450 2.25168E+00 6.28254E-01 6.65954E-01
 -1      2451 5.61810E-01 2.27920E+00 5.97821E-01
 -1      2452 2.40980E+00 5.11096E-01 6.02222E-01
 -1      2453 1.22812E+00-1.93160E+00 5.00000E-01
 -1      2454-1.38886E+00 2.02525E+00 5.96132E-01
 -1      2455 4.55036E-01 2.25743E+00 5.00000E-01
 -1      2456 2.25168E+00-6.28254E-01 6.68292E-01
 -1      2457-1.21438E+00-2.00890E+00 5.97821E-01
 -1      2458-2.28314E+00 5.52313E-01 5.88082E-01
 -1      2459 2.24836E+00-4.73850E-01 5.00000E-01
 -1      2460 2.32070E+00-2.81250E-01 6.65954E-01
 -1      2461 2.41822E+00-4.50000E-01 5.98278E-01
 -1      2462 2.32070E+00-3.53168E-01 5.97821E-01
 -1      2463 2.03078E+00 1.39439E+00 6.02222E-01
 -1      2464-2.27885E+00-5.62665E-01 5.98698E-01
 -1      2465-5.61810E-01-2.27920E+00 5.97821E-01
 -1      2466 1.14794E+00-2.03642E+00 6.65954E-01
 -1      2467 1.33201E+00-2.03985E+00 5.81959E-01
 -1      2468 2.27920E+00 5.61810E-01 5.97821E-01
 -1      2469 1.28555E+00-1.91076E+00 5.00000E-01
 -1      2470 1.89071E+00 1.39126E+00 5.97820E-01
 -1      2471 1.37703E+00-1.90494E+00 5.78757E-01
 -1      2472 1.21438E+00-2.00890E+00 5.97821E-01
 -1      2473 2.44452E+00-5.25474E-01 6.31504E-01
 -1      2474 2.27892E+00-5.62504E-01 5.98532E-01
 -1      2475 1.52425E+00 2.28124E+00 6.42353E-02
 -1      2476-5.35161E-01-2.69090E+00 6.60244E-02
 -1      2477 5.63874E+00 1.12162E+00 7.22546E-02
 -1      2478 2.28124E+00 1.52425E+00 6.06676E-02
 -1      2479-5.35161E-01 2.69090E+00 5.04703E-02
 -1      2480 4.21601E+00 2.81705E+00-1.49836E-02
 -1      2481 4.78030E+00-3.19410E+00 3.04126E-02
 -1      2482-2.33238E+00-4.63936E-01-4.52675E-02
 -1      2483-6.82520E-01-3.43129E+00 3.71584E-02
 -1      2484 5.35161E-01-2.69090E+00 6.61219E-02
 -1      2485-2.20163E+00-1.47106E+00-2.52772E-02
 -1      2486 5.35161E-01 2.69090E+00 5.43368E-02
 -1      2487 2.25051E+00-1.50371E+00-3.05228E-02
 -1      2488-4.95148E-01-2.48949E+00 2.69603E-01
 -1      2489-1.94367E+00 2.90890E+00 4.73869E-02
 -1      2490-2.69090E+00 5.35161E-01 1.05385E-02
 -1      2491 1.82778E+00 1.22130E+00-2.67679E-02
 -1      2492-4.78030E+00 3.19410E+00 5.62219E-02
 -1      2493-1.10911E+00-2.45320E+00 1.49019E-01
 -1      2494-3.19410E+00 4.78030E+00 2.13021E-02
 -1      2495 2.69090E+00 5.35161E-01 4.30713E-02
 -1      2496-1.61328E+00 1.07800E+00 3.93882E-02
 -1      2497-3.42415E+00 6.81100E-01-3.69042E-03
 -1      2498 1.12162E+00 5.63874E+00 7.37513E-02
 -1      2499-5.63874E+00-1.12162E+00 1.29868E-02
 -1      2500 2.11049E+00 1.41017E+00 2.67086E-01
 -1      2501-4.35883E-01 2.19117E+00 5.39518E-03
 -1      2502-3.42900E+00-6.82065E-01-7.25936E-03
 -1      2503 2.69090E+00-5.35161E-01 6.62849E-02
 -1      2504 3.19410E+00 4.78030E+00 5.05150E-02
 -1      2505 3.43129E+00 6.82520E-01 2.18155E-02
 -1      2506-2.28124E+00 1.52425E+00 6.53229E-03
 -1      2507-3.19410E+00-4.78030E+00 3.10480E-02
 -1      2508-1.12162E+00-5.63874E+00 1.18129E-02
 -1      2509 4.04070E-01-2.03104E+00 2.57718E-02
 -1      2510-4.95148E-01 2.48949E+00 2.62290E-01
 -1      2511-1.35827E+00-2.03280E+00-6.18407E-03
 -1      2512-6.82520E-01 3.43129E+00 4.62671E-02
 -1      2513 5.63874E+00-1.12162E+00 2.07979E-02
 -1      2514 1.88114E+00 1.25695E+00 2.42603E-01
 -1      2515-1.12162E+00 5.63874E+00 5.30378E-02
 -1      2516 1.21239E+00 1.81444E+00-4.14729E-02
 -1      2517-2.48949E+00-4.95148E-01 2.31832E-01
 -1      2518 1.41017E+00 2.11049E+00 2.68762E-01
 -1      2519 2.90890E+00 1.94367E+00 5.11002E-02
 -1      2520-1.08314E+00 2.36551E+00 5.00303E-02
 -1      2521-1.63071E+00-1.08964E+00 3.56565E-02
 -1      2522 1.52425E+00-2.28124E+00 7.07798E-02
 -1      2523-3.93258E-01-1.97662E+00 5.53583E-02
 -1      2524-1.24485E+00 1.86303E+00-1.75749E-02
 -1      2525-1.94367E+00-2.90890E+00 3.51299E-02
 -1      2526-1.94963E+00 1.30270E+00 9.26134E-02
 -1      2527 2.19232E+00 4.36110E-01 7.03207E-03
 -1      2528-1.97649E+00 3.93232E-01 1.12976E-02
 -1      2529-1.92574E+00-1.28674E+00 1.34874E-01
 -1      2530 1.17279E+00-1.75516E+00 1.85550E-02
 -1      2531 4.68405E-01-2.35487E+00 1.49543E-01
 -1      2532-4.24395E-01 2.13335E+00 2.85331E-01
 -1      2533 2.11049E+00-1.41017E+00 2.36788E-01
 -1      2534-1.44512E+00 2.09862E+00 1.82090E-01
 -1      2535 4.95148E-01 2.48949E+00 2.64111E-01
 -1      2536 6.82520E-01-3.43129E+00 3.34066E-02
 -1      2537-1.62523E-01-2.57277E+00 3.24858E-01
 -1      2538 1.24132E+00 1.85774E+00 2.42391E-01
 -1      2539-4.60269E-01 2.31392E+00 3.14071E-01
 -1      2540-2.43841E+00-1.58587E+00 2.16462E-01
 -1      2541 1.94367E+00-2.90890E+00 4.81062E-02
 -1      2542-1.19155E+00-1.78324E+00 2.05525E-01
 -1      2543-2.48949E+00 4.95148E-01 2.43380E-01
 -1      2544 2.42892E+00 4.83115E-01 2.07486E-01
 -1      2545 1.12162E+00-5.63874E+00 6.22570E-02
 -1      2546 2.43841E+00-1.58587E+00 2.39672E-01
 -1      2547 1.98951E+00 1.32935E+00 3.40173E-01
 -1      2548-4.78161E-01-2.40398E+00 3.85083E-01
 -1      2549-1.14955E-01 2.42359E+00 1.18034E-01
 -1      2550 1.13471E+00 2.31473E+00 3.24612E-01
 -1      2551-2.85968E+00-5.32008E-01 1.96035E-01
 -1      2552-1.58587E+00-2.43841E+00 7.99431E-02
 -1      2553-2.40398E+00-4.78161E-01 3.66158E-01
 -1      2554-2.40659E+00-8.06121E-01 3.13839E-01
 -1      2555-2.09676E+00-4.86252E-01 2.60938E-01
 -1      2556-2.32013E+00-1.75323E-01 1.79034E-01
 -1      2557 4.19156E-01 2.10698E+00 1.58518E-01
 -1      2558-4.78161E-01 2.40398E+00 4.05148E-01
 -1      2559-1.41017E+00-2.11049E+00 2.68442E-01
 -1      2560 2.03519E+00-4.04894E-01-1.02997E-02
 -1      2561-7.64997E-01 2.35091E+00 3.09460E-01
 -1      2562 2.31473E+00 1.13471E+00 3.24205E-01
 -1      2563 1.81893E+00 1.60931E+00 1.86057E-01
 -1      2564 1.34300E+00-2.00995E+00 1.64867E-01
 -1      2565-2.11049E+00 1.41017E+00 2.87844E-01
 -1      2566 1.27759E+00 1.91204E+00 3.71196E-01
 -1      2567-2.11049E+00-1.41017E+00 2.91641E-01
 -1      2568-1.19845E+00 1.79358E+00 2.75901E-01
 -1      2569 2.48949E+00-4.95148E-01 2.69725E-01
 -1      2570 8.56815E-01-2.45753E+00 2.36099E-01
 -1      2571 1.36174E+00 2.03800E+00 3.84662E-01
 -1      2572 1.70999E+00-1.14261E+00 1.07336E-01
 -1      2573 2.03800E+00-1.36174E+00 3.68641E-01
 -1      2574-1.58587E+00 2.43841E+00 2.02678E-01
 -1      2575 1.31779E+00 1.97220E+00 4.16032E-01
 -1      2576 4.31999E-01-2.17163E+00 3.07140E-01
 -1      2577-1.95804E+00-1.30832E+00 3.15659E-01
 -1      2578 1.83793E+00-1.22808E+00 3.04057E-01
 -1      2579 1.24449E+00-1.86249E+00 3.08607E-01
 -1      2580-1.36174E+00 2.03800E+00 3.36490E-01
 -1      2581 4.96591E-01-2.40639E+00 3.32280E-01
 -1      2582-4.59963E-01 2.31238E+00 4.07482E-01
 -1      2583-2.19080E+00 4.35809E-01 2.24272E-01
 -1      2584 2.57277E+00 1.62523E-01 2.96448E-01
 -1      2585 1.91348E+00-1.66229E+00 3.15824E-01
 -1      2586-4.36811E-01-2.19585E+00 3.15194E-01
 -1      2587-2.33460E+00 4.64377E-01 3.23882E-01
 -1      2588 4.54742E-01-2.28610E+00 3.71417E-01
 -1      2589 1.29602E+00 1.93962E+00 4.55418E-01
 -1      2590-4.69282E-01 2.35929E+00 4.51436E-01
 -1      2591-6.12481E-01 2.32965E+00 4.04711E-01
 -1      2592-2.23662E+00-4.44912E-01 3.50817E-01
 -1      2593 2.18688E+00 4.35030E-01 2.80647E-01
 -1      2594 4.53137E-01 2.27802E+00 2.87412E-01
 -1      2595 1.92895E+00-1.28889E+00 3.76710E-01
 -1      2596-1.29571E+00-1.93915E+00 2.94993E-01
 -1      2597 4.76233E-01 2.39428E+00 3.75016E-01
 -1      2598 1.44335E+00-2.18689E+00 2.84849E-01
 -1      2599 2.14076E+00 1.21957E+00 3.80063E-01
 -1      2600-1.94008E+00 1.29633E+00 2.97452E-01
 -1      2601-2.57277E+00 1.62523E-01 3.17872E-01
 -1      2602-2.02890E+00 1.35566E+00 3.85230E-01
 -1      2603 1.90322E+00 1.27170E+00 4.04355E-01
 -1      2604 8.11191E-01 2.28636E+00-4.61168E-04
 -1      2605 4.69668E-01-2.36123E+00 4.20785E-01
 -1      2606 8.31184E-02-2.67862E+00 6.56847E-01
 -1      2607-2.03800E+00-1.36174E+00 4.03712E-01
 -1      2608-1.96106E+00-1.31034E+00 4.08223E-01
 -1      2609 2.94468E-01-2.46211E+00 3.59094E-01
 -1      2610 2.33550E+00 4.64556E-01 3.38973E-01
 -1      2611 1.98601E+00-1.32701E+00 4.22251E-01
 -1      2612 2.07184E+00-1.19100E+00 3.54101E-01
 -1      2613 6.95014E-01-2.23641E+00 2.48793E-01
 -1      2614 2.20291E+00-4.38215E-01 2.29929E-01
 -1      2615 1.93509E+00 1.29299E+00 4.52177E-01
 -1      2616-3.07494E-01-2.44452E+00 4.04973E-01
 -1      2617-4.69668E-01-2.36123E+00 4.43106E-01
 -1      2618-1.36174E+00-2.03800E+00 3.84501E-01
 -1      2619 1.36114E+00-2.03709E+00 3.42094E-01
 -1      2620-2.36123E+00-4.69668E-01 4.33564E-01
 -1      2621 1.62523E-01 2.57277E+00 3.23507E-01
 -1      2622 2.23917E+00 7.55198E-01 2.11316E-01
 -1      2623 1.45603E+00 1.88993E+00 3.21703E-01
 -1      2624 1.18886E+00 2.06842E+00 3.21703E-01
 -1      2625-1.52742E+00 1.95088E+00 3.86970E-01
 -1      2626-1.27418E+00 1.90694E+00 3.57844E-01
 -1      2627-1.94396E+00 1.29892E+00 4.00651E-01
 -1      2628 4.65421E-01-2.33986E+00 4.61212E-01
 -1      2629-4.60120E-01 2.31317E+00 4.54597E-01
 -1      2630-2.35393E+00-6.31777E-01 4.01563E-01
 -1      2631-2.14076E+00 1.21957E+00 4.03837E-01
 -1      2632-1.10796E+00-2.18118E+00 2.89928E-01
 -1      2633 2.57277E+00 4.96591E-01 3.34268E-01
 -1      2634-2.28188E+00 7.85681E-01 1.50134E-01
 -1      2635 2.63238E+00-1.09733E+00 7.03809E-01
 -1      2636-2.27736E+00-4.53005E-01 4.25954E-01
 -1      2637-1.95088E+00 1.52742E+00 3.95667E-01
 -1      2638 2.44452E+00 4.78883E-01 3.90211E-01
 -1      2639-6.64582E-01-2.38690E+00 3.98021E-01
 -1      2640-3.62565E-01-2.31861E+00 3.50638E-01
 -1      2641-2.44452E+00-3.07494E-01 4.00823E-01
 -1      2642-2.38690E+00 6.64582E-01 3.60827E-01
 -1      2643-2.63945E+00-1.12500E-01 6.43182E-01
 -1      2644-1.21957E+00 2.14076E+00 3.91825E-01
 -1      2645-2.44452E+00 4.78883E-01 3.84602E-01
 -1      2646 4.55387E-01 2.28935E+00 3.95772E-01
 -1      2647 3.83463E-01-2.32462E+00 4.18458E-01
 -1      2648 1.42510E+00 1.95503E+00 4.24615E-01
 -1      2649 2.38690E+00 6.64582E-01 3.85938E-01
 -1      2650-1.27109E+00-1.90230E+00 4.07115E-01
 -1      2651 6.64582E-01 2.38690E+00 3.94633E-01
 -1      2652-2.35630E+00 4.68689E-01 4.15142E-01
 -1      2653 5.68465E-01-2.35158E+00 4.37347E-01
 -1      2654 2.44452E+00 3.07494E-01 4.12140E-01
 -1      2655 2.40398E+00-4.78161E-01 3.85144E-01
 -1      2656 1.89321E+00-1.45837E+00 3.54101E-01
 -1      2657-1.31799E+00-1.97251E+00 4.16265E-01
 -1      2658-1.99224E+00 1.33117E+00 4.39213E-01
 -1      2659 8.41981E-01-2.48102E+00 6.36918E-01
 -1      2660-2.31730E+00-4.60939E-01 4.52668E-01
 -1      2661-2.14076E+00-1.21957E+00 4.06992E-01
 -1      2662-2.00140E+00-1.33729E+00 4.52148E-01
 -1      2663 1.76229E+00 1.95805E+00 6.26597E-01
 -1      2664-2.33982E+00-3.71028E-01 4.01314E-01
 -1      2665 2.00175E+00 1.33753E+00 4.30102E-01
 -1      2666-4.49399E-01-2.25921E+00 4.09698E-01
 -1      2667-1.33753E+00 2.00175E+00 4.18642E-01
 -1      2668 1.29773E+00-1.94219E+00 3.82699E-01
 -1      2669 1.53743E+00-1.80016E+00 2.64174E-01
 -1      2670 2.25274E+00 4.48114E-01 4.11732E-01
 -1      2671-1.28504E+00 1.92318E+00 4.37151E-01
 -1      2672-1.96266E+00-1.31141E+00 4.54863E-01
 -1      2673-1.92394E+00-1.46283E+00 4.12772E-01
 -1      2674-2.03326E+00 2.06023E+00 9.03876E-02
 -1      2675 2.36123E+00 4.69668E-01 4.23651E-01
 -1      2676 1.93450E+00-1.29260E+00 4.46222E-01
 -1      2677-1.67579E+00-1.51669E+00 1.82292E-01
 -1      2678-1.94811E+00-1.78902E+00 5.09476E-01
 -1      2679-2.44452E+00 3.07494E-01 4.10938E-01
 -1      2680-1.12894E+00 2.37321E+00 6.50955E-01
 -1      2681-4.58371E-01-2.30437E+00 4.44974E-01
 -1      2682-9.63823E-02-2.10574E+00 2.22230E-01
 -1      2683-3.45641E-01-2.32100E+00-1.16645E-03
 -1      2684 1.25600E+00 2.07683E+00 4.17596E-01
 -1      2685 1.32542E+00 1.98363E+00 4.60493E-01
 -1      2686 1.09574E+00 2.50509E+00 7.12590E-01
 -1      2687 1.96346E+00 1.51180E+00 3.73299E-01
 -1      2688-2.29996E+00-5.48356E-01 4.08235E-01
 -1      2689-2.39442E+00-1.11357E+00 6.57503E-01
 -1      2690-2.17738E+00-6.78097E-01 2.95731E-01
 -1      2691 4.69668E-01 2.36123E+00 4.41087E-01
 -1      2692 1.21957E+00-2.14076E+00 3.93642E-01
 -1      2693 2.30441E+00 4.58380E-01 4.42045E-01
 -1      2694-5.64879E-01-2.30644E+00 3.67548E-01
 -1      2695-1.21957E+00-2.14076E+00 4.14113E-01
 -1      2696 2.05379E+00-1.26196E+00 4.38868E-01
 -1      2697-1.29741E+00-1.94170E+00 4.55606E-01
 -1      2698 2.26059E+00-4.49673E-01 3.65254E-01
 -1      2699-1.42510E+00-1.95503E+00 4.24837E-01
 -1      2700-1.91354E+00 9.14383E-01 2.01195E-01
 -1      2701-1.95016E+00 1.30306E+00 4.52415E-01
 -1      2702 3.07494E-01 2.44452E+00 4.02059E-01
 -1      2703-1.95635E+00-7.28430E-01-1.09327E-01
 -1      2704-2.81250E-01 2.26485E+00 3.31273E-01
 -1      2705 1.67441E+00 2.00677E+00 3.90115E-01
 -1      2706-2.63238E+00 1.09733E+00 7.03809E-01
 -1      2707-1.70634E+00-1.96828E+00 6.06460E-01
 -1      2708-1.95503E+00 1.42510E+00 4.36661E-01
 -1      2709-2.33986E+00 3.93750E-01 4.43693E-01
 -1      2710 2.27356E+00-1.18643E+00 4.74892E-01
 -1      2711 1.33753E+00-2.00175E+00 4.28126E-01
 -1      2712-1.07707E+00-2.48015E+00 5.33812E-01
 -1      2713 2.37522E+00-9.29588E-01 6.64778E-02
 -1      2714-1.31354E+00 1.96585E+00 4.48661E-01
 -1      2715-1.32542E+00-1.98363E+00 4.60676E-01
 -1      2716-6.85982E-02 1.96599E+00 8.99805E-02
 -1      2717 2.38690E+00-6.64582E-01 3.98028E-01
 -1      2718 1.95503E+00 1.42510E+00 4.38942E-01
 -1      2719-7.84499E-01-2.18793E+00 2.46459E-01
 -1      2720-5.51068E-01 2.20097E+00 3.55679E-01
 -1      2721 1.52742E+00-1.95088E+00 3.88523E-01
 -1      2722 1.95503E+00-1.42510E+00 4.32963E-01
 -1      2723 4.59037E-01 2.30772E+00 4.47404E-01
 -1      2724-2.25921E+00 4.49399E-01 4.22109E-01
 -1      2725 2.35158E+00 5.68465E-01 4.37915E-01
 -1      2726-5.68465E-01-2.35158E+00 4.49449E-01
 -1      2727-2.33986E+00 4.65421E-01 4.59477E-01
 -1      2728-3.79947E-01-2.38039E+00 4.44727E-01
 -1      2729-2.35158E+00 5.68465E-01 4.35330E-01
 -1      2730 2.32678E+00-4.62823E-01 4.16475E-01
 -1      2731 2.44452E+00-3.07494E-01 4.04984E-01
 -1      2732-2.05379E+00 1.26196E+00 4.43167E-01
 -1      2733 4.54696E-01-2.28587E+00 4.57475E-01
 -1      2734 2.05379E+00 1.26196E+00 4.43206E-01
 -1      2735-2.29083E+00 4.55681E-01 4.60317E-01
 -1      2736-1.22495E+00 2.00964E+00 3.85604E-01
 -1      2737-2.24785E+00 2.81250E-01 3.59516E-01
 -1      2738 1.30464E+00-1.95253E+00 4.42282E-01
 -1      2739 1.85887E+00-2.04268E+00 1.50033E-01
 -1      2740-1.26958E+00-2.05726E+00 4.27360E-01
 -1      2741 5.68465E-01 2.35158E+00 4.39556E-01
 -1      2742 2.38039E+00 3.79947E-01 4.41835E-01
 -1      2743-9.80481E-01 2.07311E+00 2.23263E-01
 -1      2744 1.96808E+00-1.70425E+00 6.05889E-01
 -1      2745-1.42510E+00 1.95503E+00 4.36889E-01
 -1      2746 3.79947E-01 2.38039E+00 4.44637E-01
 -1      2747-2.34043E+00 1.12316E+00 6.15061E-01
 -1      2748 2.35231E+00-5.66689E-01 4.25175E-01
 -1      2749 2.63945E+00-1.12500E-01 6.53705E-01
 -1      2750 2.19811E+00 1.20525E+00 5.73584E-01
 -1      2751-1.26196E+00 2.05379E+00 4.51740E-01
 -1      2752-6.78295E-01 2.01371E+00 1.24861E-01
 -1      2753 1.26196E+00-2.05379E+00 4.42818E-01
 -1      2754-1.75418E+00 1.96404E+00 6.34504E-01
 -1      2755-1.22987E+00-2.25969E+00 5.88973E-01
 -1      2756 1.42510E+00-1.95503E+00 4.38671E-01
 -1      2757 2.33986E+00-4.65421E-01 4.60793E-01
 -1      2758-2.47145E+00 8.23219E-01 6.06460E-01
 -1      2759-2.47145E+00-8.23219E-01 6.06460E-01
 -1      2760-1.20949E+00 2.18264E+00 5.67823E-01
 -1      2761 2.42214E+00 7.16682E-01 5.90600E-01
 -1      2762 2.37908E+00-3.78747E-01 4.30134E-01
 -1      2763 2.28189E+00-4.53905E-01 4.55256E-01
 -1      2764 1.96350E+00 1.58904E+00 5.90600E-01
 -1      2765 2.27617E+00-2.57786E-01 3.06443E-01
 -1      2766 1.20488E+00-2.20679E+00 5.80646E-01
 -3
    3C                          9034                                     1
 -1         1    3    0    1
 -2       223      1089       772       222
 -1         2    3    0    1
 -2      1083       219       225      1087
 -1         3    3    0    1
 -2      1644      2050      2146      2496
 -1         4    3    0    1
 -2       225       228       224       774
 -1         5    3    0    1
 -2       168      1036       174       167
 -1         6    3    0    1
 -2      2160      2052      2509      2168
 -1         7    3    0    1
 -2       659      1174      1171      1864
 -1         8    3    0    1
 -2       525       736       529       528
 -1         9    3    0    1
 -2      1537      1201      1591      1784
 -1        10    3    0    1
 -2       633      1138       638       635
 -1        11    3    0    1
 -2      1584      1546      1681      1758
 -1        12    3    0    1
 -2       531       986      1936      2081
 -1        13    3    0    1
 -2      1244      2486      2535      2621
 -1        14    3    0    1
 -2      1096      1107       607      1099
 -1        15    3    0    1
 -2       555       556       747      1698
 -1        16    3    0    1
 -2      1606      1531      1865      1873
 -1        17    3    0    1
 -2       381       384      2148      2156
 -1        18    3    0    1
 -2       623      1120      1766      1840
 -1        19    3    0    1
 -2      2692      1357      2753      2766
 -1        20    3    0    1
 -2        95        78        96       928
 -1        21    3    0    1
 -2        15        36      1557      1748
 -1        22    3    0    1
 -2        83        88       927       945
 -1        23    3    0    1
 -2       256      1114      1127      1128
 -1        24    3    0    1
 -2       316       806      1175      1996
 -1        25    3    0    1
 -2       490       925       495       485
 -1        26    3    0    1
 -2       532       984      1936      1971
 -1        27    3    0    1
 -2      1677      1762      1837      1977
 -1        28    3    0    1
 -2      1740      1580      2034      1963
 -1        29    3    0    1
 -2       196       336      1849      1933
 -1        30    3    0    1
 -2       453       859       710       863
 -1        31    3    0    1
 -2       965       405      1589      2045
 -1        32    3    0    1
 -2      1580      1740      2034      1545
 -1        33    3    0    1
 -2       241       245       776       779
 -1        34    3    0    1
 -2       328      1531      1570      1676
 -1        35    3    0    1
 -2       255       261       263       785
 -1        36    3    0    1
 -2       509       965       519       731
 -1        37    3    0    1
 -2       450       857       449       707
 -1        38    3    0    1
 -2       129       117       130       974
 -1        39    3    0    1
 -2      1843      1577      1983      2030
 -1        40    3    0    1
 -2        83        88      1987      2114
 -1        41    3    0    1
 -2       177       362       754      1794
 -1        42    3    0    1
 -2       427       236       240      1109
 -1        43    3    0    1
 -2      1618      1688      1727      1729
 -1        44    3    0    1
 -2      2486      1968      2549      2621
 -1        45    3    0    1
 -2       495       496       485       925
 -1        46    3    0    1
 -2       339      1601      1628      1764
 -1        47    3    0    1
 -2      1257      1258      2571      1340
 -1        48    3    0    1
 -2        33      1812      1829      1861
 -1        49    3    0    1
 -2        44       721       887       890
 -1        50    3    0    1
 -2      1525       858      1748      1774
 -1        51    3    0    1
 -2      1194       681       682      1655
 -1        52    3    0    1
 -2       936      1589      1761      1884
 -1        53    3    0    1
 -2      2526      2506      2565      2637
 -1        54    3    0    1
 -2      1889       915      1926      2000
 -1        55    3    0    1
 -2       395       921      1717      1783
 -1        56    3    0    1
 -2       174       363      1037      1724
 -1        57    3    0    1
 -2       826       680      1642      1925
 -1        58    3    0    1
 -2       977       982      1902      1970
 -1        59    3    0    1
 -2      1119      1527      1766      2010
 -1        60    3    0    1
 -2        56        39       879      2480
 -1        61    3    0    1
 -2      1074       766       586       768
 -1        62    3    0    1
 -2      1611       935      1737      1775
 -1        63    3    0    1
 -2       277      1142       790       275
 -1        64    3    0    1
 -2      2569      1378      1379      2655
 -1        65    3    0    1
 -2       981      1673      1759      1936
 -1        66    3    0    1
 -2       148      1011       748       149
 -1        67    3    0    1
 -2       322       137      1001      1691
 -1        68    3    0    1
 -2       619      1127       627       628
 -1        69    3    0    1
 -2       566       563      1035      1883
 -1        70    3    0    1
 -2      2665      1331      1475      1476
 -1        71    3    0    1
 -2       342       204       202      1073
 -1        72    3    0    1
 -2       504       940       500       505
 -1        73    3    0    1
 -2        81       937      1640      1775
 -1        74    3    0    1
 -2      1631      1846      1923      1988
 -1        75    3    0    1
 -2      1584      1546      1718      1800
 -1        76    3    0    1
 -2       468       481       899      1709
 -1        77    3    0    1
 -2      1532       416      1607      1708
 -1        78    3    0    1
 -2      1256      1397      2649      2761
 -1        79    3    0    1
 -2       274      1145       376       273
 -1        80    3    0    1
 -2       424      1574      1662      1745
 -1        81    3    0    1
 -2       473       890       721       896
 -1        82    3    0    1
 -2      1643      1549      1750      1751
 -1        83    3    0    1
 -2       721       896      1645      1826
 -1        84    3    0    1
 -2       117       967       984       985
 -1        85    3    0    1
 -2      1658      1574      1745      1992
 -1        86    3    0    1
 -2       521       982       977       968
 -1        87    3    0    1
 -2       354       100        98       732
 -1        88    3    0    1
 -2      1016       552      2497      2502
 -1        89    3    0    1
 -2       695       841      1653      1765
 -1        90    3    0    1
 -2      1633      1602      1869      1873
 -1        91    3    0    1
 -2       280       272       377      1145
 -1        92    3    0    1
 -2      2566      2538      2571      2623
 -1        93    3    0    1
 -2      1140       636      2103      2224
 -1        94    3    0    1
 -2       526       979       525       528
 -1        95    3    0    1
 -2      1766      1527      1804      1840
 -1        96    3    0    1
 -2      1034      1032      2540      2554
 -1        97    3    0    1
 -2       634      1143      1136       633
 -1        98    3    0    1
 -2       899       480       898      1693
 -1        99    3    0    1
 -2       506       942      1667      1889
 -1       100    3    0    1
 -2      2544      2527      2584      2593
 -1       101    3    0    1
 -2        61       915       912        59
 -1       102    3    0    1
 -2      1570      1659      1663      1665
 -1       103    3    0    1
 -2      1635       937      1685      2042
 -1       104    3    0    1
 -2      1146       641      1614      1857
 -1       105    3    0    1
 -2      1208       846      1571      1598
 -1       106    3    0    1
 -2        69        73        74       908
 -1       107    3    0    1
 -2       435       287      1762      1843
 -1       108    3    0    1
 -2       961       100       960       944
 -1       109    3    0    1
 -2       457       456       857      1810
 -1       110    3    0    1
 -2      1542      1947      1583      1996
 -1       111    3    0    1
 -2      1528       137      1651      1742
 -1       112    3    0    1
 -2      1569       187      1581      1682
 -1       113    3    0    1
 -2       339       340      1526      1646
 -1       114    3    0    1
 -2       685      1198       832      1711
 -1       115    3    0    1
 -2      1159      1160      1551      1946
 -1       116    3    0    1
 -2       747       556      1604      1912
 -1       117    3    0    1
 -2       411        53       904      1619
 -1       118    3    0    1
 -2      1583      1609      1862      1947
 -1       119    3    0    1
 -2        88        89        83       927
 -1       120    3    0    1
 -2      1982       939      1987      2114
 -1       121    3    0    1
 -2       578      1047       573       575
 -1       122    3    0    1
 -2       829       831      1679      1899
 -1       123    3    0    1
 -2      1664       602      1670      1874
 -1       124    3    0    1
 -2       474       896       473       479
 -1       125    3    0    1
 -2       152       149       162       748
 -1       126    3    0    1
 -2       562      1035       566       561
 -1       127    3    0    1
 -2       549       746       553       552
 -1       128    3    0    1
 -2      1050       360      2084      2153
 -1       129    3    0    1
 -2        10       712       866      1749
 -1       130    3    0    1
 -2        14         6       417       711
 -1       131    3    0    1
 -2       181       194       763      1055
 -1       132    3    0    1
 -2      2573      1312      1313      2611
 -1       133    3    0    1
 -2      2135       162      2499      2162
 -1       134    3    0    1
 -2      1613      1548      1714      1752
 -1       135    3    0    1
 -2      2217      2203      2239      2686
 -1       136    3    0    1
 -2        14         6       711       865
 -1       137    3    0    1
 -2       101       965       731       406
 -1       138    3    0    1
 -2      1777      1566      1981      2029
 -1       139    3    0    1
 -2       547      1012       747       548
 -1       140    3    0    1
 -2      1941      1552      1954      1958
 -1       141    3    0    1
 -2      1588      1542      1716      1736
 -1       142    3    0    1
 -2       626      1125      1766      1989
 -1       143    3    0    1
 -2      1641      1535      1688      1866
 -1       144    3    0    1
 -2       574      1052       578       573
 -1       145    3    0    1
 -2      1821      2521      2529      2677
 -1       146    3    0    1
 -2      1601      1031      1649      1754
 -1       147    3    0    1
 -2       363       323       747      1604
 -1       148    3    0    1
 -2      1544      1640      1668      1881
 -1       149    3    0    1
 -2       815       401      1544      1668
 -1       150    3    0    1
 -2       260      1120       259      1117
 -1       151    3    0    1
 -2       333       741      1021      1991
 -1       152    3    0    1
 -2       192      1601      1683      1850
 -1       153    3    0    1
 -2      1718      1584      1800      1875
 -1       154    3    0    1
 -2      2651      2686      2363      2420
 -1       155    3    0    1
 -2       489       918       914       906
 -1       156    3    0    1
 -2      1600      1569      1617      1653
 -1       157    3    0    1
 -2      1651      1528      1712      1916
 -1       158    3    0    1
 -2      1585      1582      1671      1876
 -1       159    3    0    1
 -2       663      1178       808      1676
 -1       160    3    0    1
 -2       221       366       230      1090
 -1       161    3    0    1
 -2       577       564      1051      1732
 -1       162    3    0    1
 -2       573      1048      1044       761
 -1       163    3    0    1
 -2      1293      2623      2648      2705
 -1       164    3    0    1
 -2       289       796      1158      1758
 -1       165    3    0    1
 -2       269      1127       258      1114
 -1       166    3    0    1
 -2      1599      1664      1670      1874
 -1       167    3    0    1
 -2       376       377      1145      2481
 -1       168    3    0    1
 -2      1204       297       328      1570
 -1       169    3    0    1
 -2      1010       148       748      1022
 -1       170    3    0    1
 -2      1856       604      1994      2169
 -1       171    3    0    1
 -2      1573      1537      1591      1646
 -1       172    3    0    1
 -2      1600      1536      1617      1850
 -1       173    3    0    1
 -2       785      1104      1986      2120
 -1       174    3    0    1
 -2      1564       899      1838      2048
 -1       175    3    0    1
 -2       514       732       509       730
 -1       176    3    0    1
 -2      1636      1809      1853      1995
 -1       177    3    0    1
 -2      2109      2072      2528      2634
 -1       178    3    0    1
 -2      2517      2482      2556      2592
 -1       179    3    0    1
 -2      1119       623      1125      1766
 -1       180    3    0    1
 -2       776      1104      1093       241
 -1       181    3    0    1
 -2        59        67        71       925
 -1       182    3    0    1
 -2       258      1119       256       426
 -1       183    3    0    1
 -2       880      1908       469      2505
 -1       184    3    0    1
 -2        29       716        26        30
 -1       185    3    0    1
 -2      1037       363      1604      1724
 -1       186    3    0    1
 -2       819       671       817      1714
 -1       187    3    0    1
 -2       566      1036      1623      1627
 -1       188    3    0    1
 -2       129       984      1003      1971
 -1       189    3    0    1
 -2      1003       543      1554      2024
 -1       190    3    0    1
 -2      1531      1570      1713      1782
 -1       191    3    0    1
 -2      1592      1553      1671      1707
 -1       192    3    0    1
 -2      1535      1688      1866      1886
 -1       193    3    0    1
 -2       504       940       939       500
 -1       194    3    0    1
 -2        24       416      1532      1549
 -1       195    3    0    1
 -2      1004       536       742       992
 -1       196    3    0    1
 -2       729       965       950       509
 -1       197    3    0    1
 -2        72        62       373       918
 -1       198    3    0    1
 -2       292      1165       441      1930
 -1       199    3    0    1
 -2       140       142       141       742
 -1       200    3    0    1
 -2      1595      1561      1792      1833
 -1       201    3    0    1
 -2       281      1144      2011      2044
 -1       202    3    0    1
 -2      1710      1643      1750      1751
 -1       203    3    0    1
 -2       590      1071      1757      1846
 -1       204    3    0    1
 -2       365       189       762      1967
 -1       205    3    0    1
 -2      1190      1189      1707      1741
 -1       206    3    0    1
 -2      2594      1348      2604      2651
 -1       207    3    0    1
 -2       882       876      1593      1824
 -1       208    3    0    1
 -2      1658       847      1805      1992
 -1       209    3    0    1
 -2       593      1081       774      1077
 -1       210    3    0    1
 -2      1122      1969      2031      2053
 -1       211    3    0    1
 -2      2679      1463      2396      2421
 -1       212    3    0    1
 -2       935        77        81       937
 -1       213    3    0    1
 -2       556      1604      1698      1830
 -1       214    3    0    1
 -2       144       143       136       987
 -1       215    3    0    1
 -2      1678      1631      1923      1988
 -1       216    3    0    1
 -2      1018      2490      1230      1231
 -1       217    3    0    1
 -2      1158      1584      1718      1875
 -1       218    3    0    1
 -2       676       675      1888      1899
 -1       219    3    0    1
 -2       194       360       181       763
 -1       220    3    0    1
 -2       926        62       373        72
 -1       221    3    0    1
 -2      2580      1302      2667      2751
 -1       222    3    0    1
 -2      1002       534       996       989
 -1       223    3    0    1
 -2        92       370        78       947
 -1       224    3    0    1
 -2       935       506       503      1761
 -1       225    3    0    1
 -2      1185      1186      1888      2002
 -1       226    3    0    1
 -2       100       961       354        98
 -1       227    3    0    1
 -2       340      1526      1686      1883
 -1       228    3    0    1
 -2      1582      1553      1671      1675
 -1       229    3    0    1
 -2       572      1055       759       571
 -1       230    3    0    1
 -2       350       142       140       742
 -1       231    3    0    1
 -2       119       341       981      2492
 -1       232    3    0    1
 -2      2058      1674      2478      2129
 -1       233    3    0    1
 -2       858       455       864      1938
 -1       234    3    0    1
 -2       837       306      1215      1915
 -1       235    3    0    1
 -2      1483      2644      2751      2760
 -1       236    3    0    1
 -2       507      1735      1834      1937
 -1       237    3    0    1
 -2      1560      1595      1770      1833
 -1       238    3    0    1
 -2      1195       683       684      1687
 -1       239    3    0    1
 -2      2237       713       466       715
 -1       240    3    0    1
 -2       802       316       804      1637
 -1       241    3    0    1
 -2      1539      1718      1875      1929
 -1       242    3    0    1
 -2       514       731       509       520
 -1       243    3    0    1
 -2      1181       667       668      1715
 -1       244    3    0    1
 -2       547      1021       555       747
 -1       245    3    0    1
 -2       718       884        30      1861
 -1       246    3    0    1
 -2       542       539       533       997
 -1       247    3    0    1
 -2      1207       422       444      1851
 -1       248    3    0    1
 -2      1198       685       686      1711
 -1       249    3    0    1
 -2       564      1032      1051      1732
 -1       250    3    0    1
 -2       766      1074      1058       203
 -1       251    3    0    1
 -2      1587      1630      1705      1869
 -1       252    3    0    1
 -2      1548      1715      1945      1955
 -1       253    3    0    1
 -2      1106      1610      1703      1773
 -1       254    3    0    1
 -2       570      1046       577       569
 -1       255    3    0    1
 -2       131       132       737      2296
 -1       256    3    0    1
 -2      1646      1628      1763      1764
 -1       257    3    0    1
 -2       567       568       559       755
 -1       258    3    0    1
 -2      1740      1545      1879      2023
 -1       259    3    0    1
 -2       292      1211       843      1930
 -1       260    3    0    1
 -2       401       299      1172      1842
 -1       261    3    0    1
 -2       626       621       623      1125
 -1       262    3    0    1
 -2      1998      1892      2014      2164
 -1       263    3    0    1
 -2      2273      2226      2277      2635
 -1       264    3    0    1
 -2      1619       904      1795      1799
 -1       265    3    0    1
 -2       501       939       500       504
 -1       266    3    0    1
 -2      1563      1726      1925      2002
 -1       267    3    0    1
 -2       942       503       506      1761
 -1       268    3    0    1
 -2       438      1564      1838      2063
 -1       269    3    0    1
 -2       538       740       738       537
 -1       270    3    0    1
 -2      1740      1545      1778      1879
 -1       271    3    0    1
 -2       711       460       883      1596
 -1       272    3    0    1
 -2      1074       591      1786      1939
 -1       273    3    0    1
 -2       308       432       830      2029
 -1       274    3    0    1
 -2       655       801       656      1626
 -1       275    3    0    1
 -2      2054      1760      2489      2145
 -1       276    3    0    1
 -2       551      1019      1015       545
 -1       277    3    0    1
 -2       537       740       541       540
 -1       278    3    0    1
 -2       507       947      1735      1937
 -1       279    3    0    1
 -2       645       795      1577      1843
 -1       280    3    0    1
 -2       129       329      1887      1971
 -1       281    3    0    1
 -2      1021       555       747      1698
 -1       282    3    0    1
 -2       448       327      1200      1591
 -1       283    3    0    1
 -2       273      1140       272       377
 -1       284    3    0    1
 -2       596      1085      1079       772
 -1       285    3    0    1
 -2       143       145       741       994
 -1       286    3    0    1
 -2      1523      1796      1800      1943
 -1       287    3    0    1
 -2       398        75      1825      1827
 -1       288    3    0    1
 -2       315       396      1818      1857
 -1       289    3    0    1
 -2      1846      1631      1923      1976
 -1       290    3    0    1
 -2       141       140       742       993
 -1       291    3    0    1
 -2       556       748      1893      2499
 -1       292    3    0    1
 -2      1559       264      1672      1788
 -1       293    3    0    1
 -2        24      1612      1710      1858
 -1       294    3    0    1
 -2       940       505      1987      2116
 -1       295    3    0    1
 -2      1188      1556      1707      1741
 -1       296    3    0    1
 -2      2511      2542      2596      2632
 -1       297    3    0    1
 -2       148       157       748      1022
 -1       298    3    0    1
 -2      2075      1863      2087      2524
 -1       299    3    0    1
 -2       294       412      1594      1871
 -1       300    3    0    1
 -2      1573      1704      1806      1860
 -1       301    3    0    1
 -2       884       471      1596      1861
 -1       302    3    0    1
 -2      2051      1859      2476      2483
 -1       303    3    0    1
 -2       278       282       792      1132
 -1       304    3    0    1
 -2        30       716      1690      2092
 -1       305    3    0    1
 -2      1927       731      1965      1999
 -1       306    3    0    1
 -2         4        10       712       866
 -1       307    3    0    1
 -2       235      1102       385       243
 -1       308    3    0    1
 -2       168       167       755      1026
 -1       309    3    0    1
 -2       970       969       117       976
 -1       310    3    0    1
 -2      1208      1571      1573      1598
 -1       311    3    0    1
 -2      1571      1208      1573      1591
 -1       312    3    0    1
 -2      1633       321      1713      1802
 -1       313    3    0    1
 -2       598       593       604       773
 -1       314    3    0    1
 -2       520       731      1934      1965
 -1       315    3    0    1
 -2        44      1539      1796      1828
 -1       316    3    0    1
 -2       736       529      1890      2077
 -1       317    3    0    1
 -2      1139      1638      2074      2224
 -1       318    3    0    1
 -2       919      1693      2105      2156
 -1       319    3    0    1
 -2       264      1728      1755      1788
 -1       320    3    0    1
 -2       493       492       917      2686
 -1       321    3    0    1
 -2       496       495       485       926
 -1       322    3    0    1
 -2       219      1081      1077       774
 -1       323    3    0    1
 -2      2096      2482      2551      2554
 -1       324    3    0    1
 -2       325      1015      1811      1952
 -1       325    3    0    1
 -2      1180       809      1688      1886
 -1       326    3    0    1
 -2      1540      1663      1720      1782
 -1       327    3    0    1
 -2       713        28      2225      2287
 -1       328    3    0    1
 -2      2495      2562      2622      2649
 -1       329    3    0    1
 -2        62       919       918        72
 -1       330    3    0    1
 -2       963       404      1966      1995
 -1       331    3    0    1
 -2      1568      1711      1814      1907
 -1       332    3    0    1
 -2       804       657       802      1803
 -1       333    3    0    1
 -2       206       768       203       211
 -1       334    3    0    1
 -2      2014      2164      2166      2201
 -1       335    3    0    1
 -2       582       767       589       588
 -1       336    3    0    1
 -2       186       197       762      1042
 -1       337    3    0    1
 -2       526       979       975       525
 -1       338    3    0    1
 -2       426       268      1127      2010
 -1       339    3    0    1
 -2      2205      1263      2264      2284
 -1       340    3    0    1
 -2      1535      1641      1727      1729
 -1       341    3    0    1
 -2       935       506      1761      1775
 -1       342    3    0    1
 -2       645      1155       795      1843
 -1       343    3    0    1
 -2       549       746       552      1017
 -1       344    3    0    1
 -2      1077       219       774      1092
 -1       345    3    0    1
 -2      1571      1573      1598      1704
 -1       346    3    0    1
 -2       313       849       442      1669
 -1       347    3    0    1
 -2      1046      1033      2159      2186
 -1       348    3    0    1
 -2      1629      1558      1805      1851
 -1       349    3    0    1
 -2        45        44       887       890
 -1       350    3    0    1
 -2      2088      2181      2523      2193
 -1       351    3    0    1
 -2       375       378      2611      1425
 -1       352    3    0    1
 -2       325       321      1015      1802
 -1       353    3    0    1
 -2      1048       187      1052      1682
 -1       354    3    0    1
 -2       731       520      1927      1965
 -1       355    3    0    1
 -2       834       422      1213      1851
 -1       356    3    0    1
 -2      1546      1626      1643      1681
 -1       357    3    0    1
 -2      2570      1285      2613      1401
 -1       358    3    0    1
 -2      1031       563      1649      1754
 -1       359    3    0    1
 -2       899       382       438      1838
 -1       360    3    0    1
 -2       774       604      1856      2169
 -1       361    3    0    1
 -2       483       484       475       903
 -1       362    3    0    1
 -2       225       224       219       774
 -1       363    3    0    1
 -2      1574       424      1662      1867
 -1       364    3    0    1
 -2       945        88       966      2515
 -1       365    3    0    1
 -2       922       487       915       911
 -1       366    3    0    1
 -2       463       884       718       471
 -1       367    3    0    1
 -2      1588      1637      1803      1818
 -1       368    3    0    1
 -2        35        19        38       717
 -1       369    3    0    1
 -2       125       974       117       967
 -1       370    3    0    1
 -2       281       276       421      1144
 -1       371    3    0    1
 -2        92        95       936      1589
 -1       372    3    0    1
 -2       519       520      1934      1965
 -1       373    3    0    1
 -2      1635      1657      2034      2037
 -1       374    3    0    1
 -2      1604      1037      1724      1855
 -1       375    3    0    1
 -2       143       741       987       994
 -1       376    3    0    1
 -2       490       926       485       495
 -1       377    3    0    1
 -2       590      1846      1885      1923
 -1       378    3    0    1
 -2       822       673       820      1871
 -1       379    3    0    1
 -2      2595      1426      2676      2696
 -1       380    3    0    1
 -2       360       195       763      2507
 -1       381    3    0    1
 -2      1061      1071      1063       204
 -1       382    3    0    1
 -2       278      1137       276       421
 -1       383    3    0    1
 -2      1068       588      1083      2111
 -1       384    3    0    1
 -2      1544      1605      1842      1864
 -1       385    3    0    1
 -2       609      1104       613       608
 -1       386    3    0    1
 -2      2510      2501      2539      2561
 -1       387    3    0    1
 -2        68       395       921      1717
 -1       388    3    0    1
 -2      2007      2136      2522      2739
 -1       389    3    0    1
 -2       177       362       165       754
 -1       390    3    0    1
 -2       562      1030      1027       561
 -1       391    3    0    1
 -2        29       884        22        30
 -1       392    3    0    1
 -2       202      1057      1072      1073
 -1       393    3    0    1
 -2       125       974       126       117
 -1       394    3    0    1
 -2      1037       567      1747      1893
 -1       395    3    0    1
 -2       940       918      2116      2167
 -1       396    3    0    1
 -2      1604      1037      1855      1893
 -1       397    3    0    1
 -2       363       174      1036      1724
 -1       398    3    0    1
 -2      2564      2598      2619      2692
 -1       399    3    0    1
 -2       526       528      2218      2232
 -1       400    3    0    1
 -2      1773      1085      1897      1904
 -1       401    3    0    1
 -2      1794       177      1891      2094
 -1       402    3    0    1
 -2       602       596       599      1090
 -1       403    3    0    1
 -2      2484      1086      1237      1238
 -1       404    3    0    1
 -2      1142       424      1575      1867
 -1       405    3    0    1
 -2       452       866       451       459
 -1       406    3    0    1
 -2       219      1081       774       224
 -1       407    3    0    1
 -2      1568      1820      1964      1988
 -1       408    3    0    1
 -2       135       350       139       999
 -1       409    3    0    1
 -2      1907      1964      1814      1568
 -1       410    3    0    1
 -2       144       145       143       994
 -1       411    3    0    1
 -2      2610      2638      2649      2725
 -1       412    3    0    1
 -2      2543      2587      2642      2645
 -1       413    3    0    1
 -2       859         7       863      1973
 -1       414    3    0    1
 -2       214      1780      1917      1940
 -1       415    3    0    1
 -2      1652      1030      1724      1883
 -1       416    3    0    1
 -2      1662      1142      1840      1867
 -1       417    3    0    1
 -2      1649      1652      1683      1754
 -1       418    3    0    1
 -2      1610      1563      1648      1904
 -1       419    3    0    1
 -2       463       464       472       718
 -1       420    3    0    1
 -2       255       262       263      1129
 -1       421    3    0    1
 -2      2150      2097      2503      2183
 -1       422    3    0    1
 -2      1623      1686      1811      1952
 -1       423    3    0    1
 -2       425      1572      1672      1755
 -1       424    3    0    1
 -2       838       694      1677      1762
 -1       425    3    0    1
 -2       251      1109       380       239
 -1       426    3    0    1
 -2       478       898       894       477
 -1       427    3    0    1
 -2        44       394       721      1645
 -1       428    3    0    1
 -2       257      1128      1115       256
 -1       429    3    0    1
 -2       484       483       902      1772
 -1       430    3    0    1
 -2       841      1972       326       844
 -1       431    3    0    1
 -2       513       958       956       954
 -1       432    3    0    1
 -2      1561      1642      1746      1831
 -1       433    3    0    1
 -2       863      1878      1938      1973
 -1       434    3    0    1
 -2       428      1085      1610      1904
 -1       435    3    0    1
 -2       331       817      1533      1661
 -1       436    3    0    1
 -2       606      1101       611       614
 -1       437    3    0    1
 -2       576       589      2142      2525
 -1       438    3    0    1
 -2       143       144       136       990
 -1       439    3    0    1
 -2      1648      1563      1882      1904
 -1       440    3    0    1
 -2       937       935      1761      1775
 -1       441    3    0    1
 -2       413       293      1166      1684
 -1       442    3    0    1
 -2       547       548       556       748
 -1       443    3    0    1
 -2       527       530      1847      1961
 -1       444    3    0    1
 -2       602      1090      1897      1900
 -1       445    3    0    1
 -2       137      1001      1691      2004
 -1       446    3    0    1
 -2       471       463       472       718
 -1       447    3    0    1
 -2      1157       647      1156      1875
 -1       448    3    0    1
 -2      1036       363      1623      1627
 -1       449    3    0    1
 -2       563      1031      1035      1883
 -1       450    3    0    1
 -2       412       294       820      1871
 -1       451    3    0    1
 -2       603       593       604       774
 -1       452    3    0    1
 -2       236      1107       427       240
 -1       453    3    0    1
 -2       621      1120       784      1124
 -1       454    3    0    1
 -2       759       571       763      1041
 -1       455    3    0    1
 -2       935      1611      1667      1775
 -1       456    3    0    1
 -2       919       493      2076      2105
 -1       457    3    0    1
 -2      1167       653      1166      1684
 -1       458    3    0    1
 -2       622      1125      1118       621
 -1       459    3    0    1
 -2       718        29       872       873
 -1       460    3    0    1
 -2      1552       415      1721      1910
 -1       461    3    0    1
 -2      1849      1047      1922      1976
 -1       462    3    0    1
 -2       460       712      1596      1749
 -1       463    3    0    1
 -2       463       884       872       718
 -1       464    3    0    1
 -2       654       653      1684      1702
 -1       465    3    0    1
 -2       287       435       795      1843
 -1       466    3    0    1
 -2       712       884      1596      2477
 -1       467    3    0    1
 -2       335       333      1021      1991
 -1       468    3    0    1
 -2       522       977       971       521
 -1       469    3    0    1
 -2       152       149       748      1011
 -1       470    3    0    1
 -2      1336      2233      2250      2328
 -1       471    3    0    1
 -2      1283      1357      2598      2692
 -1       472    3    0    1
 -2      1047       575      1631      1923
 -1       473    3    0    1
 -2       534      1002       539       533
 -1       474    3    0    1
 -2       280       793      1739      2513
 -1       475    3    0    1
 -2       487       922       491       486
 -1       476    3    0    1
 -2       683       830      1679      1687
 -1       477    3    0    1
 -2      1251      2278      2314      2315
 -1       478    3    0    1
 -2      1619       895      1797      1827
 -1       479    3    0    1
 -2       122       117       969       983
 -1       480    3    0    1
 -2       438       382        43       905
 -1       481    3    0    1
 -2       396      1541      1818      1857
 -1       482    3    0    1
 -2       480       899       477       481
 -1       483    3    0    1
 -2      2087      1644      2146      2496
 -1       484    3    0    1
 -2      1523       394      1796      1901
 -1       485    3    0    1
 -2        12        10         4       866
 -1       486    3    0    1
 -2        48        44       721       887
 -1       487    3    0    1
 -2       146      1003       987       136
 -1       488    3    0    1
 -2      1590      1528      1651      1742
 -1       489    3    0    1
 -2      1113       253       780      2282
 -1       490    3    0    1
 -2       484       483       475       902
 -1       491    3    0    1
 -2       921      1624      1783      1959
 -1       492    3    0    1
 -2       482       901      1722      1822
 -1       493    3    0    1
 -2       339      1031      1601      1754
 -1       494    3    0    1
 -2       248      1108      1217      2176
 -1       495    3    0    1
 -2       655      1169       800      1626
 -1       496    3    0    1
 -2       479       473       721       896
 -1       497    3    0    1
 -2        25       877       868       870
 -1       498    3    0    1
 -2       310       832      1198      1848
 -1       499    3    0    1
 -2       374        87      1785      2498
 -1       500    3    0    1
 -2       918       492      1957      2076
 -1       501    3    0    1
 -2      1525      1557      1700      1733
 -1       502    3    0    1
 -2       452       866       854       451
 -1       503    3    0    1
 -2      1241      2567      1363      2673
 -1       504    3    0    1
 -2       902       382       381      2504
 -1       505    3    0    1
 -2       502       948       934       497
 -1       506    3    0    1
 -2      1033      2094      2159      2186
 -1       507    3    0    1
 -2      1687      1679      1777      2029
 -1       508    3    0    1
 -2        19        21        38       717
 -1       509    3    0    1
 -2      1021       555      1698      1911
 -1       510    3    0    1
 -2       575      1048      1052      1922
 -1       511    3    0    1
 -2       250       228      1993      2545
 -1       512    3    0    1
 -2       325       321      1713      1782
 -1       513    3    0    1
 -2       452       865       451       853
 -1       514    3    0    1
 -2      2500      1224      1250      2599
 -1       515    3    0    1
 -2      1557       882      1733      1748
 -1       516    3    0    1
 -2       831      1620      1679      1899
 -1       517    3    0    1
 -2      1640      1580      1668      1963
 -1       518    3    0    1
 -2       517       516      1760      2489
 -1       519    3    0    1
 -2      2569      2503      2614      2765
 -1       520    3    0    1
 -2       651      1590      1164       652
 -1       521    3    0    1
 -2       308      1687      1981      2029
 -1       522    3    0    1
 -2      1530      1606      1865      1873
 -1       523    3    0    1
 -2       898       899      1693      1838
 -1       524    3    0    1
 -2       554      1020      1696      1738
 -1       525    3    0    1
 -2       554      1019      1802      1836
 -1       526    3    0    1
 -2       495       925      1772      1790
 -1       527    3    0    1
 -2       499       936       498       931
 -1       528    3    0    1
 -2       236       778      1109      1110
 -1       529    3    0    1
 -2      1108      1129      2013      2041
 -1       530    3    0    1
 -2       175       754       750       165
 -1       531    3    0    1
 -2       330       143       996      1975
 -1       532    3    0    1
 -2       663      1176      1606      1676
 -1       533    3    0    1
 -2      1641      1621      1727      1729
 -1       534    3    0    1
 -2      1258      1294      1309      2395
 -1       535    3    0    1
 -2       476       903       475       484
 -1       536    3    0    1
 -2       587       590      1071      1757
 -1       537    3    0    1
 -2      1800      1584      1828      1875
 -1       538    3    0    1
 -2       966       730        98       951
 -1       539    3    0    1
 -2       626       623      1124      1766
 -1       540    3    0    1
 -2       384       381      2148      2504
 -1       541    3    0    1
 -2       671       819       672      1714
 -1       542    3    0    1
 -2        61       924       724       909
 -1       543    3    0    1
 -2      1572      1597      1603      1672
 -1       544    3    0    1
 -2       617      1122       785       624
 -1       545    3    0    1
 -2       730       966       732       509
 -1       546    3    0    1
 -2       509       966       732       519
 -1       547    3    0    1
 -2        42       895       889       888
 -1       548    3    0    1
 -2      1248      2654      2316      2338
 -1       549    3    0    1
 -2       527      1847      1872      1902
 -1       550    3    0    1
 -2        10       436       712      2477
 -1       551    3    0    1
 -2       322      1651      1691      1705
 -1       552    3    0    1
 -2      1065       587      1071      1757
 -1       553    3    0    1
 -2      2407      2631      2444      2445
 -1       554    3    0    1
 -2       807       661       805      1862
 -1       555    3    0    1
 -2       750      1033      1023       165
 -1       556    3    0    1
 -2       648      1158      1718      1875
 -1       557    3    0    1
 -2        33       718      1829      2134
 -1       558    3    0    1
 -2       712       460       459      1749
 -1       559    3    0    1
 -2        44       721       896      1645
 -1       560    3    0    1
 -2       174       167       337       755
 -1       561    3    0    1
 -2      1919       612      2123      2541
 -1       562    3    0    1
 -2       340      1035      1686      1811
 -1       563    3    0    1
 -2       492      2203      2217      2686
 -1       564    3    0    1
 -2      1069      2493      1271      2712
 -1       565    3    0    1
 -2      1780       365      1967      1976
 -1       566    3    0    1
 -2        83        89        90       927
 -1       567    3    0    1
 -2      1625       434      1880      2030
 -1       568    3    0    1
 -2        72       926      1789      1791
 -1       569    3    0    1
 -2       229      1090       366       221
 -1       570    3    0    1
 -2       496       924       925      1622
 -1       571    3    0    1
 -2       522       977       521       527
 -1       572    3    0    1
 -2         4         5        12       866
 -1       573    3    0    1
 -2       462       881       877       868
 -1       574    3    0    1
 -2      1668      1650      1962      1963
 -1       575    3    0    1
 -2        26       879        33       716
 -1       576    3    0    1
 -2       636       457      1810      2074
 -1       577    3    0    1
 -2        30        26        33       716
 -1       578    3    0    1
 -2       813       667       811      1945
 -1       579    3    0    1
 -2       597      1089       602       596
 -1       580    3    0    1
 -2        26        39        32       718
 -1       581    3    0    1
 -2      1542      1588      1637      1803
 -1       582    3    0    1
 -2        26        29       718       873
 -1       583    3    0    1
 -2       485       924       909       724
 -1       584    3    0    1
 -2       210      1070      1060       205
 -1       585    3    0    1
 -2      1212      1571      1598      1931
 -1       586    3    0    1
 -2        13       864        14         6
 -1       587    3    0    1
 -2       540       553      2106      2497
 -1       588    3    0    1
 -2      1982      2071      2144      2512
 -1       589    3    0    1
 -2      1684      1594      1702      1708
 -1       590    3    0    1
 -2       322      1587      1630      1705
 -1       591    3    0    1
 -2       125       970       969       117
 -1       592    3    0    1
 -2      1590      1162      1712      1916
 -1       593    3    0    1
 -2      2616      1221      2284      2405
 -1       594    3    0    1
 -2       382       902      2063      2100
 -1       595    3    0    1
 -2       768      1092      2112      2508
 -1       596    3    0    1
 -2       879       468       899      1709
 -1       597    3    0    1
 -2        91       399       947      1735
 -1       598    3    0    1
 -2       498       935       506       503
 -1       599    3    0    1
 -2      1696       554      1738      1985
 -1       600    3    0    1
 -2      1647      1553      1706      1910
 -1       601    3    0    1
 -2      1163      1164      1712      1866
 -1       602    3    0    1
 -2       337       345      1030      1652
 -1       603    3    0    1
 -2       902        52        43       892
 -1       604    3    0    1
 -2      1532        24      1549      1750
 -1       605    3    0    1
 -2       394      1523      1796      1800
 -1       606    3    0    1
 -2       926        72      1789      2504
 -1       607    3    0    1
 -2       926        69       923       373
 -1       608    3    0    1
 -2      1164      1590      1866      1886
 -1       609    3    0    1
 -2       189      1053       336      1849
 -1       610    3    0    1
 -2      2103       387      2139      2194
 -1       611    3    0    1
 -2        86        91       728       947
 -1       612    3    0    1
 -2      2570      1283      2598      2692
 -1       613    3    0    1
 -2      1548      1613      1730      2005
 -1       614    3    0    1
 -2       478       898       477       480
 -1       615    3    0    1
 -2      1181       812      1632      1946
 -1       616    3    0    1
 -2       755      1054      1652      1933
 -1       617    3    0    1
 -2      1950      2163      2107      1998
 -1       618    3    0    1
 -2      1120      1572      1755      1766
 -1       619    3    0    1
 -2      2534      1246      1301      2580
 -1       620    3    0    1
 -2       222      1085       772      1079
 -1       621    3    0    1
 -2        46        42       903       904
 -1       622    3    0    1
 -2       313      1214       835      1669
 -1       623    3    0    1
 -2      2106      1768      2497      2502
 -1       624    3    0    1
 -2       350       139      1787      1921
 -1       625    3    0    1
 -2       192      1600      1617      1850
 -1       626    3    0    1
 -2       243       244      1097      1098
 -1       627    3    0    1
 -2      1598      1571      1704      1931
 -1       628    3    0    1
 -2      1859      2051      2476      2493
 -1       629    3    0    1
 -2       935       503       937      1761
 -1       630    3    0    1
 -2       635      1138      1534      1578
 -1       631    3    0    1
 -2      1593       882      1824      1896
 -1       632    3    0    1
 -2      1359      1360      2602      1389
 -1       633    3    0    1
 -2      1542      1583      1716      1736
 -1       634    3    0    1
 -2       167       166       755      1026
 -1       635    3    0    1
 -2      2538      1269      1294      2624
 -1       636    3    0    1
 -2       546      1014       551       545
 -1       637    3    0    1
 -2      2164      2107      2527      2201
 -1       638    3    0    1
 -2       747       556      1037      1604
 -1       639    3    0    1
 -2       187       192       761      1052
 -1       640    3    0    1
 -2      1562        44      1767      1959
 -1       641    3    0    1
 -2       781      1122       617      1112
 -1       642    3    0    1
 -2       580       579       763      1579
 -1       643    3    0    1
 -2      1539      1718      1800      1875
 -1       644    3    0    1
 -2      1902       530      1961      1970
 -1       645    3    0    1
 -2      2554      1034      2689      2759
 -1       646    3    0    1
 -2       632      1144       639       631
 -1       647    3    0    1
 -2       571       759       763      1055
 -1       648    3    0    1
 -2       585      1071      1063       584
 -1       649    3    0    1
 -2       883       711      1596      1748
 -1       650    3    0    1
 -2      1549       293      1684      1751
 -1       651    3    0    1
 -2      1031       563      1754      1883
 -1       652    3    0    1
 -2      1615       433      1756      1815
 -1       653    3    0    1
 -2        35       882      1748      1896
 -1       654    3    0    1
 -2      1684      1532      1708      1751
 -1       655    3    0    1
 -2       147      1012       747      1005
 -1       656    3    0    1
 -2       137       138       133       988
 -1       657    3    0    1
 -2       979      1845      2061      2131
 -1       658    3    0    1
 -2       799       289       801      1758
 -1       659    3    0    1
 -2       602      1089      1670      1874
 -1       660    3    0    1
 -2       193       188       187       761
 -1       661    3    0    1
 -2       117       122       967       985
 -1       662    3    0    1
 -2       845       699      1666      1694
 -1       663    3    0    1
 -2       924        67       925      1622
 -1       664    3    0    1
 -2       463       718       872       873
 -1       665    3    0    1
 -2      1533      1524      1661      1752
 -1       666    3    0    1
 -2      2553      1278      1319      2641
 -1       667    3    0    1
 -2      1714       672       818      1753
 -1       668    3    0    1
 -2      2564      2522      2598      2692
 -1       669    3    0    1
 -2      2322      1401      2324      2367
 -1       670    3    0    1
 -2       480       899       898       477
 -1       671    3    0    1
 -2       214       365      1073      1780
 -1       672    3    0    1
 -2       518       512       515       957
 -1       673    3    0    1
 -2       697       699       845      1694
 -1       674    3    0    1
 -2       463       464       718       873
 -1       675    3    0    1
 -2       427      1110      1942      2035
 -1       676    3    0    1
 -2       527       983       976      1847
 -1       677    3    0    1
 -2      1236      2293      2361      2420
 -1       678    3    0    1
 -2      1158       796      1718      1758
 -1       679    3    0    1
 -2      1694      1666      1705      1916
 -1       680    3    0    1
 -2        21        23       717       874
 -1       681    3    0    1
 -2       124       348      1779      1809
 -1       682    3    0    1
 -2       294       798      1168      1594
 -1       683    3    0    1
 -2       494       491       486       916
 -1       684    3    0    1
 -2      1594      1555      1607      1958
 -1       685    3    0    1
 -2      2535      1306      1307      2597
 -1       686    3    0    1
 -2      1523       394      1612      1800
 -1       687    3    0    1
 -2      1566      1625      1880      1983
 -1       688    3    0    1
 -2       187       761      1048      1052
 -1       689    3    0    1
 -2       377       280      1145      1739
 -1       690    3    0    1
 -2      1161      1778      1879      2020
 -1       691    3    0    1
 -2       190       181       360       763
 -1       692    3    0    1
 -2       453       458       455       863
 -1       693    3    0    1
 -2      1178       663       664      1676
 -1       694    3    0    1
 -2       748       556      1698      1830
 -1       695    3    0    1
 -2      2523      2093      2682      2683
 -1       696    3    0    1
 -2      2559      1270      1320      2699
 -1       697    3    0    1
 -2       380      1109      1841      1942
 -1       698    3    0    1
 -2      1138       420      1662      1876
 -1       699    3    0    1
 -2        86       942       370        78
 -1       700    3    0    1
 -2      1551       650      1879      1946
 -1       701    3    0    1
 -2      2475      1725      2076      2091
 -1       702    3    0    1
 -2       732       986      2081      2494
 -1       703    3    0    1
 -2       758      1050       181      1046
 -1       704    3    0    1
 -2       587      1066      1664      1670
 -1       705    3    0    1
 -2      1018      2490      2155      2497
 -1       706    3    0    1
 -2      1535      1621      1641      1729
 -1       707    3    0    1
 -2       946       508       965      2012
 -1       708    3    0    1
 -2       496      1622      1791      1834
 -1       709    3    0    1
 -2      1699       742      1911      2080
 -1       710    3    0    1
 -2         8       863         7       415
 -1       711    3    0    1
 -2       118       977       332       116
 -1       712    3    0    1
 -2      1921       139      2061      2073
 -1       713    3    0    1
 -2      1069      1067      2051      2493
 -1       714    3    0    1
 -2       595      1083       601       594
 -1       715    3    0    1
 -2       330       329      1003      1903
 -1       716    3    0    1
 -2        82       368      2590      2629
 -1       717    3    0    1
 -2       451       853       711       852
 -1       718    3    0    1
 -2      1531      1178      1606      1676
 -1       719    3    0    1
 -2       298       291      1866      1886
 -1       720    3    0    1
 -2       840       310      1776      1848
 -1       721    3    0    1
 -2       923       485       723       926
 -1       722    3    0    1
 -2       453       859       855       710
 -1       723    3    0    1
 -2       249      1107      1703      1928
 -1       724    3    0    1
 -2       126       130       117       974
 -1       725    3    0    1
 -2      1101       380      1956      2017
 -1       726    3    0    1
 -2      2394      1452      2395      2413
 -1       727    3    0    1
 -2      1842      1816      1864      1951
 -1       728    3    0    1
 -2      1606      1176      1639      1865
 -1       729    3    0    1
 -2       123       125       122       967
 -1       730    3    0    1
 -2       941      2486      1243      1244
 -1       731    3    0    1
 -2      2496      2151      2185      2700
 -1       732    3    0    1
 -2      1544        81      1580      1640
 -1       733    3    0    1
 -2      1050      1046       576      1807
 -1       734    3    0    1
 -2      1782      1633      1865      1873
 -1       735    3    0    1
 -2      1993       225      2170      2545
 -1       736    3    0    1
 -2      1015      1540      1802      1836
 -1       737    3    0    1
 -2       219       225       774      1092
 -1       738    3    0    1
 -2      1927       531      1936      2081
 -1       739    3    0    1
 -2      1053       578      1683      1849
 -1       740    3    0    1
 -2       117       976       983      1847
 -1       741    3    0    1
 -2      1628      1536      1763      1764
 -1       742    3    0    1
 -2      1888      1563      1953      2002
 -1       743    3    0    1
 -2      1559      1603      1629      1669
 -1       744    3    0    1
 -2       323       747      1604      1912
 -1       745    3    0    1
 -2       396      1146      1614      1857
 -1       746    3    0    1
 -2       342       202       213      1073
 -1       747    3    0    1
 -2       139      1787      1921      2061
 -1       748    3    0    1
 -2      1106       243      1610      1793
 -1       749    3    0    1
 -2       530       982      1853      1970
 -1       750    3    0    1
 -2       155      1015       325       154
 -1       751    3    0    1
 -2       120       979       121       113
 -1       752    3    0    1
 -2       122       117       983      1847
 -1       753    3    0    1
 -2      1626      1546      1643      1750
 -1       754    3    0    1
 -2       694       850       838      1677
 -1       755    3    0    1
 -2       333       335      1738      1991
 -1       756    3    0    1
 -2         7      1607      1700      1954
 -1       757    3    0    1
 -2      1214       442      1559      1669
 -1       758    3    0    1
 -2      1689      1872      1887      1903
 -1       759    3    0    1
 -2       272       280       387       793
 -1       760    3    0    1
 -2       259      1124      1120       264
 -1       761    3    0    1
 -2       641      1148       794      1857
 -1       762    3    0    1
 -2       539       996      1823      1975
 -1       763    3    0    1
 -2       781      1122      1112       255
 -1       764    3    0    1
 -2      1657      1966      2018      2023
 -1       765    3    0    1
 -2       122       117       125       969
 -1       766    3    0    1
 -2      1726      1610      1746      1793
 -1       767    3    0    1
 -2      2211      2190      2576      2289
 -1       768    3    0    1
 -2       522       976       527       521
 -1       769    3    0    1
 -2       469       716       861      1690
 -1       770    3    0    1
 -2       204       214      1057      1073
 -1       771    3    0    1
 -2        78       936       930       942
 -1       772    3    0    1
 -2       853       451       711       865
 -1       773    3    0    1
 -2      1754      1601      1764      1850
 -1       774    3    0    1
 -2       210      1070       205       343
 -1       775    3    0    1
 -2      1553      1647      1706      1798
 -1       776    3    0    1
 -2       536       742       992       993
 -1       777    3    0    1
 -2       750      1033       558      1023
 -1       778    3    0    1
 -2       579       580       762      1967
 -1       779    3    0    1
 -2       918       919       492      2076
 -1       780    3    0    1
 -2      1015      1627      1811      1952
 -1       781    3    0    1
 -2       882      1593      1733      1748
 -1       782    3    0    1
 -2        70       383      2214      2589
 -1       783    3    0    1
 -2      1030       345      1649      1652
 -1       784    3    0    1
 -2       192       193       187       761
 -1       785    3    0    1
 -2       558      1033       565       557
 -1       786    3    0    1
 -2      1580        81      1635      1640
 -1       787    3    0    1
 -2       997      1001      1689      1691
 -1       788    3    0    1
 -2      1536      1600      1764      1850
 -1       789    3    0    1
 -2      2178      2056      2549      2557
 -1       790    3    0    1
 -2      2050      2087      2146      2496
 -1       791    3    0    1
 -2       527       982       977       521
 -1       792    3    0    1
 -2      1548      1714      1752      1808
 -1       793    3    0    1
 -2       572      1054       579       571
 -1       794    3    0    1
 -2       184       186       189       762
 -1       795    3    0    1
 -2       366       229       221      1091
 -1       796    3    0    1
 -2       485       923       496       926
 -1       797    3    0    1
 -2       201      1074       199       359
 -1       798    3    0    1
 -2      1583      1609      1717      1898
 -1       799    3    0    1
 -2       162       149       158       748
 -1       800    3    0    1
 -2       649      1160       650      1551
 -1       801    3    0    1
 -2      1845       119      2061      2131
 -1       802    3    0    1
 -2       120       981       113       121
 -1       803    3    0    1
 -2       227      1092       357       219
 -1       804    3    0    1
 -2       264      1728      1586      1124
 -1       805    3    0    1
 -2       426       391      1119      1527
 -1       806    3    0    1
 -2       807       805      1816      1862
 -1       807    3    0    1
 -2      1946      1551      2018      2023
 -1       808    3    0    1
 -2       143       136       987      1003
 -1       809    3    0    1
 -2       175       754       165       362
 -1       810    3    0    1
 -2       340      1686      1806      1811
 -1       811    3    0    1
 -2       471       712       884      1596
 -1       812    3    0    1
 -2       461       882       876       470
 -1       813    3    0    1
 -2       593      1081       598       774
 -1       814    3    0    1
 -2        83       940       939      1987
 -1       815    3    0    1
 -2       334       157      1022      2055
 -1       816    3    0    1
 -2      1192       679       680      1925
 -1       817    3    0    1
 -2       370        91      1735      1884
 -1       818    3    0    1
 -2       904       483       903      1795
 -1       819    3    0    1
 -2       855         7       710       859
 -1       820    3    0    1
 -2       775      2235      2238      2245
 -1       821    3    0    1
 -2       550      1017      1013       549
 -1       822    3    0    1
 -2       815      1544      1650      1668
 -1       823    3    0    1
 -2      1043      1053       184      1047
 -1       824    3    0    1
 -2      1845       736      1890      2077
 -1       825    3    0    1
 -2      2062      1781      2493      2552
 -1       826    3    0    1
 -2       158       148       157       748
 -1       827    3    0    1
 -2      1919      2052      2165      2536
 -1       828    3    0    1
 -2      1072      1073       592      1917
 -1       829    3    0    1
 -2      1662       424      1745      1876
 -1       830    3    0    1
 -2      1072       603      1091      2008
 -1       831    3    0    1
 -2      1152       286      1149      1909
 -1       832    3    0    1
 -2      1565      1620      1679      1815
 -1       833    3    0    1
 -2       272       280       793      1145
 -1       834    3    0    1
 -2       593      1091       603       773
 -1       835    3    0    1
 -2      1309      2214      2589      1406
 -1       836    3    0    1
 -2      1547      1632      1946      2018
 -1       837    3    0    1
 -2       586      1073      1057       581
 -1       838    3    0    1
 -2      1264      1317      2606      2609
 -1       839    3    0    1
 -2       462       881       868       461
 -1       840    3    0    1
 -2       406       101       346       731
 -1       841    3    0    1
 -2      1797       398      1825      1827
 -1       842    3    0    1
 -2      1192       825      1925      1953
 -1       843    3    0    1
 -2       143       330      1003      1554
 -1       844    3    0    1
 -2       898       493       919      1693
 -1       845    3    0    1
 -2       411        46      1619      1795
 -1       846    3    0    1
 -2       571       760       762      1042
 -1       847    3    0    1
 -2       459       711       865      1932
 -1       848    3    0    1
 -2      1069      1067       589      2483
 -1       849    3    0    1
 -2       458       453       455       864
 -1       850    3    0    1
 -2       556       555       748      1698
 -1       851    3    0    1
 -2       262       785       781       255
 -1       852    3    0    1
 -2      1535      1618      1688      1886
 -1       853    3    0    1
 -2       687      1199      1763      1784
 -1       854    3    0    1
 -2       696       846      1208      1598
 -1       855    3    0    1
 -2       839      1677      1837      1907
 -1       856    3    0    1
 -2      1545      1650      1740      1778
 -1       857    3    0    1
 -2       461       881       470       467
 -1       858    3    0    1
 -2       811       667      1715      1945
 -1       859    3    0    1
 -2       297      1178       328      1676
 -1       860    3    0    1
 -2       234      1369      1402      2367
 -1       861    3    0    1
 -2       876       467      1593      1722
 -1       862    3    0    1
 -2      1091      1856      1997      2001
 -1       863    3    0    1
 -2       586      1074       592       581
 -1       864    3    0    1
 -2      1145      1739      2026      2481
 -1       865    3    0    1
 -2       332       982       116       977
 -1       866    3    0    1
 -2       979       528      1723      1890
 -1       867    3    0    1
 -2       204      1065       342       202
 -1       868    3    0    1
 -2       585      1066       590       584
 -1       869    3    0    1
 -2       555       547       556       748
 -1       870    3    0    1
 -2       996      1738      1823      1985
 -1       871    3    0    1
 -2        52       898       382        43
 -1       872    3    0    1
 -2      1066       585      1060      1062
 -1       873    3    0    1
 -2      1808      1636      1853      2005
 -1       874    3    0    1
 -2      1582      1556      1585      1707
 -1       875    3    0    1
 -2      1327      2250      2294      2306
 -1       876    3    0    1
 -2       434       343      1522      2030
 -1       877    3    0    1
 -2       202      1065       342       213
 -1       878    3    0    1
 -2       579       571       580       763
 -1       879    3    0    1
 -2      1677      1568      1837      1907
 -1       880    3    0    1
 -2      2205      1381      2284      2405
 -1       881    3    0    1
 -2      2593      2212      1400      2299
 -1       882    3    0    1
 -2      1147       641      1146      1857
 -1       883    3    0    1
 -2      1027      1036      1030       562
 -1       884    3    0    1
 -2      1127       619       627      1128
 -1       885    3    0    1
 -2       148       158       157      1017
 -1       886    3    0    1
 -2      1073      1780      1813      1917
 -1       887    3    0    1
 -2       101       103       346       731
 -1       888    3    0    1
 -2      1540       325      1713      1782
 -1       889    3    0    1
 -2         4        10       436       712
 -1       890    3    0    1
 -2      2576      2289      2647      2346
 -1       891    3    0    1
 -2      1070       590      1757      1885
 -1       892    3    0    1
 -2      1738       335      1985      1991
 -1       893    3    0    1
 -2       360       183       190       763
 -1       894    3    0    1
 -2      1773      1703      1928      2036
 -1       895    3    0    1
 -2       456       861      1810      2102
 -1       896    3    0    1
 -2       818      1714      1753      1955
 -1       897    3    0    1
 -2       122       117      1847      2019
 -1       898    3    0    1
 -2       360       763      1579      1974
 -1       899    3    0    1
 -2       741      1003       544      1554
 -1       900    3    0    1
 -2       759       181       763      1055
 -1       901    3    0    1
 -2       382       899        43       898
 -1       902    3    0    1
 -2      1568      1820      1837      1964
 -1       903    3    0    1
 -2      1575      1574      1744      1867
 -1       904    3    0    1
 -2       225      2169      2170      2545
 -1       905    3    0    1
 -2       154      1019      1015       321
 -1       906    3    0    1
 -2      1035      1623      1686      1811
 -1       907    3    0    1
 -2       330       143       136       996
 -1       908    3    0    1
 -2       621      1120      1117       784
 -1       909    3    0    1
 -2      1190       677      1189      1741
 -1       910    3    0    1
 -2       961       517       960      1949
 -1       911    3    0    1
 -2      2119      1980      2491      2516
 -1       912    3    0    1
 -2       566      1623      1724      1883
 -1       913    3    0    1
 -2      1644      2151      2496      2528
 -1       914    3    0    1
 -2       861       456      1690      2102
 -1       915    3    0    1
 -2       561      1031      1028       753
 -1       916    3    0    1
 -2       100       354       110       732
 -1       917    3    0    1
 -2       738       999       740       538
 -1       918    3    0    1
 -2      1481      2667      1482      2714
 -1       919    3    0    1
 -2       454       864       856       453
 -1       920    3    0    1
 -2      1543      1583      1611      1898
 -1       921    3    0    1
 -2       981       120       113       973
 -1       922    3    0    1
 -2       916      1611      1717      2000
 -1       923    3    0    1
 -2       858        15      1557      1748
 -1       924    3    0    1
 -2       328      1178      1531      1676
 -1       925    3    0    1
 -2        10        12         4       857
 -1       926    3    0    1
 -2      1628      1591      1646      1763
 -1       927    3    0    1
 -2       444       422       834      1851
 -1       928    3    0    1
 -2      1556       420      1582      1745
 -1       929    3    0    1
 -2       514       732       520       509
 -1       930    3    0    1
 -2       140       999       350       135
 -1       931    3    0    1
 -2       619      1126       628       627
 -1       932    3    0    1
 -2       336      1849      1933      1967
 -1       933    3    0    1
 -2       497       946       728       947
 -1       934    3    0    1
 -2        13       864         6       856
 -1       935    3    0    1
 -2      1215       693       837      1695
 -1       936    3    0    1
 -2       410       289       799      1758
 -1       937    3    0    1
 -2       592       603      1072      2008
 -1       938    3    0    1
 -2       455       859      1938      1973
 -1       939    3    0    1
 -2        20       877        24       416
 -1       940    3    0    1
 -2       580      1780      1967      1813
 -1       941    3    0    1
 -2      1525       455      1938      1973
 -1       942    3    0    1
 -2       245       241       248       779
 -1       943    3    0    1
 -2      1686      1529      1704      1806
 -1       944    3    0    1
 -2       935       402      1737      1775
 -1       945    3    0    1
 -2      1772       483       903       484
 -1       946    3    0    1
 -2       624       617       625       785
 -1       947    3    0    1
 -2      1759      1921      2073      2492
 -1       948    3    0    1
 -2       629       637       636       791
 -1       949    3    0    1
 -2       584      1066       590       587
 -1       950    3    0    1
 -2       858        15      1748      1774
 -1       951    3    0    1
 -2      1488      2651      2741      2451
 -1       952    3    0    1
 -2       265       263      1129      2177
 -1       953    3    0    1
 -2       382       899       438        43
 -1       954    3    0    1
 -2      1179      1533      1618      1661
 -1       955    3    0    1
 -2       100       961       960       354
 -1       956    3    0    1
 -2       636      1810      2103      2224
 -1       957    3    0    1
 -2        46       903      1772      1795
 -1       958    3    0    1
 -2      1111       245       777      2174
 -1       959    3    0    1
 -2       331      1661      1179       319
 -1       960    3    0    1
 -2      1605      1544      1842      1881
 -1       961    3    0    1
 -2       360      2084       195      1974
 -1       962    3    0    1
 -2      1528      1162      1916      1930
 -1       963    3    0    1
 -2      1569      1581      1680      1682
 -1       964    3    0    1
 -2      1086      1105      2484      1237
 -1       965    3    0    1
 -2       742       140       992       993
 -1       966    3    0    1
 -2      1097       243      1098      1106
 -1       967    3    0    1
 -2      1770      1560      1835      1868
 -1       968    3    0    1
 -2      1816      1543      1864      1951
 -1       969    3    0    1
 -2       267      1126       255       270
 -1       970    3    0    1
 -2       713      2225      2237      2287
 -1       971    3    0    1
 -2       243       244       235      1097
 -1       972    3    0    1
 -2       607      1106       614       606
 -1       973    3    0    1
 -2      1612      1523      1710      1858
 -1       974    3    0    1
 -2        46       895       901      1619
 -1       975    3    0    1
 -2      1599       433      1756      1874
 -1       976    3    0    1
 -2      1609      1583      1717      1736
 -1       977    3    0    1
 -2       920      2475      1219      2550
 -1       978    3    0    1
 -2      2012       966      2124      2515
 -1       979    3    0    1
 -2       593      1082      1076       773
 -1       980    3    0    1
 -2      1725      2126      2516      2604
 -1       981    3    0    1
 -2       451       459       711       865
 -1       982    3    0    1
 -2      1121       624      2007      2127
 -1       983    3    0    1
 -2       365      1780      1923      1976
 -1       984    3    0    1
 -2       614      1107      1608      1928
 -1       985    3    0    1
 -2       630       791       637       629
 -1       986    3    0    1
 -2       171      1031       339       170
 -1       987    3    0    1
 -2       158       149       148       748
 -1       988    3    0    1
 -2      1569      1198      1711       832
 -1       989    3    0    1
 -2       849      1559      1669      1695
 -1       990    3    0    1
 -2      1129       263      2031      2177
 -1       991    3    0    1
 -2      1678      1568      1852      1988
 -1       992    3    0    1
 -2      1109       616      1128      2013
 -1       993    3    0    1
 -2       428      1615      1648      1905
 -1       994    3    0    1
 -2       142      1699      2059      2080
 -1       995    3    0    1
 -2      1673       981      1759      1845
 -1       996    3    0    1
 -2        33      1812      2480      2134
 -1       997    3    0    1
 -2       603       604       773      1856
 -1       998    3    0    1
 -2       691      1213       701      1992
 -1       999    3    0    1
 -2       513       963       954       512
 -1      1000    3    0    1
 -2       693       837      1695      1979
 -1      1001    3    0    1
 -2       819       817      1661      1714
 -1      1002    3    0    1
 -2      1558      1597      1744      1851
 -1      1003    3    0    1
 -2       547      1022      1010       748
 -1      1004    3    0    1
 -2      1581      1814      1852      1964
 -1      1005    3    0    1
 -2       470       881      1557      1733
 -1      1006    3    0    1
 -2      1692       472      1795      1829
 -1      1007    3    0    1
 -2      1201       687      1200      1591
 -1      1008    3    0    1
 -2       899       438      1564      1838
 -1      1009    3    0    1
 -2       677      1190       678      1741
 -1      1010    3    0    1
 -2       615      1914      2013      2035
 -1      1011    3    0    1
 -2      1156      1157      1875      1929
 -1      1012    3    0    1
 -2       255      1122       261       785
 -1      1013    3    0    1
 -2       474       895       473       889
 -1      1014    3    0    1
 -2       147       159       324      1014
 -1      1015    3    0    1
 -2      2199      1280      1347      2690
 -1      1016    3    0    1
 -2       657      1170       803      1818
 -1      1017    3    0    1
 -2       596      1085       772      1089
 -1      1018    3    0    1
 -2       302      1186      1185      2002
 -1      1019    3    0    1
 -2       902        43       382       905
 -1      1020    3    0    1
 -2       462       876       467       461
 -1      1021    3    0    1
 -2      2189      2179      1269      2538
 -1      1022    3    0    1
 -2      1604       556      1698      1912
 -1      1023    3    0    1
 -2      1269      2550      2604      2651
 -1      1024    3    0    1
 -2      1563      1925      1953      2002
 -1      1025    3    0    1
 -2       367       369      1935      2114
 -1      1026    3    0    1
 -2      2611      2595      2676      2696
 -1      1027    3    0    1
 -2       405       946       965      1589
 -1      1028    3    0    1
 -2       946       497       507       947
 -1      1029    3    0    1
 -2       512       964       957       518
 -1      1030    3    0    1
 -2      1632       812      1715      1946
 -1      1031    3    0    1
 -2       497       945       507       948
 -1      1032    3    0    1
 -2       331       319       817      1661
 -1      1033    3    0    1
 -2       858       455      1525      1557
 -1      1034    3    0    1
 -2      1107      1096       607      1101
 -1      1035    3    0    1
 -2      2051      1069      2493      2525
 -1      1036    3    0    1
 -2       534      1002       996       539
 -1      1037    3    0    1
 -2      1524       977      1902      1970
 -1      1038    3    0    1
 -2       862      1924      2074      2503
 -1      1039    3    0    1
 -2       409      1752      1853      1970
 -1      1040    3    0    1
 -2       395      1819      1895      1959
 -1      1041    3    0    1
 -2       167       174       337      1036
 -1      1042    3    0    1
 -2         6         3       711       852
 -1      1043    3    0    1
 -2      1594      1701      1958      1871
 -1      1044    3    0    1
 -2       579       568      1877      1933
 -1      1045    3    0    1
 -2      1372      1363      2673      2678
 -1      1046    3    0    1
 -2       476       902       484       475
 -1      1047    3    0    1
 -2      2586      2523      2682      2683
 -1      1048    3    0    1
 -2      1551      1547      1946      2018
 -1      1049    3    0    1
 -2       607      1101      1096       606
 -1      1050    3    0    1
 -2      1894      1083      1993      2113
 -1      1051    3    0    1
 -2        78       936       931       930
 -1      1052    3    0    1
 -2       517       504       962      2512
 -1      1053    3    0    1
 -2      1663      1531      1720      1782
 -1      1054    3    0    1
 -2      1812      2048      2480      2134
 -1      1055    3    0    1
 -2       820       673      1701      1871
 -1      1056    3    0    1
 -2       607      1106       606      1098
 -1      1057    3    0    1
 -2       563      1652      1754      1883
 -1      1058    3    0    1
 -2       101       964       406       346
 -1      1059    3    0    1
 -2       712       459       866      1749
 -1      1060    3    0    1
 -2      1002       539       542      1975
 -1      1061    3    0    1
 -2        44       721       890       896
 -1      1062    3    0    1
 -2      2259      1231      2268      2643
 -1      1063    3    0    1
 -2        24      1532      1710      1750
 -1      1064    3    0    1
 -2      1594      1532      1607      1708
 -1      1065    3    0    1
 -2        69       926       723        62
 -1      1066    3    0    1
 -2       485       923       723       908
 -1      1067    3    0    1
 -2      2010      1128      2043      2046
 -1      1068    3    0    1
 -2      1070      1066      1522      1885
 -1      1069    3    0    1
 -2      1621       137      1742      2004
 -1      1070    3    0    1
 -2       487       922       915       491
 -1      1071    3    0    1
 -2       158      1830      2055      2135
 -1      1072    3    0    1
 -2       194       763      1055      1579
 -1      1073    3    0    1
 -2       376      1969      2066      2118
 -1      1074    3    0    1
 -2        55       903       398        42
 -1      1075    3    0    1
 -2      1804      1143      1840      2021
 -1      1076    3    0    1
 -2       961       960       354      1949
 -1      1077    3    0    1
 -2        66       921       910        65
 -1      1078    3    0    1
 -2      1567       850      1677      1762
 -1      1079    3    0    1
 -2      1623       363      1724      2006
 -1      1080    3    0    1
 -2      2126      2178      2557      2604
 -1      1081    3    0    1
 -2      1066      1070      1757      1885
 -1      1082    3    0    1
 -2      1529      1686      1720      1811
 -1      1083    3    0    1
 -2      1102       243      1097      1106
 -1      1084    3    0    1
 -2       151       161       747      1012
 -1      1085    3    0    1
 -2       692       702       848      1629
 -1      1086    3    0    1
 -2      1067      1088      2476      1220
 -1      1087    3    0    1
 -2        79        83       945       948
 -1      1088    3    0    1
 -2      1882      1648      1904      1905
 -1      1089    3    0    1
 -2      1922      1047       578       575
 -1      1090    3    0    1
 -2      1539        44      1767      1828
 -1      1091    3    0    1
 -2       517       516       510       960
 -1      1092    3    0    1
 -2      1865      1633      1869      1873
 -1      1093    3    0    1
 -2        53       411       901      1619
 -1      1094    3    0    1
 -2       293      1549      1643      1751
 -1      1095    3    0    1
 -2        44        48        45       887
 -1      1096    3    0    1
 -2      2276      1322      2650      2374
 -1      1097    3    0    1
 -2      1258      2571      1340      1341
 -1      1098    3    0    1
 -2       504       940       505      1987
 -1      1099    3    0    1
 -2        25       877        20       416
 -1      1100    3    0    1
 -2       475       904       903       886
 -1      1101    3    0    1
 -2        32        26       718       873
 -1      1102    3    0    1
 -2       418       847      1556      1658
 -1      1103    3    0    1
 -2       981       113       121       986
 -1      1104    3    0    1
 -2       924        67      1622      1926
 -1      1105    3    0    1
 -2      1575      1744      1572      1867
 -1      1106    3    0    1
 -2       736       113       121       979
 -1      1107    3    0    1
 -2      1594       412      1701      1871
 -1      1108    3    0    1
 -2       491       916      1717      2000
 -1      1109    3    0    1
 -2      1693       898      1838      2105
 -1      1110    3    0    1
 -2      1020       335      1696      1738
 -1      1111    3    0    1
 -2      1885      1678      1923      1988
 -1      1112    3    0    1
 -2      1166       293      1167      1684
 -1      1113    3    0    1
 -2       260      1120       425       259
 -1      1114    3    0    1
 -2       534       996       989       990
 -1      1115    3    0    1
 -2      1189       677      1707      1741
 -1      1116    3    0    1
 -2      1556      1188      1658      1741
 -1      1117    3    0    1
 -2       420      1138      1534      1876
 -1      1118    3    0    1
 -2        42       411        46       901
 -1      1119    3    0    1
 -2       593       598       604       774
 -1      1120    3    0    1
 -2      1658      1805      1574      1992
 -1      1121    3    0    1
 -2      2627      1462      2701      2732
 -1      1122    3    0    1
 -2      1158       647       648      1718
 -1      1123    3    0    1
 -2      1562      1624      1783      1825
 -1      1124    3    0    1
 -2      1615       428      1648      1904
 -1      1125    3    0    1
 -2      1632      1613      1730      1945
 -1      1126    3    0    1
 -2       901        53      1619      1822
 -1      1127    3    0    1
 -2       459       866      1749      2067
 -1      1128    3    0    1
 -2       425       264      1120      1755
 -1      1129    3    0    1
 -2      1816      1174      1842      1864
 -1      1130    3    0    1
 -2       381       382      1838      2504
 -1      1131    3    0    1
 -2       411        42        46       904
 -1      1132    3    0    1
 -2        79       933        83       939
 -1      1133    3    0    1
 -2        83       940        79       939
 -1      1134    3    0    1
 -2       359       767      2084      2153
 -1      1135    3    0    1
 -2       468       465       469       879
 -1      1136    3    0    1
 -2       415      1721      1878      1973
 -1      1137    3    0    1
 -2      1230      2543      1325      2645
 -1      1138    3    0    1
 -2      1525      1557      1733      1748
 -1      1139    3    0    1
 -2      1107       239      1101       240
 -1      1140    3    0    1
 -2      1515      1468      2757      2762
 -1      1141    3    0    1
 -2        29       716       714        26
 -1      1142    3    0    1
 -2       159       147       324       747
 -1      1143    3    0    1
 -2       332       982       977      1524
 -1      1144    3    0    1
 -2        26        29        30       718
 -1      1145    3    0    1
 -2      1184       673       674      1701
 -1      1146    3    0    1
 -2      2097      2503      2183      2713
 -1      1147    3    0    1
 -2      2084      1050       767      1807
 -1      1148    3    0    1
 -2       241       245       248      2176
 -1      1149    3    0    1
 -2      2549      1226      1335      2621
 -1      1150    3    0    1
 -2       773       221      1076      1091
 -1      1151    3    0    1
 -2      1892      1538      1998      2014
 -1      1152    3    0    1
 -2      1541      1634      1743      1819
 -1      1153    3    0    1
 -2      1030      1652      1724      1855
 -1      1154    3    0    1
 -2      1160       650      1551      1946
 -1      1155    3    0    1
 -2       689      1204       690      1665
 -1      1156    3    0    1
 -2       580       579      1579      1967
 -1      1157    3    0    1
 -2       593      1082       773       598
 -1      1158    3    0    1
 -2       245       247       241       776
 -1      1159    3    0    1
 -2      1522      1066      1757      1885
 -1      1160    3    0    1
 -2       692      1207      1597      1629
 -1      1161    3    0    1
 -2       618       785       625       617
 -1      1162    3    0    1
 -2       999       740      1723      1787
 -1      1163    3    0    1
 -2       272       273       377      1145
 -1      1164    3    0    1
 -2       174       337      1724      1855
 -1      1165    3    0    1
 -2      2565      1260      1359      2637
 -1      1166    3    0    1
 -2       651      1165      1162      1590
 -1      1167    3    0    1
 -2       645      1154       646      1981
 -1      1168    3    0    1
 -2      1559      1603      1669      1672
 -1      1169    3    0    1
 -2      1279      2082      2556      2737
 -1      1170    3    0    1
 -2       204      1071       342      1065
 -1      1171    3    0    1
 -2       917       941      2486      1243
 -1      1172    3    0    1
 -2      1696       554      1697      1802
 -1      1173    3    0    1
 -2       188       187       761      1044
 -1      1174    3    0    1
 -2       356       128      1673      2494
 -1      1175    3    0    1
 -2      2220      2230      2236      2712
 -1      1176    3    0    1
 -2       882       876       470      1593
 -1      1177    3    0    1
 -2      2565      2526      2600      2631
 -1      1178    3    0    1
 -2       586      1073      1072      1057
 -1      1179    3    0    1
 -2       878       880       468      2287
 -1      1180    3    0    1
 -2       848      1207      1629      1851
 -1      1181    3    0    1
 -2        42       895       888       901
 -1      1182    3    0    1
 -2       101       965       406        99
 -1      1183    3    0    1
 -2       490       926       723       485
 -1      1184    3    0    1
 -2       374       940      2116      2167
 -1      1185    3    0    1
 -2         8       855         9         7
 -1      1186    3    0    1
 -2       499       936       503       498
 -1      1187    3    0    1
 -2        35        19       717       883
 -1      1188    3    0    1
 -2      1128       627      2043      2046
 -1      1189    3    0    1
 -2       464       463       717       874
 -1      1190    3    0    1
 -2      1019      1015       321      1802
 -1      1191    3    0    1
 -2      2526      2631      2634      2700
 -1      1192    3    0    1
 -2       480       899       481      1693
 -1      1193    3    0    1
 -2      1683      1649      1754      1850
 -1      1194    3    0    1
 -2         7      1607      1721      1973
 -1      1195    3    0    1
 -2       120       981       121       114
 -1      1196    3    0    1
 -2      1119       426      1527      2010
 -1      1197    3    0    1
 -2      2522      1103      1283      2570
 -1      1198    3    0    1
 -2       797      1161      1778      1879
 -1      1199    3    0    1
 -2       416      1532      1549      1708
 -1      1200    3    0    1
 -2      1363      1372      2673      2415
 -1      1201    3    0    1
 -2      1686       340      1806      1860
 -1      1202    3    0    1
 -2      2579      2668      2386      1510
 -1      1203    3    0    1
 -2       471       460       712      1596
 -1      1204    3    0    1
 -2      1649      1601      1754      1850
 -1      1205    3    0    1
 -2       426      1127      1527      2010
 -1      1206    3    0    1
 -2      1753      1548      1945      1955
 -1      1207    3    0    1
 -2      1696       159      1912      2079
 -1      1208    3    0    1
 -2      1641      1742      1906      2004
 -1      1209    3    0    1
 -2       406       405      1934      2045
 -1      1210    3    0    1
 -2      1577      1566      1981      1983
 -1      1211    3    0    1
 -2      1613      1730      2005      2038
 -1      1212    3    0    1
 -2      2594      1437      2364      1496
 -1      1213    3    0    1
 -2       858         6        14       864
 -1      1214    3    0    1
 -2      1663      1540      1713      1782
 -1      1215    3    0    1
 -2        19       882        35        38
 -1      1216    3    0    1
 -2       959       962      1760      2489
 -1      1217    3    0    1
 -2      2235      1304      2238      2243
 -1      1218    3    0    1
 -2        52       902        43       382
 -1      1219    3    0    1
 -2        78       728       946       947
 -1      1220    3    0    1
 -2      1538      1644      1892      2143
 -1      1221    3    0    1
 -2       366       221       230      1091
 -1      1222    3    0    1
 -2       457       456      2102      2505
 -1      1223    3    0    1
 -2      1531      1782      1865      1873
 -1      1224    3    0    1
 -2       736       528       979      1890
 -1      1225    3    0    1
 -2       792       865      2011      2032
 -1      1226    3    0    1
 -2       650       649      1551      1879
 -1      1227    3    0    1
 -2      2658      1389      1473      2708
 -1      1228    3    0    1
 -2       355      1481      2714      2745
 -1      1229    3    0    1
 -2      1620      1756      1777      1815
 -1      1230    3    0    1
 -2       763      1579      1974      2507
 -1      1231    3    0    1
 -2       402      1737      1775      1881
 -1      1232    3    0    1
 -2      1074       215       359      2507
 -1      1233    3    0    1
 -2       643      1149      1706      1798
 -1      1234    3    0    1
 -2       436        31       884      2477
 -1      1235    3    0    1
 -2      1106      1610      1773      1793
 -1      1236    3    0    1
 -2       622      1124       626       621
 -1      1237    3    0    1
 -2      1935       961      1982      2114
 -1      1238    3    0    1
 -2       982       977      1524      1970
 -1      1239    3    0    1
 -2      1490       437      1493      2437
 -1      1240    3    0    1
 -2       580       591      1780      1813
 -1      1241    3    0    1
 -2       412      1555      1594      1701
 -1      1242    3    0    1
 -2        67        71       925      1622
 -1      1243    3    0    1
 -2      1543      1609      1816      1862
 -1      1244    3    0    1
 -2       918      1957      2116      2167
 -1      1245    3    0    1
 -2      1035       566      1623      1627
 -1      1246    3    0    1
 -2      1908       880      2495      2505
 -1      1247    3    0    1
 -2      2069      1998      2140      2141
 -1      1248    3    0    1
 -2      1188      1191      1658      1741
 -1      1249    3    0    1
 -2      1772       495       902       484
 -1      1250    3    0    1
 -2       416      1532      1607      1733
 -1      1251    3    0    1
 -2       473       890       887       721
 -1      1252    3    0    1
 -2      2181      2192      2542      2300
 -1      1253    3    0    1
 -2       923       948      1834      2498
 -1      1254    3    0    1
 -2      1172      1544      1842      1864
 -1      1255    3    0    1
 -2      1656       158      2055      2135
 -1      1256    3    0    1
 -2       103       964       955       101
 -1      1257    3    0    1
 -2       139       341      2061      2073
 -1      1258    3    0    1
 -2      1591       687      1763      1784
 -1      1259    3    0    1
 -2      1016      1018      2261      2643
 -1      1260    3    0    1
 -2       258      1119       783       256
 -1      1261    3    0    1
 -2      2078      2096      2551      2554
 -1      1262    3    0    1
 -2       139       740       999      1787
 -1      1263    3    0    1
 -2        26        30        33       718
 -1      1264    3    0    1
 -2      1375      1376      2645      2652
 -1      1265    3    0    1
 -2       363      1036      1623      1724
 -1      1266    3    0    1
 -2      1586      1770      1788      1868
 -1      1267    3    0    1
 -2      1526       340      1686      1860
 -1      1268    3    0    1
 -2       560       559       567      2154
 -1      1269    3    0    1
 -2      1292      2529      2661      2690
 -1      1270    3    0    1
 -2      1817       194      2159      2186
 -1      1271    3    0    1
 -2        38        37       876      1824
 -1      1272    3    0    1
 -2       293       800      1169      1549
 -1      1273    3    0    1
 -2       391      1127      1144      1527
 -1      1274    3    0    1
 -2       638       633       635      1143
 -1      1275    3    0    1
 -2       551      1019       554      1836
 -1      1276    3    0    1
 -2       861       857       456      1810
 -1      1277    3    0    1
 -2       431       213      1072      1660
 -1      1278    3    0    1
 -2       536      1003       987       535
 -1      1279    3    0    1
 -2        95        78       928       946
 -1      1280    3    0    1
 -2      1484      1477      2428      2429
 -1      1281    3    0    1
 -2      1205       833      1665      1931
 -1      1282    3    0    1
 -2      1742      1691      2004       137
 -1      1283    3    0    1
 -2       583       767       589       582
 -1      1284    3    0    1
 -2       295       400      1171      1816
 -1      1285    3    0    1
 -2       472       483       904      1795
 -1      1286    3    0    1
 -2       984       117       985      1936
 -1      1287    3    0    1
 -2      1614      1148      1828      1857
 -1      1288    3    0    1
 -2      1204       328      1531      1570
 -1      1289    3    0    1
 -2        15       711      1748      1774
 -1      1290    3    0    1
 -2      2218      1303      2258      2260
 -1      1291    3    0    1
 -2       586      1072      1064      1057
 -1      1292    3    0    1
 -2       793       640      1145      1739
 -1      1293    3    0    1
 -2       506       935      1667      1775
 -1      1294    3    0    1
 -2        52       902       382        51
 -1      1295    3    0    1
 -2       356       121       986      1673
 -1      1296    3    0    1
 -2       667       813       668      1945
 -1      1297    3    0    1
 -2      2640      2288      2666      2379
 -1      1298    3    0    1
 -2      2573      1297      1312      2722
 -1      1299    3    0    1
 -2       502       947       507       497
 -1      1300    3    0    1
 -2       877       881      1593      1948
 -1      1301    3    0    1
 -2      1786       359      2108      2507
 -1      1302    3    0    1
 -2      1572      1558      1597      1744
 -1      1303    3    0    1
 -2      2562      1256      2649      2761
 -1      1304    3    0    1
 -2      1570      1531      1663      1782
 -1      1305    3    0    1
 -2      1546      1643      1750      1943
 -1      1306    3    0    1
 -2       360       195       183       763
 -1      1307    3    0    1
 -2      1248      2495      2584      2633
 -1      1308    3    0    1
 -2       288       794      1148      1929
 -1      1309    3    0    1
 -2       595      1083       594       770
 -1      1310    3    0    1
 -2      1743      1539      1767      1828
 -1      1311    3    0    1
 -2       694      1677      1762      1837
 -1      1312    3    0    1
 -2      1165      1162      1528      1930
 -1      1313    3    0    1
 -2        69       926        62       373
 -1      1314    3    0    1
 -2       773       230      1091      1997
 -1      1315    3    0    1
 -2       466       879       465       468
 -1      1316    3    0    1
 -2      2082      2151      2528      2209
 -1      1317    3    0    1
 -2      1655       828      1771      1915
 -1      1318    3    0    1
 -2      1646      1806      1573      1537
 -1      1319    3    0    1
 -2       365       189      1967      1976
 -1      1320    3    0    1
 -2       342       214      1073      1917
 -1      1321    3    0    1
 -2      1533      1661      1714      1752
 -1      1322    3    0    1
 -2      1074       203       768       208
 -1      1323    3    0    1
 -2       471       883      1596      1861
 -1      1324    3    0    1
 -2      1540      1663      1686      1720
 -1      1325    3    0    1
 -2       517      1760      1949      1982
 -1      1326    3    0    1
 -2       860       862      1924      2505
 -1      1327    3    0    1
 -2      2543      1230      1325      2642
 -1      1328    3    0    1
 -2      1021       741      1911      1991
 -1      1329    3    0    1
 -2       804       802      1637      1803
 -1      1330    3    0    1
 -2       464       463       472       717
 -1      1331    3    0    1
 -2       264      1586      1788      1868
 -1      1332    3    0    1
 -2       663      1177       664      1606
 -1      1333    3    0    1
 -2      2556      1279      1339      2228
 -1      1334    3    0    1
 -2      1349      1338      1365      2303
 -1      1335    3    0    1
 -2      1964      1820      1977      1988
 -1      1336    3    0    1
 -2      2072      2551      2556      2601
 -1      1337    3    0    1
 -2       428       433      1089      1615
 -1      1338    3    0    1
 -2      2195      2189      2566      1293
 -1      1339    3    0    1
 -2       895      1619      1797      1826
 -1      1340    3    0    1
 -2      1664       602      1874      1900
 -1      1341    3    0    1
 -2      1689      1621      1854      2004
 -1      1342    3    0    1
 -2       557      1033       565       564
 -1      1343    3    0    1
 -2       471       472      1692      1861
 -1      1344    3    0    1
 -2       468      1709      2058      2519
 -1      1345    3    0    1
 -2       582      1068       767       588
 -1      1346    3    0    1
 -2       450       857       457       449
 -1      1347    3    0    1
 -2       454       863       458       453
 -1      1348    3    0    1
 -2       884        29       718        30
 -1      1349    3    0    1
 -2         7       710       859       863
 -1      1350    3    0    1
 -2       876       467      1722      1822
 -1      1351    3    0    1
 -2        21       882       869        19
 -1      1352    3    0    1
 -2        25       881       877       416
 -1      1353    3    0    1
 -2       831       683       829      1687
 -1      1354    3    0    1
 -2       896       479      1797      1826
 -1      1355    3    0    1
 -2       297      1204      1203      1570
 -1      1356    3    0    1
 -2       514       731       729       509
 -1      1357    3    0    1
 -2      1565      1882      1888      1899
 -1      1358    3    0    1
 -2      1140       636      1810      2103
 -1      1359    3    0    1
 -2       644       643      1706      1798
 -1      1360    3    0    1
 -2      2522      2065      2564      2739
 -1      1361    3    0    1
 -2       327      1208       846      1591
 -1      1362    3    0    1
 -2       614       611      1106      1608
 -1      1363    3    0    1
 -2       427      1942      2017      2117
 -1      1364    3    0    1
 -2      1532      1549      1708      1751
 -1      1365    3    0    1
 -2       288      1148      1828      1929
 -1      1366    3    0    1
 -2       474       895       479       473
 -1      1367    3    0    1
 -2      1017      1794      2101      2135
 -1      1368    3    0    1
 -2       160      1021      1005       147
 -1      1369    3    0    1
 -2         6       853       711       865
 -1      1370    3    0    1
 -2       472       471       718      1861
 -1      1371    3    0    1
 -2       503       942       506       498
 -1      1372    3    0    1
 -2       387       392       793      2513
 -1      1373    3    0    1
 -2      1853      1636      1995      2005
 -1      1374    3    0    1
 -2       143       330       136      1003
 -1      1375    3    0    1
 -2       942       936      1761      1884
 -1      1376    3    0    1
 -2       742       544      1699      1911
 -1      1377    3    0    1
 -2       144       143       987       994
 -1      1378    3    0    1
 -2       345       755      1652      1855
 -1      1379    3    0    1
 -2      1627      1623      1836      2006
 -1      1380    3    0    1
 -2       938       962      2479      1225
 -1      1381    3    0    1
 -2      2047      2179      2516      2557
 -1      1382    3    0    1
 -2       346       406       731      1934
 -1      1383    3    0    1
 -2      2538      1262      2563      2623
 -1      1384    3    0    1
 -2      1586      1728      1788      1832
 -1      1385    3    0    1
 -2      1173       659      1172      1842
 -1      1386    3    0    1
 -2       524       984       974       523
 -1      1387    3    0    1
 -2       946        92       947      1937
 -1      1388    3    0    1
 -2       729       965       101       950
 -1      1389    3    0    1
 -2       102       732       100       110
 -1      1390    3    0    1
 -2       513       963       958       954
 -1      1391    3    0    1
 -2      1317      2606      2318      2319
 -1      1392    3    0    1
 -2       380       240      1942      2017
 -1      1393    3    0    1
 -2       296      1530      1639      1666
 -1      1394    3    0    1
 -2      1556      1582      1585      1745
 -1      1395    3    0    1
 -2      1121      1141      2053      2546
 -1      1396    3    0    1
 -2       877       467      1576      1858
 -1      1397    3    0    1
 -2       147       151       324       747
 -1      1398    3    0    1
 -2       221       232       773      1082
 -1      1399    3    0    1
 -2      1525       858      1774      1938
 -1      1400    3    0    1
 -2       554      1697      1738      1985
 -1      1401    3    0    1
 -2       818      1753       672      1183
 -1      1402    3    0    1
 -2      1555      1594      1607      1708
 -1      1403    3    0    1
 -2      1537       339      1628      1646
 -1      1404    3    0    1
 -2      2570      2531      2581      2613
 -1      1405    3    0    1
 -2       543       544      1554      1921
 -1      1406    3    0    1
 -2        38        35       717      1692
 -1      1407    3    0    1
 -2      1085       428      1089      1615
 -1      1408    3    0    1
 -2       804      1818       658      1803
 -1      1409    3    0    1
 -2       499       937       498       503
 -1      1410    3    0    1
 -2       895       398      1797      1827
 -1      1411    3    0    1
 -2       455       858      1525      1938
 -1      1412    3    0    1
 -2       634      1142       638      1138
 -1      1413    3    0    1
 -2       632      1145      1134       631
 -1      1414    3    0    1
 -2      1138       634       790      1135
 -1      1415    3    0    1
 -2       849       313       836      1669
 -1      1416    3    0    1
 -2      1541      1634      1818      1857
 -1      1417    3    0    1
 -2       256       258       426      1127
 -1      1418    3    0    1
 -2      2598      1357      2619      2692
 -1      1419    3    0    1
 -2       395      1717      1736      1783
 -1      1420    3    0    1
 -2       276       281       421      1137
 -1      1421    3    0    1
 -2       634      1138       638       633
 -1      1422    3    0    1
 -2       847      1556      1658      1805
 -1      1423    3    0    1
 -2       278      1137       789       276
 -1      1424    3    0    1
 -2      1698      1022      2055      2080
 -1      1425    3    0    1
 -2      1285      2208      2579      2613
 -1      1426    3    0    1
 -2      1085      1615      1897      1904
 -1      1427    3    0    1
 -2      1197       685      1196      1711
 -1      1428    3    0    1
 -2       411        49        42       904
 -1      1429    3    0    1
 -2      1600       192      1682      1683
 -1      1430    3    0    1
 -2       768      1074      1786      1939
 -1      1431    3    0    1
 -2       399       924       947      1735
 -1      1432    3    0    1
 -2      1124      1120      1755      1766
 -1      1433    3    0    1
 -2       923       926       373      1791
 -1      1434    3    0    1
 -2        80       937        77       932
 -1      1435    3    0    1
 -2       673       822       674      1871
 -1      1436    3    0    1
 -2       481       480      1693      2129
 -1      1437    3    0    1
 -2       961       517      1949      1982
 -1      1438    3    0    1
 -2       800      1169      1549      1643
 -1      1439    3    0    1
 -2       157       746      1017      1656
 -1      1440    3    0    1
 -2       505       504      1987      2144
 -1      1441    3    0    1
 -2      1657       404      1966      2037
 -1      1442    3    0    1
 -2      1583        68      1717      1736
 -1      1443    3    0    1
 -2       534       997       533       539
 -1      1444    3    0    1
 -2      2530      2182      2208      2579
 -1      1445    3    0    1
 -2       131      1391      2296      2350
 -1      1446    3    0    1
 -2       298       291      1163      1866
 -1      1447    3    0    1
 -2       459      1932      2032      2067
 -1      1448    3    0    1
 -2      1528      1630      1666      1705
 -1      1449    3    0    1
 -2       455       458       864      1938
 -1      1450    3    0    1
 -2        81       937      1635      1640
 -1      1451    3    0    1
 -2      1588      1542      1637      1716
 -1      1452    3    0    1
 -2      1577       646      1843      1981
 -1      1453    3    0    1
 -2       979      1723      1845      1890
 -1      1454    3    0    1
 -2       698      1776       840       695
 -1      1455    3    0    1
 -2       424       420      1556      1745
 -1      1456    3    0    1
 -2       876       882        38      1824
 -1      1457    3    0    1
 -2       438       899      1564      2480
 -1      1458    3    0    1
 -2       425      1572      1603      1672
 -1      1459    3    0    1
 -2       299       401      1668      1842
 -1      1460    3    0    1
 -2      1124       264      1728      1755
 -1      1461    3    0    1
 -2       224      1087       225       219
 -1      1462    3    0    1
 -2       592       768      2008      2112
 -1      1463    3    0    1
 -2      1224      1223      2500      1249
 -1      1464    3    0    1
 -2      1221      2205      2284      2405
 -1      1465    3    0    1
 -2       922       491       494      2016
 -1      1466    3    0    1
 -2       467       470       876      1593
 -1      1467    3    0    1
 -2        44      1645      1767      1796
 -1      1468    3    0    1
 -2      1589       370      1735      1884
 -1      1469    3    0    1
 -2      1153      1154      1981      2029
 -1      1470    3    0    1
 -2       801       655       799      1626
 -1      1471    3    0    1
 -2       479       895      1797      1826
 -1      1472    3    0    1
 -2      1789       373      1791      2099
 -1      1473    3    0    1
 -2      2204      1268      2239      2254
 -1      1474    3    0    1
 -2       296      1209       845      1694
 -1      1475    3    0    1
 -2       330      1003      1554      2024
 -1      1476    3    0    1
 -2       504       517      1982      2512
 -1      1477    3    0    1
 -2       765      1068       201       767
 -1      1478    3    0    1
 -2      1410      1318      1433      2464
 -1      1479    3    0    1
 -2       805       400      1816      1862
 -1      1480    3    0    1
 -2       976       527      1872      1887
 -1      1481    3    0    1
 -2      1596       884      1861      2477
 -1      1482    3    0    1
 -2      1524      1533      1661      1727
 -1      1483    3    0    1
 -2      1728      1124      1755      1766
 -1      1484    3    0    1
 -2       863         7       415      1973
 -1      1485    3    0    1
 -2        98       369       732       966
 -1      1486    3    0    1
 -2       411        46       901      1619
 -1      1487    3    0    1
 -2      1614      1541      1634      1743
 -1      1488    3    0    1
 -2      2524      2534      2625      2626
 -1      1489    3    0    1
 -2      1624      1562      1797      1825
 -1      1490    3    0    1
 -2      1536      1600      1763      1764
 -1      1491    3    0    1
 -2       354        98       369       732
 -1      1492    3    0    1
 -2        92       370      1589      1884
 -1      1493    3    0    1
 -2       489       919       918       906
 -1      1494    3    0    1
 -2        37      1692      1799      1824
 -1      1495    3    0    1
 -2       591      1073      1813      1917
 -1      1496    3    0    1
 -2      1557       881      1700      1733
 -1      1497    3    0    1
 -2        95       405      1685      2045
 -1      1498    3    0    1
 -2      1604       323      1912      2006
 -1      1499    3    0    1
 -2      1634      1614      1828      1857
 -1      1500    3    0    1
 -2       746      1656      1787      2106
 -1      1501    3    0    1
 -2       850       838      1677      1762
 -1      1502    3    0    1
 -2       612       625      2123      2541
 -1      1503    3    0    1
 -2       740       979      1723      2131
 -1      1504    3    0    1
 -2       565      1794      2094       754
 -1      1505    3    0    1
 -2       341       139      2061      2131
 -1      1506    3    0    1
 -2       347      1730      1995      2005
 -1      1507    3    0    1
 -2       711      1596      1748      1774
 -1      1508    3    0    1
 -2      1577      1153      1981      2029
 -1      1509    3    0    1
 -2       425      1120      1572      1755
 -1      1510    3    0    1
 -2       183       190       763      1041
 -1      1511    3    0    1
 -2       941       504       938      2219
 -1      1512    3    0    1
 -2       289      1158      1681      1758
 -1      1513    3    0    1
 -2      2717      2277      2456      2635
 -1      1514    3    0    1
 -2       366       430       229      1091
 -1      1515    3    0    1
 -2       736       121       356      1845
 -1      1516    3    0    1
 -2       716        30      1690      1812
 -1      1517    3    0    1
 -2       826       679       824      1642
 -1      1518    3    0    1
 -2       533      1001       997       988
 -1      1519    3    0    1
 -2       117       129      1847      1971
 -1      1520    3    0    1
 -2       696       700       846      1598
 -1      1521    3    0    1
 -2       899       481      1693      1709
 -1      1522    3    0    1
 -2      1650       815      1668      1962
 -1      1523    3    0    1
 -2      1642      1563      1726      1925
 -1      1524    3    0    1
 -2      1628      1591      1763      1784
 -1      1525    3    0    1
 -2      1037       567       755      1747
 -1      1526    3    0    1
 -2       170      1035      1031       340
 -1      1527    3    0    1
 -2      2093      2088      2523      2682
 -1      1528    3    0    1
 -2       472       718      1829      1861
 -1      1529    3    0    1
 -2      1602      1630      1869      1873
 -1      1530    3    0    1
 -2        92       936       942      1884
 -1      1531    3    0    1
 -2       300       821      1184      1941
 -1      1532    3    0    1
 -2        46      1619      1772      1827
 -1      1533    3    0    1
 -2      1806      1646      1573      1860
 -1      1534    3    0    1
 -2      1555      1607      1700      1708
 -1      1535    3    0    1
 -2        95      1685      2042      2045
 -1      1536    3    0    1
 -2      2163      1315      2614      2271
 -1      1537    3    0    1
 -2       525       736       528       979
 -1      1538    3    0    1
 -2      1621      1535      1641      1742
 -1      1539    3    0    1
 -2      1559       425      1603      1672
 -1      1540    3    0    1
 -2       891        43       902       905
 -1      1541    3    0    1
 -2       701      1213      1805      1992
 -1      1542    3    0    1
 -2       239      1107       236       240
 -1      1543    3    0    1
 -2       884       718       471      1861
 -1      1544    3    0    1
 -2      1479      1415      1488      2741
 -1      1545    3    0    1
 -2      1152       643       644      1798
 -1      1546    3    0    1
 -2       264       259       425      1120
 -1      1547    3    0    1
 -2      1659      1663      1665      1720
 -1      1548    3    0    1
 -2      2520      2145      2524      2534
 -1      1549    3    0    1
 -2      1969       377      2066      2103
 -1      1550    3    0    1
 -2      1202       687       688      1784
 -1      1551    3    0    1
 -2      2065      2487      2171      2572
 -1      1552    3    0    1
 -2       413      1166      1549      1684
 -1      1553    3    0    1
 -2      2285      2282      2325      2744
 -1      1554    3    0    1
 -2      2085      1908      2495      2505
 -1      1555    3    0    1
 -2      1019       321      1602      1697
 -1      1556    3    0    1
 -2      1529      1659      1665      1720
 -1      1557    3    0    1
 -2       540       541       998      2497
 -1      1558    3    0    1
 -2      1198      1569      1711      1680
 -1      1559    3    0    1
 -2       332       977      1854      1902
 -1      1560    3    0    1
 -2      1140       787       629       791
 -1      1561    3    0    1
 -2       632      1145       631       639
 -1      1562    3    0    1
 -2       284       792       865      1731
 -1      1563    3    0    1
 -2      1692       883      1861      1896
 -1      1564    3    0    1
 -2      1212       446       447      1931
 -1      1565    3    0    1
 -2      1586      1616      1728      1832
 -1      1566    3    0    1
 -2       337      1030      1724      1855
 -1      1567    3    0    1
 -2      1567      1762      1820      1977
 -1      1568    3    0    1
 -2       667       668      1715      1945
 -1      1569    3    0    1
 -2      1637      1175      1947      1996
 -1      1570    3    0    1
 -2       879        33      1812      2480
 -1      1571    3    0    1
 -2      1025       165      1222      2154
 -1      1572    3    0    1
 -2      1580      1545      1650      1740
 -1      1573    3    0    1
 -2      1563      1610      1726      1904
 -1      1574    3    0    1
 -2       262       785       255       263
 -1      1575    3    0    1
 -2       265      1129      2041      2177
 -1      1576    3    0    1
 -2       665      1179      1618      1688
 -1      1577    3    0    1
 -2      1633      1713      1782      1865
 -1      1578    3    0    1
 -2       157       746      1656      2130
 -1      1579    3    0    1
 -2       609      1104       779       613
 -1      1580    3    0    1
 -2      1124      1120       264      1755
 -1      1581    3    0    1
 -2       245       248      1108      1914
 -1      1582    3    0    1
 -2       616       615      1914      2013
 -1      1583    3    0    1
 -2       653      1166      1684      1702
 -1      1584    3    0    1
 -2       672      1714       818       671
 -1      1585    3    0    1
 -2       162       364      2499      2162
 -1      1586    3    0    1
 -2      1872      1887      1903      1971
 -1      1587    3    0    1
 -2      1776       698       840      1848
 -1      1588    3    0    1
 -2      1610      1726      1773      1793
 -1      1589    3    0    1
 -2       578      1052      1649      1683
 -1      1590    3    0    1
 -2       640       631       639      1144
 -1      1591    3    0    1
 -2       451       712       459       866
 -1      1592    3    0    1
 -2      1001      1621      1689      2004
 -1      1593    3    0    1
 -2      1004       543      1759      1921
 -1      1594    3    0    1
 -2      1852      1568      1964      1988
 -1      1595    3    0    1
 -2       900       480       481      2129
 -1      1596    3    0    1
 -2      2601      1231      2643      2679
 -1      1597    3    0    1
 -2      1138       420      1534      1675
 -1      1598    3    0    1
 -2       231      1091      1076       229
 -1      1599    3    0    1
 -2      1151       644      1706      1798
 -1      1600    3    0    1
 -2      2596      1398      2300      2650
 -1      1601    3    0    1
 -2       572      1055       571       579
 -1      1602    3    0    1
 -2      1569      1653      1776      1848
 -1      1603    3    0    1
 -2      1158      1584      1681      1758
 -1      1604    3    0    1
 -2       578      1052      1683      1922
 -1      1605    3    0    1
 -2      2206       885       478       720
 -1      1606    3    0    1
 -2       535      1004       544       543
 -1      1607    3    0    1
 -2      1934       519      1965      2012
 -1      1608    3    0    1
 -2      1542        68      1583      1736
 -1      1609    3    0    1
 -2       879        33       716      1812
 -1      1610    3    0    1
 -2       882      1593      1748      1896
 -1      1611    3    0    1
 -2      1680      1653      1600      1765
 -1      1612    3    0    1
 -2      1002      1689      1887      1903
 -1      1613    3    0    1
 -2        14        13         6       865
 -1      1614    3    0    1
 -2       451       712       460       459
 -1      1615    3    0    1
 -2         5       857       707         4
 -1      1616    3    0    1
 -2       343      1678      1885      1988
 -1      1617    3    0    1
 -2        18       712         4       436
 -1      1618    3    0    1
 -2        18       712       708         4
 -1      1619    3    0    1
 -2         8       863       710         7
 -1      1620    3    0    1
 -2         8       855         7       710
 -1      1621    3    0    1
 -2       623      1766      1804      1840
 -1      1622    3    0    1
 -2       578      1683      1849      1922
 -1      1623    3    0    1
 -2       459       460       451       711
 -1      1624    3    0    1
 -2      1608       385      1792      1832
 -1      1625    3    0    1
 -2       495       496       925      1622
 -1      1626    3    0    1
 -2      1805      1658      1574      1556
 -1      1627    3    0    1
 -2        17       865        13       419
 -1      1628    3    0    1
 -2        15       417         3       711
 -1      1629    3    0    1
 -2       417         6         3       711
 -1      1630    3    0    1
 -2        17       865       853        13
 -1      1631    3    0    1
 -2       394       721      1645      1901
 -1      1632    3    0    1
 -2       543      1759      1921      2024
 -1      1633    3    0    1
 -2       542       539       997      1823
 -1      1634    3    0    1
 -2       919       493       492      2076
 -1      1635    3    0    1
 -2       264       425      1672      1755
 -1      1636    3    0    1
 -2      1584      1796      1800      1828
 -1      1637    3    0    1
 -2       245       250      1993      2545
 -1      1638    3    0    1
 -2      1262      2491      2179      2563
 -1      1639    3    0    1
 -2      1672       264      1755      1788
 -1      1640    3    0    1
 -2       470       461       467       876
 -1      1641    3    0    1
 -2       382       899       898      1838
 -1      1642    3    0    1
 -2        34       883        19        36
 -1      1643    3    0    1
 -2       463       471       472       717
 -1      1644    3    0    1
 -2        29       884       718       872
 -1      1645    3    0    1
 -2        37        21        23       717
 -1      1646    3    0    1
 -2        38        21        37       717
 -1      1647    3    0    1
 -2       466       879       875       465
 -1      1648    3    0    1
 -2       393       288      1156      1929
 -1      1649    3    0    1
 -2        26        33        39       718
 -1      1650    3    0    1
 -2       880       878      1908      2058
 -1      1651    3    0    1
 -2       479       473       482       721
 -1      1652    3    0    1
 -2      1183       818      1753      1955
 -1      1653    3    0    1
 -2      1960      2081      2115      2494
 -1      1654    3    0    1
 -2       394        48        44       721
 -1      1655    3    0    1
 -2        49       901       411        42
 -1      1656    3    0    1
 -2       474       896       890       473
 -1      1657    3    0    1
 -2        83        90        79       927
 -1      1658    3    0    1
 -2        62       926       723        60
 -1      1659    3    0    1
 -2        60       926       384        72
 -1      1660    3    0    1
 -2        76        59        75       724
 -1      1661    3    0    1
 -2      1819      1541      1895      1959
 -1      1662    3    0    1
 -2        79       933        90        83
 -1      1663    3    0    1
 -2       501       939       933       500
 -1      1664    3    0    1
 -2        77       935        81       402
 -1      1665    3    0    1
 -2       512       963       518       515
 -1      1666    3    0    1
 -2      1696       554      1802      1836
 -1      1667    3    0    1
 -2       497       946       507       508
 -1      1668    3    0    1
 -2        94        86        91       728
 -1      1669    3    0    1
 -2       667      1181       812      1715
 -1      1670    3    0    1
 -2       105       731       348       103
 -1      1671    3    0    1
 -2       519       509       520       732
 -1      1672    3    0    1
 -2       102       732       730       100
 -1      1673    3    0    1
 -2      1375      1459      1471      2458
 -1      1674    3    0    1
 -2       509       519       520       731
 -1      1675    3    0    1
 -2        99       965       406       405
 -1      1676    3    0    1
 -2       730       966        98       732
 -1      1677    3    0    1
 -2       105       731       103       729
 -1      1678    3    0    1
 -2       103       348       346       731
 -1      1679    3    0    1
 -2       103       101       729       731
 -1      1680    3    0    1
 -2        98       100       730       732
 -1      1681    3    0    1
 -2       332       409      1524      1533
 -1      1682    3    0    1
 -2       881       470       467      1593
 -1      1683    3    0    1
 -2       385      1102      1586      1832
 -1      1684    3    0    1
 -2       694       839      1677      1837
 -1      1685    3    0    1
 -2      2514      1262      2196      1350
 -1      1686    3    0    1
 -2      2215      2578      1316      2281
 -1      1687    3    0    1
 -2       113       736       121       356
 -1      1688    3    0    1
 -2       136       143       990       996
 -1      1689    3    0    1
 -2      1674      2495      2562      2622
 -1      1690    3    0    1
 -2       532       531       523       981
 -1      1691    3    0    1
 -2       189       336      1054      1967
 -1      1692    3    0    1
 -2      1429      2618      2699      2715
 -1      1693    3    0    1
 -2       538       740       537       540
 -1      1694    3    0    1
 -2      1564       899      2048      2480
 -1      1695    3    0    1
 -2       939       504      1982      1987
 -1      1696    3    0    1
 -2      1072      1660      1917      1939
 -1      1697    3    0    1
 -2       143       145       333       741
 -1      1698    3    0    1
 -2      1574      1558      1575      1744
 -1      1699    3    0    1
 -2       741       536       987       994
 -1      1700    3    0    1
 -2       545      1019      1015      1006
 -1      1701    3    0    1
 -2       804      1818      1803      1637
 -1      1702    3    0    1
 -2       538       999       740       540
 -1      1703    3    0    1
 -2      1447      2666      2681      2694
 -1      1704    3    0    1
 -2      1642      1746      1831      1925
 -1      1705    3    0    1
 -2      2026      1126      2031      2043
 -1      1706    3    0    1
 -2       548       547       556       747
 -1      1707    3    0    1
 -2       423       391      1527      1804
 -1      1708    3    0    1
 -2      1553      1582      1671      1707
 -1      1709    3    0    1
 -2      1968      2479      2501      2549
 -1      1710    3    0    1
 -2       547       555       556       747
 -1      1711    3    0    1
 -2       323       151       161       747
 -1      1712    3    0    1
 -2       323       324       151       747
 -1      1713    3    0    1
 -2       155      1015       154      1009
 -1      1714    3    0    1
 -2       190      1050       360       181
 -1      1715    3    0    1
 -2       176      1038       364       175
 -1      1716    3    0    1
 -2       169      1037       752       168
 -1      1717    3    0    1
 -2       693      1215       703      1695
 -1      1718    3    0    1
 -2      1307      2702      1496      2429
 -1      1719    3    0    1
 -2      1003       543       544      1554
 -1      1720    3    0    1
 -2       551      1019       545       554
 -1      1721    3    0    1
 -2      2107      2560      2212      2229
 -1      1722    3    0    1
 -2       372      2691      2746      1480
 -1      1723    3    0    1
 -2       169      1037       168       363
 -1      1724    3    0    1
 -2       174       168       167       755
 -1      1725    3    0    1
 -2       559       560       567       755
 -1      1726    3    0    1
 -2       337       166       345       755
 -1      1727    3    0    1
 -2       167       166       337       755
 -1      1728    3    0    1
 -2      2497       552      2106      2502
 -1      1729    3    0    1
 -2       339      1628      1646      1764
 -1      1730    3    0    1
 -2       561      1030       563       566
 -1      1731    3    0    1
 -2       560      1037       567       755
 -1      1732    3    0    1
 -2      1038       175       751      2154
 -1      1733    3    0    1
 -2       568       567       559      2154
 -1      1734    3    0    1
 -2       182      1055       344       181
 -1      1735    3    0    1
 -2       203      1068       208       201
 -1      1736    3    0    1
 -2       185      1054       760       184
 -1      1737    3    0    1
 -2        56       438      1564      2480
 -1      1738    3    0    1
 -2       574      1052       573       761
 -1      1739    3    0    1
 -2       392        12      2139      2172
 -1      1740    3    0    1
 -2      1688      1535      1727      1729
 -1      1741    3    0    1
 -2       756       362      1038      2154
 -1      1742    3    0    1
 -2       571       579       580       762
 -1      1743    3    0    1
 -2      1631      1047      1923      1976
 -1      1744    3    0    1
 -2       185      1054       184       196
 -1      1745    3    0    1
 -2       756      1038       567      2154
 -1      1746    3    0    1
 -2       373        72      1789      1791
 -1      1747    3    0    1
 -2       579       571       763      1055
 -1      1748    3    0    1
 -2       186       365       189       762
 -1      1749    3    0    1
 -2       186       197       365       762
 -1      1750    3    0    1
 -2      1621      1727       332      1854
 -1      1751    3    0    1
 -2       184      1042       762       760
 -1      1752    3    0    1
 -2       184      1042       186       762
 -1      1753    3    0    1
 -2       181      1041       763       190
 -1      1754    3    0    1
 -2       181      1041       759       763
 -1      1755    3    0    1
 -2      1330      1475      2463      2470
 -1      1756    3    0    1
 -2       206       768       766       203
 -1      1757    3    0    1
 -2      2548      2617      2640      2681
 -1      1758    3    0    1
 -2       586      1074       581      1058
 -1      1759    3    0    1
 -2       581      1073       591       592
 -1      1760    3    0    1
 -2       583       767       582       765
 -1      1761    3    0    1
 -2       717        35       883      1692
 -1      1762    3    0    1
 -2       591       592      1917      1939
 -1      1763    3    0    1
 -2      2511      2542      2632      2719
 -1      1764    3    0    1
 -2       211       203       208       768
 -1      1765    3    0    1
 -2      1125       626      1616      1989
 -1      1766    3    0    1
 -2       228      1081       224       774
 -1      1767    3    0    1
 -2       597      1090      1080       596
 -1      1768    3    0    1
 -2       230       221       773      1091
 -1      1769    3    0    1
 -2       189      1849      1967      1976
 -1      1770    3    0    1
 -2      2306      2250      2689      2388
 -1      1771    3    0    1
 -2       231      1091       229       430
 -1      1772    3    0    1
 -2       593       603       604       773
 -1      1773    3    0    1
 -2       647       648      1718      1875
 -1      1774    3    0    1
 -2       492       917      1654      2076
 -1      1775    3    0    1
 -2       799       801      1626      1758
 -1      1776    3    0    1
 -2      2607      1364      1427      1428
 -1      1777    3    0    1
 -2      1552      1647      1706      1910
 -1      1778    3    0    1
 -2       146      1003       136       329
 -1      1779    3    0    1
 -2       593      1092      1077       774
 -1      1780    3    0    1
 -2       776      1104       609      1093
 -1      1781    3    0    1
 -2       232       429       221       773
 -1      1782    3    0    1
 -2       221       429       230       773
 -1      1783    3    0    1
 -2      2253      1343      2291      2307
 -1      1784    3    0    1
 -2       238      1110       236       249
 -1      1785    3    0    1
 -2       228      1081       233       224
 -1      1786    3    0    1
 -2      2490      1230      1231      2543
 -1      1787    3    0    1
 -2      1560      1695      1835      1868
 -1      1788    3    0    1
 -2       249       236       427      1110
 -1      1789    3    0    1
 -2       246       245       247       777
 -1      1790    3    0    1
 -2       246      1111       250       245
 -1      1791    3    0    1
 -2       238      1110       778       236
 -1      1792    3    0    1
 -2      1651       137      1691      1742
 -1      1793    3    0    1
 -2       594      1087      1083       600
 -1      1794    3    0    1
 -2      1588      1736      1819      1895
 -1      1795    3    0    1
 -2      2163      1950      2560      2572
 -1      1796    3    0    1
 -2      2163      1950      2107      2560
 -1      1797    3    0    1
 -2      1282      1283      1356      2598
 -1      1798    3    0    1
 -2      2579      2668      2669      1518
 -1      1799    3    0    1
 -2       274      1145       273      1134
 -1      1800    3    0    1
 -2       267      1126       782       255
 -1      1801    3    0    1
 -2       631       640       639      1145
 -1      1802    3    0    1
 -2        71       925      1622      1825
 -1      1803    3    0    1
 -2      1570       689      1659      1665
 -1      1804    3    0    1
 -2      1393      2638      2675      2725
 -1      1805    3    0    1
 -2      1648      1615      1904      1905
 -1      1806    3    0    1
 -2       999       350      1787      2130
 -1      1807    3    0    1
 -2       615      1914      1994      2122
 -1      1808    3    0    1
 -2       637      1969      2053      2224
 -1      1809    3    0    1
 -2       618       785       617       781
 -1      1810    3    0    1
 -2      2478      1223      2563      2687
 -1      1811    3    0    1
 -2       285       793       272       387
 -1      1812    3    0    1
 -2       285       793       788       272
 -1      1813    3    0    1
 -2       110       128       986      2494
 -1      1814    3    0    1
 -2       277      1142       275       424
 -1      1815    3    0    1
 -2       631       792      1133      1144
 -1      1816    3    0    1
 -2      1186       675      1185      1888
 -1      1817    3    0    1
 -2      2509      2093      2168      2682
 -1      1818    3    0    1
 -2       508       945      2012      2025
 -1      1819    3    0    1
 -2      2635      2717      2431      2456
 -1      1820    3    0    1
 -2       630       791       629       787
 -1      1821    3    0    1
 -2       500       501       504      2219
 -1      1822    3    0    1
 -2       564      1033      2094      2159
 -1      1823    3    0    1
 -2      1647      1552      1721      1910
 -1      1824    3    0    1
 -2       278       282       284       792
 -1      1825    3    0    1
 -2       284       421       278       792
 -1      1826    3    0    1
 -2       773       604      1110      1994
 -1      1827    3    0    1
 -2      1547      1159      1551      1946
 -1      1828    3    0    1
 -2       424      1556      1574      1745
 -1      1829    3    0    1
 -2      1592      1553      1707      1909
 -1      1830    3    0    1
 -2      2562      1256      2622      2649
 -1      1831    3    0    1
 -2      1256      2514      2196      1342
 -1      1832    3    0    1
 -2       380      1942      1956      2017
 -1      1833    3    0    1
 -2       322       997      1587      1691
 -1      1834    3    0    1
 -2       215       195      2084      2507
 -1      1835    3    0    1
 -2      1586      1560      1770      1868
 -1      1836    3    0    1
 -2      1759       532      1936      2024
 -1      1837    3    0    1
 -2       683       831       684      1687
 -1      1838    3    0    1
 -2       916       491      1717      1783
 -1      1839    3    0    1
 -2       712      1596      1749      1918
 -1      1840    3    0    1
 -2      1197       686      1711      1814
 -1      1841    3    0    1
 -2      1664      1066      1757      1880
 -1      1842    3    0    1
 -2      1630      1530      1666      1705
 -1      1843    3    0    1
 -2      1673       356      1845      2077
 -1      1844    3    0    1
 -2      1317      1296      1377      2319
 -1      1845    3    0    1
 -2      1727      1621       332      1729
 -1      1846    3    0    1
 -2      1653       695      1765      1776
 -1      1847    3    0    1
 -2       884        30      1861      2477
 -1      1848    3    0    1
 -2       882       867       461       876
 -1      1849    3    0    1
 -2       350       139       999      1787
 -1      1850    3    0    1
 -2       396       315      1146      1857
 -1      1851    3    0    1
 -2      1612        24      1710      1750
 -1      1852    3    0    1
 -2       489       919       488       492
 -1      1853    3    0    1
 -2       919       489       918       492
 -1      1854    3    0    1
 -2      1620      1615      1756      1815
 -1      1855    3    0    1
 -2       128       110      2115      2494
 -1      1856    3    0    1
 -2        59        75       724       925
 -1      1857    3    0    1
 -2        12        10       866      1749
 -1      1858    3    0    1
 -2       374        83        79       948
 -1      1859    3    0    1
 -2      1563      1648      1882      1888
 -1      1860    3    0    1
 -2        61       915        59        67
 -1      1861    3    0    1
 -2      1531      1204      1570      1665
 -1      1862    3    0    1
 -2       284       419      1578      1920
 -1      1863    3    0    1
 -2       547      1022       748       555
 -1      1864    3    0    1
 -2       695       844       698      1653
 -1      1865    3    0    1
 -2      1052      1682      1683      1922
 -1      1866    3    0    1
 -2      2614      2163      2229      2560
 -1      1867    3    0    1
 -2       566      1035      1623      1883
 -1      1868    3    0    1
 -2      1645       896      1797      1826
 -1      1869    3    0    1
 -2       762       189      1054      1967
 -1      1870    3    0    1
 -2       647      1158       796      1718
 -1      1871    3    0    1
 -2       810      1179      1533      1618
 -1      1872    3    0    1
 -2       527       982       521       530
 -1      1873    3    0    1
 -2       522       976       521       970
 -1      1874    3    0    1
 -2       361       173      1411      2660
 -1      1875    3    0    1
 -2       519       508       945      2012
 -1      1876    3    0    1
 -2       322      1587      1602      1630
 -1      1877    3    0    1
 -2       420       424      1142      1662
 -1      1878    3    0    1
 -2       535      1003       543       544
 -1      1879    3    0    1
 -2       363       747      1037      1604
 -1      1880    3    0    1
 -2       428       433      1615      1905
 -1      1881    3    0    1
 -2      1746       243      1792      1793
 -1      1882    3    0    1
 -2       883       471       717      1692
 -1      1883    3    0    1
 -2      1531      1663      1665      1570
 -1      1884    3    0    1
 -2       289       410       796      1758
 -1      1885    3    0    1
 -2      1138      1534      1578      1675
 -1      1886    3    0    1
 -2      2133      2089      2521      2542
 -1      1887    3    0    1
 -2       964       943       512       957
 -1      1888    3    0    1
 -2      1541      1803      1818      1895
 -1      1889    3    0    1
 -2       511       960       510       516
 -1      1890    3    0    1
 -2       681      1194       827      1655
 -1      1891    3    0    1
 -2       370        86        78       947
 -1      1892    3    0    1
 -2       104       963       958       404
 -1      1893    3    0    1
 -2       333       143      1554      1975
 -1      1894    3    0    1
 -2      2047      2126      2178      2557
 -1      1895    3    0    1
 -2       660       659      1842      1864
 -1      1896    3    0    1
 -2       415         7      1552      1721
 -1      1897    3    0    1
 -2       611      1616      1832      1956
 -1      1898    3    0    1
 -2      2619      2564      2668      2669
 -1      1899    3    0    1
 -2       881       416      1733      1948
 -1      1900    3    0    1
 -2       467       877      1593      1858
 -1      1901    3    0    1
 -2       697      1211       699      1930
 -1      1902    3    0    1
 -2       381       384       902      2504
 -1      1903    3    0    1
 -2      1780       580      1967       762
 -1      1904    3    0    1
 -2      1734      1769      1892      2143
 -1      1905    3    0    1
 -2       661      1862      1947      1996
 -1      1906    3    0    1
 -2       528       541       979      1723
 -1      1907    3    0    1
 -2      1018      2490      1231      2601
 -1      1908    3    0    1
 -2       366       430      2001      2015
 -1      1909    3    0    1
 -2      1603      1597      1669      1672
 -1      1910    3    0    1
 -2       859         7      1525      1700
 -1      1911    3    0    1
 -2      1610      1563      1726      1746
 -1      1912    3    0    1
 -2      2056      2486      2557      2604
 -1      1913    3    0    1
 -2       295      1171      1174      1816
 -1      1914    3    0    1
 -2         6       858        14       417
 -1      1915    3    0    1
 -2        44       896      1562      1767
 -1      1916    3    0    1
 -2         4       861       857       705
 -1      1917    3    0    1
 -2      1221      2205      2606      2284
 -1      1918    3    0    1
 -2       129       976      1847      1872
 -1      1919    3    0    1
 -2      1659      1529      1663      1720
 -1      1920    3    0    1
 -2       507       946       947      1937
 -1      1921    3    0    1
 -2       844       695       841      1653
 -1      1922    3    0    1
 -2       982       530      1902      1970
 -1      1923    3    0    1
 -2      1353      1296      1354      2605
 -1      1924    3    0    1
 -2      1663      1531      1665      1720
 -1      1925    3    0    1
 -2      1968      2479      2144      2512
 -1      1926    3    0    1
 -2        68       916      1611      1717
 -1      1927    3    0    1
 -2      1227      1453      2721      2744
 -1      1928    3    0    1
 -2      1689       542      1823      1975
 -1      1929    3    0    1
 -2       343      1070      1522      1885
 -1      1930    3    0    1
 -2       608      1104       613       612
 -1      1931    3    0    1
 -2       225       219       226      1092
 -1      1932    3    0    1
 -2        56       438       905      1564
 -1      1933    3    0    1
 -2      1892      1980      2014      2164
 -1      1934    3    0    1
 -2       741       143      1003      1554
 -1      1935    3    0    1
 -2       241      1104       248       779
 -1      1936    3    0    1
 -2      1071       214      1846      1923
 -1      1937    3    0    1
 -2       593      1092       774       603
 -1      1938    3    0    1
 -2       593      1091       773      1076
 -1      1939    3    0    1
 -2       794      1148      1614      1857
 -1      1940    3    0    1
 -2       607      1107      1101       614
 -1      1941    3    0    1
 -2      1921       139      2073      2492
 -1      1942    3    0    1
 -2      2506      1260      2565      2637
 -1      1943    3    0    1
 -2       812      1181      1632      1715
 -1      1944    3    0    1
 -2      1532      1710      1750      1751
 -1      1945    3    0    1
 -2      2344      2376      2450      2761
 -1      1946    3    0    1
 -2       807       662      1862      1947
 -1      1947    3    0    1
 -2       550      1017       549       552
 -1      1948    3    0    1
 -2      2250      2294      2306      2759
 -1      1949    3    0    1
 -2      1138       275       790      1142
 -1      1950    3    0    1
 -2       268       256      1127      1128
 -1      1951    3    0    1
 -2       256       426       268      1127
 -1      1952    3    0    1
 -2       257      1128       256       386
 -1      1953    3    0    1
 -2       846      1208      1571      1591
 -1      1954    3    0    1
 -2      2566      2195      1293      1310
 -1      1955    3    0    1
 -2      1536      1628      1763      1784
 -1      1956    3    0    1
 -2       646       645      1577      1843
 -1      1957    3    0    1
 -2      1655      1561      1771      1831
 -1      1958    3    0    1
 -2       315       803      1170      1818
 -1      1959    3    0    1
 -2      1108       616      1914      2013
 -1      1960    3    0    1
 -2      1773      1106      1793      1928
 -1      1961    3    0    1
 -2       903        46       904      1795
 -1      1962    3    0    1
 -2      1572      1120      1575      1840
 -1      1963    3    0    1
 -2       619      1126       627      1129
 -1      1964    3    0    1
 -2      1191       677       678      1741
 -1      1965    3    0    1
 -2       435       850      1567      1762
 -1      1966    3    0    1
 -2      1088      2476      1220      1221
 -1      1967    3    0    1
 -2       581      1074       592       591
 -1      1968    3    0    1
 -2      1548      1613      1753      1945
 -1      1969    3    0    1
 -2      1052      1048      1682      1922
 -1      1970    3    0    1
 -2       316      1175      1637      1996
 -1      1971    3    0    1
 -2       415         7      1721      1973
 -1      1972    3    0    1
 -2       506      1667      1761      1775
 -1      1973    3    0    1
 -2       407      1159      1547      1946
 -1      1974    3    0    1
 -2      2089      2180      2521      2184
 -1      1975    3    0    1
 -2      1611      1543      1898      1951
 -1      1976    3    0    1
 -2       186      1047       184       189
 -1      1977    3    0    1
 -2      1084       599      1090      1897
 -1      1978    3    0    1
 -2       817      1533      1661      1714
 -1      1979    3    0    1
 -2      1703       429      1913      2036
 -1      1980    3    0    1
 -2       456       469       861      1690
 -1      1981    3    0    1
 -2      1202      1199      1784      2027
 -1      1982    3    0    1
 -2       270       261      2031      2481
 -1      1983    3    0    1
 -2      1670       430      1900      2009
 -1      1984    3    0    1
 -2      1713      1531      1782      1865
 -1      1985    3    0    1
 -2       190      1050       181      1039
 -1      1986    3    0    1
 -2       446      1205       447      1931
 -1      1987    3    0    1
 -2      1792      1561      1831      1833
 -1      1988    3    0    1
 -2      1883       340      1031      1035
 -1      1989    3    0    1
 -2       965       731       406      1934
 -1      1990    3    0    1
 -2       765      1068       767       582
 -1      1991    3    0    1
 -2      1603      1597      1629      1669
 -1      1992    3    0    1
 -2       679       825      1642      1925
 -1      1993    3    0    1
 -2       546      1014       545      1008
 -1      1994    3    0    1
 -2       457      1810      1924      2102
 -1      1995    3    0    1
 -2       756      1055      1877      2086
 -1      1996    3    0    1
 -2       570      1046       569       758
 -1      1997    3    0    1
 -2       850       287       838      1762
 -1      1998    3    0    1
 -2       213      1072      1660      1917
 -1      1999    3    0    1
 -2      2531      2581      2588      2609
 -1      2000    3    0    1
 -2       385      1608      1792      1793
 -1      2001    3    0    1
 -2      1715       811      1945      1955
 -1      2002    3    0    1
 -2       124       348      1927      1999
 -1      2003    3    0    1
 -2       359       767      1068      1801
 -1      2004    3    0    1
 -2       696      1212       700      1598
 -1      2005    3    0    1
 -2      1817       178      2057      1222
 -1      2006    3    0    1
 -2       462       877       870       868
 -1      2007    3    0    1
 -2         6       853       852       711
 -1      2008    3    0    1
 -2        16       866       392         5
 -1      2009    3    0    1
 -2       463       883       471       717
 -1      2010    3    0    1
 -2       623       626      1125      1766
 -1      2011    3    0    1
 -2       452       865       459       451
 -1      2012    3    0    1
 -2       225       774      1856      2169
 -1      2013    3    0    1
 -2      1582      1585      1671      1707
 -1      2014    3    0    1
 -2       457       456       449       857
 -1      2015    3    0    1
 -2      1157       288      1875      1929
 -1      2016    3    0    1
 -2       420      1582      1745      1876
 -1      2017    3    0    1
 -2      1105      2484      1237      2570
 -1      2018    3    0    1
 -2       883      1596      1861      1896
 -1      2019    3    0    1
 -2      1139       636       637      2224
 -1      2020    3    0    1
 -2      1622       925      1790      1825
 -1      2021    3    0    1
 -2       467      1593      1722      1858
 -1      2022    3    0    1
 -2       629      1140       791       636
 -1      2023    3    0    1
 -2      1935        88      1987      2515
 -1      2024    3    0    1
 -2       742       350      1699      1921
 -1      2025    3    0    1
 -2       877      1576      1612      1858
 -1      2026    3    0    1
 -2         5       857         4        12
 -1      2027    3    0    1
 -2         4       707       705       857
 -1      2028    3    0    1
 -2         4       861        10       857
 -1      2029    3    0    1
 -2       707       449       705       857
 -1      2030    3    0    1
 -2       449       861       705       857
 -1      2031    3    0    1
 -2       460       471       883      1596
 -1      2032    3    0    1
 -2      1539        44      1796      1800
 -1      2033    3    0    1
 -2      1740      1650      1962      2020
 -1      2034    3    0    1
 -2      1590       651      1164      1712
 -1      2035    3    0    1
 -2       811       813      1945      1955
 -1      2036    3    0    1
 -2      1546      1584      1718      1758
 -1      2037    3    0    1
 -2      1574      1556      1658      1745
 -1      2038    3    0    1
 -2      1600      1653      1536      1765
 -1      2039    3    0    1
 -2       412       798      1594      1702
 -1      2040    3    0    1
 -2      2377      2650      1469      2697
 -1      2041    3    0    1
 -2      2109      1863      2506      2526
 -1      2042    3    0    1
 -2      1066       587      1664      1757
 -1      2043    3    0    1
 -2       921       494       916      1783
 -1      2044    3    0    1
 -2       449       861       857       456
 -1      2045    3    0    1
 -2      1632      1547      1730      2018
 -1      2046    3    0    1
 -2      2278       706      2314      2317
 -1      2047    3    0    1
 -2       240       427      1109      1942
 -1      2048    3    0    1
 -2      1541       396      1614      1857
 -1      2049    3    0    1
 -2       454       863       453       710
 -1      2050    3    0    1
 -2       859       453       455       863
 -1      2051    3    0    1
 -2       454       864       453       458
 -1      2052    3    0    1
 -2       453       856       709       864
 -1      2053    3    0    1
 -2       858       453       709       864
 -1      2054    3    0    1
 -2       453       858       455       864
 -1      2055    3    0    1
 -2       856         6       709       864
 -1      2056    3    0    1
 -2         6       858       709       864
 -1      2057    3    0    1
 -2        14       419        13       865
 -1      2058    3    0    1
 -2       853         6        13       865
 -1      2059    3    0    1
 -2       712       708         4       866
 -1      2060    3    0    1
 -2        16       866         5       854
 -1      2061    3    0    1
 -2        12         5       392       866
 -1      2062    3    0    1
 -2         4       854         5       866
 -1      2063    3    0    1
 -2       451       854       708       866
 -1      2064    3    0    1
 -2       712       451       708       866
 -1      2065    3    0    1
 -2       854         4       708       866
 -1      2066    3    0    1
 -2       867       882       869        21
 -1      2067    3    0    1
 -2        25       877       870        20
 -1      2068    3    0    1
 -2      1594      1168      1684      1702
 -1      2069    3    0    1
 -2       714       879       875        26
 -1      2070    3    0    1
 -2        34       883       871        19
 -1      2071    3    0    1
 -2       405        95       946      1589
 -1      2072    3    0    1
 -2        29       884       872        22
 -1      2073    3    0    1
 -2        22       884        31        30
 -1      2074    3    0    1
 -2       717       463       871       874
 -1      2075    3    0    1
 -2        19       717       871       874
 -1      2076    3    0    1
 -2        19        21       717       874
 -1      2077    3    0    1
 -2      1014      1836      1912      2006
 -1      2078    3    0    1
 -2       714       879       465       875
 -1      2079    3    0    1
 -2      1639       296      1666      1694
 -1      2080    3    0    1
 -2       187       192      1052      1682
 -1      2081    3    0    1
 -2      1699       350      1787      1921
 -1      2082    3    0    1
 -2       387       392      2139      2194
 -1      2083    3    0    1
 -2       717        19       871       883
 -1      2084    3    0    1
 -2      2488      1232      1233      2548
 -1      2085    3    0    1
 -2      1052      1601      1649      1683
 -1      2086    3    0    1
 -2       656      1169      1626      1643
 -1      2087    3    0    1
 -2       462       876       461       867
 -1      2088    3    0    1
 -2       867       882       461       869
 -1      2089    3    0    1
 -2       826      1642      1831      1925
 -1      2090    3    0    1
 -2        25       881       868       877
 -1      2091    3    0    1
 -2      2529      2485      2554      2703
 -1      2092    3    0    1
 -2      1224      2500      2562      2599
 -1      2093    3    0    1
 -2       364       362      1038      2499
 -1      2094    3    0    1
 -2       477       899       898       719
 -1      2095    3    0    1
 -2       740      1723      1787      2061
 -1      2096    3    0    1
 -2      1219      2518      1257      1258
 -1      2097    3    0    1
 -2       310       338       832      1848
 -1      2098    3    0    1
 -2      2592      2553      2636      2664
 -1      2099    3    0    1
 -2      1787       746       999      2130
 -1      2100    3    0    1
 -2       714       879        26       716
 -1      2101    3    0    1
 -2       879       714       465       716
 -1      2102    3    0    1
 -2       465       716       469       879
 -1      2103    3    0    1
 -2      1128      1841      2013      2046
 -1      2104    3    0    1
 -2      1550      1644      2087      2496
 -1      2105    3    0    1
 -2       291       809      1180      1886
 -1      2106    3    0    1
 -2       433      1599      1756      1815
 -1      2107    3    0    1
 -2       462       881       461       467
 -1      2108    3    0    1
 -2       881       462       877       467
 -1      2109    3    0    1
 -2       356       121      1673      1845
 -1      2110    3    0    1
 -2        21       882        19        38
 -1      2111    3    0    1
 -2       882        21       876        38
 -1      2112    3    0    1
 -2       296      1530      1606      1639
 -1      2113    3    0    1
 -2       867       882        21       876
 -1      2114    3    0    1
 -2       551      1015      1836      1952
 -1      2115    3    0    1
 -2       213       342      1660      1940
 -1      2116    3    0    1
 -2       463       883       717       871
 -1      2117    3    0    1
 -2        19        35        36       883
 -1      2118    3    0    1
 -2       476       903       893       475
 -1      2119    3    0    1
 -2        42       886       903       904
 -1      2120    3    0    1
 -2        49        53       886       904
 -1      2121    3    0    1
 -2        54        49        53       886
 -1      2122    3    0    1
 -2      1786       591      1813      1917
 -1      2123    3    0    1
 -2       984       117      1936      1971
 -1      2124    3    0    1
 -2      2518      2571      2623      2648
 -1      2125    3    0    1
 -2      1620      1565      1899      1905
 -1      2126    3    0    1
 -2       917       941      1654      2486
 -1      2127    3    0    1
 -2      1698      1021      1911      2079
 -1      2128    3    0    1
 -2       936        92      1589      1884
 -1      2129    3    0    1
 -2        51       902       382       381
 -1      2130    3    0    1
 -2        62       926        60        72
 -1      2131    3    0    1
 -2        49       411        53       904
 -1      2132    3    0    1
 -2        50       905        56        43
 -1      2133    3    0    1
 -2       479       901       482       473
 -1      2134    3    0    1
 -2       287       850       435      1762
 -1      2135    3    0    1
 -2       486       922       491       494
 -1      2136    3    0    1
 -2       196       345       755      1652
 -1      2137    3    0    1
 -2       475       905       902       483
 -1      2138    3    0    1
 -2       433       428      1565      1905
 -1      2139    3    0    1
 -2      1575      1572      1840      1867
 -1      2140    3    0    1
 -2      1647      1553      1910      2003
 -1      2141    3    0    1
 -2       889       473       888       895
 -1      2142    3    0    1
 -2       473       901       888       895
 -1      2143    3    0    1
 -2       488       919       493       492
 -1      2144    3    0    1
 -2        87      2099      2116      2498
 -1      2145    3    0    1
 -2       159       324      1014      1912
 -1      2146    3    0    1
 -2       194      1817      1974      2086
 -1      2147    3    0    1
 -2       920      2475      1218      1219
 -1      2148    3    0    1
 -2       194      1046      1050      2159
 -1      2149    3    0    1
 -2       337       345      1652      1855
 -1      2150    3    0    1
 -2       840      1848       698      1210
 -1      2151    3    0    1
 -2      2164      1950      2527      2560
 -1      2152    3    0    1
 -2       401      1544      1668      1842
 -1      2153    3    0    1
 -2        52       898        43       894
 -1      2154    3    0    1
 -2       894        43       719       898
 -1      2155    3    0    1
 -2       477       894       719       898
 -1      2156    3    0    1
 -2        43       899       719       898
 -1      2157    3    0    1
 -2      1664       587      1670      2009
 -1      2158    3    0    1
 -2       556      1604      1830      1893
 -1      2159    3    0    1
 -2       627      1108      1129      2013
 -1      2160    3    0    1
 -2       479       901       473       895
 -1      2161    3    0    1
 -2       895        42        46       901
 -1      2162    3    0    1
 -2       517      1760      1982      2071
 -1      2163    3    0    1
 -2        49       901        42       888
 -1      2164    3    0    1
 -2       489       919       906       488
 -1      2165    3    0    1
 -2        52       902        51       892
 -1      2166    3    0    1
 -2       892       475       891       902
 -1      2167    3    0    1
 -2       475       905       891       902
 -1      2168    3    0    1
 -2        43       892       891       902
 -1      2169    3    0    1
 -2       476       902       475       892
 -1      2170    3    0    1
 -2       335      1696      1738      1985
 -1      2171    3    0    1
 -2        55       903        42       893
 -1      2172    3    0    1
 -2       398        46        42       903
 -1      2173    3    0    1
 -2        42       886       893       903
 -1      2174    3    0    1
 -2       119       341      2061      2131
 -1      2175    3    0    1
 -2       475       893       886       903
 -1      2176    3    0    1
 -2       475       904       483       903
 -1      2177    3    0    1
 -2        42        49       886       904
 -1      2178    3    0    1
 -2        50       905        43       891
 -1      2179    3    0    1
 -2        56       438        43       905
 -1      2180    3    0    1
 -2        61       924       909        58
 -1      2181    3    0    1
 -2        58       924       399        67
 -1      2182    3    0    1
 -2        69       918       373        62
 -1      2183    3    0    1
 -2      1791       923      2147      2498
 -1      2184    3    0    1
 -2        66       921        65       395
 -1      2185    3    0    1
 -2       487       916       913       486
 -1      2186    3    0    1
 -2       504      1982      1987      2144
 -1      2187    3    0    1
 -2       917      1654      2076      2486
 -1      2188    3    0    1
 -2       230       366      1091      1997
 -1      2189    3    0    1
 -2      1094      1108      2174      2176
 -1      2190    3    0    1
 -2       487       916       486       491
 -1      2191    3    0    1
 -2      1785        87      2116      2498
 -1      2192    3    0    1
 -2       513       957       515       512
 -1      2193    3    0    1
 -2        67        59        71       915
 -1      2194    3    0    1
 -2        69        73       908       923
 -1      2195    3    0    1
 -2       398      1624      1797      1825
 -1      2196    3    0    1
 -2       487       915       911       912
 -1      2197    3    0    1
 -2        69       926       923       723
 -1      2198    3    0    1
 -2       911        59       912       915
 -1      2199    3    0    1
 -2        59       922        71       915
 -1      2200    3    0    1
 -2      2484      2052      2165      2168
 -1      2201    3    0    1
 -2      1711      1814      1907      1978
 -1      2202    3    0    1
 -2        65       916       910       913
 -1      2203    3    0    1
 -2       402      1605      1737      1881
 -1      2204    3    0    1
 -2       910       486       913       916
 -1      2205    3    0    1
 -2       486       921       494       916
 -1      2206    3    0    1
 -2      1674      2478      2119      2491
 -1      2207    3    0    1
 -2      2261      2234      2267      2643
 -1      2208    3    0    1
 -2      1616      1728      1956      1989
 -1      2209    3    0    1
 -2      1600      1536      1763      1765
 -1      2210    3    0    1
 -2      1525         7      1607      1700
 -1      2211    3    0    1
 -2      1085       428      1615      1904
 -1      2212    3    0    1
 -2       500       940       939       726
 -1      2213    3    0    1
 -2      1204      1203      1570      1665
 -1      2214    3    0    1
 -2      2528      2157      2555      2556
 -1      2215    3    0    1
 -2      1527       423      1804      2021
 -1      2216    3    0    1
 -2      1273      2226      2263      2266
 -1      2217    3    0    1
 -2      2595      2578      2281      1426
 -1      2218    3    0    1
 -2        69       918        62       914
 -1      2219    3    0    1
 -2        62       906       914       918
 -1      2220    3    0    1
 -2        62       919       906       918
 -1      2221    3    0    1
 -2       878      2058      2478      2519
 -1      2222    3    0    1
 -2       901       482      1722      1826
 -1      2223    3    0    1
 -2      1723       979      1845      2061
 -1      2224    3    0    1
 -2       916        65       910       921
 -1      2225    3    0    1
 -2       486       921       916       910
 -1      2226    3    0    1
 -2        65       916        68       921
 -1      2227    3    0    1
 -2       395        65        68       921
 -1      2228    3    0    1
 -2       337      1030      1036      1724
 -1      2229    3    0    1
 -2      2055       334      2059      2080
 -1      2230    3    0    1
 -2       977       527      1872      1902
 -1      2231    3    0    1
 -2      1054       196      1652      1933
 -1      2232    3    0    1
 -2       487       922       486       911
 -1      2233    3    0    1
 -2        59       922       915       911
 -1      2234    3    0    1
 -2       100       961        98       944
 -1      2235    3    0    1
 -2       511       960       953       510
 -1      2236    3    0    1
 -2       497       945       508       507
 -1      2237    3    0    1
 -2      1523       394      1576      1612
 -1      2238    3    0    1
 -2        73        69       373       923
 -1      2239    3    0    1
 -2       723        69       908       923
 -1      2240    3    0    1
 -2        61       924        58        67
 -1      2241    3    0    1
 -2       490       925       485       724
 -1      2242    3    0    1
 -2       377       376      2066      2481
 -1      2243    3    0    1
 -2       402      1605      1611      1737
 -1      2244    3    0    1
 -2        59        61        67       925
 -1      2245    3    0    1
 -2       485       924       724       925
 -1      2246    3    0    1
 -2        61       924        67       925
 -1      2247    3    0    1
 -2       924        61       724       925
 -1      2248    3    0    1
 -2        59        71        75       925
 -1      2249    3    0    1
 -2       360       763      1974      2507
 -1      2250    3    0    1
 -2        61        59       724       925
 -1      2251    3    0    1
 -2       924       485       496       925
 -1      2252    3    0    1
 -2        87        79       934       948
 -1      2253    3    0    1
 -2        80       937        81        77
 -1      2254    3    0    1
 -2       499       937       932       498
 -1      2255    3    0    1
 -2       881       416      1700      1733
 -1      2256    3    0    1
 -2       498       935       503       937
 -1      2257    3    0    1
 -2      1571      1573      1704      1806
 -1      2258    3    0    1
 -2       502       948       497       507
 -1      2259    3    0    1
 -2      1122       261      2031      2118
 -1      2260    3    0    1
 -2        87        79        93       934
 -1      2261    3    0    1
 -2      1701      1594      1958      1555
 -1      2262    3    0    1
 -2       409      1524      1533      1752
 -1      2263    3    0    1
 -2       746      1656      2106      2161
 -1      2264    3    0    1
 -2      2569      2614      2713      2717
 -1      2265    3    0    1
 -2       922       915       491      2016
 -1      2266    3    0    1
 -2       923       496       926      1791
 -1      2267    3    0    1
 -2       901       479       482      1826
 -1      2268    3    0    1
 -2       882        35        38      1824
 -1      2269    3    0    1
 -2      1469       198      2697      2715
 -1      2270    3    0    1
 -2       839       445      1907      1978
 -1      2271    3    0    1
 -2       717        37      1692      1799
 -1      2272    3    0    1
 -2       931       498       930       936
 -1      2273    3    0    1
 -2       498       942       930       936
 -1      2274    3    0    1
 -2       106       958       347       104
 -1      2275    3    0    1
 -2       932        77       929       937
 -1      2276    3    0    1
 -2        77       935       929       937
 -1      2277    3    0    1
 -2       498       932       929       937
 -1      2278    3    0    1
 -2       935       498       929       937
 -1      2279    3    0    1
 -2       496       924      1622      1834
 -1      2280    3    0    1
 -2       727       725      2216      2265
 -1      2281    3    0    1
 -2      2618      1429      1430      2715
 -1      2282    3    0    1
 -2      1717      1611      1898      2000
 -1      2283    3    0    1
 -2       915      1926      2000      2016
 -1      2284    3    0    1
 -2       370        92        78       942
 -1      2285    3    0    1
 -2      1002       330       996      1975
 -1      2286    3    0    1
 -2        83       940       374        79
 -1      2287    3    0    1
 -2      1050      1046      1807      2159
 -1      2288    3    0    1
 -2       693       849       836      1695
 -1      2289    3    0    1
 -2        98       961       354       369
 -1      2290    3    0    1
 -2      1164      1590      1712      1866
 -1      2291    3    0    1
 -2        36       711       883      1748
 -1      2292    3    0    1
 -2       933        79       726       939
 -1      2293    3    0    1
 -2       500       933       726       939
 -1      2294    3    0    1
 -2       725        85      2216      2265
 -1      2295    3    0    1
 -2        79       940       726       939
 -1      2296    3    0    1
 -2       736       529       528      1890
 -1      2297    3    0    1
 -2       736       979      1845      1890
 -1      2298    3    0    1
 -2      1597      1558      1629      1851
 -1      2299    3    0    1
 -2       653      1168       798      1702
 -1      2300    3    0    1
 -2       516       529      2077      2128
 -1      2301    3    0    1
 -2       997       322      1587      1602
 -1      2302    3    0    1
 -2       503       942       498       936
 -1      2303    3    0    1
 -2       936        78        92       942
 -1      2304    3    0    1
 -2        86       942        78       930
 -1      2305    3    0    1
 -2       117       122       125       967
 -1      2306    3    0    1
 -2       864       458      1578      1920
 -1      2307    3    0    1
 -2       972       113       981       986
 -1      2308    3    0    1
 -2       524       984       523       532
 -1      2309    3    0    1
 -2        79        83       927       945
 -1      2310    3    0    1
 -2      2479       938      1225      1226
 -1      2311    3    0    1
 -2      1119      1766      1989      2010
 -1      2312    3    0    1
 -2       502       947       497       728
 -1      2313    3    0    1
 -2        95        92        78       946
 -1      2314    3    0    1
 -2        78       728       928       946
 -1      2315    3    0    1
 -2       946       497       728       928
 -1      2316    3    0    1
 -2        92        78       946       947
 -1      2317    3    0    1
 -2      1050       360      1807      1974
 -1      2318    3    0    1
 -2        86       370        91       947
 -1      2319    3    0    1
 -2        78        86       728       947
 -1      2320    3    0    1
 -2       927        79       945       948
 -1      2321    3    0    1
 -2        79        87       374       948
 -1      2322    3    0    1
 -2      1373      2318      2319      2330
 -1      2323    3    0    1
 -2        79       927       934       948
 -1      2324    3    0    1
 -2       497       934       927       948
 -1      2325    3    0    1
 -2       945       497       927       948
 -1      2326    3    0    1
 -2       109       966       367        98
 -1      2327    3    0    1
 -2      2550      1269      2604      2624
 -1      2328    3    0    1
 -2       377      1739      2066      2103
 -1      2329    3    0    1
 -2      1576       482      1722      1822
 -1      2330    3    0    1
 -2      1191       418      1188      1658
 -1      2331    3    0    1
 -2       943       964       955       103
 -1      2332    3    0    1
 -2      1556      1585      1707      1741
 -1      2333    3    0    1
 -2       385      1102      1608      1793
 -1      2334    3    0    1
 -2      1620       831      1679      1687
 -1      2335    3    0    1
 -2       662       661      1862      1947
 -1      2336    3    0    1
 -2       129       117       974       984
 -1      2337    3    0    1
 -2       142       334      2059      2130
 -1      2338    3    0    1
 -2       299       401       815      1668
 -1      2339    3    0    1
 -2      1084       599      1897      2036
 -1      2340    3    0    1
 -2       336       189      1849      1967
 -1      2341    3    0    1
 -2      1102      1106      1608      1793
 -1      2342    3    0    1
 -2      2088      2093      2509      2682
 -1      2343    3    0    1
 -2       344       194      1817      2186
 -1      2344    3    0    1
 -2       513       957       512       943
 -1      2345    3    0    1
 -2       943       964       512       955
 -1      2346    3    0    1
 -2       178       177      1817      2057
 -1      2347    3    0    1
 -2       106       958       104       956
 -1      2348    3    0    1
 -2       347       404       104       958
 -1      2349    3    0    1
 -2       104       954       956       958
 -1      2350    3    0    1
 -2       104       963       954       958
 -1      2351    3    0    1
 -2      1526      1031      1754      1883
 -1      2352    3    0    1
 -2      1543      1611      1737      1951
 -1      2353    3    0    1
 -2      1433      1347      2688      2690
 -1      2354    3    0    1
 -2      1074       768       592      1939
 -1      2355    3    0    1
 -2       417        15       858      1774
 -1      2356    3    0    1
 -2      1528      1651      1705      1916
 -1      2357    3    0    1
 -2       100       960       944       953
 -1      2358    3    0    1
 -2       377       280      1739      2103
 -1      2359    3    0    1
 -2       944       510       953       960
 -1      2360    3    0    1
 -2       510       961       517       960
 -1      2361    3    0    1
 -2       510       961       960       944
 -1      2362    3    0    1
 -2       883       471      1692      1861
 -1      2363    3    0    1
 -2      2311      1384      2358      1457
 -1      2364    3    0    1
 -2      2592      2275      1433      2690
 -1      2365    3    0    1
 -2      2510      1226      1266      1267
 -1      2366    3    0    1
 -2      1722       876      1822      1824
 -1      2367    3    0    1
 -2       513       963       512       515
 -1      2368    3    0    1
 -2       963       513       958       515
 -1      2369    3    0    1
 -2      1661      1618      1688      1727
 -1      2370    3    0    1
 -2       103       964       101       346
 -1      2371    3    0    1
 -2       964       103       957       346
 -1      2372    3    0    1
 -2        14       858       864      1774
 -1      2373    3    0    1
 -2       943       964       103       957
 -1      2374    3    0    1
 -2       729       965       509       731
 -1      2375    3    0    1
 -2       101       965        99       950
 -1      2376    3    0    1
 -2       965       729       101       731
 -1      2377    3    0    1
 -2       730       966       509       951
 -1      2378    3    0    1
 -2        98       367       369       966
 -1      2379    3    0    1
 -2       109       966        98       951
 -1      2380    3    0    1
 -2       123       985       967       122
 -1      2381    3    0    1
 -2       125       970       117       126
 -1      2382    3    0    1
 -2       524       981       532       523
 -1      2383    3    0    1
 -2        92       946      1589      1937
 -1      2384    3    0    1
 -2       293       413       800      1549
 -1      2385    3    0    1
 -2       114       981       121       119
 -1      2386    3    0    1
 -2       127       986       128       113
 -1      2387    3    0    1
 -2       527       983       530       521
 -1      2388    3    0    1
 -2       698       695      1653      1776
 -1      2389    3    0    1
 -2       948      1785      2147      2498
 -1      2390    3    0    1
 -2       416        24      1532      1948
 -1      2391    3    0    1
 -2       533      1002       539       542
 -1      2392    3    0    1
 -2       408       318       811      1955
 -1      2393    3    0    1
 -2       521       983       969       976
 -1      2394    3    0    1
 -2       970       521       969       976
 -1      2395    3    0    1
 -2       756       568      1747      2057
 -1      2396    3    0    1
 -2      2289      2576      2335      2346
 -1      2397    3    0    1
 -2       118       977       116       971
 -1      2398    3    0    1
 -2       971       116       968       977
 -1      2399    3    0    1
 -2       521       971       968       977
 -1      2400    3    0    1
 -2       969       117       976       983
 -1      2401    3    0    1
 -2        36       882      1557      1748
 -1      2402    3    0    1
 -2       116       982       968       977
 -1      2403    3    0    1
 -2       332       982       409       116
 -1      2404    3    0    1
 -2       121       981      1673      1845
 -1      2405    3    0    1
 -2      2479      2501      2510      2561
 -1      2406    3    0    1
 -2       916        68       921      1717
 -1      2407    3    0    1
 -2       120       979       113       975
 -1      2408    3    0    1
 -2       113       736       734       979
 -1      2409    3    0    1
 -2       975       113       734       979
 -1      2410    3    0    1
 -2       736       525       734       979
 -1      2411    3    0    1
 -2       525       975       734       979
 -1      2412    3    0    1
 -2        71       922      1825      2016
 -1      2413    3    0    1
 -2       147      1012       151       747
 -1      2414    3    0    1
 -2       160      1021       147       335
 -1      2415    3    0    1
 -2       547      1012      1005       747
 -1      2416    3    0    1
 -2       135      1004       134       139
 -1      2417    3    0    1
 -2       523       986       981       531
 -1      2418    3    0    1
 -2       536      1004       535       992
 -1      2419    3    0    1
 -2       999       738       135       995
 -1      2420    3    0    1
 -2       120       981       114       973
 -1      2421    3    0    1
 -2       973       523       972       981
 -1      2422    3    0    1
 -2       523       986       972       981
 -1      2423    3    0    1
 -2       113       973       972       981
 -1      2424    3    0    1
 -2       524       981       523       973
 -1      2425    3    0    1
 -2      1911      1021      1991      2079
 -1      2426    3    0    1
 -2      1214      1559      1629      1669
 -1      2427    3    0    1
 -2       527       983       521       976
 -1      2428    3    0    1
 -2      1190      1592      1707      1909
 -1      2429    3    0    1
 -2       946       965      1589      2012
 -1      2430    3    0    1
 -2      1533      1618      1661      1727
 -1      2431    3    0    1
 -2       531       532       523       984
 -1      2432    3    0    1
 -2       974       117       967       984
 -1      2433    3    0    1
 -2      1680      1653      1765      1776
 -1      2434    3    0    1
 -2       294       412       798      1594
 -1      2435    3    0    1
 -2       123       985       122       124
 -1      2436    3    0    1
 -2       773      1091      1856      1997
 -1      2437    3    0    1
 -2       523       974       967       984
 -1      2438    3    0    1
 -2       523       985       531       984
 -1      2439    3    0    1
 -2       523       985       984       967
 -1      2440    3    0    1
 -2       121       113       356       986
 -1      2441    3    0    1
 -2       303      1152      1798      1909
 -1      2442    3    0    1
 -2       756      1055      2086      1222
 -1      2443    3    0    1
 -2       127       986       113       972
 -1      2444    3    0    1
 -2       128       356       113       986
 -1      2445    3    0    1
 -2       536      1003       741       987
 -1      2446    3    0    1
 -2      1571      1529      1704      1931
 -1      2447    3    0    1
 -2       534       997       991       533
 -1      2448    3    0    1
 -2       697      1694      1916      1930
 -1      2449    3    0    1
 -2       140      1004       742       992
 -1      2450    3    0    1
 -2       140      1004       992       135
 -1      2451    3    0    1
 -2       536      1004       544       535
 -1      2452    3    0    1
 -2      1004       140       742       350
 -1      2453    3    0    1
 -2       135      1004       992       134
 -1      2454    3    0    1
 -2       134      1004       341       139
 -1      2455    3    0    1
 -2       536      1004       742       544
 -1      2456    3    0    1
 -2       738       999       135       740
 -1      2457    3    0    1
 -2      1200       327      1201      1591
 -1      2458    3    0    1
 -2      1601       192      1617      1850
 -1      2459    3    0    1
 -2      1570      1531      1713      1865
 -1      2460    3    0    1
 -2       741       143       987      1003
 -1      2461    3    0    1
 -2      1605      1842      1864      1951
 -1      2462    3    0    1
 -2       922        71       915      2016
 -1      2463    3    0    1
 -2       470       882      1593      1733
 -1      2464    3    0    1
 -2       989       136       990       996
 -1      2465    3    0    1
 -2       136      1002       330       996
 -1      2466    3    0    1
 -2       268       426      1119      2010
 -1      2467    3    0    1
 -2       133       997       988       991
 -1      2468    3    0    1
 -2       988       533       991       997
 -1      2469    3    0    1
 -2       533      1001       542       997
 -1      2470    3    0    1
 -2      1260      2283      2362      2754
 -1      2471    3    0    1
 -2      2235       775       609      2245
 -1      2472    3    0    1
 -2      1207      1597      1629      1851
 -1      2473    3    0    1
 -2       738       999       538       995
 -1      2474    3    0    1
 -2       740       135       139       999
 -1      2475    3    0    1
 -2       140       999       135       995
 -1      2476    3    0    1
 -2       976       527      1847      1872
 -1      2477    3    0    1
 -2       905      1772      1795      2063
 -1      2478    3    0    1
 -2       997       133       988      1001
 -1      2479    3    0    1
 -2      1649       563      1652      1754
 -1      2480    3    0    1
 -2       133       137       988      1001
 -1      2481    3    0    1
 -2       935       402      1611      1737
 -1      2482    3    0    1
 -2       133       997       322      1001
 -1      2483    3    0    1
 -2       137       133       322      1001
 -1      2484    3    0    1
 -2       534      1002       533       989
 -1      2485    3    0    1
 -2       429       230       773      1997
 -1      2486    3    0    1
 -2       136      1002       996       989
 -1      2487    3    0    1
 -2      1124      1586      1616      1728
 -1      2488    3    0    1
 -2       536      1003       535       544
 -1      2489    3    0    1
 -2      1003       536       741       544
 -1      2490    3    0    1
 -2       329       136       330      1003
 -1      2491    3    0    1
 -2       140      1004       135       350
 -1      2492    3    0    1
 -2      1004       135       350       139
 -1      2493    3    0    1
 -2       546      1015      1009       545
 -1      2494    3    0    1
 -2       325       321       154      1015
 -1      2495    3    0    1
 -2      1015      1540      1836      1952
 -1      2496    3    0    1
 -2       604       774      1994      2169
 -1      2497    3    0    1
 -2       151      1014      1008       147
 -1      2498    3    0    1
 -2       547      1011       548       748
 -1      2499    3    0    1
 -2       165      1033       177       754
 -1      2500    3    0    1
 -2       148      1011      1010       748
 -1      2501    3    0    1
 -2       547      1011       748      1010
 -1      2502    3    0    1
 -2       150      1022       334       148
 -1      2503    3    0    1
 -2       345       196      1649      1652
 -1      2504    3    0    1
 -2       798      1168      1594      1702
 -1      2505    3    0    1
 -2       149      1017       158       148
 -1      2506    3    0    1
 -2       455       859       863      1938
 -1      2507    3    0    1
 -2      1601       339      1754      1764
 -1      2508    3    0    1
 -2      1055       344      2086      1222
 -1      2509    3    0    1
 -2      1596       460      1749      1932
 -1      2510    3    0    1
 -2      1837      1907      1964      1978
 -1      2511    3    0    1
 -2       551      1020       554       545
 -1      2512    3    0    1
 -2       562      1036      1030       566
 -1      2513    3    0    1
 -2       468      1709      1908      2058
 -1      2514    3    0    1
 -2      1526       339      1646      1764
 -1      2515    3    0    1
 -2       151      1014       147       324
 -1      2516    3    0    1
 -2       147      1008      1007      1014
 -1      2517    3    0    1
 -2       147      1020       159      1014
 -1      2518    3    0    1
 -2      1002       996       539      1975
 -1      2519    3    0    1
 -2      1008       545      1007      1014
 -1      2520    3    0    1
 -2       545      1020      1007      1014
 -1      2521    3    0    1
 -2      2486      2535      2557      2604
 -1      2522    3    0    1
 -2       546      1015       545       551
 -1      2523    3    0    1
 -2       545      1009      1006      1015
 -1      2524    3    0    1
 -2      1789        72      1957      2105
 -1      2525    3    0    1
 -2      1009       154      1006      1015
 -1      2526    3    0    1
 -2       154      1019      1006      1015
 -1      2527    3    0    1
 -2       320       296      1176      1639
 -1      2528    3    0    1
 -2      1529      1571      1704      1806
 -1      2529    3    0    1
 -2      2323      2301      2446      2764
 -1      2530    3    0    1
 -2       563       561       566      1035
 -1      2531    3    0    1
 -2      2526      1259      2625      2637
 -1      2532    3    0    1
 -2      2136      2065      2522      2739
 -1      2533    3    0    1
 -2       561      1031       753      1035
 -1      2534    3    0    1
 -2      1726      1746      1792      1793
 -1      2535    3    0    1
 -2       823      1565      1888      1899
 -1      2536    3    0    1
 -2       149      1017       148      1013
 -1      2537    3    0    1
 -2       746       148       157      1017
 -1      2538    3    0    1
 -2       148       746       744      1017
 -1      2539    3    0    1
 -2      1013       148       744      1017
 -1      2540    3    0    1
 -2       746       549       744      1017
 -1      2541    3    0    1
 -2       549      1013       744      1017
 -1      2542    3    0    1
 -2       280       793      1145      1739
 -1      2543    3    0    1
 -2      1549      1532      1750      1751
 -1      2544    3    0    1
 -2      1746      1726      1792      1831
 -1      2545    3    0    1
 -2      1719      2051      2483      2165
 -1      2546    3    0    1
 -2      1186       302       304      2002
 -1      2547    3    0    1
 -2       551      1020       545      1014
 -1      2548    3    0    1
 -2       147      1020      1014      1007
 -1      2549    3    0    1
 -2       159       147       747      1021
 -1      2550    3    0    1
 -2       747       147      1005      1021
 -1      2551    3    0    1
 -2       547      1021       747      1005
 -1      2552    3    0    1
 -2       335       147       159      1021
 -1      2553    3    0    1
 -2       150      1022       148      1010
 -1      2554    3    0    1
 -2       148       334       157      1022
 -1      2555    3    0    1
 -2       558      1033       754       565
 -1      2556    3    0    1
 -2       567       568       756      2154
 -1      2557    3    0    1
 -2       752       168       755      1026
 -1      2558    3    0    1
 -2       560       752       755      1026
 -1      2559    3    0    1
 -2       559       560       755      1026
 -1      2560    3    0    1
 -2      1555      1701      1954      1958
 -1      2561    3    0    1
 -2      1615       433      1815      1905
 -1      2562    3    0    1
 -2       401      1172      1544      1842
 -1      2563    3    0    1
 -2      1553      1592      1798      1909
 -1      2564    3    0    1
 -2      1027      1036       167      1030
 -1      2565    3    0    1
 -2      2517      2482      2551      2556
 -1      2566    3    0    1
 -2       177       362      1794      1891
 -1      2567    3    0    1
 -2      1065       342       213      1940
 -1      2568    3    0    1
 -2      1578      1534      1878      2003
 -1      2569    3    0    1
 -2       562      1030       561       566
 -1      2570    3    0    1
 -2      1036      1027       167      1029
 -1      2571    3    0    1
 -2       579       762      1054      1967
 -1      2572    3    0    1
 -2       334       157      2059      2130
 -1      2573    3    0    1
 -2      1004       742       544      1921
 -1      2574    3    0    1
 -2      1166      1549      1684      1702
 -1      2575    3    0    1
 -2        14       864      1731      1774
 -1      2576    3    0    1
 -2       171      1031       170      1028
 -1      2577    3    0    1
 -2       339       340       170      1031
 -1      2578    3    0    1
 -2       170       753      1028      1031
 -1      2579    3    0    1
 -2       170      1035       753      1031
 -1      2580    3    0    1
 -2      1913       773      1994      1997
 -1      2581    3    0    1
 -2       189      1053      1047       184
 -1      2582    3    0    1
 -2       585      1071       584       590
 -1      2583    3    0    1
 -2      1178       297       808      1676
 -1      2584    3    0    1
 -2       339       340      1031      1526
 -1      2585    3    0    1
 -2       750      1033       165       754
 -1      2586    3    0    1
 -2       558      1033       557      1023
 -1      2587    3    0    1
 -2      1033       750       558       754
 -1      2588    3    0    1
 -2      2306      1280      2689      2759
 -1      2589    3    0    1
 -2      1072       431      1660      2001
 -1      2590    3    0    1
 -2       395        68      1542      1736
 -1      2591    3    0    1
 -2       562      1035       561       753
 -1      2592    3    0    1
 -2      1031       561       563      1035
 -1      2593    3    0    1
 -2      1714      1613      1752      1753
 -1      2594    3    0    1
 -2      1027      1036       562      1029
 -1      2595    3    0    1
 -2      1030       167       337      1036
 -1      2596    3    0    1
 -2       168      1036       167      1029
 -1      2597    3    0    1
 -2      1799      1722      1822      1824
 -1      2598    3    0    1
 -2       168       752       755      1037
 -1      2599    3    0    1
 -2       174       168       755      1037
 -1      2600    3    0    1
 -2       560      1037       755       752
 -1      2601    3    0    1
 -2       363       168       174      1037
 -1      2602    3    0    1
 -2       176      1038       175       751
 -1      2603    3    0    1
 -2       175       364       362      1038
 -1      2604    3    0    1
 -2      1599      1566      1756      1815
 -1      2605    3    0    1
 -2       186      1047      1043       184
 -1      2606    3    0    1
 -2       187       761      1044      1048
 -1      2607    3    0    1
 -2      1162      1165      1528      1590
 -1      2608    3    0    1
 -2       574      1053      1045       573
 -1      2609    3    0    1
 -2       768      1092      2008      2112
 -1      2610    3    0    1
 -2      1540       325      1720      1811
 -1      2611    3    0    1
 -2       362       756      1038      1891
 -1      2612    3    0    1
 -2      2491      2478      2500      2562
 -1      2613    3    0    1
 -2       577       576       569      1046
 -1      2614    3    0    1
 -2      2529      2554      2661      2690
 -1      2615    3    0    1
 -2       645       646      1577      1981
 -1      2616    3    0    1
 -2       460       459      1749      1932
 -1      2617    3    0    1
 -2      1378      1379      2655      1467
 -1      2618    3    0    1
 -2      2485      2078      2540      2554
 -1      2619    3    0    1
 -2      1653      1600      1536      1617
 -1      2620    3    0    1
 -2       758      1050      1046       569
 -1      2621    3    0    1
 -2      1050       758       181      1039
 -1      2622    3    0    1
 -2      1043      1053       573      1045
 -1      2623    3    0    1
 -2      1043      1053      1045       184
 -1      2624    3    0    1
 -2        37        38      1692      1824
 -1      2625    3    0    1
 -2      1841       268      1989      2010
 -1      2626    3    0    1
 -2       574      1053       573       578
 -1      2627    3    0    1
 -2       578      1047      1053       573
 -1      2628    3    0    1
 -2      1271      2632      2712      2493
 -1      2629    3    0    1
 -2       394      1523      1576      1901
 -1      2630    3    0    1
 -2      1341      1405      2684      2685
 -1      2631    3    0    1
 -2       573      1048       761      1052
 -1      2632    3    0    1
 -2      2671      2343      1483      2390
 -1      2633    3    0    1
 -2       360       194       181      1050
 -1      2634    3    0    1
 -2       758      1050       569      1039
 -1      2635    3    0    1
 -2       569      1050      1046       576
 -1      2636    3    0    1
 -2      1046       181       194      1050
 -1      2637    3    0    1
 -2      2520      2145      2534      2574
 -1      2638    3    0    1
 -2       369       961      1935      2114
 -1      2639    3    0    1
 -2      1524      1533      1727      1729
 -1      2640    3    0    1
 -2       573       578       575      1052
 -1      2641    3    0    1
 -2       905      1795      1829      2063
 -1      2642    3    0    1
 -2      1048       573       575      1052
 -1      2643    3    0    1
 -2      1053      1043       573      1047
 -1      2644    3    0    1
 -2       467      1576      1722      1822
 -1      2645    3    0    1
 -2       189      1053       184       336
 -1      2646    3    0    1
 -2       571       579       762      1054
 -1      2647    3    0    1
 -2       760       571       762      1054
 -1      2648    3    0    1
 -2       762       184       760      1054
 -1      2649    3    0    1
 -2       336       196      1054      1933
 -1      2650    3    0    1
 -2      1201       327      1537      1591
 -1      2651    3    0    1
 -2       189       184       762      1054
 -1      2652    3    0    1
 -2       184       189       336      1054
 -1      2653    3    0    1
 -2       572      1054       571       760
 -1      2654    3    0    1
 -2       196       184       336      1054
 -1      2655    3    0    1
 -2      1706      1553      1798      1909
 -1      2656    3    0    1
 -2      1068       765       201      1056
 -1      2657    3    0    1
 -2       182      1055       181       759
 -1      2658    3    0    1
 -2       344       194       181      1055
 -1      2659    3    0    1
 -2       563      1030      1649      1652
 -1      2660    3    0    1
 -2       694      1216       704      1677
 -1      2661    3    0    1
 -2       214       216       204      1057
 -1      2662    3    0    1
 -2      1691      1651      1742      1906
 -1      2663    3    0    1
 -2       203      1074      1058       201
 -1      2664    3    0    1
 -2       201      1074      1058       199
 -1      2665    3    0    1
 -2       199      1074       215       359
 -1      2666    3    0    1
 -2       766      1074       586      1058
 -1      2667    3    0    1
 -2       586      1074       768       592
 -1      2668    3    0    1
 -2      1275      2632      1398      2300
 -1      2669    3    0    1
 -2      1205       689       690      1665
 -1      2670    3    0    1
 -2       585      1070       590      1066
 -1      2671    3    0    1
 -2      1747       567      1891      1893
 -1      2672    3    0    1
 -2       212      1072       431       202
 -1      2673    3    0    1
 -2       842      1212      1598      1931
 -1      2674    3    0    1
 -2       229      1090       221      1080
 -1      2675    3    0    1
 -2      1176      1177      1606      1639
 -1      2676    3    0    1
 -2      1073       586      1072       592
 -1      2677    3    0    1
 -2       456       469      1690      2505
 -1      2678    3    0    1
 -2       204      1065       202      1061
 -1      2679    3    0    1
 -2        83       945      1937      2025
 -1      2680    3    0    1
 -2      1061      1071       584      1063
 -1      2681    3    0    1
 -2       192      1052      1682      1683
 -1      2682    3    0    1
 -2      1532      1594      1684      1708
 -1      2683    3    0    1
 -2      1142      1575      1840      1867
 -1      2684    3    0    1
 -2       585      1066       584      1062
 -1      2685    3    0    1
 -2       590       584       587      1071
 -1      2686    3    0    1
 -2       205      1066      1060      1062
 -1      2687    3    0    1
 -2      1085       222       772      1089
 -1      2688    3    0    1
 -2      1552      1701      1941      1954
 -1      2689    3    0    1
 -2      1464       358      1465      2715
 -1      2690    3    0    1
 -2      1554       333      1975      1991
 -1      2691    3    0    1
 -2       201       208       359      1068
 -1      2692    3    0    1
 -2      1102       385      1608      1832
 -1      2693    3    0    1
 -2      1530      1639      1666      1705
 -1      2694    3    0    1
 -2      1542      1588      1803      1895
 -1      2695    3    0    1
 -2       765      1068       582      1056
 -1      2696    3    0    1
 -2       767       201       359      1068
 -1      2697    3    0    1
 -2       203      1068       201      1056
 -1      2698    3    0    1
 -2      1066       205      1060      1070
 -1      2699    3    0    1
 -2      1538      1892      1998      2069
 -1      2700    3    0    1
 -2       585      1070      1066      1060
 -1      2701    3    0    1
 -2       205      1066       434      1070
 -1      2702    3    0    1
 -2       343       205       434      1070
 -1      2703    3    0    1
 -2       712       436       884      2477
 -1      2704    3    0    1
 -2       137       322      1528      1651
 -1      2705    3    0    1
 -2      1548      1715      1730      1945
 -1      2706    3    0    1
 -2      1061      1071       204      1065
 -1      2707    3    0    1
 -2      1071      1061       584      1065
 -1      2708    3    0    1
 -2       584      1065       587      1071
 -1      2709    3    0    1
 -2      1201       688      1591      1784
 -1      2710    3    0    1
 -2       576       577      1051      2070
 -1      2711    3    0    1
 -2       212      1072       202      1064
 -1      2712    3    0    1
 -2       213       202       431      1072
 -1      2713    3    0    1
 -2       286      1152       303      1909
 -1      2714    3    0    1
 -2       202      1057      1064      1072
 -1      2715    3    0    1
 -2       213       202      1072      1073
 -1      2716    3    0    1
 -2       342       214       204      1073
 -1      2717    3    0    1
 -2       586      1073       581       592
 -1      2718    3    0    1
 -2       202       204      1057      1073
 -1      2719    3    0    1
 -2       203      1074       201       208
 -1      2720    3    0    1
 -2      1074       201       208       359
 -1      2721    3    0    1
 -2       766      1074       203       768
 -1      2722    3    0    1
 -2       785      1122      1986      2053
 -1      2723    3    0    1
 -2       221       773      1076      1082
 -1      2724    3    0    1
 -2       921       916      1717      1783
 -1      2725    3    0    1
 -2      1574      1558      1744      1805
 -1      2726    3    0    1
 -2       861       857      1810      2049
 -1      2727    3    0    1
 -2      2096      1768      2502      2551
 -1      2728    3    0    1
 -2      2192      2089      2542      2276
 -1      2729    3    0    1
 -2      1644      1538      1892      1944
 -1      2730    3    0    1
 -2       601       600       594      1083
 -1      2731    3    0    1
 -2       219      1083       225       226
 -1      2732    3    0    1
 -2       925      1772      1790      1827
 -1      2733    3    0    1
 -2       770      1087      1083       594
 -1      2734    3    0    1
 -2      1087       770       219      1075
 -1      2735    3    0    1
 -2       770      1087       219      1083
 -1      2736    3    0    1
 -2       688       687      1591      1784
 -1      2737    3    0    1
 -2      1405      1406      2684      2685
 -1      2738    3    0    1
 -2      1667      1889      1926      2000
 -1      2739    3    0    1
 -2       223      1089       222       433
 -1      2740    3    0    1
 -2      1070       590      1066      1757
 -1      2741    3    0    1
 -2       902       926      1790      2504
 -1      2742    3    0    1
 -2       902      1790      2100      2504
 -1      2743    3    0    1
 -2       362       754      1794      2101
 -1      2744    3    0    1
 -2      1644      2082      2143      2180
 -1      2745    3    0    1
 -2       340      1883      1031      1526
 -1      2746    3    0    1
 -2       611       606       614      1106
 -1      2747    3    0    1
 -2       770      1087       594      1075
 -1      2748    3    0    1
 -2       224      1087       219      1075
 -1      2749    3    0    1
 -2      2065      2136      2522      2564
 -1      2750    3    0    1
 -2      1257      1310      2307      2357
 -1      2751    3    0    1
 -2      1022       748       555      1698
 -1      2752    3    0    1
 -2        33        30      1812      1861
 -1      2753    3    0    1
 -2      2487      1638      2171      2183
 -1      2754    3    0    1
 -2      1119      1527      1804      1766
 -1      2755    3    0    1
 -2       596       602       599      1089
 -1      2756    3    0    1
 -2       580       591       762      1780
 -1      2757    3    0    1
 -2       597      1089       596       772
 -1      2758    3    0    1
 -2      1085       596       599      1089
 -1      2759    3    0    1
 -2       428       433       222      1089
 -1      2760    3    0    1
 -2       222      1085       428      1089
 -1      2761    3    0    1
 -2       819       672      1714      1753
 -1      2762    3    0    1
 -2      1576      1523      1612      1858
 -1      2763    3    0    1
 -2       597      1090       596       602
 -1      2764    3    0    1
 -2       596      1084       599      1090
 -1      2765    3    0    1
 -2      1084       221       230      1090
 -1      2766    3    0    1
 -2       596      1080       771      1090
 -1      2767    3    0    1
 -2      1084       596       771      1090
 -1      2768    3    0    1
 -2      1080       221       771      1090
 -1      2769    3    0    1
 -2       221      1084       771      1090
 -1      2770    3    0    1
 -2       221       229      1076      1091
 -1      2771    3    0    1
 -2       227      1092       219      1077
 -1      2772    3    0    1
 -2       226       219       357      1092
 -1      2773    3    0    1
 -2      1169       293      1549      1643
 -1      2774    3    0    1
 -2       236       239       240      1109
 -1      2775    3    0    1
 -2       265       262      1116      1129
 -1      2776    3    0    1
 -2      2140      2182      2530      2572
 -1      2777    3    0    1
 -2       427       236      1109      1110
 -1      2778    3    0    1
 -2      2328      1364      2689      2388
 -1      2779    3    0    1
 -2       239      1107      1099       236
 -1      2780    3    0    1
 -2      1096      1107      1099       239
 -1      2781    3    0    1
 -2       419        14       864      1731
 -1      2782    3    0    1
 -2       942       506      1667      1884
 -1      2783    3    0    1
 -2       622      1125       621       626
 -1      2784    3    0    1
 -2       607      1101       606       614
 -1      2785    3    0    1
 -2      1137       284      1920      2039
 -1      2786    3    0    1
 -2      1710        24      1858      1948
 -1      2787    3    0    1
 -2       926      1622      1790      1791
 -1      2788    3    0    1
 -2       235      1102       243      1097
 -1      2789    3    0    1
 -2       567      1038      1891      1893
 -1      2790    3    0    1
 -2      2637      1260      2362      2754
 -1      2791    3    0    1
 -2       621       626       623      1124
 -1      2792    3    0    1
 -2      1567       435      1762      1843
 -1      2793    3    0    1
 -2       398        46       903      1827
 -1      2794    3    0    1
 -2       419       284       865      1731
 -1      2795    3    0    1
 -2      1437      2702      2418      2419
 -1      2796    3    0    1
 -2       776      1104       241       779
 -1      2797    3    0    1
 -2       609      1104       608      1093
 -1      2798    3    0    1
 -2      1104       776       609       779
 -1      2799    3    0    1
 -2       611      1102      1106      1608
 -1      2800    3    0    1
 -2      1283      2522      2570      2598
 -1      2801    3    0    1
 -2      2559      2511      2596      2632
 -1      2802    3    0    1
 -2      2488      2639      2694      2719
 -1      2803    3    0    1
 -2      1891       362      2090      2499
 -1      2804    3    0    1
 -2       606      1097      1098      1106
 -1      2805    3    0    1
 -2       606      1102      1097      1106
 -1      2806    3    0    1
 -2      1102       606       611      1106
 -1      2807    3    0    1
 -2      1096      1107       239      1101
 -1      2808    3    0    1
 -2       787      1140      1130       273
 -1      2809    3    0    1
 -2      1644      2050      2496      2185
 -1      2810    3    0    1
 -2      1049      1270      2552      2678
 -1      2811    3    0    1
 -2       283      1144       276       423
 -1      2812    3    0    1
 -2       793       788       272      1145
 -1      2813    3    0    1
 -2       792       278      1132      1133
 -1      2814    3    0    1
 -2      1123      1103      2522      2541
 -1      2815    3    0    1
 -2      2496      2524      2526      1259
 -1      2816    3    0    1
 -2      2517      2482      2592      2690
 -1      2817    3    0    1
 -2      1656       746      1787      2130
 -1      2818    3    0    1
 -2       195       215      2084      2153
 -1      2819    3    0    1
 -2      1609      1816      1862      1947
 -1      2820    3    0    1
 -2      2151      1644      2496      2185
 -1      2821    3    0    1
 -2       239       380       240      1109
 -1      2822    3    0    1
 -2       239       236      1095      1109
 -1      2823    3    0    1
 -2       236       778      1095      1109
 -1      2824    3    0    1
 -2       251      1109       239      1095
 -1      2825    3    0    1
 -2       246      1111       245       777
 -1      2826    3    0    1
 -2       266       265       262      1116
 -1      2827    3    0    1
 -2       620      1128       627       619
 -1      2828    3    0    1
 -2       412       820      1701      1871
 -1      2829    3    0    1
 -2       269      1127       391       258
 -1      2830    3    0    1
 -2      1661       819      1714      1753
 -1      2831    3    0    1
 -2       620      1129      1116       619
 -1      2832    3    0    1
 -2      1160       649      1159      1551
 -1      2833    3    0    1
 -2       426       256       268      1119
 -1      2834    3    0    1
 -2       296       845      1666      1694
 -1      2835    3    0    1
 -2      1048      1631      1678      1988
 -1      2836    3    0    1
 -2       981      1759      1845      2492
 -1      2837    3    0    1
 -2       620      1129       619       627
 -1      2838    3    0    1
 -2      1177       296      1606      1639
 -1      2839    3    0    1
 -2      1756      1566      1777      1815
 -1      2840    3    0    1
 -2      1607      1525      1700      1733
 -1      2841    3    0    1
 -2       876        37      1822      1824
 -1      2842    3    0    1
 -2       634      1143       633       638
 -1      2843    3    0    1
 -2        68      1583      1717      1898
 -1      2844    3    0    1
 -2       783      1125       621      1118
 -1      2845    3    0    1
 -2       783      1125      1118       256
 -1      2846    3    0    1
 -2       256      1125       268      1119
 -1      2847    3    0    1
 -2       325      1015      1540      1802
 -1      2848    3    0    1
 -2      1558      1744      1805      1851
 -1      2849    3    0    1
 -2      1177       663      1176      1606
 -1      2850    3    0    1
 -2       339      1526      1754      1764
 -1      2851    3    0    1
 -2      1117       259       784      1120
 -1      2852    3    0    1
 -2       259      1124       784      1120
 -1      2853    3    0    1
 -2      1554       544      1699      1921
 -1      2854    3    0    1
 -2      1551      1657      2018      2023
 -1      2855    3    0    1
 -2       781      1122       255       785
 -1      2856    3    0    1
 -2      1122       781       617       785
 -1      2857    3    0    1
 -2      1767        44      1796      1828
 -1      2858    3    0    1
 -2      1242      2540      2554      2661
 -1      2859    3    0    1
 -2       173      1410      1411      2660
 -1      2860    3    0    1
 -2      1924       457      2102      2505
 -1      2861    3    0    1
 -2      2553      2517      2641      2664
 -1      2862    3    0    1
 -2      2606      2242      2256      2318
 -1      2863    3    0    1
 -2      1690       469      1908      2505
 -1      2864    3    0    1
 -2      1342      2599      2603      1403
 -1      2865    3    0    1
 -2      1448      2274      2375      2378
 -1      2866    3    0    1
 -2       614       611      1608      2017
 -1      2867    3    0    1
 -2      1537      1591      1628      1784
 -1      2868    3    0    1
 -2       622      1124       621       784
 -1      2869    3    0    1
 -2      1120       621       623      1124
 -1      2870    3    0    1
 -2       983       527       530      1847
 -1      2871    3    0    1
 -2       194      1046      2159      2186
 -1      2872    3    0    1
 -2       783      1125       256      1119
 -1      2873    3    0    1
 -2      1125       783       621      1119
 -1      2874    3    0    1
 -2       621      1119       623      1125
 -1      2875    3    0    1
 -2      1576       467      1722      1858
 -1      2876    3    0    1
 -2       787      1140       629      1130
 -1      2877    3    0    1
 -2       273      1140      1130       272
 -1      2878    3    0    1
 -2        35       883      1692      1896
 -1      2879    3    0    1
 -2       255       261       270      1126
 -1      2880    3    0    1
 -2       272      1140       280       377
 -1      2881    3    0    1
 -2      1606      1531      1676      1865
 -1      2882    3    0    1
 -2       391       426       258      1127
 -1      2883    3    0    1
 -2       258       256      1114      1127
 -1      2884    3    0    1
 -2      1072       213      1073      1917
 -1      2885    3    0    1
 -2       620      1128       619      1115
 -1      2886    3    0    1
 -2       256       268       386      1128
 -1      2887    3    0    1
 -2      1115       619      1114      1128
 -1      2888    3    0    1
 -2      1114       256      1115      1128
 -1      2889    3    0    1
 -2       619      1127      1114      1128
 -1      2890    3    0    1
 -2       255       261      1126      1129
 -1      2891    3    0    1
 -2       261       255       263      1129
 -1      2892    3    0    1
 -2      1126       782       255      1129
 -1      2893    3    0    1
 -2      1208       327       448      1591
 -1      2894    3    0    1
 -2       265       263       262      1129
 -1      2895    3    0    1
 -2       255      1116       262      1129
 -1      2896    3    0    1
 -2      1116       255       782      1129
 -1      2897    3    0    1
 -2       619      1116       782      1129
 -1      2898    3    0    1
 -2      1126       619       782      1129
 -1      2899    3    0    1
 -2       283      1144      1133       276
 -1      2900    3    0    1
 -2       631       792      1132      1133
 -1      2901    3    0    1
 -2      1949       354      1960      2115
 -1      2902    3    0    1
 -2       919       918      1957      2076
 -1      2903    3    0    1
 -2      1232      1233      2548      1332
 -1      2904    3    0    1
 -2       457       862      1924      2074
 -1      2905    3    0    1
 -2       850       694       704      1677
 -1      2906    3    0    1
 -2       421       278       792      1144
 -1      2907    3    0    1
 -2      1544      1580      1650      1668
 -1      2908    3    0    1
 -2       789      1143       633      1136
 -1      2909    3    0    1
 -2       789      1143      1136       276
 -1      2910    3    0    1
 -2       276      1143       281      1137
 -1      2911    3    0    1
 -2       792       278      1133      1144
 -1      2912    3    0    1
 -2       370        91       947      1735
 -1      2913    3    0    1
 -2       664       663      1606      1676
 -1      2914    3    0    1
 -2       634      1138       633      1135
 -1      2915    3    0    1
 -2      2673      1427      1450      1486
 -1      2916    3    0    1
 -2       275      1138       790      1135
 -1      2917    3    0    1
 -2      2534      2626      2736      2580
 -1      2918    3    0    1
 -2       857      1140      1810      2194
 -1      2919    3    0    1
 -2      1140       273       791       377
 -1      2920    3    0    1
 -2       787      1140       273       791
 -1      2921    3    0    1
 -2      1426      1298      2710      2385
 -1      2922    3    0    1
 -2      1430      1464      1465      2715
 -1      2923    3    0    1
 -2      2679      2280      1463      2421
 -1      2924    3    0    1
 -2       637       636       791      2224
 -1      2925    3    0    1
 -2      1244      2535      1306      1307
 -1      2926    3    0    1
 -2       634      1142      1138       790
 -1      2927    3    0    1
 -2       275      1138       420      1142
 -1      2928    3    0    1
 -2       424       275       420      1142
 -1      2929    3    0    1
 -2      1666      1528      1705      1916
 -1      2930    3    0    1
 -2       996      1823      1975      1985
 -1      2931    3    0    1
 -2       700      1212      1571      1598
 -1      2932    3    0    1
 -2       789      1143       276      1137
 -1      2933    3    0    1
 -2      1143       789       633      1137
 -1      2934    3    0    1
 -2       633      1137       635      1143
 -1      2935    3    0    1
 -2       276       278       421      1144
 -1      2936    3    0    1
 -2       632      1144       631      1133
 -1      2937    3    0    1
 -2       281       423       276      1144
 -1      2938    3    0    1
 -2       278       276      1133      1144
 -1      2939    3    0    1
 -2       631       640       792      1144
 -1      2940    3    0    1
 -2       273       376       377      1145
 -1      2941    3    0    1
 -2       273       272      1134      1145
 -1      2942    3    0    1
 -2       788       631      1134      1145
 -1      2943    3    0    1
 -2       631       793       640      1145
 -1      2944    3    0    1
 -2       272       788      1134      1145
 -1      2945    3    0    1
 -2       793       631       788      1145
 -1      2946    3    0    1
 -2       337       174       755      1855
 -1      2947    3    0    1
 -2       999       740       540      1723
 -1      2948    3    0    1
 -2       531      1927      1965      2081
 -1      2949    3    0    1
 -2      1594      1555      1702      1708
 -1      2950    3    0    1
 -2      1892      1950      1998      2069
 -1      2951    3    0    1
 -2       762       591      1073      1780
 -1      2952    3    0    1
 -2      1602      1019      1697      1738
 -1      2953    3    0    1
 -2       877       881       467      1593
 -1      2954    3    0    1
 -2      1597      1558      1603      1629
 -1      2955    3    0    1
 -2       849       693       703      1695
 -1      2956    3    0    1
 -2      1066      1599      1664      1670
 -1      2957    3    0    1
 -2       665      1180       809      1688
 -1      2958    3    0    1
 -2      1682       187      1852      1988
 -1      2959    3    0    1
 -2      1624       494      1783      1825
 -1      2960    3    0    1
 -2       624       637      1969      2053
 -1      2961    3    0    1
 -2      1597       692      1629      1669
 -1      2962    3    0    1
 -2       615       774      1111      1994
 -1      2963    3    0    1
 -2       270       376      2066      2118
 -1      2964    3    0    1
 -2      1138      1534      1876      1990
 -1      2965    3    0    1
 -2        24       877      1612      1858
 -1      2966    3    0    1
 -2      1187       675       676      1899
 -1      2967    3    0    1
 -2       718        33      1829      1861
 -1      2968    3    0    1
 -2       859      1525      1557      1700
 -1      2969    3    0    1
 -2      1820      1677      1837      1977
 -1      2970    3    0    1
 -2      1762      1567      1843      2030
 -1      2971    3    0    1
 -2      1633       321      1697      1873
 -1      2972    3    0    1
 -2       492       493       917      2076
 -1      2973    3    0    1
 -2       292       843      1916      1930
 -1      2974    3    0    1
 -2       591      1073      1780      1813
 -1      2975    3    0    1
 -2        91       370       942      1884
 -1      2976    3    0    1
 -2       922       494      1825      2016
 -1      2977    3    0    1
 -2      1686      1720      1811      1952
 -1      2978    3    0    1
 -2      1623      1627      1836      1952
 -1      2979    3    0    1
 -2      1178       664      1606      1676
 -1      2980    3    0    1
 -2      1085       599      1773      1897
 -1      2981    3    0    1
 -2       541       740       979      1723
 -1      2982    3    0    1
 -2      1190       286       303      1909
 -1      2983    3    0    1
 -2      1651      1590      1742      1906
 -1      2984    3    0    1
 -2       428      1610      1648      1904
 -1      2985    3    0    1
 -2      1778      1161       403      2020
 -1      2986    3    0    1
 -2      1552      1721      1954      1958
 -1      2987    3    0    1
 -2      1214       313       442      1669
 -1      2988    3    0    1
 -2       756      1747      1891      2057
 -1      2989    3    0    1
 -2       677      1188      1707      1741
 -1      2990    3    0    1
 -2       945       508      1937      2025
 -1      2991    3    0    1
 -2      1570      1663      1713      1782
 -1      2992    3    0    1
 -2       679       826       680      1642
 -1      2993    3    0    1
 -2       325      1540      1720      1782
 -1      2994    3    0    1
 -2       366       430      1091      2001
 -1      2995    3    0    1
 -2      1610      1085      1773      1904
 -1      2996    3    0    1
 -2       755      1652      1855      1933
 -1      2997    3    0    1
 -2       563      1030      1652      1883
 -1      2998    3    0    1
 -2       434      1522      1880      2030
 -1      2999    3    0    1
 -2      1607       416      1700      1708
 -1      3000    3    0    1
 -2       187      1678      1852      1988
 -1      3001    3    0    1
 -2      1894      1083      2111      2137
 -1      3002    3    0    1
 -2       740       541       540      1723
 -1      3003    3    0    1
 -2        95        92       946      1589
 -1      3004    3    0    1
 -2      1534       635      1578      1920
 -1      3005    3    0    1
 -2       896        44      1645      1767
 -1      3006    3    0    1
 -2       268       386      1841      1989
 -1      3007    3    0    1
 -2      1566      1577      1625      1983
 -1      3008    3    0    1
 -2       365       762      1073      1780
 -1      3009    3    0    1
 -2      1030       337      1652      1855
 -1      3010    3    0    1
 -2       249      1703      1913      1928
 -1      3011    3    0    1
 -2       340      1646      1806      1860
 -1      3012    3    0    1
 -2      1581      1680      1682      1852
 -1      3013    3    0    1
 -2      1546      1523      1612      1800
 -1      3014    3    0    1
 -2       941       505      2144      2512
 -1      3015    3    0    1
 -2       692      1214       702      1629
 -1      3016    3    0    1
 -2      1162       651      1590      1712
 -1      3017    3    0    1
 -2      1179      1533       331       810
 -1      3018    3    0    1
 -2       508       519       965      2012
 -1      3019    3    0    1
 -2      1721       415      1878      2003
 -1      3020    3    0    1
 -2       829       683      1679      1687
 -1      3021    3    0    1
 -2      2113      1919      2165      2536
 -1      3022    3    0    1
 -2      1565       428      1648      1905
 -1      3023    3    0    1
 -2       354       369      1949      1960
 -1      3024    3    0    1
 -2      1599      1664      1756      1880
 -1      3025    3    0    1
 -2       567       568       755      1747
 -1      3026    3    0    1
 -2       397       316       802      1637
 -1      3027    3    0    1
 -2      1137       635      1990      2039
 -1      3028    3    0    1
 -2      1600       192      1683      1850
 -1      3029    3    0    1
 -2      1739      2032      2067      2513
 -1      3030    3    0    1
 -2       556       567      1037      1604
 -1      3031    3    0    1
 -2      1581      1569      1680      1711
 -1      3032    3    0    1
 -2        36        15       711      1748
 -1      3033    3    0    1
 -2      2527      2495      2544      2584
 -1      3034    3    0    1
 -2      1020       551       554      1836
 -1      3035    3    0    1
 -2       477       478       480      2295
 -1      3036    3    0    1
 -2       677      1191      1188      1741
 -1      3037    3    0    1
 -2      1019       551      1015      1836
 -1      3038    3    0    1
 -2       861        10      2049      2092
 -1      3039    3    0    1
 -2      1055      1579      1877      2086
 -1      3040    3    0    1
 -2      1110       615      1109      2035
 -1      3041    3    0    1
 -2       880      2495      1247      2562
 -1      3042    3    0    1
 -2      1653      1680      1600      1569
 -1      3043    3    0    1
 -2       924       399        67      1926
 -1      3044    3    0    1
 -2      2485      2529      2554      2661
 -1      3045    3    0    1
 -2      1537       846      1571      1591
 -1      3046    3    0    1
 -2      1188       418      1556      1658
 -1      3047    3    0    1
 -2       458       864      1731      1920
 -1      3048    3    0    1
 -2      1566      1679      1777      1815
 -1      3049    3    0    1
 -2        53        37      1799      1822
 -1      3050    3    0    1
 -2      1591      1537      1628      1646
 -1      3051    3    0    1
 -2      1601      1536      1628      1764
 -1      3052    3    0    1
 -2      1533      1179       331      1661
 -1      3053    3    0    1
 -2       174       337      1036      1724
 -1      3054    3    0    1
 -2       402        81      1640      1775
 -1      3055    3    0    1
 -2       416      1607      1700      1733
 -1      3056    3    0    1
 -2       810       665      1179      1618
 -1      3057    3    0    1
 -2       357       211      1894      2508
 -1      3058    3    0    1
 -2       689       833      1659      1665
 -1      3059    3    0    1
 -2      1151      1647      1706      1941
 -1      3060    3    0    1
 -2       472       483      1795      1829
 -1      3061    3    0    1
 -2       635      1137      1578      1920
 -1      3062    3    0    1
 -2       817       319       819      1661
 -1      3063    3    0    1
 -2      1206       418       443      1658
 -1      3064    3    0    1
 -2      1216       694       839      1677
 -1      3065    3    0    1
 -2       603       592      1092      2008
 -1      3066    3    0    1
 -2      1610       243      1746      1793
 -1      3067    3    0    1
 -2      1073       591       592      1917
 -1      3068    3    0    1
 -2      1525       858      1557      1748
 -1      3069    3    0    1
 -2      1065       587      1757      2009
 -1      3070    3    0    1
 -2      1679      1620      1777      1815
 -1      3071    3    0    1
 -2      1073       214      1780      1917
 -1      3072    3    0    1
 -2      1639      1530      1865      1869
 -1      3073    3    0    1
 -2       679      1192       825      1925
 -1      3074    3    0    1
 -2      1542      1637      1716      1947
 -1      3075    3    0    1
 -2      1209       296       320      1694
 -1      3076    3    0    1
 -2      1017      1794      2135      2161
 -1      3077    3    0    1
 -2       802      1542      1637      1803
 -1      3078    3    0    1
 -2       591      1074      1786      1813
 -1      3079    3    0    1
 -2       881      1593      1733       470
 -1      3080    3    0    1
 -2      1662      1574      1744      1745
 -1      3081    3    0    1
 -2      1623      1035      1627      1811
 -1      3082    3    0    1
 -2       225      1083      1087      1993
 -1      3083    3    0    1
 -2       982       332       409      1524
 -1      3084    3    0    1
 -2      1220      1221      2488      1232
 -1      3085    3    0    1
 -2       320       296      1639      1694
 -1      3086    3    0    1
 -2      1539      1800      1828      1875
 -1      3087    3    0    1
 -2      1567      1762      1977      2030
 -1      3088    3    0    1
 -2      1632      1547      1715      1730
 -1      3089    3    0    1
 -2      1862      1583      1947      1996
 -1      3090    3    0    1
 -2       380       240      1109      1942
 -1      3091    3    0    1
 -2       503       942       936      1761
 -1      3092    3    0    1
 -2      1579       579      1933      1967
 -1      3093    3    0    1
 -2      1549      1684      1708      1751
 -1      3094    3    0    1
 -2       226      1083      1894      2137
 -1      3095    3    0    1
 -2       321       325      1713      1802
 -1      3096    3    0    1
 -2       683      1195       830      1687
 -1      3097    3    0    1
 -2       676      1882      1888      2002
 -1      3098    3    0    1
 -2       433      1089      1615      1874
 -1      3099    3    0    1
 -2       697       845      1209      1694
 -1      3100    3    0    1
 -2       121       981       986      1673
 -1      3101    3    0    1
 -2       194       344      1817      2086
 -1      3102    3    0    1
 -2       527       982       530      1902
 -1      3103    3    0    1
 -2       213       342      1073      1917
 -1      3104    3    0    1
 -2      1882      1563      1888      2002
 -1      3105    3    0    1
 -2      1192       304      1953      2002
 -1      3106    3    0    1
 -2      1554       330      1903      1975
 -1      3107    3    0    1
 -2       674      1184      1701      1871
 -1      3108    3    0    1
 -2       741      1554      1911      1991
 -1      3109    3    0    1
 -2       896        44      1562      1624
 -1      3110    3    0    1
 -2      1935      2025      2124      2515
 -1      3111    3    0    1
 -2       773      1110      1913      1994
 -1      3112    3    0    1
 -2       841       844      1653      1765
 -1      3113    3    0    1
 -2       472       717      1692      1795
 -1      3114    3    0    1
 -2      1746      1726      1831      1925
 -1      3115    3    0    1
 -2       471       472       717      1692
 -1      3116    3    0    1
 -2      1667       506      1761      1884
 -1      3117    3    0    1
 -2      1535      1641      1712      1866
 -1      3118    3    0    1
 -2      1037       174      1724      1855
 -1      3119    3    0    1
 -2      1180       665       666      1688
 -1      3120    3    0    1
 -2       194       360       763      1579
 -1      3121    3    0    1
 -2       947       370      1735      1937
 -1      3122    3    0    1
 -2        91       399      1735      1926
 -1      3123    3    0    1
 -2      1146       315      1147      1857
 -1      3124    3    0    1
 -2      1600       192      1680      1682
 -1      3125    3    0    1
 -2        46       895      1619      1827
 -1      3126    3    0    1
 -2      1770      1586      1788      1832
 -1      3127    3    0    1
 -2        39        33       879      2480
 -1      3128    3    0    1
 -2       945       508       507      1937
 -1      3129    3    0    1
 -2      1589        95      2042      2045
 -1      3130    3    0    1
 -2      1636       347      1995      2005
 -1      3131    3    0    1
 -2      1649      1053      1683      1849
 -1      3132    3    0    1
 -2      1641      1621      1742      2004
 -1      3133    3    0    1
 -2       542       539      1823      1975
 -1      3134    3    0    1
 -2         7       859      1525      1973
 -1      3135    3    0    1
 -2       898       382      1838      2156
 -1      3136    3    0    1
 -2      1535      1641      1688      1727
 -1      3137    3    0    1
 -2       579      1055      1579      1877
 -1      3138    3    0    1
 -2      1724       566      1030      1036
 -1      3139    3    0    1
 -2       187      1581      1682      1852
 -1      3140    3    0    1
 -2       515       518      2033      2040
 -1      3141    3    0    1
 -2       226       357      1894      2508
 -1      3142    3    0    1
 -2       362      1794      1891      2090
 -1      3143    3    0    1
 -2       763       579      1055      1579
 -1      3144    3    0    1
 -2       192      1569      1600      1680
 -1      3145    3    0    1
 -2      1585      1592      1707      1741
 -1      3146    3    0    1
 -2      1522       343      1885      1977
 -1      3147    3    0    1
 -2      1566      1599      1756      1880
 -1      3148    3    0    1
 -2      1837       839      1907      1978
 -1      3149    3    0    1
 -2      1164       651      1163      1712
 -1      3150    3    0    1
 -2      1169       655       656      1626
 -1      3151    3    0    1
 -2       158       157      1017      1656
 -1      3152    3    0    1
 -2       742      1004       350      1921
 -1      3153    3    0    1
 -2      1532        24      1710      1948
 -1      3154    3    0    1
 -2      1148       641       642      1857
 -1      3155    3    0    1
 -2       800      1549      1626      1643
 -1      3156    3    0    1
 -2      2476      1067      1220      2493
 -1      3157    3    0    1
 -2      1022      1698      1911      2080
 -1      3158    3    0    1
 -2      1810       636      2074      2224
 -1      3159    3    0    1
 -2      1065      1660      1757      1940
 -1      3160    3    0    1
 -2       505       492       917      1654
 -1      3161    3    0    1
 -2      1701      1941      1954      1958
 -1      3162    3    0    1
 -2       505       917       941      1654
 -1      3163    3    0    1
 -2      1569      1653      1680      1776
 -1      3164    3    0    1
 -2       835      1214      1629      1669
 -1      3165    3    0    1
 -2       196      1649      1652      1849
 -1      3166    3    0    1
 -2      1714      1548      1753      1955
 -1      3167    3    0    1
 -2       172       352      2672      2392
 -1      3168    3    0    1
 -2      1152      1149      1798      1909
 -1      3169    3    0    1
 -2      1820      1837      1964      1977
 -1      3170    3    0    1
 -2      1292      2529      2577      2661
 -1      3171    3    0    1
 -2      1838       382      2063      2100
 -1      3172    3    0    1
 -2      2476      1220      1221      2488
 -1      3173    3    0    1
 -2      1549      1626      1643      1750
 -1      3174    3    0    1
 -2      1190       303      1592      1909
 -1      3175    3    0    1
 -2       763       580      1579      1813
 -1      3176    3    0    1
 -2       540       999      1723      1787
 -1      3177    3    0    1
 -2      1648      1565      1882      1888
 -1      3178    3    0    1
 -2      1785       374      1987      2116
 -1      3179    3    0    1
 -2      1101       611       614      2017
 -1      3180    3    0    1
 -2      1176       296      1177      1639
 -1      3181    3    0    1
 -2       599      1703      1773      1897
 -1      3182    3    0    1
 -2       628      1126      2026      2043
 -1      3183    3    0    1
 -2       814       816      1962      2020
 -1      3184    3    0    1
 -2      1710      1612      1750      1943
 -1      3185    3    0    1
 -2      2495       860      1248      2584
 -1      3186    3    0    1
 -2      1019       321      1697      1802
 -1      3187    3    0    1
 -2       982       527       977      1902
 -1      3188    3    0    1
 -2      1536      1601      1617      1850
 -1      3189    3    0    1
 -2       297       328      1570      1676
 -1      3190    3    0    1
 -2      1794      2101      2135      2162
 -1      3191    3    0    1
 -2      1198      1569      1680      1848
 -1      3192    3    0    1
 -2       333       143       741      1554
 -1      3193    3    0    1
 -2      1769      1734      2093      2523
 -1      3194    3    0    1
 -2      1623      1035      1686      1883
 -1      3195    3    0    1
 -2      1652      1649      1683      1849
 -1      3196    3    0    1
 -2      1756      1566      1880      1983
 -1      3197    3    0    1
 -2        33        30       716      1812
 -1      3198    3    0    1
 -2       506       942      1761      1884
 -1      3199    3    0    1
 -2        10      1918      2049      2477
 -1      3200    3    0    1
 -2      1549      1684      1702      1708
 -1      3201    3    0    1
 -2      1155       645       646      1843
 -1      3202    3    0    1
 -2       997       322      1001      1691
 -1      3203    3    0    1
 -2       340      1526      1646      1860
 -1      3204    3    0    1
 -2      1640       937      1761      1775
 -1      3205    3    0    1
 -2       423       391      1144      1527
 -1      3206    3    0    1
 -2      1701      1871      1941      1958
 -1      3207    3    0    1
 -2       615      1110      1994      2035
 -1      3208    3    0    1
 -2      1563      1642      1726      1746
 -1      3209    3    0    1
 -2       599      1703      1897      2036
 -1      3210    3    0    1
 -2       732       520      1960      1965
 -1      3211    3    0    1
 -2       299       815      1182      1668
 -1      3212    3    0    1
 -2      1609      1583      1716      1947
 -1      3213    3    0    1
 -2       329       129      1003      1971
 -1      3214    3    0    1
 -2      1566      1756      1777      1983
 -1      3215    3    0    1
 -2       350       142       742      1699
 -1      3216    3    0    1
 -2      1720      1540      1811      1952
 -1      3217    3    0    1
 -2       643      1152      1149      1798
 -1      3218    3    0    1
 -2       350      1004       139      1921
 -1      3219    3    0    1
 -2      1527       423      2021      2044
 -1      3220    3    0    1
 -2       858       864      1774      1938
 -1      3221    3    0    1
 -2      1828      1539      1875      1929
 -1      3222    3    0    1
 -2      1669       836      1695      1835
 -1      3223    3    0    1
 -2      1585      1592      1671      1707
 -1      3224    3    0    1
 -2       938       941      2144      2512
 -1      3225    3    0    1
 -2      1616       626      1728      1989
 -1      3226    3    0    1
 -2       839      1216      1677      1907
 -1      3227    3    0    1
 -2       882       470      1557      1733
 -1      3228    3    0    1
 -2      1030       563       566      1883
 -1      3229    3    0    1
 -2      1528      1590      1651      1712
 -1      3230    3    0    1
 -2      1541      1614      1634      1857
 -1      3231    3    0    1
 -2       293       413      1549      1684
 -1      3232    3    0    1
 -2      1122       624      1969      2053
 -1      3233    3    0    1
 -2        81       935       937      1775
 -1      3234    3    0    1
 -2      1119       623      1766      1804
 -1      3235    3    0    1
 -2      1181       668      1632      1715
 -1      3236    3    0    1
 -2      1650      1580      1740      1963
 -1      3237    3    0    1
 -2      1589       370      1937      1735
 -1      3238    3    0    1
 -2      1159       317      1160      1946
 -1      3239    3    0    1
 -2      1887       329      1903      1971
 -1      3240    3    0    1
 -2      1547      1632      1715      1946
 -1      3241    3    0    1
 -2      1625      1880      1983      2030
 -1      3242    3    0    1
 -2      1647      1552      1706      1941
 -1      3243    3    0    1
 -2      1537       340      1646      1806
 -1      3244    3    0    1
 -2      1185      1888      1953      2002
 -1      3245    3    0    1
 -2      2527      2491      2201      2622
 -1      3246    3    0    1
 -2      1583      1609      1716      1736
 -1      3247    3    0    1
 -2       986      1673      1936      2081
 -1      3248    3    0    1
 -2       626      1124      1728      1766
 -1      3249    3    0    1
 -2      1613      1548      1752      1808
 -1      3250    3    0    1
 -2       418      1191       443      1658
 -1      3251    3    0    1
 -2       899       879      2048      2480
 -1      3252    3    0    1
 -2       288      1828      1875      1929
 -1      3253    3    0    1
 -2      1914       615      1994      2035
 -1      3254    3    0    1
 -2       682       681       828      1655
 -1      3255    3    0    1
 -2      2175      2143      2180      2521
 -1      3256    3    0    1
 -2       121       736       979      1845
 -1      3257    3    0    1
 -2       481      1693      1709      2129
 -1      3258    3    0    1
 -2      1529      1659      1663      1704
 -1      3259    3    0    1
 -2      1535      1641      1742      1906
 -1      3260    3    0    1
 -2      1175       661       662      1996
 -1      3261    3    0    1
 -2      1820       343      1977      1988
 -1      3262    3    0    1
 -2       627      1128      2013      2046
 -1      3263    3    0    1
 -2      1527      1119      1804       391
 -1      3264    3    0    1
 -2      1599      1066      1664      1880
 -1      3265    3    0    1
 -2      1539        44      1743      1767
 -1      3266    3    0    1
 -2      1592      1190      1707      1741
 -1      3267    3    0    1
 -2      1593       876      1722      1824
 -1      3268    3    0    1
 -2      1569       192      1600      1617
 -1      3269    3    0    1
 -2       828       681      1193      1655
 -1      3270    3    0    1
 -2      1574      1662      1744      1867
 -1      3271    3    0    1
 -2       846       700      1571      1598
 -1      3272    3    0    1
 -2      1537      1571      1573      1591
 -1      3273    3    0    1
 -2      1106      1608      1793      1928
 -1      3274    3    0    1
 -2      1807       767      2084      2142
 -1      3275    3    0    1
 -2       433      1565      1815      1905
 -1      3276    3    0    1
 -2       795       435      1567      1843
 -1      3277    3    0    1
 -2       482       479       721      1826
 -1      3278    3    0    1
 -2       556       567      1604      1893
 -1      3279    3    0    1
 -2      1757       590      1846      1885
 -1      3280    3    0    1
 -2      1298      2573      1312      1313
 -1      3281    3    0    1
 -2       551      1020      1014      1836
 -1      3282    3    0    1
 -2       340       339      1537      1646
 -1      3283    3    0    1
 -2      1664      1599      1756      1874
 -1      3284    3    0    1
 -2      1553      1592      1647      1798
 -1      3285    3    0    1
 -2       214       342      1071      1940
 -1      3286    3    0    1
 -2      1212       696       842      1598
 -1      3287    3    0    1
 -2      1998      1538      2069      2140
 -1      3288    3    0    1
 -2       418      1206       847      1658
 -1      3289    3    0    1
 -2       494       921      1624      1783
 -1      3290    3    0    1
 -2       554      1019      1697      1802
 -1      3291    3    0    1
 -2      1127      1527      2010      2043
 -1      3292    3    0    1
 -2      1558      1572      1597      1603
 -1      3293    3    0    1
 -2      1072      1660      1939      2008
 -1      3294    3    0    1
 -2      1619       901      1722      1826
 -1      3295    3    0    1
 -2       926       384        72      2504
 -1      3296    3    0    1
 -2      1704      1686      1806      1860
 -1      3297    3    0    1
 -2      1722      1576      1858      1901
 -1      3298    3    0    1
 -2      1686      1540      1720      1952
 -1      3299    3    0    1
 -2      1528      1162      1590      1916
 -1      3300    3    0    1
 -2      1203       689      1570      1665
 -1      3301    3    0    1
 -2       834      1213      1805      1851
 -1      3302    3    0    1
 -2      1189      1190      1707      1909
 -1      3303    3    0    1
 -2       640       639      1145      1739
 -1      3304    3    0    1
 -2      1035       340      1686      1883
 -1      3305    3    0    1
 -2      1584      1158      1718      1758
 -1      3306    3    0    1
 -2       578       575      1052      1922
 -1      3307    3    0    1
 -2       327       846      1537      1591
 -1      3308    3    0    1
 -2      1685       964      2022      2045
 -1      3309    3    0    1
 -2      2048      1564      2480      2134
 -1      3310    3    0    1
 -2      1607         7      1721      1954
 -1      3311    3    0    1
 -2      1641      1535      1712      1906
 -1      3312    3    0    1
 -2       801       656      1626      1681
 -1      3313    3    0    1
 -2      1210       310       840      1848
 -1      3314    3    0    1
 -2      1686      1529      1806      1811
 -1      3315    3    0    1
 -2       659      1173       660      1842
 -1      3316    3    0    1
 -2      1620      1615      1815      1905
 -1      3317    3    0    1
 -2       530       527      1902      1961
 -1      3318    3    0    1
 -2      2026       628      2043      2044
 -1      3319    3    0    1
 -2       137       322      1651      1691
 -1      3320    3    0    1
 -2       925       903      1772      1827
 -1      3321    3    0    1
 -2      1692       472      1829      1861
 -1      3322    3    0    1
 -2      1556      1585      1658      1745
 -1      3323    3    0    1
 -2       494       491      1783      2016
 -1      3324    3    0    1
 -2       858        14       417      1774
 -1      3325    3    0    1
 -2      1528       322      1630      1705
 -1      3326    3    0    1
 -2      1184      1701      1871      1941
 -1      3327    3    0    1
 -2       332      1524      1727      1729
 -1      3328    3    0    1
 -2       347      1966      1995      2038
 -1      3329    3    0    1
 -2      1066       590       587      1757
 -1      3330    3    0    1
 -2      1052       192      1601      1683
 -1      3331    3    0    1
 -2      1667      1611      1737      1775
 -1      3332    3    0    1
 -2       879      1812      2048      2480
 -1      3333    3    0    1
 -2      1789       926      1790      1791
 -1      3334    3    0    1
 -2      1619        53      1799      1822
 -1      3335    3    0    1
 -2       641      1147       642      1857
 -1      3336    3    0    1
 -2       859       863      1938      1973
 -1      3337    3    0    1
 -2      1019       554      1697      1738
 -1      3338    3    0    1
 -2      1726      1563      1882      2002
 -1      3339    3    0    1
 -2       566      1724      1030      1883
 -1      3340    3    0    1
 -2      1882       676      1888      1899
 -1      3341    3    0    1
 -2       342       213      1660      1917
 -1      3342    3    0    1
 -2       661       807       662      1862
 -1      3343    3    0    1
 -2       859       455      1525      1973
 -1      3344    3    0    1
 -2       682      1194      1655      1771
 -1      3345    3    0    1
 -2      1168       653       654      1702
 -1      3346    3    0    1
 -2       335       159      1020      1696
 -1      3347    3    0    1
 -2      1568      1581      1852      1964
 -1      3348    3    0    1
 -2       359       215      2084      2108
 -1      3349    3    0    1
 -2      2620      2636      2660      2688
 -1      3350    3    0    1
 -2       139       740      1787      2061
 -1      3351    3    0    1
 -2       623      1120      1124      1766
 -1      3352    3    0    1
 -2      1696      1014      1836      1912
 -1      3353    3    0    1
 -2       602      1664      1670      1900
 -1      3354    3    0    1
 -2       643      1151       644      1706
 -1      3355    3    0    1
 -2      1695      1560      1835      1979
 -1      3356    3    0    1
 -2       128       356       986      2494
 -1      3357    3    0    1
 -2      1566      1777      1981      1983
 -1      3358    3    0    1
 -2      1165       651       652      1590
 -1      3359    3    0    1
 -2      1593       881      1733      1948
 -1      3360    3    0    1
 -2       386       268      1125      1989
 -1      3361    3    0    1
 -2      1528      1590      1712      1916
 -1      3362    3    0    1
 -2      1579       579      1877      1933
 -1      3363    3    0    1
 -2        30        33       718      1861
 -1      3364    3    0    1
 -2       532       531       981      1936
 -1      3365    3    0    1
 -2      1619        46      1772      1795
 -1      3366    3    0    1
 -2      1524       332      1533      1729
 -1      3367    3    0    1
 -2      1579       763      1813      2507
 -1      3368    3    0    1
 -2       520       519       732      1960
 -1      3369    3    0    1
 -2       458       455       863      1938
 -1      3370    3    0    1
 -2        36        35       882      1748
 -1      3371    3    0    1
 -2       494       491       916      1783
 -1      3372    3    0    1
 -2      1760       516      2128      2489
 -1      3373    3    0    1
 -2       614      1106      1703      1928
 -1      3374    3    0    1
 -2       317       812      1181      1946
 -1      3375    3    0    1
 -2       342       214      1917      1940
 -1      3376    3    0    1
 -2      1242      1241      2540      2567
 -1      3377    3    0    1
 -2      1964      1907      1814      1978
 -1      3378    3    0    1
 -2        53       904      1619      1799
 -1      3379    3    0    1
 -2      1168       654      1684      1702
 -1      3380    3    0    1
 -2      1541      1588      1818      1819
 -1      3381    3    0    1
 -2      1543      1583      1609      1862
 -1      3382    3    0    1
 -2      1031       339      1526      1754
 -1      3383    3    0    1
 -2         7      1525      1607      1973
 -1      3384    3    0    1
 -2      1621      1641      1854      2004
 -1      3385    3    0    1
 -2       335      1696      1985      1991
 -1      3386    3    0    1
 -2       717       472       904      1795
 -1      3387    3    0    1
 -2       901      1619      1722      1822
 -1      3388    3    0    1
 -2      1546      1626      1681      1758
 -1      3389    3    0    1
 -2       965       519      1934      2012
 -1      3390    3    0    1
 -2      1677      1567      1762      1820
 -1      3391    3    0    1
 -2       925      1790      1825      1827
 -1      3392    3    0    1
 -2       369       354       732      1960
 -1      3393    3    0    1
 -2       666       665      1618      1688
 -1      3394    3    0    1
 -2       395       921      1783      1959
 -1      3395    3    0    1
 -2      1149      1706      1798      1909
 -1      3396    3    0    1
 -2      1180       666      1618      1688
 -1      3397    3    0    1
 -2      1544      1668      1842      1881
 -1      3398    3    0    1
 -2      1048      1631      1682      1922
 -1      3399    3    0    1
 -2      1601      1649      1683      1850
 -1      3400    3    0    1
 -2      1624      1562      1783      1959
 -1      3401    3    0    1
 -2       826       305       314      1831
 -1      3402    3    0    1
 -2       396      1541      1803      1818
 -1      3403    3    0    1
 -2       589      1801      2142      2525
 -1      3404    3    0    1
 -2       626      1124      1616      1728
 -1      3405    3    0    1
 -2       249       427      1107      2117
 -1      3406    3    0    1
 -2      1066       434      1522      1880
 -1      3407    3    0    1
 -2       556       747      1698      1912
 -1      3408    3    0    1
 -2      2482      2517      2551      2554
 -1      3409    3    0    1
 -2      1036       566      1623      1724
 -1      3410    3    0    1
 -2      1151       643      1150      1706
 -1      3411    3    0    1
 -2       196       755      1054      1652
 -1      3412    3    0    1
 -2       424       420      1745      1876
 -1      3413    3    0    1
 -2       957       964       346      2033
 -1      3414    3    0    1
 -2      1572      1558      1575      1603
 -1      3415    3    0    1
 -2       425      1572      1575      1603
 -1      3416    3    0    1
 -2      1053       578      1649      1683
 -1      3417    3    0    1
 -2      1607      1555      1954      1958
 -1      3418    3    0    1
 -2      1762      1677      1820      1977
 -1      3419    3    0    1
 -2      1642      1726      1746      1925
 -1      3420    3    0    1
 -2       721       479       896      1826
 -1      3421    3    0    1
 -2      1618      1179      1661      1688
 -1      3422    3    0    1
 -2       287       795      1155      1843
 -1      3423    3    0    1
 -2      1749        10      1918      2049
 -1      3424    3    0    1
 -2       370        92       942      1884
 -1      3425    3    0    1
 -2      1590      1535      1712      1866
 -1      3426    3    0    1
 -2       857      1810      2049      2172
 -1      3427    3    0    1
 -2      1150      1151      1706      1941
 -1      3428    3    0    1
 -2       833      1659      1665      1931
 -1      3429    3    0    1
 -2       409      1752      1808      1853
 -1      3430    3    0    1
 -2      1661      1714      1752      1753
 -1      3431    3    0    1
 -2      1664      1670      1900      2009
 -1      3432    3    0    1
 -2        36        35      1748      1896
 -1      3433    3    0    1
 -2      1621      1641      1727      1854
 -1      3434    3    0    1
 -2      1555       412      1594      1702
 -1      3435    3    0    1
 -2      1728       264      1586      1788
 -1      3436    3    0    1
 -2      1033       177       754      1794
 -1      3437    3    0    1
 -2      1070       590      1885      1923
 -1      3438    3    0    1
 -2      1184       821      1701      1941
 -1      3439    3    0    1
 -2      1622        71      1825      1926
 -1      3440    3    0    1
 -2       192      1569      1680      1682
 -1      3441    3    0    1
 -2      1066       434      1070      1522
 -1      3442    3    0    1
 -2       434       343      1070      1522
 -1      3443    3    0    1
 -2       685      1197       686      1711
 -1      3444    3    0    1
 -2       881       877       416      1948
 -1      3445    3    0    1
 -2       795      1567      1577      1843
 -1      3446    3    0    1
 -2      1652       196      1849      1933
 -1      3447    3    0    1
 -2        10       436      2477      2098
 -1      3448    3    0    1
 -2      1534      1578      1878      1920
 -1      3449    3    0    1
 -2       699      1666      1694      1930
 -1      3450    3    0    1
 -2      1101      1107       240      2017
 -1      3451    3    0    1
 -2      1618      1535      1688      1729
 -1      3452    3    0    1
 -2       214      1071      1846      1940
 -1      3453    3    0    1
 -2      1580      1650      1668      1963
 -1      3454    3    0    1
 -2       828       682      1655      1771
 -1      3455    3    0    1
 -2      1138       420      1142      1662
 -1      3456    3    0    1
 -2       687      1202      1199      1784
 -1      3457    3    0    1
 -2      2608      1450      2353      1486
 -1      3458    3    0    1
 -2       321      1633      1713      1782
 -1      3459    3    0    1
 -2      1001      1689      1691      2004
 -1      3460    3    0    1
 -2      1122       785      1986      2031
 -1      3461    3    0    1
 -2      1626       801      1681      1758
 -1      3462    3    0    1
 -2       286      1190      1189      1909
 -1      3463    3    0    1
 -2      1849       578      1047      1053
 -1      3464    3    0    1
 -2       945       507       948      1937
 -1      3465    3    0    1
 -2      1847       129      1872      1971
 -1      3466    3    0    1
 -2       905       902       483      1772
 -1      3467    3    0    1
 -2      1529      1663      1686      1704
 -1      3468    3    0    1
 -2       455       859      1525      1557
 -1      3469    3    0    1
 -2        75       925      1825      1827
 -1      3470    3    0    1
 -2      1564        56      2480      2134
 -1      3471    3    0    1
 -2      1645       721      1826      1901
 -1      3472    3    0    1
 -2      1533      1618      1727      1729
 -1      3473    3    0    1
 -2       368      1337      1338      2590
 -1      3474    3    0    1
 -2        37      1799      1822      1824
 -1      3475    3    0    1
 -2      1626       656      1643      1681
 -1      3476    3    0    1
 -2      2105      1838      2148      2156
 -1      3477    3    0    1
 -2       385      1595      1792      1832
 -1      3478    3    0    1
 -2       122       985      1936      2019
 -1      3479    3    0    1
 -2        37        38       717      1692
 -1      3480    3    0    1
 -2       793       640      2032      2067
 -1      3481    3    0    1
 -2      1803      1588      1818      1895
 -1      3482    3    0    1
 -2      1580      1544      1640      1668
 -1      3483    3    0    1
 -2       736       960      2077      2149
 -1      3484    3    0    1
 -2      1475        41      1505      2470
 -1      3485    3    0    1
 -2        95       936      1589      2042
 -1      3486    3    0    1
 -2      1583      1543      1609      1898
 -1      3487    3    0    1
 -2      1565      1648      1882      1905
 -1      3488    3    0    1
 -2      1582      1585      1745      1876
 -1      3489    3    0    1
 -2      1634      1541      1818      1819
 -1      3490    3    0    1
 -2       768      1074       208      1786
 -1      3491    3    0    1
 -2      1949       960      2077      2128
 -1      3492    3    0    1
 -2      1199      1763      1784      2027
 -1      3493    3    0    1
 -2       326      2027       841       312
 -1      3494    3    0    1
 -2       555      1022      1698      1911
 -1      3495    3    0    1
 -2        72       373      1789      1957
 -1      3496    3    0    1
 -2       458       863      1878      1938
 -1      3497    3    0    1
 -2       717      1692      1795      1799
 -1      3498    3    0    1
 -2       659      1172      1842      1864
 -1      3499    3    0    1
 -2      1172       299      1173      1842
 -1      3500    3    0    1
 -2       354       110       732      2494
 -1      3501    3    0    1
 -2      2556      2583      2601      2737
 -1      3502    3    0    1
 -2      1107      1608      1928      2017
 -1      3503    3    0    1
 -2       264       425      1559      1672
 -1      3504    3    0    1
 -2      2478      2058      2129      2519
 -1      3505    3    0    1
 -2       302      1185      1953      2002
 -1      3506    3    0    1
 -2        44       394      1796      1800
 -1      3507    3    0    1
 -2       692       835      1629      1669
 -1      3508    3    0    1
 -2       480       493       898      1693
 -1      3509    3    0    1
 -2        46       398       895      1827
 -1      3510    3    0    1
 -2      1667       942      1884      1889
 -1      3511    3    0    1
 -2      1627       551      1836      1952
 -1      3512    3    0    1
 -2      2641      2359      2401      2402
 -1      3513    3    0    1
 -2       575      1047      1631      1922
 -1      3514    3    0    1
 -2       836       849      1669      1695
 -1      3515    3    0    1
 -2      1650      1740      1962      1963
 -1      3516    3    0    1
 -2      1002       542      1689      1975
 -1      3517    3    0    1
 -2      1169       800      1626      1643
 -1      3518    3    0    1
 -2      1663      1529      1686      1720
 -1      3519    3    0    1
 -2      1738      1697      1823      1985
 -1      3520    3    0    1
 -2      1703      1773      1897      2036
 -1      3521    3    0    1
 -2       356       736      1845      2077
 -1      3522    3    0    1
 -2       692       848      1207      1629
 -1      3523    3    0    1
 -2        68       395      1717      1736
 -1      3524    3    0    1
 -2      1587       322      1691      1705
 -1      3525    3    0    1
 -2       323       324       747      1912
 -1      3526    3    0    1
 -2      1195       830      1687      2029
 -1      3527    3    0    1
 -2       335       159      1696      2079
 -1      3528    3    0    1
 -2      1120       425      1572      1575
 -1      3529    3    0    1
 -2        15       417       711      1774
 -1      3530    3    0    1
 -2       567      1037      1604      1893
 -1      3531    3    0    1
 -2       903        46      1772      1827
 -1      3532    3    0    1
 -2       324       159       747      1912
 -1      3533    3    0    1
 -2       386       380      1841      1956
 -1      3534    3    0    1
 -2      1620      1565      1679      1899
 -1      3535    3    0    1
 -2       673      1184       821      1701
 -1      3536    3    0    1
 -2       442       849      1559      1669
 -1      3537    3    0    1
 -2       322      1528      1651      1705
 -1      3538    3    0    1
 -2       814       290       816      2020
 -1      3539    3    0    1
 -2      1214       692       835      1629
 -1      3540    3    0    1
 -2       687      1201       688      1591
 -1      3541    3    0    1
 -2       935        81       402      1775
 -1      3542    3    0    1
 -2      1048       187      1682      1988
 -1      3543    3    0    1
 -2      1585      1556      1658      1741
 -1      3544    3    0    1
 -2      2500      1224      1249      1250
 -1      3545    3    0    1
 -2      1211       292       441      1930
 -1      3546    3    0    1
 -2       831       829      1679      1687
 -1      3547    3    0    1
 -2      1014      1020      1696      1836
 -1      3548    3    0    1
 -2       653      1167       654      1684
 -1      3549    3    0    1
 -2      1204       689      1203      1665
 -1      3550    3    0    1
 -2      1161      1778       403       797
 -1      3551    3    0    1
 -2      1914      1108      2041      1217
 -1      3552    3    0    1
 -2      1571      1537      1573      1806
 -1      3553    3    0    1
 -2       433      1615      1756      1874
 -1      3554    3    0    1
 -2       194       360      1579      1974
 -1      3555    3    0    1
 -2       983      1847      1961      2019
 -1      3556    3    0    1
 -2       516       736       960      2077
 -1      3557    3    0    1
 -2      1731        14      1774      1932
 -1      3558    3    0    1
 -2        44       394      1645      1796
 -1      3559    3    0    1
 -2      1666      1639      1694      1705
 -1      3560    3    0    1
 -2       865      1731      2011      2032
 -1      3561    3    0    1
 -2       689      1205       833      1665
 -1      3562    3    0    1
 -2      1605      1543      1611      1737
 -1      3563    3    0    1
 -2       792       421      1144      2011
 -1      3564    3    0    1
 -2       192       187      1569      1682
 -1      3565    3    0    1
 -2       321      1633      1697      1802
 -1      3566    3    0    1
 -2      1671      1582      1675      1876
 -1      3567    3    0    1
 -2      1816       807      1862      1947
 -1      3568    3    0    1
 -2       345       337       755      1855
 -1      3569    3    0    1
 -2      2517      1239      2551      2554
 -1      3570    3    0    1
 -2       483      1772       903      1795
 -1      3571    3    0    1
 -2      1601      1536      1764      1850
 -1      3572    3    0    1
 -2      1590      1535      1866      1886
 -1      3573    3    0    1
 -2       424      1142      1662      1867
 -1      3574    3    0    1
 -2      1744      1575      1572      1558
 -1      3575    3    0    1
 -2       801       289      1681      1758
 -1      3576    3    0    1
 -2       391       426      1127      1527
 -1      3577    3    0    1
 -2       693      1695      1835      1979
 -1      3578    3    0    1
 -2       805       295       807      1816
 -1      3579    3    0    1
 -2      1198       832      1569      1848
 -1      3580    3    0    1
 -2      1659      1529      1665      1931
 -1      3581    3    0    1
 -2      1565      1620      1815      1905
 -1      3582    3    0    1
 -2       957       515      1779      1809
 -1      3583    3    0    1
 -2      1051      1049      2070      2132
 -1      3584    3    0    1
 -2       977       332      1524      1902
 -1      3585    3    0    1
 -2       604       603       774      1856
 -1      3586    3    0    1
 -2      1548      1613      1714      1753
 -1      3587    3    0    1
 -2      1066      1522      1757      1880
 -1      3588    3    0    1
 -2       864       458      1731      1938
 -1      3589    3    0    1
 -2       820       294       822      1871
 -1      3590    3    0    1
 -2      1038       756       567      1891
 -1      3591    3    0    1
 -2      1768      1018      2155      2497
 -1      3592    3    0    1
 -2       369      1935      1949      1960
 -1      3593    3    0    1
 -2       208      1074       359      1786
 -1      3594    3    0    1
 -2       964       406      2033      2045
 -1      3595    3    0    1
 -2      1161       649       650      1879
 -1      3596    3    0    1
 -2      1743      1634      1767      1819
 -1      3597    3    0    1
 -2       666       665       810      1618
 -1      3598    3    0    1
 -2      1552      1647      1721      1941
 -1      3599    3    0    1
 -2       291      1164      1866      1886
 -1      3600    3    0    1
 -2      1618      1180      1688      1886
 -1      3601    3    0    1
 -2        10       712      1749      1918
 -1      3602    3    0    1
 -2      1048       575      1631      1922
 -1      3603    3    0    1
 -2       578      1849      1047      1922
 -1      3604    3    0    1
 -2       243       385      1792      1793
 -1      3605    3    0    1
 -2      1653       698      1776      1848
 -1      3606    3    0    1
 -2       844      1653      1765      1972
 -1      3607    3    0    1
 -2       543       532      1004      1759
 -1      3608    3    0    1
 -2       532       981      1004      1759
 -1      3609    3    0    1
 -2      1812      1861      2477      2098
 -1      3610    3    0    1
 -2       492      1654      1957      2076
 -1      3611    3    0    1
 -2      1065       213      1660      1940
 -1      3612    3    0    1
 -2       493      1693      2076      2105
 -1      3613    3    0    1
 -2        72       919      1957      2105
 -1      3614    3    0    1
 -2      1290      2526      2600      2637
 -1      3615    3    0    1
 -2      1650      1740      1778      2020
 -1      3616    3    0    1
 -2       325      1540      1713      1802
 -1      3617    3    0    1
 -2       343      1885      1977      1988
 -1      3618    3    0    1
 -2      1653      1536      1765      1972
 -1      3619    3    0    1
 -2       459      1749      1932      2067
 -1      3620    3    0    1
 -2       657       804       658      1803
 -1      3621    3    0    1
 -2      1763      1536      1784      1972
 -1      3622    3    0    1
 -2       400      1816      1862      1864
 -1      3623    3    0    1
 -2       346       406      1934      2033
 -1      3624    3    0    1
 -2      1065       431      1670      2009
 -1      3625    3    0    1
 -2      1090      1084      1897      1900
 -1      3626    3    0    1
 -2       958       515      1995      2040
 -1      3627    3    0    1
 -2       964       518      2022      2033
 -1      3628    3    0    1
 -2      1611       935      1667      1889
 -1      3629    3    0    1
 -2      1531      1570      1676      1865
 -1      3630    3    0    1
 -2      1176      1606      1676      1865
 -1      3631    3    0    1
 -2      1037      1747      1855      1893
 -1      3632    3    0    1
 -2       963       958       404      1995
 -1      3633    3    0    1
 -2      1680      1581      1814      1852
 -1      3634    3    0    1
 -2        56       879       899      2480
 -1      3635    3    0    1
 -2       483       905      1772      1795
 -1      3636    3    0    1
 -2        46       411       904      1795
 -1      3637    3    0    1
 -2      1722      1619      1799      1822
 -1      3638    3    0    1
 -2      1102       243      1106      1793
 -1      3639    3    0    1
 -2       741       333      1554      1991
 -1      3640    3    0    1
 -2       904       411      1619      1795
 -1      3641    3    0    1
 -2      1960       732      2081      2494
 -1      3642    3    0    1
 -2       601      1067      1088      2483
 -1      3643    3    0    1
 -2      1890       529      2054      2489
 -1      3644    3    0    1
 -2       691       701       847      1992
 -1      3645    3    0    1
 -2       919       898      1693      2156
 -1      3646    3    0    1
 -2      1120      1572      1766      1840
 -1      3647    3    0    1
 -2       333      1738      1985      1991
 -1      3648    3    0    1
 -2      1020       554      1696      1836
 -1      3649    3    0    1
 -2      1019      1015      1802      1836
 -1      3650    3    0    1
 -2      1586      1560      1595      1770
 -1      3651    3    0    1
 -2      1102       385       243      1793
 -1      3652    3    0    1
 -2      1068       767       588      1801
 -1      3653    3    0    1
 -2       904       717      1795      1799
 -1      3654    3    0    1
 -2      2670      2610      2693      2742
 -1      3655    3    0    1
 -2       611      1102      1608      1832
 -1      3656    3    0    1
 -2      1838      2100      2148      2504
 -1      3657    3    0    1
 -2      1685      2022      2042      2045
 -1      3658    3    0    1
 -2       357       226      1894      2137
 -1      3659    3    0    1
 -2      1767      1743      1819      1959
 -1      3660    3    0    1
 -2       484       495       903      1772
 -1      3661    3    0    1
 -2       903       495       925      1772
 -1      3662    3    0    1
 -2       495       926      1622      1790
 -1      3663    3    0    1
 -2      1854       977      1872      1902
 -1      3664    3    0    1
 -2      1610      1085      1703      1773
 -1      3665    3    0    1
 -2      1918      2049      2477      2098
 -1      3666    3    0    1
 -2       419       864      1578      1920
 -1      3667    3    0    1
 -2      1085       599      1703      1773
 -1      3668    3    0    1
 -2      1015       325      1540      1952
 -1      3669    3    0    1
 -2      1540       325      1811      1952
 -1      3670    3    0    1
 -2      1679      1620      1687      1777
 -1      3671    3    0    1
 -2      1813      1786      2108      2507
 -1      3672    3    0    1
 -2      1935       961      1949      1982
 -1      3673    3    0    1
 -2      2078      1034      2540      2554
 -1      3674    3    0    1
 -2       423       281      2021      2044
 -1      3675    3    0    1
 -2       580      1579      1813      1967
 -1      3676    3    0    1
 -2       321      1633      1782      1873
 -1      3677    3    0    1
 -2      2482      2072      2551      2556
 -1      3678    3    0    1
 -2      1522       343      1977      2030
 -1      3679    3    0    1
 -2       579      1054      1933      1967
 -1      3680    3    0    1
 -2      1524       332      1727      1854
 -1      3681    3    0    1
 -2       249      1913      2035      2117
 -1      3682    3    0    1
 -2      1054       336      1933      1967
 -1      3683    3    0    1
 -2      1546      1523      1800      1943
 -1      3684    3    0    1
 -2      1106       614      1608      1928
 -1      3685    3    0    1
 -2      1211       697       843      1930
 -1      3686    3    0    1
 -2       568       756      1877      2057
 -1      3687    3    0    1
 -2      2486       917      1243      2550
 -1      3688    3    0    1
 -2       793       640      1739      2032
 -1      3689    3    0    1
 -2      1107       427      2017      2117
 -1      3690    3    0    1
 -2      1198      1680      1776      1848
 -1      3691    3    0    1
 -2       310      1210       338      1848
 -1      3692    3    0    1
 -2      1844      1944      1980      2047
 -1      3693    3    0    1
 -2      1323      1247      2633      2649
 -1      3694    3    0    1
 -2      1053       189      1047      1849
 -1      3695    3    0    1
 -2       310      1198      1776      1848
 -1      3696    3    0    1
 -2       965       406       405      1934
 -1      3697    3    0    1
 -2      1021      1698      1912      2079
 -1      3698    3    0    1
 -2       346       348       957      1779
 -1      3699    3    0    1
 -2       528      1723      1890      2068
 -1      3700    3    0    1
 -2      1744      1805      1851      1992
 -1      3701    3    0    1
 -2      1592       303      1798      1909
 -1      3702    3    0    1
 -2      1553      1671      1675      2003
 -1      3703    3    0    1
 -2      1703      1106      1773      1928
 -1      3704    3    0    1
 -2      1680      1569      1776      1848
 -1      3705    3    0    1
 -2      1107       614      1703      1928
 -1      3706    3    0    1
 -2       369       367      1935      2515
 -1      3707    3    0    1
 -2       373       926        72      1791
 -1      3708    3    0    1
 -2       495      1772       902      1790
 -1      3709    3    0    1
 -2      1790       902       495       926
 -1      3710    3    0    1
 -2      1647      1151      1706      1798
 -1      3711    3    0    1
 -2      1980      1944      2014      2047
 -1      3712    3    0    1
 -2      1770      1595      1832      1833
 -1      3713    3    0    1
 -2       925       495      1622      1790
 -1      3714    3    0    1
 -2      1561      1655      1771      1833
 -1      3715    3    0    1
 -2      1170       657       658      1818
 -1      3716    3    0    1
 -2      1655      1560      1771      1833
 -1      3717    3    0    1
 -2       395      1783      1819      1959
 -1      3718    3    0    1
 -2       986       981       531      1936
 -1      3719    3    0    1
 -2      1809       530      1853      1961
 -1      3720    3    0    1
 -2       613       779      1919      2028
 -1      3721    3    0    1
 -2       863       415      1878      1973
 -1      3722    3    0    1
 -2      1913       249      1928      2117
 -1      3723    3    0    1
 -2      1721      1607      1954      1958
 -1      3724    3    0    1
 -2      2493      2511      2552      2559
 -1      3725    3    0    1
 -2      1561      1771      1831      1833
 -1      3726    3    0    1
 -2      1560      1770      1771      1833
 -1      3727    3    0    1
 -2      1721      1552      1941      1958
 -1      3728    3    0    1
 -2       841       844      1765      1972
 -1      3729    3    0    1
 -2       754      1017      1794      2101
 -1      3730    3    0    1
 -2       779      1919      2028      2113
 -1      3731    3    0    1
 -2      1693       898      2105      2156
 -1      3732    3    0    1
 -2       926      1622       496       495
 -1      3733    3    0    1
 -2      1622       926       496      1791
 -1      3734    3    0    1
 -2      2678      1363      2391      2415
 -1      3735    3    0    1
 -2       836       693      1695      1835
 -1      3736    3    0    1
 -2      1595      1560      1655      1833
 -1      3737    3    0    1
 -2      1595      1586      1770      1832
 -1      3738    3    0    1
 -2       385      1586      1595      1832
 -1      3739    3    0    1
 -2      1586      1102      1616      1832
 -1      3740    3    0    1
 -2      1102       611      1616      1832
 -1      3741    3    0    1
 -2      1595      1792      1832      1833
 -1      3742    3    0    1
 -2       243       385      1746      1792
 -1      3743    3    0    1
 -2      1561       385      1595      1792
 -1      3744    3    0    1
 -2       385      1561      1746      1792
 -1      3745    3    0    1
 -2      1542      1637      1947      1996
 -1      3746    3    0    1
 -2      1561       824      1642      1831
 -1      3747    3    0    1
 -2      1194       827      1655      1831
 -1      3748    3    0    1
 -2       864      1731      1774      1938
 -1      3749    3    0    1
 -2      1638      1139      2074      2503
 -1      3750    3    0    1
 -2       565      2095      2161      2502
 -1      3751    3    0    1
 -2      1794       565      2094      2095
 -1      3752    3    0    1
 -2      1194      1655      1771      1831
 -1      3753    3    0    1
 -2       824       826      1642      1831
 -1      3754    3    0    1
 -2       245       247       777      2174
 -1      3755    3    0    1
 -2       986       356      1673      2494
 -1      3756    3    0    1
 -2       658       657      1803      1818
 -1      3757    3    0    1
 -2      1561      1746      1792      1831
 -1      3758    3    0    1
 -2      1768      1016      2497      2502
 -1      3759    3    0    1
 -2       362      1794      2090      2162
 -1      3760    3    0    1
 -2       637       629       636      2635
 -1      3761    3    0    1
 -2       552       565      2161      2502
 -1      3762    3    0    1
 -2       896      1562      1767      1797
 -1      3763    3    0    1
 -2      1645       896      1767      1797
 -1      3764    3    0    1
 -2       398       903       925      1827
 -1      3765    3    0    1
 -2      1148       794      1614      1828
 -1      3766    3    0    1
 -2        75       398       925      1827
 -1      3767    3    0    1
 -2       895       901      1619      1826
 -1      3768    3    0    1
 -2      1562       896      1624      1797
 -1      3769    3    0    1
 -2      1582       420      1675      1876
 -1      3770    3    0    1
 -2       895       398      1624      1797
 -1      3771    3    0    1
 -2       129       117       984      1971
 -1      3772    3    0    1
 -2       479       895      1624      1797
 -1      3773    3    0    1
 -2       479       901       895      1826
 -1      3774    3    0    1
 -2       896       479      1624      1797
 -1      3775    3    0    1
 -2        53        37       717      1799
 -1      3776    3    0    1
 -2        53       717       904      1799
 -1      3777    3    0    1
 -2       261       263       785      2031
 -1      3778    3    0    1
 -2        38        35      1692      1896
 -1      3779    3    0    1
 -2      2032       793      2067      2513
 -1      3780    3    0    1
 -2       369       732       966      1960
 -1      3781    3    0    1
 -2      1588      1541      1818      1895
 -1      3782    3    0    1
 -2       359       208      1786      1801
 -1      3783    3    0    1
 -2       208       359      1068      1801
 -1      3784    3    0    1
 -2       767       589       588      1801
 -1      3785    3    0    1
 -2       211       357      1894      2137
 -1      3786    3    0    1
 -2       348       957      1779      1809
 -1      3787    3    0    1
 -2      1714      1533      1752      1808
 -1      3788    3    0    1
 -2      1140       280       377      2103
 -1      3789    3    0    1
 -2      1533       409      1752      1808
 -1      3790    3    0    1
 -2      1596       883      1748      1896
 -1      3791    3    0    1
 -2       966       732       519      1960
 -1      3792    3    0    1
 -2      1679      1566      1777      2029
 -1      3793    3    0    1
 -2       673       674      1701      1871
 -1      3794    3    0    1
 -2       261      1126      2031      2481
 -1      3795    3    0    1
 -2      1841       386      1956      1989
 -1      3796    3    0    1
 -2       564      2078      2095      2502
 -1      3797    3    0    1
 -2       520       519      1960      1965
 -1      3798    3    0    1
 -2       577       576      1046      1807
 -1      3799    3    0    1
 -2      1736       395      1783      1819
 -1      3800    3    0    1
 -2       315       396       803      1818
 -1      3801    3    0    1
 -2       657       803      1803      1818
 -1      3802    3    0    1
 -2       588       601      1719      2483
 -1      3803    3    0    1
 -2       330      1002      1903      1975
 -1      3804    3    0    1
 -2      1687      1777      1981      2029
 -1      3805    3    0    1
 -2       143       330      1554      1975
 -1      3806    3    0    1
 -2      1935      1987      2025      2515
 -1      3807    3    0    1
 -2       803       396      1803      1818
 -1      3808    3    0    1
 -2       982       409      1853      1970
 -1      3809    3    0    1
 -2       960       516      2077      2128
 -1      3810    3    0    1
 -2       409      1524      1752      1970
 -1      3811    3    0    1
 -2       409       982      1524      1970
 -1      3812    3    0    1
 -2      2493      2632      2712      2719
 -1      3813    3    0    1
 -2      2069      1769      2093      2140
 -1      3814    3    0    1
 -2       636       457       857      1810
 -1      3815    3    0    1
 -2        10       712      1918      2477
 -1      3816    3    0    1
 -2       636       857      1140      1810
 -1      3817    3    0    1
 -2       591       580      1074      1813
 -1      3818    3    0    1
 -2       580       763      1074      1813
 -1      3819    3    0    1
 -2      1002      1689      1903      1975
 -1      3820    3    0    1
 -2      1680      1581      1711      1814
 -1      3821    3    0    1
 -2        30      1812      2477      2098
 -1      3822    3    0    1
 -2       861        10       857      2049
 -1      3823    3    0    1
 -2      1198      1680      1711      1814
 -1      3824    3    0    1
 -2       686      1198      1711      1814
 -1      3825    3    0    1
 -2      1143       638      1840      2021
 -1      3826    3    0    1
 -2      1581      1568      1711      1814
 -1      3827    3    0    1
 -2      1579       194      1974      2086
 -1      3828    3    0    1
 -2      1631      1048      1682      1988
 -1      3829    3    0    1
 -2      1530      1606      1639      1865
 -1      3830    3    0    1
 -2       400       295       805      1816
 -1      3831    3    0    1
 -2       225       228      1993      2121
 -1      3832    3    0    1
 -2      2564      1870      2065      2136
 -1      3833    3    0    1
 -2      2248      2247      2265      2297
 -1      3834    3    0    1
 -2      2383      1478      2404      2423
 -1      3835    3    0    1
 -2      1234      1297      2585      2744
 -1      3836    3    0    1
 -2       900       878      2478      2519
 -1      3837    3    0    1
 -2       830      1679      1687      2029
 -1      3838    3    0    1
 -2       333       996      1975      1985
 -1      3839    3    0    1
 -2      1213       691       834      1992
 -1      3840    3    0    1
 -2       996       333      1738      1985
 -1      3841    3    0    1
 -2      1744      1574      1805      1992
 -1      3842    3    0    1
 -2      1021       335      1991      2079
 -1      3843    3    0    1
 -2        12       392      2139      2513
 -1      3844    3    0    1
 -2       438       905      1564      2063
 -1      3845    3    0    1
 -2        88       367      1935      2114
 -1      3846    3    0    1
 -2      1795       905      1829       483
 -1      3847    3    0    1
 -2      1760       516      1949      2128
 -1      3848    3    0    1
 -2      1587      1602      1697      1823
 -1      3849    3    0    1
 -2      1697      1602      1738      1823
 -1      3850    3    0    1
 -2      1689       997      1691      1823
 -1      3851    3    0    1
 -2       997      1587      1691      1823
 -1      3852    3    0    1
 -2      1689       997       542      1001
 -1      3853    3    0    1
 -2       997      1689       542      1823
 -1      3854    3    0    1
 -2      1587       997      1602      1823
 -1      3855    3    0    1
 -2       539       996      1738      1823
 -1      3856    3    0    1
 -2       592       768      1092      2008
 -1      3857    3    0    1
 -2       997       539      1738      1823
 -1      3858    3    0    1
 -2      1602       997      1738      1823
 -1      3859    3    0    1
 -2        71        75       925      1825
 -1      3860    3    0    1
 -2      1634      1743      1767      1828
 -1      3861    3    0    1
 -2       946       508      1589      1937
 -1      3862    3    0    1
 -2       946       507       508      1937
 -1      3863    3    0    1
 -2       948       507      1785      1937
 -1      3864    3    0    1
 -2       432       308      1153      2029
 -1      3865    3    0    1
 -2      1534      1671      1675      1876
 -1      3866    3    0    1
 -2        75       922      1624      1825
 -1      3867    3    0    1
 -2        75        71       922      1825
 -1      3868    3    0    1
 -2       922       494      1624      1825
 -1      3869    3    0    1
 -2       398        75      1624      1825
 -1      3870    3    0    1
 -2      1796      1539      1800      1828
 -1      3871    3    0    1
 -2       420      1534      1675      1876
 -1      3872    3    0    1
 -2      1634      1614      1743      1828
 -1      3873    3    0    1
 -2       785       263      1986      2031
 -1      3874    3    0    1
 -2      1666      1528      1916      1930
 -1      3875    3    0    1
 -2       420       424      1662      1876
 -1      3876    3    0    1
 -2       794      1539      1614      1828
 -1      3877    3    0    1
 -2      1614      1539      1743      1828
 -1      3878    3    0    1
 -2      1694      1666      1916      1930
 -1      3879    3    0    1
 -2      2534      1245      2574      2674
 -1      3880    3    0    1
 -2       483       472       718      1829
 -1      3881    3    0    1
 -2       483       718       905      1829
 -1      3882    3    0    1
 -2       516       529       736      2077
 -1      3883    3    0    1
 -2       516       960      1949      2128
 -1      3884    3    0    1
 -2      1213       834      1805      1992
 -1      3885    3    0    1
 -2       748      1038      1893      2499
 -1      3886    3    0    1
 -2       768       592      1939      2112
 -1      3887    3    0    1
 -2      1071      1065      1757      1940
 -1      3888    3    0    1
 -2       305       824      1561      1831
 -1      3889    3    0    1
 -2       305       826       824      1831
 -1      3890    3    0    1
 -2       305      1194       314      1831
 -1      3891    3    0    1
 -2       827       305      1561      1831
 -1      3892    3    0    1
 -2      1194       305       827      1831
 -1      3893    3    0    1
 -2       827      1561      1655      1831
 -1      3894    3    0    1
 -2      1561      1595      1655      1833
 -1      3895    3    0    1
 -2      1789       384      2105      2148
 -1      3896    3    0    1
 -2       947       507      1735      1834
 -1      3897    3    0    1
 -2       924       947      1735      1834
 -1      3898    3    0    1
 -2       923       496      1791      1834
 -1      3899    3    0    1
 -2       496       507       924      1834
 -1      3900    3    0    1
 -2       507       496       948      1834
 -1      3901    3    0    1
 -2       924       507       947      1834
 -1      3902    3    0    1
 -2       496       923       948      1834
 -1      3903    3    0    1
 -2      1559      1669      1695      1835
 -1      3904    3    0    1
 -2      1747       568      1877      2057
 -1      3905    3    0    1
 -2      1788      1559      1868      1835
 -1      3906    3    0    1
 -2      1669      1559      1672      1835
 -1      3907    3    0    1
 -2      1672      1559      1788      1835
 -1      3908    3    0    1
 -2      1553      1592      1671      2003
 -1      3909    3    0    1
 -2        12       857      2049      2172
 -1      3910    3    0    1
 -2      1156       288      1157      1929
 -1      3911    3    0    1
 -2       288       393       794      1929
 -1      3912    3    0    1
 -2       551      1014      1627      1836
 -1      3913    3    0    1
 -2      1642      1563      1925      1953
 -1      3914    3    0    1
 -2       369      1935      1960      2124
 -1      3915    3    0    1
 -2       825      1642      1925      1953
 -1      3916    3    0    1
 -2      1950      2150      2527      2560
 -1      3917    3    0    1
 -2      1677      1568      1820      1837
 -1      3918    3    0    1
 -2       680       679      1642      1925
 -1      3919    3    0    1
 -2         7      1552      1721      1954
 -1      3920    3    0    1
 -2       565       564      2095      2502
 -1      3921    3    0    1
 -2       923      1834      2147      2498
 -1      3922    3    0    1
 -2       998      1839      2490      2497
 -1      3923    3    0    1
 -2       245       779      2028      2121
 -1      3924    3    0    1
 -2      1816      1543      1862      1864
 -1      3925    3    0    1
 -2      1171      1174      1816      1864
 -1      3926    3    0    1
 -2      1074      1786      1813      2507
 -1      3927    3    0    1
 -2      1250      1331      2665      2734
 -1      3928    3    0    1
 -2       400      1171      1816      1864
 -1      3929    3    0    1
 -2       638      1142      1804      1840
 -1      3930    3    0    1
 -2      1143       638      1804      1840
 -1      3931    3    0    1
 -2      1575      1120      1804      1840
 -1      3932    3    0    1
 -2      1142      1575      1804      1840
 -1      3933    3    0    1
 -2      1966       347      2018      2038
 -1      3934    3    0    1
 -2      1120       623      1804      1840
 -1      3935    3    0    1
 -2       641       794      1614      1857
 -1      3936    3    0    1
 -2        30      1812      1861      2477
 -1      3937    3    0    1
 -2      1320      1270      2378      2707
 -1      3938    3    0    1
 -2      2022       963      2037      2040
 -1      3939    3    0    1
 -2       306       307       828      1915
 -1      3940    3    0    1
 -2      1584      1546      1800      1943
 -1      3941    3    0    1
 -2      1872       129      1887      1971
 -1      3942    3    0    1
 -2      1416      1484      2428      2429
 -1      3943    3    0    1
 -2       530      1853      1961      1970
 -1      3944    3    0    1
 -2      1841      1128      2010      2046
 -1      3945    3    0    1
 -2       421       281      1144      2011
 -1      3946    3    0    1
 -2       284       421       792      2011
 -1      3947    3    0    1
 -2      1004       544       543      1921
 -1      3948    3    0    1
 -2      1796      1584      1800      1943
 -1      3949    3    0    1
 -2       268       386      1128      1841
 -1      3950    3    0    1
 -2      1662      1138      1876      1990
 -1      3951    3    0    1
 -2       792       865      1731      2011
 -1      3952    3    0    1
 -2       518       963      2022      2040
 -1      3953    3    0    1
 -2       373        72       918      1957
 -1      3954    3    0    1
 -2      1137       635      1143      1990
 -1      3955    3    0    1
 -2      1110      1913      1994      2035
 -1      3956    3    0    1
 -2      1138       635      1534      1990
 -1      3957    3    0    1
 -2      2479       962      2520      2561
 -1      3958    3    0    1
 -2      1892      1844      1944      1980
 -1      3959    3    0    1
 -2      1743      1541      1819      1959
 -1      3960    3    0    1
 -2       899       879      1709      2048
 -1      3961    3    0    1
 -2      1709       879      1812      2048
 -1      3962    3    0    1
 -2       386      1109      1128      1841
 -1      3963    3    0    1
 -2       386       380      1109      1841
 -1      3964    3    0    1
 -2       902      1772      2063      2100
 -1      3965    3    0    1
 -2       518      2022      2033      2040
 -1      3966    3    0    1
 -2      1643      1710      1750      1943
 -1      3967    3    0    1
 -2       843       697      1916      1930
 -1      3968    3    0    1
 -2      1630      1530      1869      1873
 -1      3969    3    0    1
 -2       321      1602      1697      1873
 -1      3970    3    0    1
 -2      1602      1633      1697      1873
 -1      3971    3    0    1
 -2      1726      1610      1773      1904
 -1      3972    3    0    1
 -2       117       129       976      1847
 -1      3973    3    0    1
 -2      1125      1119      1766      1989
 -1      3974    3    0    1
 -2       590      1071      1846      1923
 -1      3975    3    0    1
 -2       196       336      1053      1849
 -1      3976    3    0    1
 -2       196      1053      1649      1849
 -1      3977    3    0    1
 -2      1122       261       785      2031
 -1      3978    3    0    1
 -2       422      1629      1805      1851
 -1      3979    3    0    1
 -2      1213       422      1805      1851
 -1      3980    3    0    1
 -2       422      1207       848      1851
 -1      3981    3    0    1
 -2       422       848      1629      1851
 -1      3982    3    0    1
 -2      1568      1581      1678      1852
 -1      3983    3    0    1
 -2      1581       187      1678      1852
 -1      3984    3    0    1
 -2       365       762      1780      1967
 -1      3985    3    0    1
 -2      1947      1542      1583      1716
 -1      3986    3    0    1
 -2       661      1175       806      1996
 -1      3987    3    0    1
 -2       316       397       806      1996
 -1      3988    3    0    1
 -2       397       316      1637      1996
 -1      3989    3    0    1
 -2      1536      1763      1765      2027
 -1      3990    3    0    1
 -2       638      1143      1990      2021
 -1      3991    3    0    1
 -2      1527      1804      1840      2021
 -1      3992    3    0    1
 -2       982      1636      1809      1853
 -1      3993    3    0    1
 -2       982       409      1636      1853
 -1      3994    3    0    1
 -2      1636       409      1808      1853
 -1      3995    3    0    1
 -2       662       661      1947      1996
 -1      3996    3    0    1
 -2       530       982      1809      1853
 -1      3997    3    0    1
 -2       815      1182      1668      1962
 -1      3998    3    0    1
 -2       332       977      1621      1854
 -1      3999    3    0    1
 -2      1530      1865      1869      1873
 -1      4000    3    0    1
 -2       755      1037      1747      1855
 -1      4001    3    0    1
 -2       755       174      1037      1855
 -1      4002    3    0    1
 -2        38      1692      1824      1896
 -1      4003    3    0    1
 -2      1071      1757      1846      1940
 -1      4004    3    0    1
 -2      1091       603       773      1856
 -1      4005    3    0    1
 -2      1611        68      1717      1898
 -1      4006    3    0    1
 -2      1022       334      2055      2080
 -1      4007    3    0    1
 -2       211       208      1894      2508
 -1      4008    3    0    1
 -2      1092       774       603      1856
 -1      4009    3    0    1
 -2      1145       377      1739      2481
 -1      4010    3    0    1
 -2      1627      1623      1811      1952
 -1      4011    3    0    1
 -2      1786       359      2084      2108
 -1      4012    3    0    1
 -2      1611      1667      1737      1898
 -1      4013    3    0    1
 -2       482      1722      1826      1901
 -1      4014    3    0    1
 -2      1583        68      1611      1898
 -1      4015    3    0    1
 -2       647      1157       648      1875
 -1      4016    3    0    1
 -2        35        38      1824      1896
 -1      4017    3    0    1
 -2      1565      1882      1899      1905
 -1      4018    3    0    1
 -2      1108       616       615      1914
 -1      4019    3    0    1
 -2      2671       355      2390      2714
 -1      4020    3    0    1
 -2       225       774      1092      1856
 -1      4021    3    0    1
 -2      1631      1048      1678      1923
 -1      4022    3    0    1
 -2       575      1048      1631      1923
 -1      4023    3    0    1
 -2       604       615      1110      1994
 -1      4024    3    0    1
 -2       603      1092      1856      2008
 -1      4025    3    0    1
 -2       767      1801      2084      2142
 -1      4026    3    0    1
 -2      1576      1523      1858      1901
 -1      4027    3    0    1
 -2      1588      1542      1736      1895
 -1      4028    3    0    1
 -2      1542       395      1736      1895
 -1      4029    3    0    1
 -2       882        35      1824      1896
 -1      4030    3    0    1
 -2        35        36       883      1896
 -1      4031    3    0    1
 -2      1736       395      1819      1895
 -1      4032    3    0    1
 -2       592      1072      1939      2008
 -1      4033    3    0    1
 -2       883        36      1748      1896
 -1      4034    3    0    1
 -2       226       225      1092      1856
 -1      4035    3    0    1
 -2       544       742      1699      1921
 -1      4036    3    0    1
 -2       195       360      1974      2507
 -1      4037    3    0    1
 -2      1111      1108       615      1914
 -1      4038    3    0    1
 -2      2126      2047      2516      2557
 -1      4039    3    0    1
 -2       270      2031      2066      2481
 -1      4040    3    0    1
 -2      1541      1588      1819      1895
 -1      4041    3    0    1
 -2      2484      1086      2165      2536
 -1      4042    3    0    1
 -2        24       877      1858      1948
 -1      4043    3    0    1
 -2       416      1532      1733      1948
 -1      4044    3    0    1
 -2       877      1593      1858      1948
 -1      4045    3    0    1
 -2      2479       938      1226      2621
 -1      4046    3    0    1
 -2       866        12      1749      2513
 -1      4047    3    0    1
 -2      1174       660      1842      1864
 -1      4048    3    0    1
 -2      1174       659       660      1864
 -1      4049    3    0    1
 -2       301       823      1187      1899
 -1      4050    3    0    1
 -2       527       977      1872      1887
 -1      4051    3    0    1
 -2      1163       291      1164      1866
 -1      4052    3    0    1
 -2       542      1002      1689      1887
 -1      4053    3    0    1
 -2       129       976      1872      1887
 -1      4054    3    0    1
 -2       424      1574      1575      1867
 -1      4055    3    0    1
 -2      1559      1788      1868       264
 -1      4056    3    0    1
 -2      1695      1559      1835      1868
 -1      4057    3    0    1
 -2      1788      1770      1835      1868
 -1      4058    3    0    1
 -2      1602      1587      1697      1869
 -1      4059    3    0    1
 -2      1633      1602      1697      1869
 -1      4060    3    0    1
 -2      1587      1602      1630      1869
 -1      4061    3    0    1
 -2      1530      1639      1705      1869
 -1      4062    3    0    1
 -2      1630      1530      1705      1869
 -1      4063    3    0    1
 -2      1091      1856      2001      2008
 -1      4064    3    0    1
 -2      2206      1252      2227      2295
 -1      4065    3    0    1
 -2      1975       333      1985      1991
 -1      4066    3    0    1
 -2      1529      1659      1704      1931
 -1      4067    3    0    1
 -2       567       556       748      1893
 -1      4068    3    0    1
 -2      1703      1913      1928      2036
 -1      4069    3    0    1
 -2      1809      1779      1853      1995
 -1      4070    3    0    1
 -2       567       748      1038      1893
 -1      4071    3    0    1
 -2       864       419      1731      1920
 -1      4072    3    0    1
 -2       334       142      2059      2080
 -1      4073    3    0    1
 -2      1578       458      1878      1920
 -1      4074    3    0    1
 -2      1660      1072      2001      2008
 -1      4075    3    0    1
 -2      1543      1609      1898      1951
 -1      4076    3    0    1
 -2      1122       785       624      2053
 -1      4077    3    0    1
 -2      1126       376      1145      2481
 -1      4078    3    0    1
 -2      1678      1070      1885      1923
 -1      4079    3    0    1
 -2      1083       601      1719      2111
 -1      4080    3    0    1
 -2      1193       828      1655      1915
 -1      4081    3    0    1
 -2      1605      1737      1881      1951
 -1      4082    3    0    1
 -2      1337      2558      2590      2591
 -1      4083    3    0    1
 -2       346       348      1779      1999
 -1      4084    3    0    1
 -2      1091       603      1856      2008
 -1      4085    3    0    1
 -2       635      1137      1920      2039
 -1      4086    3    0    1
 -2       600       613      2113      2536
 -1      4087    3    0    1
 -2       419       284      1731      1920
 -1      4088    3    0    1
 -2      1734      2089      2143      2175
 -1      4089    3    0    1
 -2       306       828      1193      1915
 -1      4090    3    0    1
 -2       884        31        30      2477
 -1      4091    3    0    1
 -2      1089       433      1599      1874
 -1      4092    3    0    1
 -2      1089      1599      1670      1874
 -1      4093    3    0    1
 -2       697       699      1694      1930
 -1      4094    3    0    1
 -2      2644      1284      2680      2760
 -1      4095    3    0    1
 -2       543       532      1759      2024
 -1      4096    3    0    1
 -2       936       503      1761      2042
 -1      4097    3    0    1
 -2      1667      1611      1889      2000
 -1      4098    3    0    1
 -2       965       519       731      1934
 -1      4099    3    0    1
 -2       579       756      1055      1877
 -1      4100    3    0    1
 -2       579       568       756      1877
 -1      4101    3    0    1
 -2        83       945       948      1937
 -1      4102    3    0    1
 -2       627      1129      2043      2046
 -1      4103    3    0    1
 -2       544      1554      1699      1911
 -1      4104    3    0    1
 -2       544       741      1554      1911
 -1      4105    3    0    1
 -2      1186       676      1888      2002
 -1      4106    3    0    1
 -2      1786       591      1917      1939
 -1      4107    3    0    1
 -2      1074       592       591      1939
 -1      4108    3    0    1
 -2       592      1072      1917      1939
 -1      4109    3    0    1
 -2       431      1660      2001      2009
 -1      4110    3    0    1
 -2       863       415      1578      1878
 -1      4111    3    0    1
 -2       458       863      1578      1878
 -1      4112    3    0    1
 -2      1691      1742      2004      1906
 -1      4113    3    0    1
 -2      1545      1551      1778      1879
 -1      4114    3    0    1
 -2       649      1161       797      1879
 -1      4115    3    0    1
 -2       649       797      1551      1879
 -1      4116    3    0    1
 -2      1551       797      1778      1879
 -1      4117    3    0    1
 -2       434      1599      1625      1880
 -1      4118    3    0    1
 -2      1599      1566      1625      1880
 -1      4119    3    0    1
 -2       434      1066      1599      1880
 -1      4120    3    0    1
 -2      1640       402      1775      1881
 -1      4121    3    0    1
 -2        81       402      1640      1881
 -1      4122    3    0    1
 -2      1544        81      1640      1881
 -1      4123    3    0    1
 -2       402      1544      1605      1881
 -1      4124    3    0    1
 -2       402        81      1544      1881
 -1      4125    3    0    1
 -2        67        71      1622      1926
 -1      4126    3    0    1
 -2       527      1847      1902      1961
 -1      4127    3    0    1
 -2      1721      1647      1910      2003
 -1      4128    3    0    1
 -2       415      1721      1910      2003
 -1      4129    3    0    1
 -2      1779      1809      1853      1961
 -1      4130    3    0    1
 -2      1874       602      1897      1900
 -1      4131    3    0    1
 -2       587      1664      1757      2009
 -1      4132    3    0    1
 -2       935       506      1667      1889
 -1      4133    3    0    1
 -2      1900       430      2001      2009
 -1      4134    3    0    1
 -2      1842      1605      1881      1951
 -1      4135    3    0    1
 -2      1070       343      1678      1885
 -1      4136    3    0    1
 -2       809       298      1866      1886
 -1      4137    3    0    1
 -2       291       298       809      1886
 -1      4138    3    0    1
 -2      1688       809      1866      1886
 -1      4139    3    0    1
 -2      1621      1001      1689      1887
 -1      4140    3    0    1
 -2      1001       542      1689      1887
 -1      4141    3    0    1
 -2      1563      1726      1882      1904
 -1      4142    3    0    1
 -2      1621      1689      1854      1887
 -1      4143    3    0    1
 -2       977      1621      1854      1887
 -1      4144    3    0    1
 -2       977      1854      1872      1887
 -1      4145    3    0    1
 -2      1854      1689      1872      1887
 -1      4146    3    0    1
 -2       675      1186       676      1888
 -1      4147    3    0    1
 -2       491      1717      1783      2016
 -1      4148    3    0    1
 -2      1127       628      1527      2043
 -1      4149    3    0    1
 -2        91      1667      1884      1889
 -1      4150    3    0    1
 -2       942        91      1884      1889
 -1      4151    3    0    1
 -2      1960       732      1965      2081
 -1      4152    3    0    1
 -2       351      1460      1463      2421
 -1      4153    3    0    1
 -2      1069      1270      1271      2552
 -1      4154    3    0    1
 -2        30      1690      1812      2098
 -1      4155    3    0    1
 -2      2049        10      2477      2098
 -1      4156    3    0    1
 -2       568       756      1747      1891
 -1      4157    3    0    1
 -2       567       568      1747      1891
 -1      4158    3    0    1
 -2       568       567       756      1891
 -1      4159    3    0    1
 -2       362       177       756      1891
 -1      4160    3    0    1
 -2      1715      1632      1730      1945
 -1      4161    3    0    1
 -2      2630      2517      2688      2690
 -1      4162    3    0    1
 -2      1740      1545      2023      2034
 -1      4163    3    0    1
 -2      2655      2730      2757      2762
 -1      4164    3    0    1
 -2       554      1696      1697      1985
 -1      4165    3    0    1
 -2      1737      1611      1898      1951
 -1      4166    3    0    1
 -2       668      1632      1715      1945
 -1      4167    3    0    1
 -2       159      1021      1912      2079
 -1      4168    3    0    1
 -2      1605      1543      1737      1951
 -1      4169    3    0    1
 -2      1613      1548      1730      1945
 -1      4170    3    0    1
 -2      1609      1543      1816      1951
 -1      4171    3    0    1
 -2       348       731      1927      1999
 -1      4172    3    0    1
 -2       261       270      1126      2481
 -1      4173    3    0    1
 -2      1939       592      2008      2112
 -1      4174    3    0    1
 -2      1660       342      1917      1940
 -1      4175    3    0    1
 -2      1780       214      1846      1940
 -1      4176    3    0    1
 -2      2110      1980      2164      2166
 -1      4177    3    0    1
 -2      1071       342      1065      1940
 -1      4178    3    0    1
 -2      1786       768      1939      2112
 -1      4179    3    0    1
 -2       599       602      1090      1897
 -1      4180    3    0    1
 -2       394      1645      1796      1901
 -1      4181    3    0    1
 -2      1089      1615      1874      1897
 -1      4182    3    0    1
 -2      1089      1085      1615      1897
 -1      4183    3    0    1
 -2       599      1085      1089      1897
 -1      4184    3    0    1
 -2       482       721      1576      1901
 -1      4185    3    0    1
 -2       721       394      1576      1901
 -1      4186    3    0    1
 -2       721       482      1826      1901
 -1      4187    3    0    1
 -2       602       599      1089      1897
 -1      4188    3    0    1
 -2       602      1089      1874      1897
 -1      4189    3    0    1
 -2      1127       627       628      2043
 -1      4190    3    0    1
 -2       245      1108      1111      1914
 -1      4191    3    0    1
 -2       482      1576      1722      1901
 -1      4192    3    0    1
 -2       675      1187       823      1899
 -1      4193    3    0    1
 -2       301       309       823      1899
 -1      4194    3    0    1
 -2       829       301       831      1899
 -1      4195    3    0    1
 -2       675       823      1888      1899
 -1      4196    3    0    1
 -2       823       309      1565      1899
 -1      4197    3    0    1
 -2       309       301       829      1899
 -1      4198    3    0    1
 -2       309       829      1565      1899
 -1      4199    3    0    1
 -2      1565       829      1679      1899
 -1      4200    3    0    1
 -2        71      1825      1926      2016
 -1      4201    3    0    1
 -2       430      1090      1670      1900
 -1      4202    3    0    1
 -2      1090       602      1670      1900
 -1      4203    3    0    1
 -2      1524       332      1854      1902
 -1      4204    3    0    1
 -2      1937       508      2012      2025
 -1      4205    3    0    1
 -2       386      1616      1956      1989
 -1      4206    3    0    1
 -2      1104       248       779      2028
 -1      4207    3    0    1
 -2      1047       365      1923      1976
 -1      4208    3    0    1
 -2      1589       936      1761      2042
 -1      4209    3    0    1
 -2      1780      1846      1923      1976
 -1      4210    3    0    1
 -2       937      1635      1640      2042
 -1      4211    3    0    1
 -2      1047      1631      1922      1976
 -1      4212    3    0    1
 -2       189      1047      1849      1976
 -1      4213    3    0    1
 -2       189       365      1047      1976
 -1      4214    3    0    1
 -2       329      1002      1887      1903
 -1      4215    3    0    1
 -2       329       330      1002      1903
 -1      4216    3    0    1
 -2       438        56       899      2480
 -1      4217    3    0    1
 -2      1590      1651      1712      1906
 -1      4218    3    0    1
 -2      1137      1990      2021      2039
 -1      4219    3    0    1
 -2      1535      1590      1712      1906
 -1      4220    3    0    1
 -2      1590      1535      1742      1906
 -1      4221    3    0    1
 -2       445       311       839      1907
 -1      4222    3    0    1
 -2      1560      1770      1835      1979
 -1      4223    3    0    1
 -2       839       311      1216      1907
 -1      4224    3    0    1
 -2      1695       837      1915      1979
 -1      4225    3    0    1
 -2       157      1656      2055      2059
 -1      4226    3    0    1
 -2      2594      2535      2597      2651
 -1      4227    3    0    1
 -2      1723       979      2061      2131
 -1      4228    3    0    1
 -2       334       157      2055      2059
 -1      4229    3    0    1
 -2       469       716      1690      1908
 -1      4230    3    0    1
 -2      1690       716      1812      1908
 -1      4231    3    0    1
 -2       879      1709      1812      1908
 -1      4232    3    0    1
 -2       879       468      1709      1908
 -1      4233    3    0    1
 -2       469       468       879      1908
 -1      4234    3    0    1
 -2       716       469       879      1908
 -1      4235    3    0    1
 -2       716       879      1812      1908
 -1      4236    3    0    1
 -2      1050       767      1807      2142
 -1      4237    3    0    1
 -2       544       555       741      1911
 -1      4238    3    0    1
 -2       555       544      1022      1911
 -1      4239    3    0    1
 -2       741       555      1021      1911
 -1      4240    3    0    1
 -2      1805       834      1851      1992
 -1      4241    3    0    1
 -2       544       742      1022      1911
 -1      4242    3    0    1
 -2      1206       847      1658      1992
 -1      4243    3    0    1
 -2       747       159      1021      1912
 -1      4244    3    0    1
 -2       747      1021      1698      1912
 -1      4245    3    0    1
 -2      1020      1014      1696      1912
 -1      4246    3    0    1
 -2       159      1020      1696      1912
 -1      4247    3    0    1
 -2      1020       159      1014      1912
 -1      4248    3    0    1
 -2      1986      1122      2031      2053
 -1      4249    3    0    1
 -2       743       153      2234      2259
 -1      4250    3    0    1
 -2       324       323      1014      1912
 -1      4251    3    0    1
 -2      1718       647      1875      1929
 -1      4252    3    0    1
 -2      1148       794      1828      1929
 -1      4253    3    0    1
 -2       615       604       774      1994
 -1      4254    3    0    1
 -2       837      1215      1695      1915
 -1      4255    3    0    1
 -2        88       367       966      2515
 -1      4256    3    0    1
 -2      1092      2008      2112      2508
 -1      4257    3    0    1
 -2       446      1598      1659      1931
 -1      4258    3    0    1
 -2       376       377      1969      2118
 -1      4259    3    0    1
 -2      1226      1225      2510      1266
 -1      4260    3    0    1
 -2       307       306       837      1915
 -1      4261    3    0    1
 -2       249       429       773      1913
 -1      4262    3    0    1
 -2       429       249      1703      1913
 -1      4263    3    0    1
 -2       249       773      1110      1913
 -1      4264    3    0    1
 -2       794      1539      1828      1929
 -1      4265    3    0    1
 -2       647      1156      1875      1929
 -1      4266    3    0    1
 -2       984      1003      1971      2024
 -1      4267    3    0    1
 -2       404       347      1966      1995
 -1      4268    3    0    1
 -2      1643      1546      1681      1943
 -1      4269    3    0    1
 -2      1935      1982      1987      2114
 -1      4270    3    0    1
 -2       940       504       939      1987
 -1      4271    3    0    1
 -2       329      1003      1903      1971
 -1      4272    3    0    1
 -2       742      1022      1911      2080
 -1      4273    3    0    1
 -2      1137       284      1578      1920
 -1      4274    3    0    1
 -2      1546      1584      1681      1943
 -1      4275    3    0    1
 -2       430      1090      1900      2015
 -1      4276    3    0    1
 -2      1612      1546      1750      1943
 -1      4277    3    0    1
 -2       230       366      1997      2015
 -1      4278    3    0    1
 -2      1523      1546      1612      1943
 -1      4279    3    0    1
 -2      1523      1612      1710      1943
 -1      4280    3    0    1
 -2      1126      2026      2031      2481
 -1      4281    3    0    1
 -2       691       847      1206      1992
 -1      4282    3    0    1
 -2       230      1084      2015      2036
 -1      4283    3    0    1
 -2       847       701      1805      1992
 -1      4284    3    0    1
 -2       359       215      2108      2507
 -1      4285    3    0    1
 -2       981      1004      1759      2492
 -1      4286    3    0    1
 -2      1144       423      1527      2044
 -1      4287    3    0    1
 -2       458      1731      1878      1920
 -1      4288    3    0    1
 -2       347       404       958      1995
 -1      4289    3    0    1
 -2       208       211      1894      2111
 -1      4290    3    0    1
 -2       249      1107      1928      2117
 -1      4291    3    0    1
 -2       940        83       374      1987
 -1      4292    3    0    1
 -2       214       365      1780      1923
 -1      4293    3    0    1
 -2      1728       626      1766      1989
 -1      4294    3    0    1
 -2       214      1780      1846      1923
 -1      4295    3    0    1
 -2      1543      1605      1864      1951
 -1      4296    3    0    1
 -2       978      1000      2068      2506
 -1      4297    3    0    1
 -2      1055       194      1579      2086
 -1      4298    3    0    1
 -2      1861      1918      2477      2098
 -1      4299    3    0    1
 -2      2381      2443      2464      2759
 -1      4300    3    0    1
 -2      2496      2185      2210      2320
 -1      4301    3    0    1
 -2       712      1596      1918      2477
 -1      4302    3    0    1
 -2      1051       577      1732      2070
 -1      4303    3    0    1
 -2      1987        83      2025      2515
 -1      4304    3    0    1
 -2      1607      1555      1700      1954
 -1      4305    3    0    1
 -2        91      1667      1889      1926
 -1      4306    3    0    1
 -2        91      1735      1884      1926
 -1      4307    3    0    1
 -2      1667        91      1884      1926
 -1      4308    3    0    1
 -2       924      1622      1834      1926
 -1      4309    3    0    1
 -2       399       924      1735      1926
 -1      4310    3    0    1
 -2      1735       924      1834      1926
 -1      4311    3    0    1
 -2      1128       268      1841      2010
 -1      4312    3    0    1
 -2      1127       268      1128      2010
 -1      4313    3    0    1
 -2       213      1065      1660      2009
 -1      4314    3    0    1
 -2        67       399       915      1926
 -1      4315    3    0    1
 -2       915       399      1889      1926
 -1      4316    3    0    1
 -2       399        91      1889      1926
 -1      4317    3    0    1
 -2      1650       814      1962      2020
 -1      4318    3    0    1
 -2       341       119      2061      2492
 -1      4319    3    0    1
 -2       520       531       985      1927
 -1      4320    3    0    1
 -2       124       731       985      1927
 -1      4321    3    0    1
 -2       731       520       985      1927
 -1      4322    3    0    1
 -2       802       397      1637      1996
 -1      4323    3    0    1
 -2       124       348       731      1927
 -1      4324    3    0    1
 -2      1554       543      1921      2024
 -1      4325    3    0    1
 -2      1162       292      1916      1930
 -1      4326    3    0    1
 -2      1165       292      1162      1930
 -1      4327    3    0    1
 -2       446       842      1598      1931
 -1      4328    3    0    1
 -2       446      1212       842      1931
 -1      4329    3    0    1
 -2      1659      1598      1704      1931
 -1      4330    3    0    1
 -2       833       446      1659      1931
 -1      4331    3    0    1
 -2      1205       446       833      1931
 -1      4332    3    0    1
 -2       459       460       711      1932
 -1      4333    3    0    1
 -2       711        14       865      1932
 -1      4334    3    0    1
 -2       419        14      1731      1932
 -1      4335    3    0    1
 -2        14       419       865      1932
 -1      4336    3    0    1
 -2       865       419      1731      1932
 -1      4337    3    0    1
 -2       711      1596      1774      1932
 -1      4338    3    0    1
 -2       711       460      1596      1932
 -1      4339    3    0    1
 -2       417       711      1774      1932
 -1      4340    3    0    1
 -2        14       417      1774      1932
 -1      4341    3    0    1
 -2       417        14       711      1932
 -1      4342    3    0    1
 -2       265       439      2041      1217
 -1      4343    3    0    1
 -2      1914      1108      2013      2041
 -1      4344    3    0    1
 -2      1747       755      1855      1933
 -1      4345    3    0    1
 -2       568       755      1747      1933
 -1      4346    3    0    1
 -2       568      1747      1877      1933
 -1      4347    3    0    1
 -2       568       579      1054      1933
 -1      4348    3    0    1
 -2       755       568      1054      1933
 -1      4349    3    0    1
 -2       532       981      1759      1936
 -1      4350    3    0    1
 -2       117      1847      1936      1971
 -1      4351    3    0    1
 -2       531       532       984      1936
 -1      4352    3    0    1
 -2       519       520       731      1934
 -1      4353    3    0    1
 -2      1542       802      1637      1996
 -1      4354    3    0    1
 -2       616      1109      1942      2013
 -1      4355    3    0    1
 -2        92       370       947      1937
 -1      4356    3    0    1
 -2      1104      1986      2120      2125
 -1      4357    3    0    1
 -2       370      1589      1937        92
 -1      4358    3    0    1
 -2       981       986      1673      1936
 -1      4359    3    0    1
 -2       117       122       985      1936
 -1      4360    3    0    1
 -2      1109      1128      1841      2013
 -1      4361    3    0    1
 -2       531       985      1927      1936
 -1      4362    3    0    1
 -2       985       531       984      1936
 -1      4363    3    0    1
 -2      1110      1109      1942      2035
 -1      4364    3    0    1
 -2      1545      1551      1879      2023
 -1      4365    3    0    1
 -2      1244      2297      2418      2419
 -1      4366    3    0    1
 -2      1371      1419      2322      2324
 -1      4367    3    0    1
 -2      2093      2160      2509      2168
 -1      4368    3    0    1
 -2       639      1145      1739      2026
 -1      4369    3    0    1
 -2      1843      1577      1981      1983
 -1      4370    3    0    1
 -2      1846      1885      1923      1988
 -1      4371    3    0    1
 -2      1731       458      1878      1938
 -1      4372    3    0    1
 -2       263       261      1129      2031
 -1      4373    3    0    1
 -2       374       948      1785      1937
 -1      4374    3    0    1
 -2       374        83       948      1937
 -1      4375    3    0    1
 -2      1109      1841      1942      2013
 -1      4376    3    0    1
 -2      1084      1897      2015      2036
 -1      4377    3    0    1
 -2      1660      1065      1757      2009
 -1      4378    3    0    1
 -2       821      1552      1701      1941
 -1      4379    3    0    1
 -2       300       414       821      1941
 -1      4380    3    0    1
 -2      1150       300      1151      1941
 -1      4381    3    0    1
 -2       821       414      1552      1941
 -1      4382    3    0    1
 -2       414       300      1150      1941
 -1      4383    3    0    1
 -2       414      1150      1552      1941
 -1      4384    3    0    1
 -2      1552      1150      1706      1941
 -1      4385    3    0    1
 -2      1913       429      1997      2036
 -1      4386    3    0    1
 -2      2657      1469      2697      2715
 -1      4387    3    0    1
 -2       363      1604      1724      2006
 -1      4388    3    0    1
 -2      1109       427      1110      1942
 -1      4389    3    0    1
 -2       208      1786      1894      2508
 -1      4390    3    0    1
 -2       128       356      1673      2149
 -1      4391    3    0    1
 -2       230      1084      1090      2015
 -1      4392    3    0    1
 -2      1841       380      1942      1956
 -1      4393    3    0    1
 -2       404      1657      1966      2018
 -1      4394    3    0    1
 -2      1616      1728      1832      1956
 -1      4395    3    0    1
 -2      1608       611      1832      1956
 -1      4396    3    0    1
 -2       407       317      1159      1946
 -1      4397    3    0    1
 -2       812      1547      1715      1946
 -1      4398    3    0    1
 -2       812       407      1547      1946
 -1      4399    3    0    1
 -2       317       407       812      1946
 -1      4400    3    0    1
 -2       429       773      1913      1997
 -1      4401    3    0    1
 -2       877        24       416      1948
 -1      4402    3    0    1
 -2       961       354       369      1949
 -1      4403    3    0    1
 -2       530       983      1847      1961
 -1      4404    3    0    1
 -2       961       369      1935      1949
 -1      4405    3    0    1
 -2       516       517      1760      1949
 -1      4406    3    0    1
 -2       517       516       960      1949
 -1      4407    3    0    1
 -2       384        72      1789      2105
 -1      4408    3    0    1
 -2       529      1890      2128      2489
 -1      4409    3    0    1
 -2       731      1934      1965      1999
 -1      4410    3    0    1
 -2      1611      1667      1898      2000
 -1      4411    3    0    1
 -2      1969      1122      2031      2118
 -1      4412    3    0    1
 -2       611      1101      1956      2017
 -1      4413    3    0    1
 -2       348       346       731      1999
 -1      4414    3    0    1
 -2      1107      1101       614      2017
 -1      4415    3    0    1
 -2      1608       611      1956      2017
 -1      4416    3    0    1
 -2      1015       551      1627      1952
 -1      4417    3    0    1
 -2      1592      1553      1647      2003
 -1      4418    3    0    1
 -2       302      1192       304      1953
 -1      4419    3    0    1
 -2      1534      1578      1675      2003
 -1      4420    3    0    1
 -2      1192       302       825      1953
 -1      4421    3    0    1
 -2      1671      1534      1675      2003
 -1      4422    3    0    1
 -2        44      1743      1767      1959
 -1      4423    3    0    1
 -2       318       408       818      1955
 -1      4424    3    0    1
 -2       813       318      1945      1955
 -1      4425    3    0    1
 -2       811       318       813      1955
 -1      4426    3    0    1
 -2       318      1183      1945      1955
 -1      4427    3    0    1
 -2       318       818      1183      1955
 -1      4428    3    0    1
 -2      1183      1753      1945      1955
 -1      4429    3    0    1
 -2      1101       380      1616      1956
 -1      4430    3    0    1
 -2       380       386      1616      1956
 -1      4431    3    0    1
 -2       611      1101      1616      1956
 -1      4432    3    0    1
 -2       374       940      1987      2116
 -1      4433    3    0    1
 -2       919       918        72      1957
 -1      4434    3    0    1
 -2       541       540      1723      2497
 -1      4435    3    0    1
 -2       110       128      2115      2149
 -1      4436    3    0    1
 -2      1928      1107      2017      2117
 -1      4437    3    0    1
 -2       878       900      2478      1223
 -1      4438    3    0    1
 -2      1942       427      2035      2117
 -1      4439    3    0    1
 -2      2215      2578      1315      1316
 -1      4440    3    0    1
 -2        44      1562      1624      1959
 -1      4441    3    0    1
 -2      1562      1767      1819      1959
 -1      4442    3    0    1
 -2      1783      1562      1819      1959
 -1      4443    3    0    1
 -2        87       374      1785      2116
 -1      4444    3    0    1
 -2       983       530      1809      1961
 -1      4445    3    0    1
 -2       124       983      1809      1961
 -1      4446    3    0    1
 -2      1778      1740      1879      2020
 -1      4447    3    0    1
 -2       669       816       670      1962
 -1      4448    3    0    1
 -2      1182       669       670      1962
 -1      4449    3    0    1
 -2       814       669      1650      1962
 -1      4450    3    0    1
 -2       816       669       814      1962
 -1      4451    3    0    1
 -2       669       815      1650      1962
 -1      4452    3    0    1
 -2       669      1182       815      1962
 -1      4453    3    0    1
 -2      1581      1568      1814      1964
 -1      4454    3    0    1
 -2       837       307      1915      1979
 -1      4455    3    0    1
 -2      1568      1837      1907      1964
 -1      4456    3    0    1
 -2       520       531      1927      1965
 -1      4457    3    0    1
 -2      2031       270      2066      2118
 -1      4458    3    0    1
 -2      1038       362      1891      2499
 -1      4459    3    0    1
 -2      1108       245      1111      2174
 -1      4460    3    0    1
 -2      1306      2651      2420      2451
 -1      4461    3    0    1
 -2       117       122      1936      2019
 -1      4462    3    0    1
 -2       330      1554      1903      2024
 -1      4463    3    0    1
 -2      1003      1903      1971      2024
 -1      4464    3    0    1
 -2       124       983      1961      2019
 -1      4465    3    0    1
 -2      1175       662      1947      1996
 -1      4466    3    0    1
 -2      1003       330      1903      2024
 -1      4467    3    0    1
 -2      1847       117      1936      2019
 -1      4468    3    0    1
 -2       985      1927      1936      2019
 -1      4469    3    0    1
 -2       532       543       984      2024
 -1      4470    3    0    1
 -2      1936       532      1971      2024
 -1      4471    3    0    1
 -2        83       374      1987      2025
 -1      4472    3    0    1
 -2       374      1785      1987      2025
 -1      4473    3    0    1
 -2       427       249      1110      2035
 -1      4474    3    0    1
 -2      1110       249      1913      2035
 -1      4475    3    0    1
 -2       984       543      1003      2024
 -1      4476    3    0    1
 -2       374        83      1937      2025
 -1      4477    3    0    1
 -2       532       984      1971      2024
 -1      4478    3    0    1
 -2      1551      1545      1657      2023
 -1      4479    3    0    1
 -2      1613      1632      1730      2038
 -1      4480    3    0    1
 -2       983       122      1847      2019
 -1      4481    3    0    1
 -2      1879      1551      1946      2023
 -1      4482    3    0    1
 -2      2538      2516      2557      2604
 -1      4483    3    0    1
 -2      1272      2206      2227      2240
 -1      4484    3    0    1
 -2      1301      2389      2427      2454
 -1      4485    3    0    1
 -2      1398      2695      1466      2740
 -1      4486    3    0    1
 -2       326      1202      1972      2027
 -1      4487    3    0    1
 -2       615      1111      1914      2122
 -1      4488    3    0    1
 -2        87       374       948      2498
 -1      4489    3    0    1
 -2      1351      2254      2394      2395
 -1      4490    3    0    1
 -2       541       528       978      2068
 -1      4491    3    0    1
 -2      2475      1725      2091      2119
 -1      4492    3    0    1
 -2       637       791      1122      1969
 -1      4493    3    0    1
 -2      1202       312      1199      2027
 -1      4494    3    0    1
 -2       245       248      1914      2028
 -1      4495    3    0    1
 -2       769      2191      1286      2221
 -1      4496    3    0    1
 -2       624       637      1122      1969
 -1      4497    3    0    1
 -2       280      1739      2103      2139
 -1      4498    3    0    1
 -2      1574      1744      1745      1992
 -1      4499    3    0    1
 -2      1993       225      2169      2170
 -1      4500    3    0    1
 -2       964       957       518      2033
 -1      4501    3    0    1
 -2      1072      1091      2001      2008
 -1      4502    3    0    1
 -2       143       333       996      1975
 -1      4503    3    0    1
 -2      1810      1140      2103      2172
 -1      4504    3    0    1
 -2      1711      1197      1814      1978
 -1      4505    3    0    1
 -2       445       311      1907      1978
 -1      4506    3    0    1
 -2      1196      1197      1711      1978
 -1      4507    3    0    1
 -2      1197       311       445      1978
 -1      4508    3    0    1
 -2       311      1197      1196      1978
 -1      4509    3    0    1
 -2      1196      1711      1907      1978
 -1      4510    3    0    1
 -2       311      1196      1907      1978
 -1      4511    3    0    1
 -2      1770      1560      1771      1979
 -1      4512    3    0    1
 -2       828      1771      1915      1979
 -1      4513    3    0    1
 -2       307       828      1915      1979
 -1      4514    3    0    1
 -2      1560      1655      1771      1979
 -1      4515    3    0    1
 -2      1771      1655      1915      1979
 -1      4516    3    0    1
 -2      1560      1695      1915      1979
 -1      4517    3    0    1
 -2      1655      1560      1915      1979
 -1      4518    3    0    1
 -2       731       346      1934      1999
 -1      4519    3    0    1
 -2       404       963      1966      2037
 -1      4520    3    0    1
 -2      1640      1580      1963      2034
 -1      4521    3    0    1
 -2      1278      2641      2643      2401
 -1      4522    3    0    1
 -2       348       124      1779      1999
 -1      4523    3    0    1
 -2       366      1091      1997      2015
 -1      4524    3    0    1
 -2      1153       645      1577      1981
 -1      4525    3    0    1
 -2      1154       645      1153      1981
 -1      4526    3    0    1
 -2      1577      1625      1983      2030
 -1      4527    3    0    1
 -2      1567      1577      1843      2030
 -1      4528    3    0    1
 -2       981       121       119      2492
 -1      4529    3    0    1
 -2       504       517       939      1982
 -1      4530    3    0    1
 -2      1038      1891      1893      2499
 -1      4531    3    0    1
 -2       939       517       961      1982
 -1      4532    3    0    1
 -2       159       335      1021      2079
 -1      4533    3    0    1
 -2      2544      2593      2610      2622
 -1      4534    3    0    1
 -2      1301      2580      1382      2745
 -1      4535    3    0    1
 -2       457       456      1810      2102
 -1      4536    3    0    1
 -2      2089      1734      2133      2175
 -1      4537    3    0    1
 -2       335      1696      1991      2079
 -1      4538    3    0    1
 -2      1794       362      2101      2162
 -1      4539    3    0    1
 -2       226       225      1856      2169
 -1      4540    3    0    1
 -2      1323      2633      2638      2649
 -1      4541    3    0    1
 -2       427       249      2035      2117
 -1      4542    3    0    1
 -2       248       245       779      2028
 -1      4543    3    0    1
 -2       284       792      1731      2011
 -1      4544    3    0    1
 -2       177      1817      1891      2094
 -1      4545    3    0    1
 -2       792       459       865      2032
 -1      4546    3    0    1
 -2       528      1890      2054      2068
 -1      4547    3    0    1
 -2      1536      1765      1972      2027
 -1      4548    3    0    1
 -2      1784      1763      1972      2027
 -1      4549    3    0    1
 -2      1685      2022      2037      2042
 -1      4550    3    0    1
 -2      1538      1892      1944      2014
 -1      4551    3    0    1
 -2       228       250      1993      2121
 -1      4552    3    0    1
 -2       779      1087      2113      2121
 -1      4553    3    0    1
 -2      1087      1993      2113      2121
 -1      4554    3    0    1
 -2      1129       627      2041      2046
 -1      4555    3    0    1
 -2       187      1048      1678      1988
 -1      4556    3    0    1
 -2      1568      1678      1820      1988
 -1      4557    3    0    1
 -2      1678       343      1820      1988
 -1      4558    3    0    1
 -2       386      1125      1616      1989
 -1      4559    3    0    1
 -2       508      1589      1937      2012
 -1      4560    3    0    1
 -2       635       638      1143      1990
 -1      4561    3    0    1
 -2      1730       347      1995      2038
 -1      4562    3    0    1
 -2      1138       638       635      1990
 -1      4563    3    0    1
 -2      1142      1662      1840      1990
 -1      4564    3    0    1
 -2       638      1142      1840      1990
 -1      4565    3    0    1
 -2       616       627      1128      2013
 -1      4566    3    0    1
 -2       519      1960      1965      2012
 -1      4567    3    0    1
 -2      1763      1536      1972      2027
 -1      4568    3    0    1
 -2       964       406       346      2033
 -1      4569    3    0    1
 -2      1142      1138      1662      1990
 -1      4570    3    0    1
 -2      1142       638      1138      1990
 -1      4571    3    0    1
 -2       519       945       966      2012
 -1      4572    3    0    1
 -2       627       616      1108      2013
 -1      4573    3    0    1
 -2      1980      1844      2047      2178
 -1      4574    3    0    1
 -2       508       946      1589      2012
 -1      4575    3    0    1
 -2       323      1014      1912      2006
 -1      4576    3    0    1
 -2       552      2497      2106       553
 -1      4577    3    0    1
 -2      1566      1577      1981      2029
 -1      4578    3    0    1
 -2       376       270      2066      2481
 -1      4579    3    0    1
 -2      1083       226      1894      1993
 -1      4580    3    0    1
 -2      1083       225       226      1993
 -1      4581    3    0    1
 -2      1111       615      1994      2122
 -1      4582    3    0    1
 -2      1739       377      2066      2481
 -1      4583    3    0    1
 -2      1126      1145      2026      2481
 -1      4584    3    0    1
 -2      1111       245      1914      2122
 -1      4585    3    0    1
 -2       515      1779      1809      1995
 -1      4586    3    0    1
 -2       347       958      1636      1995
 -1      4587    3    0    1
 -2      1636       958      1809      1995
 -1      4588    3    0    1
 -2       958       515      1809      1995
 -1      4589    3    0    1
 -2       494      1783      1825      2016
 -1      4590    3    0    1
 -2      1717       491      2000      2016
 -1      4591    3    0    1
 -2       604      1856      1994      1997
 -1      4592    3    0    1
 -2       773       604      1994      1997
 -1      4593    3    0    1
 -2       604       773      1856      1997
 -1      4594    3    0    1
 -2      1925      1192      1953      2002
 -1      4595    3    0    1
 -2       304       302      1953      2002
 -1      4596    3    0    1
 -2      2107      2164      2527      2560
 -1      4597    3    0    1
 -2       430      1900      2001      2015
 -1      4598    3    0    1
 -2      1091       366      2001      2015
 -1      4599    3    0    1
 -2      1084      1897      1900      2015
 -1      4600    3    0    1
 -2      1834       507      1937      2147
 -1      4601    3    0    1
 -2       367        88      1935      2515
 -1      4602    3    0    1
 -2      1049       576      1051      2070
 -1      4603    3    0    1
 -2       577       576      1807      2070
 -1      4604    3    0    1
 -2      1090      1084      1900      2015
 -1      4605    3    0    1
 -2       366       230      1090      2015
 -1      4606    3    0    1
 -2        87        73      2099      2498
 -1      4607    3    0    1
 -2      1997      1091      2001      2015
 -1      4608    3    0    1
 -2       491       915      1889      2000
 -1      4609    3    0    1
 -2       916       491      1889      2000
 -1      4610    3    0    1
 -2      1611       916      1889      2000
 -1      4611    3    0    1
 -2       431       213      1660      2009
 -1      4612    3    0    1
 -2       430       431      1091      2001
 -1      4613    3    0    1
 -2       431      1072      1091      2001
 -1      4614    3    0    1
 -2      1202      1784      1972      2027
 -1      4615    3    0    1
 -2       430       431      2001      2009
 -1      4616    3    0    1
 -2       415      1578      1878      2003
 -1      4617    3    0    1
 -2      1675       415      1910      2003
 -1      4618    3    0    1
 -2      1553      1675      1910      2003
 -1      4619    3    0    1
 -2      1578       415      1675      2003
 -1      4620    3    0    1
 -2      1001       137      1621      2004
 -1      4621    3    0    1
 -2      1613      1548      1808      2005
 -1      4622    3    0    1
 -2      1752      1808      1853      2005
 -1      4623    3    0    1
 -2      1752      1613      1808      2005
 -1      4624    3    0    1
 -2      1636      1548      1730      2005
 -1      4625    3    0    1
 -2       347      1636      1730      2005
 -1      4626    3    0    1
 -2      1548      1636      1808      2005
 -1      4627    3    0    1
 -2       363      1623      1627      2006
 -1      4628    3    0    1
 -2       363       323      1604      2006
 -1      4629    3    0    1
 -2      1014      1627      1836      2006
 -1      4630    3    0    1
 -2       323       363      1627      2006
 -1      4631    3    0    1
 -2      1014       323      1627      2006
 -1      4632    3    0    1
 -2       920       917       493      2076
 -1      4633    3    0    1
 -2       529       528      1890      2054
 -1      4634    3    0    1
 -2      1986       263      2120      2177
 -1      4635    3    0    1
 -2      2482      1984      2555      2703
 -1      4636    3    0    1
 -2      1108      1111       615      2174
 -1      4637    3    0    1
 -2      1957       919      2076      2105
 -1      4638    3    0    1
 -2       377       376      1969      2066
 -1      4639    3    0    1
 -2      1129      2031      2041      2177
 -1      4640    3    0    1
 -2       431       430      1670      2009
 -1      4641    3    0    1
 -2       213       431      1065      2009
 -1      4642    3    0    1
 -2       587      1065      1670      2009
 -1      4643    3    0    1
 -2      1125      1119      1989      2010
 -1      4644    3    0    1
 -2       268      1125      1989      2010
 -1      4645    3    0    1
 -2      1125       268      1119      2010
 -1      4646    3    0    1
 -2      1972       841       326      2027
 -1      4647    3    0    1
 -2      1765       841      1972      2027
 -1      4648    3    0    1
 -2      1944      1892      1980      2014
 -1      4649    3    0    1
 -2      1839      2072      2490      2155
 -1      4650    3    0    1
 -2      1635      1580      1640      2034
 -1      4651    3    0    1
 -2       312      1202       326      2027
 -1      4652    3    0    1
 -2       261       270      2031      2118
 -1      4653    3    0    1
 -2      2022       964      2033      2045
 -1      4654    3    0    1
 -2       405       965      1934      2045
 -1      4655    3    0    1
 -2       961       939      1982      2114
 -1      4656    3    0    1
 -2       357       226      1092      2508
 -1      4657    3    0    1
 -2      1781      2132      2525      2552
 -1      4658    3    0    1
 -2      1856       226      1894      2508
 -1      4659    3    0    1
 -2      1092       226      1856      2508
 -1      4660    3    0    1
 -2       208       211       768      2508
 -1      4661    3    0    1
 -2      1092      1856      2008      2508
 -1      4662    3    0    1
 -2       763       215      1074      2507
 -1      4663    3    0    1
 -2       430       366      1090      2015
 -1      4664    3    0    1
 -2      1657      1966      2034      2037
 -1      4665    3    0    1
 -2       491       915      2000      2016
 -1      4666    3    0    1
 -2        67        71      1926      2016
 -1      4667    3    0    1
 -2        71        67       915      2016
 -1      4668    3    0    1
 -2       915        67      1926      2016
 -1      4669    3    0    1
 -2      1107       614      1608      2017
 -1      4670    3    0    1
 -2       791      1122      1969      2118
 -1      4671    3    0    1
 -2      1107       427       240      2017
 -1      4672    3    0    1
 -2       240       427      1942      2017
 -1      4673    3    0    1
 -2       240       380      1101      2017
 -1      4674    3    0    1
 -2       347       404      1966      2018
 -1      4675    3    0    1
 -2       404      1547      1657      2018
 -1      4676    3    0    1
 -2      1547      1551      1657      2018
 -1      4677    3    0    1
 -2      1547       347      1730      2018
 -1      4678    3    0    1
 -2       404       347      1547      2018
 -1      4679    3    0    1
 -2       985       124      1927      2019
 -1      4680    3    0    1
 -2       985       122       124      2019
 -1      4681    3    0    1
 -2       124      1779      1999      2019
 -1      4682    3    0    1
 -2      1927       124      1999      2019
 -1      4683    3    0    1
 -2      1779       124      1809      2019
 -1      4684    3    0    1
 -2      1809       124      1961      2019
 -1      4685    3    0    1
 -2      1779      1809      1961      2019
 -1      4686    3    0    1
 -2       124       122       983      2019
 -1      4687    3    0    1
 -2       403       290       814      2020
 -1      4688    3    0    1
 -2       403      2020      1161       290
 -1      4689    3    0    1
 -2       403       814      1778      2020
 -1      4690    3    0    1
 -2       814      1650      1778      2020
 -1      4691    3    0    1
 -2      1840       638      1990      2021
 -1      4692    3    0    1
 -2      1143       281      1137      2021
 -1      4693    3    0    1
 -2      1143      1137      1990      2021
 -1      4694    3    0    1
 -2       515      1779      1995      2040
 -1      4695    3    0    1
 -2       421       281      2011      2021
 -1      4696    3    0    1
 -2       281       421      1137      2021
 -1      4697    3    0    1
 -2       423       281      1143      2021
 -1      4698    3    0    1
 -2       423      1143      1804      2021
 -1      4699    3    0    1
 -2      1545      1657      2023      2034
 -1      4700    3    0    1
 -2      2031      1129      2041      2046
 -1      4701    3    0    1
 -2      1980      2047      2126      2178
 -1      4702    3    0    1
 -2       347      1730      2018      2038
 -1      4703    3    0    1
 -2      1657      1966      2023      2034
 -1      4704    3    0    1
 -2      1129       627      2013      2041
 -1      4705    3    0    1
 -2      2179      2491      1980      2516
 -1      4706    3    0    1
 -2      1730      1995      2005      2038
 -1      4707    3    0    1
 -2       964       518      1685      2022
 -1      4708    3    0    1
 -2      1730      1632      2018      2038
 -1      4709    3    0    1
 -2      1731       284      2011      2039
 -1      4710    3    0    1
 -2      1785       374      1937      2025
 -1      4711    3    0    1
 -2      1104       248      2028      2125
 -1      4712    3    0    1
 -2       248      1914      2028      2125
 -1      4713    3    0    1
 -2       640       459       792      2032
 -1      4714    3    0    1
 -2       627      2013      2041      2046
 -1      4715    3    0    1
 -2       541      1000      1839      2068
 -1      4716    3    0    1
 -2       865       459      1932      2032
 -1      4717    3    0    1
 -2       640       792      2011      2032
 -1      4718    3    0    1
 -2       405       964      1685      2045
 -1      4719    3    0    1
 -2       965      1589      2012      2045
 -1      4720    3    0    1
 -2       406      1934      2033      2045
 -1      4721    3    0    1
 -2      1934       965      2012      2045
 -1      4722    3    0    1
 -2      2496      2185      2320      2700
 -1      4723    3    0    1
 -2      1723       541      1839      2068
 -1      4724    3    0    1
 -2      1731       865      1932      2032
 -1      4725    3    0    1
 -2       405        95      1589      2045
 -1      4726    3    0    1
 -2       528       541      1723      2068
 -1      4727    3    0    1
 -2       541       978      1000      2068
 -1      4728    3    0    1
 -2       628      1126      1145      2026
 -1      4729    3    0    1
 -2       639       628      1145      2026
 -1      4730    3    0    1
 -2      1693       480      2091      2129
 -1      4731    3    0    1
 -2       308       830      1195      2029
 -1      4732    3    0    1
 -2       308      1195      1687      2029
 -1      4733    3    0    1
 -2      1154       308      1981      2029
 -1      4734    3    0    1
 -2      1153       308      1154      2029
 -1      4735    3    0    1
 -2      1820      1567      1977      2030
 -1      4736    3    0    1
 -2       343      1820      1977      2030
 -1      4737    3    0    1
 -2      1567       434      1625      2030
 -1      4738    3    0    1
 -2      1577      1567      1625      2030
 -1      4739    3    0    1
 -2       343       434      1567      2030
 -1      4740    3    0    1
 -2       343      1567      1820      2030
 -1      4741    3    0    1
 -2       503       937      1761      2042
 -1      4742    3    0    1
 -2      2034      1635      2037      2042
 -1      4743    3    0    1
 -2       937      1640      1761      2042
 -1      4744    3    0    1
 -2       261      1126      1129      2031
 -1      4745    3    0    1
 -2      1640      1635      2034      2042
 -1      4746    3    0    1
 -2      1635      1685      2037      2042
 -1      4747    3    0    1
 -2       281       423      1144      2044
 -1      4748    3    0    1
 -2       628      1527      2043      2044
 -1      4749    3    0    1
 -2       639       640      1144      2044
 -1      4750    3    0    1
 -2       346      1934      1999      2033
 -1      4751    3    0    1
 -2       957       346      1779      2033
 -1      4752    3    0    1
 -2      1779       346      1999      2033
 -1      4753    3    0    1
 -2       515       518       957      2033
 -1      4754    3    0    1
 -2      1545      1635      1657      2034
 -1      4755    3    0    1
 -2      1545      1580      1635      2034
 -1      4756    3    0    1
 -2       377       791      1969      2118
 -1      4757    3    0    1
 -2      1109       615       616      2035
 -1      4758    3    0    1
 -2      1109       616      1942      2035
 -1      4759    3    0    1
 -2       616       615      2013      2035
 -1      4760    3    0    1
 -2      1942       616      2013      2035
 -1      4761    3    0    1
 -2       429       230      1997      2036
 -1      4762    3    0    1
 -2      1997       230      2015      2036
 -1      4763    3    0    1
 -2      1084       429      1703      2036
 -1      4764    3    0    1
 -2       599      1084      1703      2036
 -1      4765    3    0    1
 -2       230       429      1084      2036
 -1      4766    3    0    1
 -2      2084       360       195      2153
 -1      4767    3    0    1
 -2      1126       628       627      2043
 -1      4768    3    0    1
 -2       518      1685      2022      2037
 -1      4769    3    0    1
 -2       963       518      2022      2037
 -1      4770    3    0    1
 -2      1635       404      1657      2037
 -1      4771    3    0    1
 -2       963      1635      1685      2037
 -1      4772    3    0    1
 -2       963       404      1635      2037
 -1      4773    3    0    1
 -2       518       963      1685      2037
 -1      4774    3    0    1
 -2       284      1731      1920      2039
 -1      4775    3    0    1
 -2       635      1534      1990      2039
 -1      4776    3    0    1
 -2      1534       635      1920      2039
 -1      4777    3    0    1
 -2       421      1137      2021      2039
 -1      4778    3    0    1
 -2      2011       421      2021      2039
 -1      4779    3    0    1
 -2       284       421      2011      2039
 -1      4780    3    0    1
 -2       421       284      1137      2039
 -1      4781    3    0    1
 -2       963       518       515      2040
 -1      4782    3    0    1
 -2       957       515      2033      2040
 -1      4783    3    0    1
 -2       515       957      1779      2040
 -1      4784    3    0    1
 -2      1779       957      2033      2040
 -1      4785    3    0    1
 -2       963       958      1995      2040
 -1      4786    3    0    1
 -2       958       963       515      2040
 -1      4787    3    0    1
 -2       963      1966      2037      2040
 -1      4788    3    0    1
 -2      1966       963      1995      2040
 -1      4789    3    0    1
 -2       281      2011      2021      2044
 -1      4790    3    0    1
 -2      1739       639      2026      2044
 -1      4791    3    0    1
 -2       248      1108      1914      1217
 -1      4792    3    0    1
 -2       439       248      2125      1217
 -1      4793    3    0    1
 -2      2041       439      2125      1217
 -1      4794    3    0    1
 -2      2478       878      1224      2562
 -1      4795    3    0    1
 -2      1032      1051      1732      2540
 -1      4796    3    0    1
 -2      1224      1250      2599      2750
 -1      4797    3    0    1
 -2       937       503      1685      2042
 -1      4798    3    0    1
 -2       503       936      1685      2042
 -1      4799    3    0    1
 -2       936        95      1685      2042
 -1      4800    3    0    1
 -2      2093      1870      2140      2509
 -1      4801    3    0    1
 -2      1126       627      1129      2043
 -1      4802    3    0    1
 -2       627      1127      1128      2043
 -1      4803    3    0    1
 -2      1128      1127      2010      2043
 -1      4804    3    0    1
 -2      1817       177      1891      2057
 -1      4805    3    0    1
 -2      1276      2227      2295      2301
 -1      4806    3    0    1
 -2       640      1739      2032      2044
 -1      4807    3    0    1
 -2      2011       640      2032      2044
 -1      4808    3    0    1
 -2       640       639      1739      2044
 -1      4809    3    0    1
 -2       639       628      2026      2044
 -1      4810    3    0    1
 -2      1127      1144      1527      2044
 -1      4811    3    0    1
 -2       792       640      2011      2044
 -1      4812    3    0    1
 -2       640       792      1144      2044
 -1      4813    3    0    1
 -2      1144       792      2011      2044
 -1      4814    3    0    1
 -2       628      1127      1527      2044
 -1      4815    3    0    1
 -2      1127       639      1144      2044
 -1      4816    3    0    1
 -2       628       639      1127      2044
 -1      4817    3    0    1
 -2       405       406       964      2045
 -1      4818    3    0    1
 -2      2043      1129      2031      2046
 -1      4819    3    0    1
 -2      1129      2043      2031      1126
 -1      4820    3    0    1
 -2       177       756      1891      2057
 -1      4821    3    0    1
 -2       121       981      1845      2492
 -1      4822    3    0    1
 -2       215       359      2084      2153
 -1      4823    3    0    1
 -2       939        83      1987      2114
 -1      4824    3    0    1
 -2       899      1693      1838      2048
 -1      4825    3    0    1
 -2      1693       899      1709      2048
 -1      4826    3    0    1
 -2        88      1935      1987      2114
 -1      4827    3    0    1
 -2        12        10      1749      2049
 -1      4828    3    0    1
 -2        10        12       857      2049
 -1      4829    3    0    1
 -2       373        73       923      2498
 -1      4830    3    0    1
 -2       207      1438      1485      2465
 -1      4831    3    0    1
 -2       746       552      1017      2161
 -1      4832    3    0    1
 -2      2067      1749      2139      2513
 -1      4833    3    0    1
 -2      1067      1069      2051      2483
 -1      4834    3    0    1
 -2       589       588      1801      2051
 -1      4835    3    0    1
 -2      1769      1538      1892      2143
 -1      4836    3    0    1
 -2      2290      2532      2704      2716
 -1      4837    3    0    1
 -2      1810      1140      2172      2194
 -1      4838    3    0    1
 -2       775      2235       609      1100
 -1      4839    3    0    1
 -2       504       938       962      2512
 -1      4840    3    0    1
 -2       962       959      1760      2520
 -1      4841    3    0    1
 -2      2195      2566      1294      1309
 -1      4842    3    0    1
 -2       382       381      1838      2156
 -1      4843    3    0    1
 -2       625      1986      2007      2053
 -1      4844    3    0    1
 -2       624       625      2007      2053
 -1      4845    3    0    1
 -2      1986       625      2007      2541
 -1      4846    3    0    1
 -2      1269      2189      2538      1294
 -1      4847    3    0    1
 -2       625       785      1986      2053
 -1      4848    3    0    1
 -2       625       624       785      2053
 -1      4849    3    0    1
 -2       637       624      1121      2053
 -1      4850    3    0    1
 -2       637      1121      1141      2053
 -1      4851    3    0    1
 -2       392       387      2139      2513
 -1      4852    3    0    1
 -2       158       157      1656      2055
 -1      4853    3    0    1
 -2      1022       748      1698      2055
 -1      4854    3    0    1
 -2      1698       748      1830      2055
 -1      4855    3    0    1
 -2       157       748      1022      2055
 -1      4856    3    0    1
 -2       157       158       748      2055
 -1      4857    3    0    1
 -2       748       158      1830      2055
 -1      4858    3    0    1
 -2      2547      2514      2599      2603
 -1      4859    3    0    1
 -2      1656      1787      2059      2130
 -1      4860    3    0    1
 -2      2056      1725      2486      2604
 -1      4861    3    0    1
 -2      1388      2568      2625      2626
 -1      4862    3    0    1
 -2       387       280      2103      2139
 -1      4863    3    0    1
 -2       280      1739      2139      2513
 -1      4864    3    0    1
 -2       378      2611      1424      2722
 -1      4865    3    0    1
 -2       157      1656      2059      2130
 -1      4866    3    0    1
 -2      2599      2603      1403      2734
 -1      4867    3    0    1
 -2       880      1908       468       469
 -1      4868    3    0    1
 -2      2632      2542      1398      2300
 -1      4869    3    0    1
 -2      2479      2083      2501      2520
 -1      4870    3    0    1
 -2      1243      1306      2651      2363
 -1      4871    3    0    1
 -2       350      1699      1787      2059
 -1      4872    3    0    1
 -2       142       350      1787      2059
 -1      4873    3    0    1
 -2       350       142      1699      2059
 -1      4874    3    0    1
 -2       979       121      1845      2131
 -1      4875    3    0    1
 -2       121       119      1845      2131
 -1      4876    3    0    1
 -2       139       740      2061      2131
 -1      4877    3    0    1
 -2      1296      1317      2606      2318
 -1      4878    3    0    1
 -2      1068       208      2111      2137
 -1      4879    3    0    1
 -2       354      1960      2115      2494
 -1      4880    3    0    1
 -2       110       354      2115      2494
 -1      4881    3    0    1
 -2      1024      1327      2250      2294
 -1      4882    3    0    1
 -2      1068       208      1801      2111
 -1      4883    3    0    1
 -2       624      1121      2053      2127
 -1      4884    3    0    1
 -2      1262      2179      2189      2538
 -1      4885    3    0    1
 -2       763      1074      1813      2507
 -1      4886    3    0    1
 -2      2491      2179      1980      2166
 -1      4887    3    0    1
 -2      1829       905      2134       718
 -1      4888    3    0    1
 -2      2627      2658      2701      2708
 -1      4889    3    0    1
 -2        88        83      1987      2515
 -1      4890    3    0    1
 -2      2561      1284      1346      2680
 -1      4891    3    0    1
 -2      1017       158      1656      2135
 -1      4892    3    0    1
 -2       438       382       905      2063
 -1      4893    3    0    1
 -2       382       438      1838      2063
 -1      4894    3    0    1
 -2       382       902       905      2063
 -1      4895    3    0    1
 -2       905       902      1772      2063
 -1      4896    3    0    1
 -2      2053      2127      2546      2224
 -1      4897    3    0    1
 -2      2051       589      2483      2525
 -1      4898    3    0    1
 -2       793       392       866      2513
 -1      4899    3    0    1
 -2       756      1877      2057      2086
 -1      4900    3    0    1
 -2       344       194      1055      2086
 -1      4901    3    0    1
 -2       601       588      1719      2111
 -1      4902    3    0    1
 -2      1968      2479      2549      2621
 -1      4903    3    0    1
 -2      1083      1068      2111      2137
 -1      4904    3    0    1
 -2       208       211      2111      2137
 -1      4905    3    0    1
 -2       211      1894      2111      2137
 -1      4906    3    0    1
 -2      1514       388      1516      2474
 -1      4907    3    0    1
 -2      2173      2136      2522      2541
 -1      4908    3    0    1
 -2       774      1111      1994      2545
 -1      4909    3    0    1
 -2      2478      1674      2119      2129
 -1      4910    3    0    1
 -2      1732      1051      2070      2104
 -1      4911    3    0    1
 -2       640       459      2032      2067
 -1      4912    3    0    1
 -2       576       589      1050      2142
 -1      4913    3    0    1
 -2       640       793       866      2067
 -1      4914    3    0    1
 -2      1078       594       595      2191
 -1      4915    3    0    1
 -2       459       640       866      2067
 -1      4916    3    0    1
 -2      1638      1141      2546      2224
 -1      4917    3    0    1
 -2       456      1690      2102      2505
 -1      4918    3    0    1
 -2      1786       208      1894      2111
 -1      4919    3    0    1
 -2      1231      2543      2645      2679
 -1      4920    3    0    1
 -2       860       456       862      2505
 -1      4921    3    0    1
 -2       225       774      2169      2545
 -1      4922    3    0    1
 -2       866      1749      2067      2513
 -1      4923    3    0    1
 -2       588      1068      1801      2111
 -1      4924    3    0    1
 -2      2220      1308      2262      2272
 -1      4925    3    0    1
 -2      1673       128      2115      2494
 -1      4926    3    0    1
 -2       986      1673      2081      2494
 -1      4927    3    0    1
 -2       505      1987      2116      2144
 -1      4928    3    0    1
 -2      1654       505      2116      2144
 -1      4929    3    0    1
 -2      1067       588       589      2483
 -1      4930    3    0    1
 -2       387       280      2139      2513
 -1      4931    3    0    1
 -2      2058       468       878      1908
 -1      4932    3    0    1
 -2       941       505      1654      2144
 -1      4933    3    0    1
 -2      2089      1734      2192      2542
 -1      4934    3    0    1
 -2      1018      1016      1768      2551
 -1      4935    3    0    1
 -2      1221      2606      2616      2284
 -1      4936    3    0    1
 -2      1337      1407      1431      2370
 -1      4937    3    0    1
 -2      1810       457      1924      2074
 -1      4938    3    0    1
 -2      1384      2282      2286      2311
 -1      4939    3    0    1
 -2       529      1890      2077      2128
 -1      4940    3    0    1
 -2        83       945      2025      2515
 -1      4941    3    0    1
 -2      1316      2578      2612      1426
 -1      4942    3    0    1
 -2      2168      2531      2682      2683
 -1      4943    3    0    1
 -2       457       636      1139      2074
 -1      4944    3    0    1
 -2       862       457      1139      2074
 -1      4945    3    0    1
 -2       746      1787       999      2106
 -1      4946    3    0    1
 -2      1787       142      2059      2130
 -1      4947    3    0    1
 -2      1596      1861      1918      2477
 -1      4948    3    0    1
 -2      1105      1103      1919      2173
 -1      4949    3    0    1
 -2      1769      1734      2089      2143
 -1      4950    3    0    1
 -2       359       767      1801      2084
 -1      4951    3    0    1
 -2       158       162       748      2499
 -1      4952    3    0    1
 -2       364       362      2090      2162
 -1      4953    3    0    1
 -2       948       507      1834      2147
 -1      4954    3    0    1
 -2      1421      1320      1429      2411
 -1      4955    3    0    1
 -2       716       861      1690      2092
 -1      4956    3    0    1
 -2       564      1032      1732      2078
 -1      4957    3    0    1
 -2       368      1337      2590      1407
 -1      4958    3    0    1
 -2      2088      2093      2140      2509
 -1      4959    3    0    1
 -2      1363      1241      2678      2391
 -1      4960    3    0    1
 -2      1301      2625      2745      2427
 -1      4961    3    0    1
 -2       588      1719      2111      2483
 -1      4962    3    0    1
 -2      1088      1067      2476      2483
 -1      4963    3    0    1
 -2       588      1801      2051      2483
 -1      4964    3    0    1
 -2       142       742      1699      2080
 -1      4965    3    0    1
 -2       742       334      1022      2080
 -1      4966    3    0    1
 -2       142       334       742      2080
 -1      4967    3    0    1
 -2       520       531      1965      2081
 -1      4968    3    0    1
 -2       732       520      1965      2081
 -1      4969    3    0    1
 -2      1550      1644      2496      2528
 -1      4970    3    0    1
 -2       362       364      2090      2499
 -1      4971    3    0    1
 -2       531       732       986      2081
 -1      4972    3    0    1
 -2      2577      1292      1446      2351
 -1      4973    3    0    1
 -2       531       520       732      2081
 -1      4974    3    0    1
 -2       158       748      1830      2499
 -1      4975    3    0    1
 -2      2639      2493      2712      2719
 -1      4976    3    0    1
 -2      1291      2584      2731      2765
 -1      4977    3    0    1
 -2        97       952      2327      2329
 -1      4978    3    0    1
 -2       373      1789      1957      2099
 -1      4979    3    0    1
 -2      1984      2072      2482      2157
 -1      4980    3    0    1
 -2      1050      2084       767      2153
 -1      4981    3    0    1
 -2      1786       359      1801      2084
 -1      4982    3    0    1
 -2        72       384      1789      2504
 -1      4983    3    0    1
 -2      1807      1050      1974      2084
 -1      4984    3    0    1
 -2      1348      1269      2604      2651
 -1      4985    3    0    1
 -2      1050       360      1974      2084
 -1      4986    3    0    1
 -2      2191      1286      2221      2606
 -1      4987    3    0    1
 -2      1000      1839      2068      2506
 -1      4988    3    0    1
 -2      1790      1789      2100      2504
 -1      4989    3    0    1
 -2      1838       382      2100      2504
 -1      4990    3    0    1
 -2       165       179      1025      1222
 -1      4991    3    0    1
 -2       179       165       178      1222
 -1      4992    3    0    1
 -2       344       178      1817      2086
 -1      4993    3    0    1
 -2       362       175      1038      2154
 -1      4994    3    0    1
 -2      1791       923      1834      2147
 -1      4995    3    0    1
 -2      1838       381      2148      2156
 -1      4996    3    0    1
 -2       507       948      1785      2147
 -1      4997    3    0    1
 -2      2104      1821      2485      2132
 -1      4998    3    0    1
 -2       280       387       793      2513
 -1      4999    3    0    1
 -2      1033       177      1794      2094
 -1      5000    3    0    1
 -2      2087      2496      2524      2526
 -1      5001    3    0    1
 -2      1313      1425      1426      2696
 -1      5002    3    0    1
 -2      1801       588      2111      2483
 -1      5003    3    0    1
 -2       589       588      2051      2483
 -1      5004    3    0    1
 -2      1033       565       564      2094
 -1      5005    3    0    1
 -2       208      1786      1801      2111
 -1      5006    3    0    1
 -2       165       177       178      1222
 -1      5007    3    0    1
 -2       344       178      2086      1222
 -1      5008    3    0    1
 -2      2127      1638      2546      2224
 -1      5009    3    0    1
 -2      2570      1285      1401      2659
 -1      5010    3    0    1
 -2      2057       756      2086      1222
 -1      5011    3    0    1
 -2        33        39       718      2134
 -1      5012    3    0    1
 -2        39        33      2480      2134
 -1      5013    3    0    1
 -2       248       245      1108      2174
 -1      5014    3    0    1
 -2       900      2478      2129      2519
 -1      5015    3    0    1
 -2      1223      2478      1224      2500
 -1      5016    3    0    1
 -2      2640      2586      2682      2683
 -1      5017    3    0    1
 -2       897       920      2475      1218
 -1      5018    3    0    1
 -2      2478       878      1223      1224
 -1      5019    3    0    1
 -2      2281      2595      1426      2676
 -1      5020    3    0    1
 -2       920      2475      2076      2091
 -1      5021    3    0    1
 -2       920       897      2475      2091
 -1      5022    3    0    1
 -2       493       920      2076      2091
 -1      5023    3    0    1
 -2       480       493      1693      2091
 -1      5024    3    0    1
 -2      1693       493      2076      2091
 -1      5025    3    0    1
 -2       493       897       920      2091
 -1      5026    3    0    1
 -2       493       480       897      2091
 -1      5027    3    0    1
 -2       898      1838      2105      2156
 -1      5028    3    0    1
 -2       354       732      1960      2494
 -1      5029    3    0    1
 -2      2100      1789      2148      2504
 -1      5030    3    0    1
 -2      1769      1734      1892      2093
 -1      5031    3    0    1
 -2      1769      1892      2069      2093
 -1      5032    3    0    1
 -2       625      1986      2123      2541
 -1      5033    3    0    1
 -2       754      1033      1794      2094
 -1      5034    3    0    1
 -2      1033       754       565      2094
 -1      5035    3    0    1
 -2      2568      2202      2231      1388
 -1      5036    3    0    1
 -2      1732       564      2078      2095
 -1      5037    3    0    1
 -2      1863      2087      2524      2526
 -1      5038    3    0    1
 -2      2389      1445      2427      2454
 -1      5039    3    0    1
 -2      1307      2535      2597      2702
 -1      5040    3    0    1
 -2       564      1732      2094      2095
 -1      5041    3    0    1
 -2       565       564      2094      2095
 -1      5042    3    0    1
 -2      1086      2191      2221      2606
 -1      5043    3    0    1
 -2       902       384       926      2504
 -1      5044    3    0    1
 -2       362       364      2101      2162
 -1      5045    3    0    1
 -2      2349      1366      2397      2426
 -1      5046    3    0    1
 -2       436        31      2477      2098
 -1      5047    3    0    1
 -2       861      1690      2092      2098
 -1      5048    3    0    1
 -2      1690       861      2049      2098
 -1      5049    3    0    1
 -2      2049       861      2092      2098
 -1      5050    3    0    1
 -2        10      2049      2092      2098
 -1      5051    3    0    1
 -2        31        30      2477      2098
 -1      5052    3    0    1
 -2      1690        30      2092      2098
 -1      5053    3    0    1
 -2        31       436      2092      2098
 -1      5054    3    0    1
 -2       436        10      2092      2098
 -1      5055    3    0    1
 -2        30        31      2092      2098
 -1      5056    3    0    1
 -2       350       142      1787      2130
 -1      5057    3    0    1
 -2      2133      2089      2175      2521
 -1      5058    3    0    1
 -2       279      2223      2226      2273
 -1      5059    3    0    1
 -2       364      2090      2499      2162
 -1      5060    3    0    1
 -2      1790      1772       902      2100
 -1      5061    3    0    1
 -2      2101       162      2135      2162
 -1      5062    3    0    1
 -2       356       736      2077      2149
 -1      5063    3    0    1
 -2      2090      2135      2499      2162
 -1      5064    3    0    1
 -2       364       162      2101      2162
 -1      5065    3    0    1
 -2       616      1108       615      2174
 -1      5066    3    0    1
 -2      1760      2489      2145      2574
 -1      5067    3    0    1
 -2      1810       861      2049      2102
 -1      5068    3    0    1
 -2       861      1690      2049      2102
 -1      5069    3    0    1
 -2      1863      2068      2109      2506
 -1      5070    3    0    1
 -2       178      1817      2086      1222
 -1      5071    3    0    1
 -2      2478      2475      2119      2563
 -1      5072    3    0    1
 -2      2127      1638      2487      2546
 -1      5073    3    0    1
 -2      2663      1262      2705      2764
 -1      5074    3    0    1
 -2      2281      1426      2339      2676
 -1      5075    3    0    1
 -2       576      1050      1807      2142
 -1      5076    3    0    1
 -2      1538      2069      1769      1892
 -1      5077    3    0    1
 -2       767       589      1801      2142
 -1      5078    3    0    1
 -2       791       377      1969      2103
 -1      5079    3    0    1
 -2       791      1140       377      2103
 -1      5080    3    0    1
 -2      2518      1257      1258      2571
 -1      5081    3    0    1
 -2      1769      2088      2093      2140
 -1      5082    3    0    1
 -2       228       225      1993      2545
 -1      5083    3    0    1
 -2      2212      2201      2222      2593
 -1      5084    3    0    1
 -2       493       919      1693      2105
 -1      5085    3    0    1
 -2       948       374      1785      2498
 -1      5086    3    0    1
 -2      1834       948      2147      2498
 -1      5087    3    0    1
 -2       373       923      1791      2498
 -1      5088    3    0    1
 -2      1787       540      2106      2497
 -1      5089    3    0    1
 -2       392        12       866      2513
 -1      5090    3    0    1
 -2       372      1480      1496      2429
 -1      5091    3    0    1
 -2      1018       998      2490      2497
 -1      5092    3    0    1
 -2      1261      2506      2565      2631
 -1      5093    3    0    1
 -2      2106       552      2161      2502
 -1      5094    3    0    1
 -2       740      1723      2061      2131
 -1      5095    3    0    1
 -2       540       999      1787      2106
 -1      5096    3    0    1
 -2        72       919      2105      2156
 -1      5097    3    0    1
 -2       540       553       746      2106
 -1      5098    3    0    1
 -2       384      2105      2148      2156
 -1      5099    3    0    1
 -2       540       746       999      2106
 -1      5100    3    0    1
 -2       208       768      1786      2508
 -1      5101    3    0    1
 -2       225       226      1993      2169
 -1      5102    3    0    1
 -2       384        72      2105      2156
 -1      5103    3    0    1
 -2      2216      1287      2247      2248
 -1      5104    3    0    1
 -2      1139      1141       637      2635
 -1      5105    3    0    1
 -2      1262      1293      2663      2705
 -1      5106    3    0    1
 -2      1074       359      1786      2507
 -1      5107    3    0    1
 -2      1108      1129      2041      1217
 -1      5108    3    0    1
 -2       263       785      1986      2120
 -1      5109    3    0    1
 -2       195      1974      2084      2507
 -1      5110    3    0    1
 -2       195       215       763      2507
 -1      5111    3    0    1
 -2      1759      1004      1921      2492
 -1      5112    3    0    1
 -2      1004       341       139      2492
 -1      5113    3    0    1
 -2       139       341      2073      2492
 -1      5114    3    0    1
 -2      1968      2071      2479      2512
 -1      5115    3    0    1
 -2       588       601      1083      2111
 -1      5116    3    0    1
 -2      2051      1859      2483      2165
 -1      5117    3    0    1
 -2       517      1760      2071      2512
 -1      5118    3    0    1
 -2      1719       600      2113      2165
 -1      5119    3    0    1
 -2      2007       624      2053      2127
 -1      5120    3    0    1
 -2      1141      1139       637      2224
 -1      5121    3    0    1
 -2       112       353      2658      2701
 -1      5122    3    0    1
 -2      1087      1083       600      2113
 -1      5123    3    0    1
 -2      1083      1087      1993      2113
 -1      5124    3    0    1
 -2      1083      1894      2111      2113
 -1      5125    3    0    1
 -2      1719      1083      2111      2113
 -1      5126    3    0    1
 -2       779       613      1919      2113
 -1      5127    3    0    1
 -2       601      1083      1719      2113
 -1      5128    3    0    1
 -2       600       601      1719      2113
 -1      5129    3    0    1
 -2       601       600      1083      2113
 -1      5130    3    0    1
 -2       600       613      1087      2113
 -1      5131    3    0    1
 -2       613       779      1087      2113
 -1      5132    3    0    1
 -2      2724      1471      2729      2735
 -1      5133    3    0    1
 -2      2094      1817      2159      2186
 -1      5134    3    0    1
 -2       517       962      2489      2512
 -1      5135    3    0    1
 -2       960       354      1949      2115
 -1      5136    3    0    1
 -2       505       492      1654      2116
 -1      5137    3    0    1
 -2      1654       492      1957      2116
 -1      5138    3    0    1
 -2       860       862      2317      2749
 -1      5139    3    0    1
 -2      2482      1984      2157      2555
 -1      5140    3    0    1
 -2       492       918      1957      2116
 -1      5141    3    0    1
 -2      2487      2533      2546      2713
 -1      5142    3    0    1
 -2      1103      2173      2522      2541
 -1      5143    3    0    1
 -2       492       505       940      2116
 -1      5144    3    0    1
 -2      2738      2449      2453      2469
 -1      5145    3    0    1
 -2       918       492       940      2116
 -1      5146    3    0    1
 -2      1969      2031      2066      2118
 -1      5147    3    0    1
 -2       119       121      1845      2492
 -1      5148    3    0    1
 -2       341      2061      2073      2492
 -1      5149    3    0    1
 -2       119      1845      2061      2492
 -1      5150    3    0    1
 -2       981       341      1004      2492
 -1      5151    3    0    1
 -2       748       556      1830      2499
 -1      5152    3    0    1
 -2      2588      1402      2335      2733
 -1      5153    3    0    1
 -2      1087       225      1993      2121
 -1      5154    3    0    1
 -2      2028       779      2113      2121
 -1      5155    3    0    1
 -2       250       245      1993      2121
 -1      5156    3    0    1
 -2      1993       245      2028      2121
 -1      5157    3    0    1
 -2      1993      2028      2113      2121
 -1      5158    3    0    1
 -2      2533      1297      1298      2573
 -1      5159    3    0    1
 -2      1421      2650      2374      2697
 -1      5160    3    0    1
 -2      1141      2053      2224       637
 -1      5161    3    0    1
 -2       245      1993      2028      2122
 -1      5162    3    0    1
 -2      1914       245      2028      2122
 -1      5163    3    0    1
 -2      1086      1238      2537      2606
 -1      5164    3    0    1
 -2       270       376      1126      2481
 -1      5165    3    0    1
 -2      2026      1739      2066      2481
 -1      5166    3    0    1
 -2      2031      2026      2066      2481
 -1      5167    3    0    1
 -2       612       613      1919      2123
 -1      5168    3    0    1
 -2      1919       613      2028      2123
 -1      5169    3    0    1
 -2       785       625      1986      2123
 -1      5170    3    0    1
 -2      1104       613       612      2123
 -1      5171    3    0    1
 -2      1104       785      1986      2123
 -1      5172    3    0    1
 -2       779      1104      2028      2123
 -1      5173    3    0    1
 -2      1104       779       613      2123
 -1      5174    3    0    1
 -2       613       779      2028      2123
 -1      5175    3    0    1
 -2       612       625       785      2123
 -1      5176    3    0    1
 -2       612       785      1104      2123
 -1      5177    3    0    1
 -2       966       369      1960      2124
 -1      5178    3    0    1
 -2       519      1960      2012      2124
 -1      5179    3    0    1
 -2       966       519      2012      2124
 -1      5180    3    0    1
 -2       519       966      1960      2124
 -1      5181    3    0    1
 -2      2675      1394      1490      2742
 -1      5182    3    0    1
 -2      2211      2576      2613      1401
 -1      5183    3    0    1
 -2      1104      2028      2123      2125
 -1      5184    3    0    1
 -2      1986      1104      2123      2125
 -1      5185    3    0    1
 -2      2279      2583      2304      2724
 -1      5186    3    0    1
 -2       439       248      2120      2125
 -1      5187    3    0    1
 -2       248      1104      2120      2125
 -1      5188    3    0    1
 -2      1129       265      2041      1217
 -1      5189    3    0    1
 -2       248      1914      2125      1217
 -1      5190    3    0    1
 -2       241       439       252      1217
 -1      5191    3    0    1
 -2       439       241       248      1217
 -1      5192    3    0    1
 -2       263      1986      2031      2177
 -1      5193    3    0    1
 -2      1914      2041      2125      1217
 -1      5194    3    0    1
 -2      1004       139      1921      2492
 -1      5195    3    0    1
 -2      1980      2014      2166      2179
 -1      5196    3    0    1
 -2      2212      1291      2593      1400
 -1      5197    3    0    1
 -2      1326      1231      2679      2396
 -1      5198    3    0    1
 -2      2475      1725      2119      2516
 -1      5199    3    0    1
 -2      2047      1980      2126      2516
 -1      5200    3    0    1
 -2       601       600      1088      2191
 -1      5201    3    0    1
 -2       369      1935      2124      2515
 -1      5202    3    0    1
 -2       945      2012      2025      2515
 -1      5203    3    0    1
 -2      1984      2072      2096      2482
 -1      5204    3    0    1
 -2      2475      1218      1219      2518
 -1      5205    3    0    1
 -2      2072      1768      2096      2482
 -1      5206    3    0    1
 -2      1830       556      1893      2499
 -1      5207    3    0    1
 -2      1294      1219      2550      2331
 -1      5208    3    0    1
 -2       178       344      1817      2186
 -1      5209    3    0    1
 -2      1059       209      2220      2230
 -1      5210    3    0    1
 -2       945       966      2012      2515
 -1      5211    3    0    1
 -2       367       369       966      2515
 -1      5212    3    0    1
 -2       637       630       629      2635
 -1      5213    3    0    1
 -2      1719      2051      2111      2483
 -1      5214    3    0    1
 -2       601       588      1067      2483
 -1      5215    3    0    1
 -2      2051      1801      2111      2483
 -1      5216    3    0    1
 -2      1924      2085      2495      2505
 -1      5217    3    0    1
 -2       926      1789      1790      2504
 -1      5218    3    0    1
 -2      1781      2062      2132      2552
 -1      5219    3    0    1
 -2      2523      2193      2586      2682
 -1      5220    3    0    1
 -2      2050      2060      2146      2202
 -1      5221    3    0    1
 -2      1980      2110      2491      2166
 -1      5222    3    0    1
 -2      2479       938      2144      2512
 -1      5223    3    0    1
 -2      1656      1017      2135      2161
 -1      5224    3    0    1
 -2      1980      2014      2164      2166
 -1      5225    3    0    1
 -2       962       959       516      2489
 -1      5226    3    0    1
 -2       352      1427      2662      1486
 -1      5227    3    0    1
 -2      1456      2401      2402      2433
 -1      5228    3    0    1
 -2       962      1760      2489      2512
 -1      5229    3    0    1
 -2      1418      2372      2438      2439
 -1      5230    3    0    1
 -2      2543      2587      2645      2679
 -1      5231    3    0    1
 -2       966       369      2124      2515
 -1      5232    3    0    1
 -2      2562       878      2750      2761
 -1      5233    3    0    1
 -2      1812        33      1829      2134
 -1      5234    3    0    1
 -2      1390      1462      1474      2445
 -1      5235    3    0    1
 -2       480       900       897      2129
 -1      5236    3    0    1
 -2       480       897      2091      2129
 -1      5237    3    0    1
 -2      2475      2478      2119      2129
 -1      5238    3    0    1
 -2      2091      2475      2119      2129
 -1      5239    3    0    1
 -2       897      2475      2091      2129
 -1      5240    3    0    1
 -2      2283      2637      2383      2404
 -1      5241    3    0    1
 -2      2627      2600      1462      2732
 -1      5242    3    0    1
 -2      2750      2347      2225      2368
 -1      5243    3    0    1
 -2      2083      1968      2479      2501
 -1      5244    3    0    1
 -2      1360      2602      1389      1390
 -1      5245    3    0    1
 -2       252       241      1217      2176
 -1      5246    3    0    1
 -2      1734      1769      2089      2192
 -1      5247    3    0    1
 -2       241       248      1217      2176
 -1      5248    3    0    1
 -2      1108       248      2174      2176
 -1      5249    3    0    1
 -2      2290      2532      2332      2704
 -1      5250    3    0    1
 -2      1319      1318      2620      1410
 -1      5251    3    0    1
 -2      2654      1400      2316      2338
 -1      5252    3    0    1
 -2      1281      2313      2712      2414
 -1      5253    3    0    1
 -2      2526      2565      2600      2637
 -1      5254    3    0    1
 -2      2069      1998      2141      2572
 -1      5255    3    0    1
 -2      2608      2577      2351      2353
 -1      5256    3    0    1
 -2      2591      2582      1407      2720
 -1      5257    3    0    1
 -2      1243      2651      2686      2363
 -1      5258    3    0    1
 -2      2559      1320      1321      2618
 -1      5259    3    0    1
 -2      2072      2482      2157      2556
 -1      5260    3    0    1
 -2      1654      1968      2056      2486
 -1      5261    3    0    1
 -2      1654      2056      2076      2486
 -1      5262    3    0    1
 -2      2056      1725      2076      2486
 -1      5263    3    0    1
 -2       880       860      2495      2505
 -1      5264    3    0    1
 -2      1347      2630      2688      2690
 -1      5265    3    0    1
 -2      2138      2093      2523      2683
 -1      5266    3    0    1
 -2      1363      2567      1364      2607
 -1      5267    3    0    1
 -2      1323      1248      1324      2633
 -1      5268    3    0    1
 -2      1271      2493      2552      2559
 -1      5269    3    0    1
 -2      2456      1497      2473      2474
 -1      5270    3    0    1
 -2      2568      2524      2625      2626
 -1      5271    3    0    1
 -2      1319      1412      2401      2433
 -1      5272    3    0    1
 -2      2566      2571      2575      2623
 -1      5273    3    0    1
 -2      2490      1230      2543      2642
 -1      5274    3    0    1
 -2      1644      1550      2157      2528
 -1      5275    3    0    1
 -2      2288      2308      2666      2379
 -1      5276    3    0    1
 -2       860      1924      2495      2505
 -1      5277    3    0    1
 -2       456       457       862      2505
 -1      5278    3    0    1
 -2       382       902      2100      2504
 -1      5279    3    0    1
 -2       381      1838      2148      2504
 -1      5280    3    0    1
 -2      1638      2065      2127      2487
 -1      5281    3    0    1
 -2      1739      2067      2139      2513
 -1      5282    3    0    1
 -2      2702      2418      1244      2621
 -1      5283    3    0    1
 -2      1749        12      2139      2513
 -1      5284    3    0    1
 -2      1322      2542      2276      2650
 -1      5285    3    0    1
 -2       962       516       517      2489
 -1      5286    3    0    1
 -2      2239      2293      2686      2361
 -1      5287    3    0    1
 -2       516       529      2128      2489
 -1      5288    3    0    1
 -2      2646      2597      2691      2741
 -1      5289    3    0    1
 -2      2082      1644      2157      2528
 -1      5290    3    0    1
 -2      2062      2133      2511      2542
 -1      5291    3    0    1
 -2      1233      1221      2616      2405
 -1      5292    3    0    1
 -2        83        88       945      2515
 -1      5293    3    0    1
 -2        56        39      2480      2134
 -1      5294    3    0    1
 -2       905      1564      2063      2134
 -1      5295    3    0    1
 -2       905        56      1564      2134
 -1      5296    3    0    1
 -2       905      1829      2134      2063
 -1      5297    3    0    1
 -2       718        39       905      2134
 -1      5298    3    0    1
 -2        39        56       905      2134
 -1      5299    3    0    1
 -2      1032      1034      2078      2502
 -1      5300    3    0    1
 -2       564       565      1034      2502
 -1      5301    3    0    1
 -2       564      1032      2078      2502
 -1      5302    3    0    1
 -2       162       158      2101      2135
 -1      5303    3    0    1
 -2       158      1017      2101      2135
 -1      5304    3    0    1
 -2      1366      1451      2397      2426
 -1      5305    3    0    1
 -2      2518      1219      2550      2684
 -1      5306    3    0    1
 -2      2652      2709      2724      2735
 -1      5307    3    0    1
 -2       215      2084      2108      2507
 -1      5308    3    0    1
 -2      2531      2609      2682      2683
 -1      5309    3    0    1
 -2       177       756      2057      1222
 -1      5310    3    0    1
 -2      2285      2325      2349      2744
 -1      5311    3    0    1
 -2       732       110       986      2494
 -1      5312    3    0    1
 -2      2081      1673      2115      2494
 -1      5313    3    0    1
 -2       178       177      2057      1222
 -1      5314    3    0    1
 -2      2189      2195      2566      1294
 -1      5315    3    0    1
 -2       998      1018      2490      1230
 -1      5316    3    0    1
 -2       390      2675      1489      1490
 -1      5317    3    0    1
 -2      2695      1398      1466      2755
 -1      5318    3    0    1
 -2      2632      1275      2712      2719
 -1      5319    3    0    1
 -2       516       959       980      2489
 -1      5320    3    0    1
 -2       529       516       980      2489
 -1      5321    3    0    1
 -2      2054      1760      2128      2489
 -1      5322    3    0    1
 -2      1844      1944      2060      2146
 -1      5323    3    0    1
 -2      1890      2054      2128      2489
 -1      5324    3    0    1
 -2       225       228       774      2545
 -1      5325    3    0    1
 -2      1919      2052      2484      2173
 -1      5326    3    0    1
 -2        12      1749      2139      2172
 -1      5327    3    0    1
 -2      1749        12      2049      2172
 -1      5328    3    0    1
 -2      2181      1734      2523      2542
 -1      5329    3    0    1
 -2      1994      1111      2122      2545
 -1      5330    3    0    1
 -2      2075      2087      2146      2524
 -1      5331    3    0    1
 -2      2069      1538      1769      2140
 -1      5332    3    0    1
 -2      2576      2531      2609      2682
 -1      5333    3    0    1
 -2      1870      2069      2093      2140
 -1      5334    3    0    1
 -2      1111       250       245      2545
 -1      5335    3    0    1
 -2      1111       245      2122      2545
 -1      5336    3    0    1
 -2       245      1993      2122      2545
 -1      5337    3    0    1
 -2       589       767      1050      2142
 -1      5338    3    0    1
 -2       507      1785      1937      2147
 -1      5339    3    0    1
 -2      1644      1550      2143      2157
 -1      5340    3    0    1
 -2      2025      2012      2124      2515
 -1      5341    3    0    1
 -2      1644      1538      1769      2143
 -1      5342    3    0    1
 -2       625       624      2007      2541
 -1      5343    3    0    1
 -2      2203       722        63       907
 -1      5344    3    0    1
 -2      1839      2072      2109      2490
 -1      5345    3    0    1
 -2      2591      2582      2629      1407
 -1      5346    3    0    1
 -2      1723       540      1787      2497
 -1      5347    3    0    1
 -2      2490      1839      2155      2497
 -1      5348    3    0    1
 -2       107      2671      1483      2390
 -1      5349    3    0    1
 -2      1654      1968      2486      2144
 -1      5350    3    0    1
 -2       941      1654      2486      2144
 -1      5351    3    0    1
 -2      2110      1674      2119      2491
 -1      5352    3    0    1
 -2      1980      2110      2119      2491
 -1      5353    3    0    1
 -2      2064      1674      2110      2491
 -1      5354    3    0    1
 -2      2506      1260      1261      2565
 -1      5355    3    0    1
 -2      1980      2047      2179      2516
 -1      5356    3    0    1
 -2      2158      2509      2208      2613
 -1      5357    3    0    1
 -2      2071       962      2479      2512
 -1      5358    3    0    1
 -2      1845      1759      2073      2492
 -1      5359    3    0    1
 -2      2061      1845      2073      2492
 -1      5360    3    0    1
 -2      2271      2614      2342      2698
 -1      5361    3    0    1
 -2      2537      2616      2640      2683
 -1      5362    3    0    1
 -2      2143      2089      2180      2521
 -1      5363    3    0    1
 -2       589      1069      2483      2525
 -1      5364    3    0    1
 -2      1069      2051      2483      2525
 -1      5365    3    0    1
 -2      1234      1235      2533      1297
 -1      5366    3    0    1
 -2      1644      1892      2143      2146
 -1      5367    3    0    1
 -2      1550      1644      2143      2146
 -1      5368    3    0    1
 -2      1644      1550      2087      2146
 -1      5369    3    0    1
 -2      1892      1644      1944      2146
 -1      5370    3    0    1
 -2      1844      1892      1944      2146
 -1      5371    3    0    1
 -2      1944      2050      2060      2146
 -1      5372    3    0    1
 -2      2620      2553      2636      2688
 -1      5373    3    0    1
 -2       636      1139      2074      2224
 -1      5374    3    0    1
 -2      1944      1644      2050      2146
 -1      5375    3    0    1
 -2      1673       356      2077      2149
 -1      5376    3    0    1
 -2       128      1673      2115      2149
 -1      5377    3    0    1
 -2      1949       960      2115      2149
 -1      5378    3    0    1
 -2       960      1949      2077      2149
 -1      5379    3    0    1
 -2       354       110      2115      2149
 -1      5380    3    0    1
 -2       960       354      2115      2149
 -1      5381    3    0    1
 -2      1673      2077      2115      2149
 -1      5382    3    0    1
 -2      2077      1949      2115      2149
 -1      5383    3    0    1
 -2      2485      2104      2132      2540
 -1      5384    3    0    1
 -2       505       504      2144      2512
 -1      5385    3    0    1
 -2      1221      2488      1232      1233
 -1      5386    3    0    1
 -2      2051      1067      2476      2493
 -1      5387    3    0    1
 -2      1067      2051      2476      2483
 -1      5388    3    0    1
 -2      1781      1859      2062      2493
 -1      5389    3    0    1
 -2       941       504       505      2512
 -1      5390    3    0    1
 -2      1859      2484      2165      2168
 -1      5391    3    0    1
 -2      2062      1859      2138      2493
 -1      5392    3    0    1
 -2      1859      1781      2051      2493
 -1      5393    3    0    1
 -2      2087      2050      2146      2524
 -1      5394    3    0    1
 -2      2052      2484      2165      2536
 -1      5395    3    0    1
 -2      1046       577      1807      2159
 -1      5396    3    0    1
 -2       577       564      1732      2159
 -1      5397    3    0    1
 -2      1732       564      2094      2159
 -1      5398    3    0    1
 -2      2638      1323      2649      2725
 -1      5399    3    0    1
 -2      1817       194      1974      2159
 -1      5400    3    0    1
 -2      2521      2690      2529      2321
 -1      5401    3    0    1
 -2      1734      2181      2192      2542
 -1      5402    3    0    1
 -2      2564      2065      2669      2739
 -1      5403    3    0    1
 -2      1789       384      2148      2504
 -1      5404    3    0    1
 -2      2245      2238      2249      2659
 -1      5405    3    0    1
 -2      2579      1285      2613      1387
 -1      5406    3    0    1
 -2      2495      1248      1247      2633
 -1      5407    3    0    1
 -2      2500      2514      2547      2563
 -1      5408    3    0    1
 -2      2491      2119      2516      2563
 -1      5409    3    0    1
 -2      2500      2491      2514      2563
 -1      5410    3    0    1
 -2       172      1428      1432      2388
 -1      5411    3    0    1
 -2      1908       880      2058      2495
 -1      5412    3    0    1
 -2      2592      1433      2636      2688
 -1      5413    3    0    1
 -2      2329      2680      2366      2370
 -1      5414    3    0    1
 -2       488       489       492      2203
 -1      5415    3    0    1
 -2      2064      1924      2085      2495
 -1      5416    3    0    1
 -2      1924      2064      2150      2495
 -1      5417    3    0    1
 -2      1674      2064      2085      2495
 -1      5418    3    0    1
 -2      1908      2058      2085      2495
 -1      5419    3    0    1
 -2      2058      1674      2085      2495
 -1      5420    3    0    1
 -2      1817      2057      2086      1222
 -1      5421    3    0    1
 -2       165       175       362      2154
 -1      5422    3    0    1
 -2       177       756      1222      2154
 -1      5423    3    0    1
 -2       165       177      1222      2154
 -1      5424    3    0    1
 -2       177       362       756      2154
 -1      5425    3    0    1
 -2       362       177       165      2154
 -1      5426    3    0    1
 -2       560      1038       751      2154
 -1      5427    3    0    1
 -2       756       559      1025      2154
 -1      5428    3    0    1
 -2      1038       560       567      2154
 -1      5429    3    0    1
 -2       568       559       756      2154
 -1      5430    3    0    1
 -2       756      1025      1222      2154
 -1      5431    3    0    1
 -2      1266      1346      2591      1407
 -1      5432    3    0    1
 -2      2387      2639      2414      2447
 -1      5433    3    0    1
 -2      1239      1034      2551      2554
 -1      5434    3    0    1
 -2       918       373      1957      2167
 -1      5435    3    0    1
 -2      1550      2087      2109      2496
 -1      5436    3    0    1
 -2      1277      2553      1318      2630
 -1      5437    3    0    1
 -2      2523      2193      2200      2586
 -1      5438    3    0    1
 -2       862      2503      1254      2584
 -1      5439    3    0    1
 -2      2064      2150      2495      2527
 -1      5440    3    0    1
 -2       541      1723      1839      2497
 -1      5441    3    0    1
 -2      1000       541      1839      2497
 -1      5442    3    0    1
 -2       998      1000      1839      2497
 -1      5443    3    0    1
 -2      1000       998       541      2497
 -1      5444    3    0    1
 -2      1018       552       553      2497
 -1      5445    3    0    1
 -2      1139       862      2074      2503
 -1      5446    3    0    1
 -2       552      1018      1016      2497
 -1      5447    3    0    1
 -2      1016      1018      1768      2497
 -1      5448    3    0    1
 -2      1839      2106      2155      2497
 -1      5449    3    0    1
 -2       553       540       998      2497
 -1      5450    3    0    1
 -2       553       998      1018      2497
 -1      5451    3    0    1
 -2      1839      1787      2106      2497
 -1      5452    3    0    1
 -2      2106      1768      2155      2497
 -1      5453    3    0    1
 -2      1723      1787      1839      2497
 -1      5454    3    0    1
 -2       373      1791      2099      2498
 -1      5455    3    0    1
 -2        73       373      2099      2498
 -1      5456    3    0    1
 -2       923        87       948      2498
 -1      5457    3    0    1
 -2        73        87       923      2498
 -1      5458    3    0    1
 -2      1785      2099      2147      2498
 -1      5459    3    0    1
 -2      2099      1785      2116      2498
 -1      5460    3    0    1
 -2      2099      1791      2147      2498
 -1      5461    3    0    1
 -2      1356      1282      2598      2721
 -1      5462    3    0    1
 -2      2082      1644      2143      2157
 -1      5463    3    0    1
 -2      1458      2614      2698      2748
 -1      5464    3    0    1
 -2       177      1817      2094      2186
 -1      5465    3    0    1
 -2      1033       177      2094      2186
 -1      5466    3    0    1
 -2       158      1830      2135      2499
 -1      5467    3    0    1
 -2       162       158      2135      2499
 -1      5468    3    0    1
 -2       748       162      1038      2499
 -1      5469    3    0    1
 -2       162       364      1038      2499
 -1      5470    3    0    1
 -2      1830      1893      2090      2499
 -1      5471    3    0    1
 -2      1830      2090      2135      2499
 -1      5472    3    0    1
 -2      1893      1891      2090      2499
 -1      5473    3    0    1
 -2       481       900      2129      2519
 -1      5474    3    0    1
 -2       860      1248      2584      2749
 -1      5475    3    0    1
 -2      2549      1265      1335      2704
 -1      5476    3    0    1
 -2      2514      2196      1342      2603
 -1      5477    3    0    1
 -2       613       600      1105      2536
 -1      5478    3    0    1
 -2      2014      1980      2047      2179
 -1      5479    3    0    1
 -2      2581      1296      2605      2609
 -1      5480    3    0    1
 -2      1269      2538      2604      2624
 -1      5481    3    0    1
 -2      2552      1270      2559      2678
 -1      5482    3    0    1
 -2      2171      2069      2530      2572
 -1      5483    3    0    1
 -2      2579      2668      1518      2449
 -1      5484    3    0    1
 -2      2052      1919      2484      2536
 -1      5485    3    0    1
 -2      1807       577      2070      2159
 -1      5486    3    0    1
 -2       577      1732      2070      2159
 -1      5487    3    0    1
 -2       360      1807      1974      2159
 -1      5488    3    0    1
 -2       194       360      1974      2159
 -1      5489    3    0    1
 -2       360      1050      1807      2159
 -1      5490    3    0    1
 -2       360       194      1050      2159
 -1      5491    3    0    1
 -2      1033       564      1046      2159
 -1      5492    3    0    1
 -2       564       577      1046      2159
 -1      5493    3    0    1
 -2      2566      1310      2623      2648
 -1      5494    3    0    1
 -2      1247      1248      1323      2633
 -1      5495    3    0    1
 -2      1225      2479      1226      2510
 -1      5496    3    0    1
 -2      2089      2143      2175      2521
 -1      5497    3    0    1
 -2      1410      2620      2660      2688
 -1      5498    3    0    1
 -2      1430      1321      2695      2434
 -1      5499    3    0    1
 -2      2493      1069      1271      2552
 -1      5500    3    0    1
 -2       746      1017      1656      2161
 -1      5501    3    0    1
 -2      1739       793      2032      2513
 -1      5502    3    0    1
 -2      1794       565      2095      2161
 -1      5503    3    0    1
 -2       553       746      2106      2161
 -1      5504    3    0    1
 -2       746       553       552      2161
 -1      5505    3    0    1
 -2       552       553      2106      2161
 -1      5506    3    0    1
 -2       754       565      1794      2161
 -1      5507    3    0    1
 -2      1017       754      1794      2161
 -1      5508    3    0    1
 -2       552       565      1017      2161
 -1      5509    3    0    1
 -2       565       754      1017      2161
 -1      5510    3    0    1
 -2      1032       564      1034      2502
 -1      5511    3    0    1
 -2      2095      1768      2161      2502
 -1      5512    3    0    1
 -2       552      1016      1034      2502
 -1      5513    3    0    1
 -2      1768      2106      2161      2502
 -1      5514    3    0    1
 -2      2078      1768      2095      2502
 -1      5515    3    0    1
 -2       565       552      1034      2502
 -1      5516    3    0    1
 -2      1768      2078      2096      2502
 -1      5517    3    0    1
 -2      1263      2205      1381      2284
 -1      5518    3    0    1
 -2      1309      2575      2684      1406
 -1      5519    3    0    1
 -2       248       245      2174      2176
 -1      5520    3    0    1
 -2       358      1464      2699      2715
 -1      5521    3    0    1
 -2      1380      2601      2643      2679
 -1      5522    3    0    1
 -2      1338        82      2590      1349
 -1      5523    3    0    1
 -2      2097      1924      2150      2503
 -1      5524    3    0    1
 -2      2074      1924      2097      2503
 -1      5525    3    0    1
 -2       793       866      2067      2513
 -1      5526    3    0    1
 -2      1638      2074      2097      2503
 -1      5527    3    0    1
 -2      2679      2587      2709      2737
 -1      5528    3    0    1
 -2      1638      1139      2503      2713
 -1      5529    3    0    1
 -2      2565      2600      2602      2631
 -1      5530    3    0    1
 -2      1781      2051      2493      2525
 -1      5531    3    0    1
 -2      1034      2078      2551      2554
 -1      5532    3    0    1
 -2      2503      2150      2183      2560
 -1      5533    3    0    1
 -2      1325      2543      2642      2645
 -1      5534    3    0    1
 -2      2567      1242      1364      2661
 -1      5535    3    0    1
 -2      2313      2387      2712      2414
 -1      5536    3    0    1
 -2      2533      2612      2710      2713
 -1      5537    3    0    1
 -2      2560      2163      1315      2614
 -1      5538    3    0    1
 -2       493       488       492      2203
 -1      5539    3    0    1
 -2       565       558       557      2233
 -1      5540    3    0    1
 -2       735      2218      2258      2232
 -1      5541    3    0    1
 -2       862       457      1924      2505
 -1      5542    3    0    1
 -2      1908      2085      2102      2505
 -1      5543    3    0    1
 -2      1690      1908      2102      2505
 -1      5544    3    0    1
 -2       469       456       880      2505
 -1      5545    3    0    1
 -2       456       860       880      2505
 -1      5546    3    0    1
 -2      2085      1924      2102      2505
 -1      5547    3    0    1
 -2      1277      2630      1433      2464
 -1      5548    3    0    1
 -2      2068      1839      2109      2506
 -1      5549    3    0    1
 -2      1950      2171      2560      2572
 -1      5550    3    0    1
 -2      1950      1892      1998      2164
 -1      5551    3    0    1
 -2      1950      1998      2107      2164
 -1      5552    3    0    1
 -2      2626      2671      2714      2745
 -1      5553    3    0    1
 -2      2693      2675      1490      2742
 -1      5554    3    0    1
 -2      1550      2072      2157      2528
 -1      5555    3    0    1
 -2      1364      1363      2607      1427
 -1      5556    3    0    1
 -2      2582      2629      1407      2356
 -1      5557    3    0    1
 -2      2072      1550      2109      2528
 -1      5558    3    0    1
 -2      1998      2014      2107      2164
 -1      5559    3    0    1
 -2      1644      2082      2151      2528
 -1      5560    3    0    1
 -2      1974      1813      2108      2507
 -1      5561    3    0    1
 -2      1579      1813      1974      2507
 -1      5562    3    0    1
 -2      2084      1974      2108      2507
 -1      5563    3    0    1
 -2      1786       768      2112      2508
 -1      5564    3    0    1
 -2      1856      1894      2112      2508
 -1      5565    3    0    1
 -2       768       357      1092      2508
 -1      5566    3    0    1
 -2       211       357       768      2508
 -1      5567    3    0    1
 -2      2008      1856      2112      2508
 -1      5568    3    0    1
 -2      1894      1786      2112      2508
 -1      5569    3    0    1
 -2      2486      2535      2549      2557
 -1      5570    3    0    1
 -2      2056      2486      2549      2557
 -1      5571    3    0    1
 -2      2556      1339      2641      2664
 -1      5572    3    0    1
 -2      1859      2476      2483      2165
 -1      5573    3    0    1
 -2       601      1719      2483      2165
 -1      5574    3    0    1
 -2       601       600      1719      2165
 -1      5575    3    0    1
 -2      1086       600      1088      2165
 -1      5576    3    0    1
 -2      2476      1088      2483      2165
 -1      5577    3    0    1
 -2       600       601      1088      2165
 -1      5578    3    0    1
 -2      1088       601      2483      2165
 -1      5579    3    0    1
 -2      1982       517      2071      2512
 -1      5580    3    0    1
 -2       504      1982      2144      2512
 -1      5581    3    0    1
 -2       962       938      2479      2512
 -1      5582    3    0    1
 -2      1870      2093      2160      2509
 -1      5583    3    0    1
 -2      1496      2723      2646      2746
 -1      5584    3    0    1
 -2       594      1078       769      2191
 -1      5585    3    0    1
 -2      1760       962      2071      2512
 -1      5586    3    0    1
 -2      2088      2140      2158      2509
 -1      5587    3    0    1
 -2       613       609       608      2245
 -1      5588    3    0    1
 -2       504       941       938      2512
 -1      5589    3    0    1
 -2      1760       517      2489      2512
 -1      5590    3    0    1
 -2      1284      1346      2680      2370
 -1      5591    3    0    1
 -2        87       374      2116      2167
 -1      5592    3    0    1
 -2        73        87      2099      2167
 -1      5593    3    0    1
 -2      2099        87      2116      2167
 -1      5594    3    0    1
 -2      1957       373      2099      2167
 -1      5595    3    0    1
 -2       373        73      2099      2167
 -1      5596    3    0    1
 -2      1957      2099      2116      2167
 -1      5597    3    0    1
 -2      2050      2087      2496      2524
 -1      5598    3    0    1
 -2      1016      1034      2502      2551
 -1      5599    3    0    1
 -2      1859      2476      2168      2683
 -1      5600    3    0    1
 -2      2088      1769      2093      2523
 -1      5601    3    0    1
 -2      1295      1237      2570      2659
 -1      5602    3    0    1
 -2       962      2327      2680      2366
 -1      5603    3    0    1
 -2      1734      1769      2181      2523
 -1      5604    3    0    1
 -2      2609      1317      1377      2647
 -1      5605    3    0    1
 -2      1443      2711      1507      2756
 -1      5606    3    0    1
 -2      2062      1821      2132      2511
 -1      5607    3    0    1
 -2      1821      2062      2133      2511
 -1      5608    3    0    1
 -2      1246      1302      2644      2760
 -1      5609    3    0    1
 -2      2588      2581      2605      2647
 -1      5610    3    0    1
 -2      2572      2215      2578      1315
 -1      5611    3    0    1
 -2      2145      2075      2520      2524
 -1      5612    3    0    1
 -2      2071      1968      2144      2512
 -1      5613    3    0    1
 -2      2614      2229      2342      2765
 -1      5614    3    0    1
 -2      2593      2222      2299      2312
 -1      5615    3    0    1
 -2      2227      2206      2295      2663
 -1      5616    3    0    1
 -2       938       941      2219      2621
 -1      5617    3    0    1
 -2      2221      1286      2241      2606
 -1      5618    3    0    1
 -2      2158      2509      2530      2208
 -1      5619    3    0    1
 -2      1105      1086      2484      2536
 -1      5620    3    0    1
 -2       613       608       612      2245
 -1      5621    3    0    1
 -2      2228      2592      2636      2664
 -1      5622    3    0    1
 -2       217      1078      2191      1286
 -1      5623    3    0    1
 -2      2501      2510      2539      2549
 -1      5624    3    0    1
 -2      1277      2517      1278      2553
 -1      5625    3    0    1
 -2      1326      2679      1463      2396
 -1      5626    3    0    1
 -2        27       715      2225      2237
 -1      5627    3    0    1
 -2      2136      2007      2522      2541
 -1      5628    3    0    1
 -2      2070      1049      2525      2552
 -1      5629    3    0    1
 -2       226      1894      1993      2169
 -1      5630    3    0    1
 -2       226      1856      1894      2169
 -1      5631    3    0    1
 -2      2109      2526      2634      2700
 -1      5632    3    0    1
 -2      1049       576      2070      2525
 -1      5633    3    0    1
 -2       576      1807      2070      2525
 -1      5634    3    0    1
 -2      1807       576      2142      2525
 -1      5635    3    0    1
 -2      1638      2065      2487      2171
 -1      5636    3    0    1
 -2      2281      2595      2676      1454
 -1      5637    3    0    1
 -2       857      1810      2172      2194
 -1      5638    3    0    1
 -2      2619      1357      1443      2711
 -1      5639    3    0    1
 -2        84       727      2216      2219
 -1      5640    3    0    1
 -2      1331      1403      1476      2734
 -1      5641    3    0    1
 -2      2208      2182      2213      2579
 -1      5642    3    0    1
 -2       860       880      2495      1247
 -1      5643    3    0    1
 -2      1465      1430      1469      2457
 -1      5644    3    0    1
 -2       959      1760      2520      2574
 -1      5645    3    0    1
 -2      2222      2593      1397      2312
 -1      5646    3    0    1
 -2      2422      2060      2743      2752
 -1      5647    3    0    1
 -2       778      1095      1109      2174
 -1      5648    3    0    1
 -2       615      1110      1109      2174
 -1      5649    3    0    1
 -2       615      1109       616      2174
 -1      5650    3    0    1
 -2       778      1109      1110      2174
 -1      5651    3    0    1
 -2       610      1111       777      2174
 -1      5652    3    0    1
 -2      1108       605      1094      2174
 -1      5653    3    0    1
 -2      1111       610       615      2174
 -1      5654    3    0    1
 -2       605      1109      1095      2174
 -1      5655    3    0    1
 -2       605      1108       616      2174
 -1      5656    3    0    1
 -2       610      1110       615      2174
 -1      5657    3    0    1
 -2      1110       610       778      2174
 -1      5658    3    0    1
 -2      1109       605       616      2174
 -1      5659    3    0    1
 -2      2283      2637      2362      2383
 -1      5660    3    0    1
 -2      2572      2163      2215      1315
 -1      5661    3    0    1
 -2      1069      1049      1270      2552
 -1      5662    3    0    1
 -2      1291      2527      2584      2765
 -1      5663    3    0    1
 -2      2179      1269      2538      2557
 -1      5664    3    0    1
 -2      2211      2509      2190      2158
 -1      5665    3    0    1
 -2      2583      2543      2587      2634
 -1      5666    3    0    1
 -2      2520      1246      2644      2680
 -1      5667    3    0    1
 -2      2538      2189      2566      1294
 -1      5668    3    0    1
 -2      2252      2603      2615      1403
 -1      5669    3    0    1
 -2      1252      1272      2206      2227
 -1      5670    3    0    1
 -2      2656      2572      2669      2360
 -1      5671    3    0    1
 -2      2140      2069      2141      2572
 -1      5672    3    0    1
 -2      2199      2521      2321      2690
 -1      5673    3    0    1
 -2      1235      2533      1297      1298
 -1      5674    3    0    1
 -2      2065      2171      2530      2572
 -1      5675    3    0    1
 -2      2053      1141      2224      2546
 -1      5676    3    0    1
 -2        82      2590      1349      2629
 -1      5677    3    0    1
 -2      2242      1361      2256      2318
 -1      5678    3    0    1
 -2      1121      2053      2127      2546
 -1      5679    3    0    1
 -2      1140      2103      2172      2194
 -1      5680    3    0    1
 -2       862      2503      1253      1254
 -1      5681    3    0    1
 -2       245       247      2174      2176
 -1      5682    3    0    1
 -2       247       245       241      2176
 -1      5683    3    0    1
 -2      1108      1094      1217      2176
 -1      5684    3    0    1
 -2      1094       252      1217      2176
 -1      5685    3    0    1
 -2       439      2041      2125      2177
 -1      5686    3    0    1
 -2       439       265      2041      2177
 -1      5687    3    0    1
 -2      1986      2120      2125      2177
 -1      5688    3    0    1
 -2      2120       439      2125      2177
 -1      5689    3    0    1
 -2       263       265      2120      2177
 -1      5690    3    0    1
 -2       265       439      2120      2177
 -1      5691    3    0    1
 -2      1376      1491      2396      2421
 -1      5692    3    0    1
 -2      2616      2488      2640      2683
 -1      5693    3    0    1
 -2      1233      2548      1332      1333
 -1      5694    3    0    1
 -2      1219      2475      2518      2550
 -1      5695    3    0    1
 -2      2171      2183      2560      2572
 -1      5696    3    0    1
 -2      2529      1292      2321      2690
 -1      5697    3    0    1
 -2      2646      1488      2723      2455
 -1      5698    3    0    1
 -2      2244      2251      2274      2707
 -1      5699    3    0    1
 -2      2166      2491      2196      2201
 -1      5700    3    0    1
 -2      2501      2539      2561      2720
 -1      5701    3    0    1
 -2       624      1121      1123      2286
 -1      5702    3    0    1
 -2      1443      1357      1444      2711
 -1      5703    3    0    1
 -2       878      1908       468       880
 -1      5704    3    0    1
 -2       468       481      1709      2519
 -1      5705    3    0    1
 -2       468      2058       878      2519
 -1      5706    3    0    1
 -2      1709       481      2129      2519
 -1      5707    3    0    1
 -2      2315      2278      2749      2460
 -1      5708    3    0    1
 -2       613      1919      2113      2536
 -1      5709    3    0    1
 -2      1980      2119      2126      2516
 -1      5710    3    0    1
 -2       600      2113      2165      2536
 -1      5711    3    0    1
 -2      2119      1725      2126      2516
 -1      5712    3    0    1
 -2      1086       600      2165      2536
 -1      5713    3    0    1
 -2      2196      2207      1342      2603
 -1      5714    3    0    1
 -2      1732      1051      2104      2540
 -1      5715    3    0    1
 -2      2107      2527      2201      2212
 -1      5716    3    0    1
 -2      2089      1769      2143      2180
 -1      5717    3    0    1
 -2      1769      1644      2143      2180
 -1      5718    3    0    1
 -2       600       601       594      2191
 -1      5719    3    0    1
 -2      2506      2526      2631      2634
 -1      5720    3    0    1
 -2      2514      1262      2491      2196
 -1      5721    3    0    1
 -2      2482      2555      2592      2690
 -1      5722    3    0    1
 -2      1230      1231      2543      2645
 -1      5723    3    0    1
 -2      2600      2210      2627      2334
 -1      5724    3    0    1
 -2       601       595       594      2191
 -1      5725    3    0    1
 -2      2305       737      2350      2706
 -1      5726    3    0    1
 -2      2554      2517      2630      2690
 -1      5727    3    0    1
 -2      2223      2226      2273      2635
 -1      5728    3    0    1
 -2       780       253      2246      2282
 -1      5729    3    0    1
 -2      2631      1360      2444      2445
 -1      5730    3    0    1
 -2       112      1436      1473      2423
 -1      5731    3    0    1
 -2      2478      2491      2500      2563
 -1      5732    3    0    1
 -2      1760       959      2489      2574
 -1      5733    3    0    1
 -2      2270      1311      1422      2354
 -1      5734    3    0    1
 -2      2251      2255      2269      2678
 -1      5735    3    0    1
 -2       378       375      2611      2676
 -1      5736    3    0    1
 -2       153       745       743      2234
 -1      5737    3    0    1
 -2      2305       737      2296      2350
 -1      5738    3    0    1
 -2      1337      1266      2591      1407
 -1      5739    3    0    1
 -2      1103      1919      2173      2541
 -1      5740    3    0    1
 -2      1924      2150      2503      2584
 -1      5741    3    0    1
 -2      2616      1334      1461      2406
 -1      5742    3    0    1
 -2      2544      2633      2638      2654
 -1      5743    3    0    1
 -2      2365      1471      2724      2412
 -1      5744    3    0    1
 -2      1267      1266      2558      1337
 -1      5745    3    0    1
 -2      1219       920      2550      2686
 -1      5746    3    0    1
 -2      1376      1460      2709      2727
 -1      5747    3    0    1
 -2      1368      2251      2269      2373
 -1      5748    3    0    1
 -2      1329      2341      1442      2385
 -1      5749    3    0    1
 -2      2526      2496      1259      1290
 -1      5750    3    0    1
 -2      1240      1239      2517      1277
 -1      5751    3    0    1
 -2      2479      1226      2549      2621
 -1      5752    3    0    1
 -2      1390      2658      1474      2732
 -1      5753    3    0    1
 -2       481       468       900      2519
 -1      5754    3    0    1
 -2       468       878       900      2519
 -1      5755    3    0    1
 -2      2058      1709      2129      2519
 -1      5756    3    0    1
 -2       600      1086      1088      2191
 -1      5757    3    0    1
 -2       468       880       469      2287
 -1      5758    3    0    1
 -2      1049      2070      2132      2552
 -1      5759    3    0    1
 -2      2107      1950      2164      2560
 -1      5760    3    0    1
 -2      2190      2576      1317      2682
 -1      5761    3    0    1
 -2      1291      2584      2593      1400
 -1      5762    3    0    1
 -2       600      1086      1105      2536
 -1      5763    3    0    1
 -2      2238      1358      2245      2249
 -1      5764    3    0    1
 -2      1078       769      2191      1286
 -1      5765    3    0    1
 -2       786      1131      2273      2635
 -1      5766    3    0    1
 -2      1329      1273      2263      2266
 -1      5767    3    0    1
 -2      1394      1393      2638      2675
 -1      5768    3    0    1
 -2      2052      2160      2509      2531
 -1      5769    3    0    1
 -2       962      1760      2071      2520
 -1      5770    3    0    1
 -2       962      2071      2479      2520
 -1      5771    3    0    1
 -2      1968      2083      2479      2520
 -1      5772    3    0    1
 -2      2071      1968      2479      2520
 -1      5773    3    0    1
 -2      2075      1760      2145      2520
 -1      5774    3    0    1
 -2      2071      1760      2075      2520
 -1      5775    3    0    1
 -2      1357      1356      2619      1443
 -1      5776    3    0    1
 -2      2071      2075      2083      2520
 -1      5777    3    0    1
 -2      1968      2071      2083      2520
 -1      5778    3    0    1
 -2      1394      1393      2675      1489
 -1      5779    3    0    1
 -2      2533      1234      1297      2585
 -1      5780    3    0    1
 -2      2622      1256      1397      2649
 -1      5781    3    0    1
 -2      1226      1267      2549      1335
 -1      5782    3    0    1
 -2      1396      1284      2644      2760
 -1      5783    3    0    1
 -2      2691      2646      2723      2746
 -1      5784    3    0    1
 -2      2181      2523      2193      2200
 -1      5785    3    0    1
 -2      1769      2088      2181      2523
 -1      5786    3    0    1
 -2      2093      1734      2138      2523
 -1      5787    3    0    1
 -2      1734      2062      2138      2523
 -1      5788    3    0    1
 -2      2254      1294      2331      2395
 -1      5789    3    0    1
 -2      2542      1322      2596      2650
 -1      5790    3    0    1
 -2      1863      2075      2145      2524
 -1      5791    3    0    1
 -2      2535      1243      1306      2651
 -1      5792    3    0    1
 -2      1801       589      2051      2525
 -1      5793    3    0    1
 -2       589       576      1049      2525
 -1      5794    3    0    1
 -2       589      1049      1069      2525
 -1      5795    3    0    1
 -2      1781      2070      2142      2525
 -1      5796    3    0    1
 -2      2051      1781      2142      2525
 -1      5797    3    0    1
 -2      2070      1781      2132      2525
 -1      5798    3    0    1
 -2      2070      1807      2142      2525
 -1      5799    3    0    1
 -2      1801      2051      2142      2525
 -1      5800    3    0    1
 -2      2282      2311      2358      2744
 -1      5801    3    0    1
 -2      2501      2479      2520      2561
 -1      5802    3    0    1
 -2      1141      1235      2635      2710
 -1      5803    3    0    1
 -2      2566      1294      1309      2624
 -1      5804    3    0    1
 -2      1381      2284      2405      2406
 -1      5805    3    0    1
 -2      2533      2487      2572      2713
 -1      5806    3    0    1
 -2      1113       254      2282      2286
 -1      5807    3    0    1
 -2      1389      1436      2708      2423
 -1      5808    3    0    1
 -2      2578      1316      2281      1426
 -1      5809    3    0    1
 -2       978      1000      2506      1260
 -1      5810    3    0    1
 -2      1246      1245      2534      1301
 -1      5811    3    0    1
 -2      2518      2538      2571      2624
 -1      5812    3    0    1
 -2      1103      1123      2522      1282
 -1      5813    3    0    1
 -2       900      2478      1223      2563
 -1      5814    3    0    1
 -2      2571      2566      2575      2624
 -1      5815    3    0    1
 -2      2109      2496      2526      2700
 -1      5816    3    0    1
 -2      1870      2069      2140      2530
 -1      5817    3    0    1
 -2      2490      2072      2543      2601
 -1      5818    3    0    1
 -2      2180      2521      2184      2321
 -1      5819    3    0    1
 -2       172       352      2662      2672
 -1      5820    3    0    1
 -2      1768      1016      2502      2551
 -1      5821    3    0    1
 -2      2243      1371      2322      2324
 -1      5822    3    0    1
 -2      2087      2109      2496      2526
 -1      5823    3    0    1
 -2       177       178      1817      2186
 -1      5824    3    0    1
 -2      1768      2096      2482      2551
 -1      5825    3    0    1
 -2      1299      2246      2282      2285
 -1      5826    3    0    1
 -2      2182      2140      2530      2208
 -1      5827    3    0    1
 -2      2087      1863      2109      2526
 -1      5828    3    0    1
 -2      2585      2721      2739      2744
 -1      5829    3    0    1
 -2        12       857      2172      2194
 -1      5830    3    0    1
 -2      2633      1324      2638      2654
 -1      5831    3    0    1
 -2      1218      1219      2518      1257
 -1      5832    3    0    1
 -2      2486      1243      1244      2535
 -1      5833    3    0    1
 -2      1286      2191      2241      2606
 -1      5834    3    0    1
 -2      1401      1295      2659      2324
 -1      5835    3    0    1
 -2       959       980      2489      2574
 -1      5836    3    0    1
 -2      2064      2110      2164      2527
 -1      5837    3    0    1
 -2      2150      2064      2164      2527
 -1      5838    3    0    1
 -2      2244      1049      2255      2678
 -1      5839    3    0    1
 -2      1950      2150      2164      2527
 -1      5840    3    0    1
 -2      2627      2320      2334      1462
 -1      5841    3    0    1
 -2      1254      2569      1378      1379
 -1      5842    3    0    1
 -2      1139       862      2503      1253
 -1      5843    3    0    1
 -2      2597      1415      2691      2741
 -1      5844    3    0    1
 -2      2078      2104      2485      2540
 -1      5845    3    0    1
 -2      1254       862      2584      2749
 -1      5846    3    0    1
 -2      1388      2231      2626      1495
 -1      5847    3    0    1
 -2      2589      1309      2575      2566
 -1      5848    3    0    1
 -2      2054       528      2068      2674
 -1      5849    3    0    1
 -2      2554      1280      2661      2690
 -1      5850    3    0    1
 -2      1433      2592      2636      2275
 -1      5851    3    0    1
 -2      2517      1240      1277      1278
 -1      5852    3    0    1
 -2      1436      1389      1473      2423
 -1      5853    3    0    1
 -2      2590      1337      2591      1407
 -1      5854    3    0    1
 -2       862      1924      2503      2584
 -1      5855    3    0    1
 -2      2014      2107      2164      2201
 -1      5856    3    0    1
 -2      1317      2576      2609      2682
 -1      5857    3    0    1
 -2      1298      2533      2612      2710
 -1      5858    3    0    1
 -2      2150      1924      2495      2584
 -1      5859    3    0    1
 -2      1346      1225      2680      2370
 -1      5860    3    0    1
 -2      2160      1870      2509      2530
 -1      5861    3    0    1
 -2      2140      2158      2509      2530
 -1      5862    3    0    1
 -2      1870      2140      2509      2530
 -1      5863    3    0    1
 -2      2479      1226      2510      2549
 -1      5864    3    0    1
 -2      1950      1998      2069      2572
 -1      5865    3    0    1
 -2      1299      2285      2325      2349
 -1      5866    3    0    1
 -2      2501      2479      2510      2549
 -1      5867    3    0    1
 -2      2651      1348      2686      2361
 -1      5868    3    0    1
 -2      1411      1319      1412      2664
 -1      5869    3    0    1
 -2      1870      2065      2171      2530
 -1      5870    3    0    1
 -2      2069      1870      2171      2530
 -1      5871    3    0    1
 -2      2563      1262      1350      2687
 -1      5872    3    0    1
 -2      1368      2251      2255      2269
 -1      5873    3    0    1
 -2       200       764      2220      2262
 -1      5874    3    0    1
 -2      2530      2160      2570      2613
 -1      5875    3    0    1
 -2       353       112      2337      2701
 -1      5876    3    0    1
 -2      2209      2528      2583      2279
 -1      5877    3    0    1
 -2      2327      1408      2329      2366
 -1      5878    3    0    1
 -2      2151      2528      2209      2279
 -1      5879    3    0    1
 -2      1374      2600      2320      2700
 -1      5880    3    0    1
 -2       180      1362      2244      2251
 -1      5881    3    0    1
 -2      2195      2566      1309      2589
 -1      5882    3    0    1
 -2      2052      2509      2168      2531
 -1      5883    3    0    1
 -2      2484      2052      2168      2531
 -1      5884    3    0    1
 -2       735       526      2218      2232
 -1      5885    3    0    1
 -2      2651      1348      2361      2420
 -1      5886    3    0    1
 -2      1968      2056      2486      2549
 -1      5887    3    0    1
 -2      1304       242      2235      2238
 -1      5888    3    0    1
 -2      2527      2107      2560      2212
 -1      5889    3    0    1
 -2      1427      1363      2673      1450
 -1      5890    3    0    1
 -2      2157      2482      2555      2556
 -1      5891    3    0    1
 -2      2566      2195      1310      2589
 -1      5892    3    0    1
 -2       253      1113       254      2282
 -1      5893    3    0    1
 -2      2667      2626      2714      2745
 -1      5894    3    0    1
 -2      2556      2555      2228      2592
 -1      5895    3    0    1
 -2       209       200      1059      2220
 -1      5896    3    0    1
 -2      1225      2510      1266      2561
 -1      5897    3    0    1
 -2      2329      2270      2680      2354
 -1      5898    3    0    1
 -2      2572      2065      2585      2669
 -1      5899    3    0    1
 -2      1256      2222      2622      1397
 -1      5900    3    0    1
 -2       372      1496      2723      2430
 -1      5901    3    0    1
 -2      2119      2475      2516      2563
 -1      5902    3    0    1
 -2       392        12      2172      2194
 -1      5903    3    0    1
 -2       280       387      2103      2194
 -1      5904    3    0    1
 -2      2179      2491      2516      2563
 -1      5905    3    0    1
 -2      1262      2179      2538      2563
 -1      5906    3    0    1
 -2      1140       280      2103      2194
 -1      5907    3    0    1
 -2      2179      2516      2538      2563
 -1      5908    3    0    1
 -2      2558      1338      2590      1349
 -1      5909    3    0    1
 -2       959      2520      1246      2574
 -1      5910    3    0    1
 -2      1760      2145      2520      2574
 -1      5911    3    0    1
 -2      1296      1317      2318      2319
 -1      5912    3    0    1
 -2      1000      2506      1260      1261
 -1      5913    3    0    1
 -2      2398      2389      2427      2754
 -1      5914    3    0    1
 -2      2140      2158      2530      2208
 -1      5915    3    0    1
 -2      2163      2141      2572      2215
 -1      5916    3    0    1
 -2       722       489      2203      2217
 -1      5917    3    0    1
 -2      1324      2654      1493      2742
 -1      5918    3    0    1
 -2       107       355      1482      2714
 -1      5919    3    0    1
 -2       253      1299      2246      2282
 -1      5920    3    0    1
 -2      1313      1298      1426      2417
 -1      5921    3    0    1
 -2      1863      2068      2506      2674
 -1      5922    3    0    1
 -2      2372      2257      2438      2750
 -1      5923    3    0    1
 -2      2150      2495      2527      2584
 -1      5924    3    0    1
 -2      1034      2078      2502      2551
 -1      5925    3    0    1
 -2      1870      2564      2065      2530
 -1      5926    3    0    1
 -2      2171      2487      2183      2572
 -1      5927    3    0    1
 -2      2493      2511      2559      2632
 -1      5928    3    0    1
 -2      2278      1291      2749      2460
 -1      5929    3    0    1
 -2      1998      1950      2163      2572
 -1      5930    3    0    1
 -2      2538      2566      2571      2624
 -1      5931    3    0    1
 -2      1362      2244      2251      2274
 -1      5932    3    0    1
 -2      1103      1283      2570      2659
 -1      5933    3    0    1
 -2      2158      2088      2509      2190
 -1      5934    3    0    1
 -2      1769      1734      2181      2192
 -1      5935    3    0    1
 -2      1734      2089      2133      2542
 -1      5936    3    0    1
 -2      1488      2646      2723      2741
 -1      5937    3    0    1
 -2      2265      2247      2621      2297
 -1      5938    3    0    1
 -2      2532      2187      2309      2720
 -1      5939    3    0    1
 -2      2249      2245      2659      2766
 -1      5940    3    0    1
 -2      2702      1244      2419      2428
 -1      5941    3    0    1
 -2      2220       764      2230      2262
 -1      5942    3    0    1
 -2       379      1507      1518      2471
 -1      5943    3    0    1
 -2      2244      1049      2678      2707
 -1      5944    3    0    1
 -2      1422      2270      2354      2425
 -1      5945    3    0    1
 -2      2533      2573      2656      2722
 -1      5946    3    0    1
 -2      2651      1306      2741      2451
 -1      5947    3    0    1
 -2      1088      2476      1221      2537
 -1      5948    3    0    1
 -2      2478      1224      2500      2562
 -1      5949    3    0    1
 -2      1221      2476      2488      2537
 -1      5950    3    0    1
 -2      2191      1263      1286      2241
 -1      5951    3    0    1
 -2      1293      2566      1310      2623
 -1      5952    3    0    1
 -2      2221      1238      2606      2256
 -1      5953    3    0    1
 -2      2516      2179      2538      2557
 -1      5954    3    0    1
 -2      2486      1243      2535      2651
 -1      5955    3    0    1
 -2      1360      2565      2602      2631
 -1      5956    3    0    1
 -2      2168      2484      2531      2537
 -1      5957    3    0    1
 -2      1266      2510      1267      2558
 -1      5958    3    0    1
 -2      2168      2476      2537      2683
 -1      5959    3    0    1
 -2       361      1412      2660      2664
 -1      5960    3    0    1
 -2      2531      2168      2537      2683
 -1      5961    3    0    1
 -2      1859      2484      2168      2537
 -1      5962    3    0    1
 -2      2476      1859      2168      2537
 -1      5963    3    0    1
 -2      1363      2607      1427      2673
 -1      5964    3    0    1
 -2      2476      2488      2537      2683
 -1      5965    3    0    1
 -2      2476      1088      2165      2537
 -1      5966    3    0    1
 -2      1088      1086      2165      2537
 -1      5967    3    0    1
 -2      1086      2484      2165      2537
 -1      5968    3    0    1
 -2      1271      2559      1321      2695
 -1      5969    3    0    1
 -2      2537      2488      2616      2683
 -1      5970    3    0    1
 -2      1363      2567      2607      2673
 -1      5971    3    0    1
 -2      2484      1859      2165      2537
 -1      5972    3    0    1
 -2      1859      2476      2165      2537
 -1      5973    3    0    1
 -2       173      1410      2660      2688
 -1      5974    3    0    1
 -2      1223      2500      1249      2687
 -1      5975    3    0    1
 -2      2132      2062      2511      2552
 -1      5976    3    0    1
 -2      2062      2493      2511      2552
 -1      5977    3    0    1
 -2      2096      2078      2482      2554
 -1      5978    3    0    1
 -2       737       131      2296      2350
 -1      5979    3    0    1
 -2      1105      1103      2570      2659
 -1      5980    3    0    1
 -2      2543      2587      2634      2642
 -1      5981    3    0    1
 -2      2069      2140      2530      2572
 -1      5982    3    0    1
 -2      1485      1438      2447      2465
 -1      5983    3    0    1
 -2      1283      2570      2659      2766
 -1      5984    3    0    1
 -2      2385      1426      2417      1509
 -1      5985    3    0    1
 -2      1270      1271      2552      2559
 -1      5986    3    0    1
 -2      2558      2539      2582      2591
 -1      5987    3    0    1
 -2       361      2636      1412      2326
 -1      5988    3    0    1
 -2      1271      2559      1320      1321
 -1      5989    3    0    1
 -2      2517      2592      2688      2690
 -1      5990    3    0    1
 -2      1237      2243      2659      2324
 -1      5991    3    0    1
 -2      2537      1264      2609      2682
 -1      5992    3    0    1
 -2      1270      1320      2699      2707
 -1      5993    3    0    1
 -2      2590      2591      2629      1407
 -1      5994    3    0    1
 -2      2559      1271      2632      2695
 -1      5995    3    0    1
 -2      1051      2104      2132      2070
 -1      5996    3    0    1
 -2      2104      1051      2132      2540
 -1      5997    3    0    1
 -2      1034      1032      2078      2540
 -1      5998    3    0    1
 -2      1032      1732      2078      2540
 -1      5999    3    0    1
 -2       108        97      2327      2329
 -1      6000    3    0    1
 -2       500       504       505      2219
 -1      6001    3    0    1
 -2      2322      1401      2659      2324
 -1      6002    3    0    1
 -2      2666      1447      2681      2380
 -1      6003    3    0    1
 -2      2600      2627      2320      2334
 -1      6004    3    0    1
 -2      1051      1032      1241      2540
 -1      6005    3    0    1
 -2      2078      1732      2104      2540
 -1      6006    3    0    1
 -2      1241      1032      1242      2540
 -1      6007    3    0    1
 -2      1103      1105      1919      2541
 -1      6008    3    0    1
 -2      1919      1105      2536      2541
 -1      6009    3    0    1
 -2       613      1919      2536      2541
 -1      6010    3    0    1
 -2       613       612      1919      2541
 -1      6011    3    0    1
 -2      1103       612      1105      2541
 -1      6012    3    0    1
 -2       612       613      1105      2541
 -1      6013    3    0    1
 -2      1105       613      2536      2541
 -1      6014    3    0    1
 -2       625       612      1123      2541
 -1      6015    3    0    1
 -2       612      1103      1123      2541
 -1      6016    3    0    1
 -2      2123      2007      2173      2541
 -1      6017    3    0    1
 -2      1919      2123      2173      2541
 -1      6018    3    0    1
 -2      2007      2136      2173      2541
 -1      6019    3    0    1
 -2      1986      2007      2123      2541
 -1      6020    3    0    1
 -2      1264      1334      2606      2264
 -1      6021    3    0    1
 -2      2182      2213      2669      1453
 -1      6022    3    0    1
 -2      2062      1734      2133      2542
 -1      6023    3    0    1
 -2      1444      1443      2711      1507
 -1      6024    3    0    1
 -2      1263       217      2191      1286
 -1      6025    3    0    1
 -2      2486      2535      2604      2651
 -1      6026    3    0    1
 -2      2227      1272      2240      2253
 -1      6027    3    0    1
 -2      1239      1240      2517      2551
 -1      6028    3    0    1
 -2      2078      2096      2502      2551
 -1      6029    3    0    1
 -2       351      1463      2709      2412
 -1      6030    3    0    1
 -2      2539      2532      2582      2720
 -1      6031    3    0    1
 -2      1018      1016      2551      2601
 -1      6032    3    0    1
 -2      2582      2558      2590      1349
 -1      6033    3    0    1
 -2      1261      2565      1359      1360
 -1      6034    3    0    1
 -2      2316      1248      2317      2749
 -1      6035    3    0    1
 -2      1225      2479      2510      2561
 -1      6036    3    0    1
 -2      2139       392      2172      2194
 -1      6037    3    0    1
 -2      2103      2139      2172      2194
 -1      6038    3    0    1
 -2       774      1994      2169      2545
 -1      6039    3    0    1
 -2       228       250      1111      2545
 -1      6040    3    0    1
 -2       774       228      1111      2545
 -1      6041    3    0    1
 -2      2122      1993      2170      2545
 -1      6042    3    0    1
 -2      2169      2122      2170      2545
 -1      6043    3    0    1
 -2      1994      2122      2169      2545
 -1      6044    3    0    1
 -2      1235      1234      2533      2546
 -1      6045    3    0    1
 -2      2569      1378      2655      2717
 -1      6046    3    0    1
 -2      2641      1339      2359      2402
 -1      6047    3    0    1
 -2       111      1305      2232      2258
 -1      6048    3    0    1
 -2      1141      1121      1234      2546
 -1      6049    3    0    1
 -2      1488      2646      2399      2455
 -1      6050    3    0    1
 -2      1141      1234      1235      2546
 -1      6051    3    0    1
 -2      2478      2119      2491      2563
 -1      6052    3    0    1
 -2      1445      2260      2389      2398
 -1      6053    3    0    1
 -2      1231      2259      2268      2396
 -1      6054    3    0    1
 -2      1409      2291      2307      2357
 -1      6055    3    0    1
 -2      1424      1312      1454      2722
 -1      6056    3    0    1
 -2      2488      2548      2616      2640
 -1      6057    3    0    1
 -2      2491      1674      2562      2622
 -1      6058    3    0    1
 -2      2336      1372      2673      2677
 -1      6059    3    0    1
 -2      2268      1380      2643      2679
 -1      6060    3    0    1
 -2      1290      2637      2362      2754
 -1      6061    3    0    1
 -2      2608      2577      1446      2351
 -1      6062    3    0    1
 -2      2531      2484      2570      2581
 -1      6063    3    0    1
 -2      2509      2211      2190      2576
 -1      6064    3    0    1
 -2      2572      1315      2612      2713
 -1      6065    3    0    1
 -2      2510      1226      1267      2549
 -1      6066    3    0    1
 -2      2239      1236      2293      2361
 -1      6067    3    0    1
 -2       234      1402      2653      2733
 -1      6068    3    0    1
 -2        70       383      2589      2685
 -1      6069    3    0    1
 -2      1121      1234      2546      2585
 -1      6070    3    0    1
 -2      2672      2608      2351      2392
 -1      6071    3    0    1
 -2      1393      1489      1494      2725
 -1      6072    3    0    1
 -2      1411       361      1412      2402
 -1      6073    3    0    1
 -2      2083      1968      2501      2549
 -1      6074    3    0    1
 -2      1280      2554      2661      2689
 -1      6075    3    0    1
 -2      2662      2608      2672      1486
 -1      6076    3    0    1
 -2      2261       549       745      2259
 -1      6077    3    0    1
 -2      1478      2283      2383      2404
 -1      6078    3    0    1
 -2      2056      1968      2083      2549
 -1      6079    3    0    1
 -2      2056      2083      2178      2549
 -1      6080    3    0    1
 -2      2072      2157      2528      2556
 -1      6081    3    0    1
 -2      2082      2528      2555      2556
 -1      6082    3    0    1
 -2      2605      1295      2653      1353
 -1      6083    3    0    1
 -2      2573      1312      2611      2722
 -1      6084    3    0    1
 -2       920       917      2076      2550
 -1      6085    3    0    1
 -2      2076       917      2486      2550
 -1      6086    3    0    1
 -2      2475       920      2076      2550
 -1      6087    3    0    1
 -2      2495      2527      2544      2622
 -1      6088    3    0    1
 -2      2187      2309      2720      2422
 -1      6089    3    0    1
 -2      1507       379      1520      2471
 -1      6090    3    0    1
 -2      2195      2214      1310      2589
 -1      6091    3    0    1
 -2      2132      2070      2525      2552
 -1      6092    3    0    1
 -2      2072      1768      2482      2551
 -1      6093    3    0    1
 -2      1100       775      2235      2238
 -1      6094    3    0    1
 -2      2509      2531      2576      2682
 -1      6095    3    0    1
 -2      1018      1768      2155      2551
 -1      6096    3    0    1
 -2      2695      1275      1398      2755
 -1      6097    3    0    1
 -2      2301      2333      2446      2764
 -1      6098    3    0    1
 -2      1049      1069      2525      2552
 -1      6099    3    0    1
 -2      1416      1480      1496      2746
 -1      6100    3    0    1
 -2      2313      2272      2387      2414
 -1      6101    3    0    1
 -2      2188      2082      2555      2556
 -1      6102    3    0    1
 -2      2493      1781      2525      2552
 -1      6103    3    0    1
 -2      1069      2493      2525      2552
 -1      6104    3    0    1
 -2      1034      1016      1239      2551
 -1      6105    3    0    1
 -2      1239      1016      1240      2551
 -1      6106    3    0    1
 -2       637       791      1969      2224
 -1      6107    3    0    1
 -2      2345      1506      2416      2425
 -1      6108    3    0    1
 -2      2573      2533      2595      2612
 -1      6109    3    0    1
 -2      2510      2539      2549      2704
 -1      6110    3    0    1
 -2      2641      1339      2643      2359
 -1      6111    3    0    1
 -2      2566      2538      1294      2624
 -1      6112    3    0    1
 -2      2238      2249      2659      2766
 -1      6113    3    0    1
 -2      2288      2640      1461      2379
 -1      6114    3    0    1
 -2      2640      2666      2681      2379
 -1      6115    3    0    1
 -2      2553      1278      1318      1319
 -1      6116    3    0    1
 -2      1139      1141      1638      2224
 -1      6117    3    0    1
 -2      2189      1262      2538      1293
 -1      6118    3    0    1
 -2      2636       361      2660      2326
 -1      6119    3    0    1
 -2      2665      1331      1476      2734
 -1      6120    3    0    1
 -2      2539      2582      2591      2720
 -1      6121    3    0    1
 -2      1412      2401      2641      1278
 -1      6122    3    0    1
 -2      2532      2539      2582      2704
 -1      6123    3    0    1
 -2       613       612      1105      2245
 -1      6124    3    0    1
 -2      2157      2082      2528      2555
 -1      6125    3    0    1
 -2      2267      1328      1440      2359
 -1      6126    3    0    1
 -2      1372      1363      2678      2415
 -1      6127    3    0    1
 -2      2188      2180      2199      2555
 -1      6128    3    0    1
 -2      2214       383      1310      2589
 -1      6129    3    0    1
 -2      2570      1285      2659      2766
 -1      6130    3    0    1
 -2      1297      1312      1454      2426
 -1      6131    3    0    1
 -2      2521      2184      2321      2336
 -1      6132    3    0    1
 -2      1040       757      2244      2251
 -1      6133    3    0    1
 -2      2234      1328      2261      2267
 -1      6134    3    0    1
 -2      2218       735      2258       733
 -1      6135    3    0    1
 -2      2060      2146      2202      2568
 -1      6136    3    0    1
 -2      2110      2164      2527      2201
 -1      6137    3    0    1
 -2      2491      2110      2527      2201
 -1      6138    3    0    1
 -2      2110      2491      2166      2201
 -1      6139    3    0    1
 -2      2164      2110      2166      2201
 -1      6140    3    0    1
 -2      2491      2514      2196      2201
 -1      6141    3    0    1
 -2      1303      2258      2260      2398
 -1      6142    3    0    1
 -2      2409      1470      2440      2458
 -1      6143    3    0    1
 -2      1331      1330      2665      1475
 -1      6144    3    0    1
 -2      2096      1984      2482      2703
 -1      6145    3    0    1
 -2      1034      1024      2233      2689
 -1      6146    3    0    1
 -2      2558      1267      1337      1338
 -1      6147    3    0    1
 -2      2527      2201      2212      2593
 -1      6148    3    0    1
 -2      1292      2577      2321      2351
 -1      6149    3    0    1
 -2      2514      2491      2562      2622
 -1      6150    3    0    1
 -2      1266      1346      1407      2370
 -1      6151    3    0    1
 -2      1372      1314      2673      2677
 -1      6152    3    0    1
 -2      2300      2302      2650      1466
 -1      6153    3    0    1
 -2      1461      1333      1233      2435
 -1      6154    3    0    1
 -2      2529      2521      2336      2677
 -1      6155    3    0    1
 -2      2535      1244      2621      2702
 -1      6156    3    0    1
 -2      1490      1394      1493      2742
 -1      6157    3    0    1
 -2      2662      1427      2673      1486
 -1      6158    3    0    1
 -2      2222      2212      2593      2299
 -1      6159    3    0    1
 -2      2597      1415      1416      2691
 -1      6160    3    0    1
 -2      2179      2047      1269      2557
 -1      6161    3    0    1
 -2      1389      1436      1473      2708
 -1      6162    3    0    1
 -2      1358       237      2238      2245
 -1      6163    3    0    1
 -2      2516      2518      2538      2623
 -1      6164    3    0    1
 -2      2191      2205      2241      2606
 -1      6165    3    0    1
 -2      2340      2408      2409      2758
 -1      6166    3    0    1
 -2      2204      1351      2254      2394
 -1      6167    3    0    1
 -2      1288      2221      2241      2256
 -1      6168    3    0    1
 -2       722       488       907      2203
 -1      6169    3    0    1
 -2      2569      2614      2698      2765
 -1      6170    3    0    1
 -2       489       488       722      2203
 -1      6171    3    0    1
 -2      1488        57      2723      2455
 -1      6172    3    0    1
 -2      1238      1086      2537      2609
 -1      6173    3    0    1
 -2      2150      1950      2183      2560
 -1      6174    3    0    1
 -2      1950      2171      2183      2560
 -1      6175    3    0    1
 -2      1330      1249      2665      2718
 -1      6176    3    0    1
 -2       764      1059      2220      2230
 -1      6177    3    0    1
 -2       962      2479      1225      2561
 -1      6178    3    0    1
 -2      2516      2475      2518      2623
 -1      6179    3    0    1
 -2      1315      1316      2612      2710
 -1      6180    3    0    1
 -2      1284      2329      2680      2354
 -1      6181    3    0    1
 -2      1337      2558      1338      2590
 -1      6182    3    0    1
 -2      2537      1264      1334      2606
 -1      6183    3    0    1
 -2      2072      1768      2551      2601
 -1      6184    3    0    1
 -2      1924       860      2495      2584
 -1      6185    3    0    1
 -2      2672      2608      1446      2351
 -1      6186    3    0    1
 -2      1283      2249      2393      2766
 -1      6187    3    0    1
 -2      1348      2594      2298      1488
 -1      6188    3    0    1
 -2      2484      1086      1238      2609
 -1      6189    3    0    1
 -2      2491      2500      2514      2562
 -1      6190    3    0    1
 -2      1514      1467      1521      2474
 -1      6191    3    0    1
 -2      1241      2567      2673      2678
 -1      6192    3    0    1
 -2      2542      2192      2276      2300
 -1      6193    3    0    1
 -2      2058       878      2478      2562
 -1      6194    3    0    1
 -2       880       878      2058      2562
 -1      6195    3    0    1
 -2       880      2058      2495      2562
 -1      6196    3    0    1
 -2      1260      1261      2565      1359
 -1      6197    3    0    1
 -2      2576      2588      2613      1402
 -1      6198    3    0    1
 -2      1674      2478      2491      2562
 -1      6199    3    0    1
 -2      2058      1674      2495      2562
 -1      6200    3    0    1
 -2      1674      2058      2478      2562
 -1      6201    3    0    1
 -2      2491      2196      1262      2166
 -1      6202    3    0    1
 -2      2645      1376      2679      2709
 -1      6203    3    0    1
 -2       528       978      2218      2232
 -1      6204    3    0    1
 -2      2301      2227      2663      2764
 -1      6205    3    0    1
 -2      1330      2665      1475      2718
 -1      6206    3    0    1
 -2      1462      1360      1390      2732
 -1      6207    3    0    1
 -2      1262      2514      2491      2563
 -1      6208    3    0    1
 -2      1262      2491      2166      2179
 -1      6209    3    0    1
 -2      2555      2228      2592      2275
 -1      6210    3    0    1
 -2      2228      2636      1412      2664
 -1      6211    3    0    1
 -2      1251      2278      2315      2460
 -1      6212    3    0    1
 -2      1399      1485      2447      2465
 -1      6213    3    0    1
 -2      2484      2531      2537      2609
 -1      6214    3    0    1
 -2      2686      2651      2361      2420
 -1      6215    3    0    1
 -2       720       885      1252      2206
 -1      6216    3    0    1
 -2        40      1252      1272      2206
 -1      6217    3    0    1
 -2        40       720      1252      2206
 -1      6218    3    0    1
 -2        57      1488      2723      2741
 -1      6219    3    0    1
 -2         1      1515      2757      2762
 -1      6220    3    0    1
 -2      1352      2408      2747      2758
 -1      6221    3    0    1
 -2      1293      1257      1310      2307
 -1      6222    3    0    1
 -2      1265      1226      1335      2248
 -1      6223    3    0    1
 -2      2495      1247      2562      2649
 -1      6224    3    0    1
 -2      2496      1259      1290      2210
 -1      6225    3    0    1
 -2      2496      2050      1259      2210
 -1      6226    3    0    1
 -2      2050      2496      2185      2210
 -1      6227    3    0    1
 -2      1242      1241      2567      1363
 -1      6228    3    0    1
 -2      2216      1287      2219      2247
 -1      6229    3    0    1
 -2      2576      2190      1317      2289
 -1      6230    3    0    1
 -2      2578      2572      2656      2360
 -1      6231    3    0    1
 -2      2372      2438      2439      2750
 -1      6232    3    0    1
 -2      1231      2268      2280      2396
 -1      6233    3    0    1
 -2      2557      2198      2298      2364
 -1      6234    3    0    1
 -2      1317      2242      2606      2319
 -1      6235    3    0    1
 -2      2495      2544      2584      2633
 -1      6236    3    0    1
 -2      2620      1319      1411      2664
 -1      6237    3    0    1
 -2       769       594      2191      2221
 -1      6238    3    0    1
 -2       625       618       617      2286
 -1      6239    3    0    1
 -2      2476      1859      2493      2683
 -1      6240    3    0    1
 -2      2560      2163      2572      1315
 -1      6241    3    0    1
 -2       372        57      2691      1480
 -1      6242    3    0    1
 -2      1317      2576      2289      2647
 -1      6243    3    0    1
 -2      2567      1242      1363      1364
 -1      6244    3    0    1
 -2      2671       355      2714      1495
 -1      6245    3    0    1
 -2      1344      1327      2294      2381
 -1      6246    3    0    1
 -2      2189      2538      2566      1293
 -1      6247    3    0    1
 -2      2589      2575      1406      2685
 -1      6248    3    0    1
 -2      2538      2516      2604      2624
 -1      6249    3    0    1
 -2      2518      2516      2538      2624
 -1      6250    3    0    1
 -2      2482      2517      2554      2690
 -1      6251    3    0    1
 -2      1296      1238      2606      2609
 -1      6252    3    0    1
 -2      2178      2056      2557      2604
 -1      6253    3    0    1
 -2      1286      1288      2221      2241
 -1      6254    3    0    1
 -2      2582      1349      2629      2332
 -1      6255    3    0    1
 -2      1414      1248      2316      2338
 -1      6256    3    0    1
 -2      2278      2314      2315      2749
 -1      6257    3    0    1
 -2      2709       351      2412      2735
 -1      6258    3    0    1
 -2      2146      2050      2202      2568
 -1      6259    3    0    1
 -2      2050      2146      2524      2568
 -1      6260    3    0    1
 -2      2580      2625      2626      2745
 -1      6261    3    0    1
 -2      1297      1298      2573      1312
 -1      6262    3    0    1
 -2      2163      2614      2229      2271
 -1      6263    3    0    1
 -2      2496      2524      1259      2568
 -1      6264    3    0    1
 -2      2050      2496      1259      2568
 -1      6265    3    0    1
 -2      2496      2050      2524      2568
 -1      6266    3    0    1
 -2      2323      1262      2663      2764
 -1      6267    3    0    1
 -2      2075      2520      2743      2752
 -1      6268    3    0    1
 -2      2558      2582      2590      2591
 -1      6269    3    0    1
 -2      2050      1259      2202      2568
 -1      6270    3    0    1
 -2       355      2671      2390      1495
 -1      6271    3    0    1
 -2      1278      1277      2553      1318
 -1      6272    3    0    1
 -2      2544      2527      2593      2622
 -1      6273    3    0    1
 -2       375      1425      1426      1509
 -1      6274    3    0    1
 -2      2593      2610      2670      2742
 -1      6275    3    0    1
 -2      2205      2241      2606      2264
 -1      6276    3    0    1
 -2      1246      2644      2680      2760
 -1      6277    3    0    1
 -2      2503      1253      1254      2569
 -1      6278    3    0    1
 -2      2270      1246      2680      2760
 -1      6279    3    0    1
 -2      2538      2518      2571      2623
 -1      6280    3    0    1
 -2      1018       552      1016      2261
 -1      6281    3    0    1
 -2      1262      2538      1293      2623
 -1      6282    3    0    1
 -2      2414      2447      1399      2387
 -1      6283    3    0    1
 -2      2246      1113       617       780
 -1      6284    3    0    1
 -2      1265      2290      2704      2716
 -1      6285    3    0    1
 -2      2068       978      2506      2674
 -1      6286    3    0    1
 -2      1379      2655      1467      1468
 -1      6287    3    0    1
 -2      1349        82      2629      2355
 -1      6288    3    0    1
 -2      1105      1103      2173      2570
 -1      6289    3    0    1
 -2      2173      1103      2522      2570
 -1      6290    3    0    1
 -2       355      1481      1482      2714
 -1      6291    3    0    1
 -2      2226      1385      2273      2277
 -1      6292    3    0    1
 -2      2052      2160      2531      2570
 -1      6293    3    0    1
 -2      2484      2052      2531      2570
 -1      6294    3    0    1
 -2      2136      2522      2564      2570
 -1      6295    3    0    1
 -2      1919      1105      2173      2570
 -1      6296    3    0    1
 -2      2484      1919      2173      2570
 -1      6297    3    0    1
 -2      2136      2173      2522      2570
 -1      6298    3    0    1
 -2      2160      1870      2530      2570
 -1      6299    3    0    1
 -2      2530      1870      2564      2570
 -1      6300    3    0    1
 -2      2152      2532      2290      2716
 -1      6301    3    0    1
 -2      1870      2136      2564      2570
 -1      6302    3    0    1
 -2      2484      1105      2536      2570
 -1      6303    3    0    1
 -2      1919      2484      2536      2570
 -1      6304    3    0    1
 -2      1105      1919      2536      2570
 -1      6305    3    0    1
 -2      2052      2484      2173      2570
 -1      6306    3    0    1
 -2      2052      2136      2160      2570
 -1      6307    3    0    1
 -2      2136      1870      2160      2570
 -1      6308    3    0    1
 -2      2136      2052      2173      2570
 -1      6309    3    0    1
 -2       173      2636      2660      2326
 -1      6310    3    0    1
 -2      2141      1998      2163      2572
 -1      6311    3    0    1
 -2      1950      2069      2171      2572
 -1      6312    3    0    1
 -2      2140      2141      2182      2572
 -1      6313    3    0    1
 -2      1229      2225      2287      2344
 -1      6314    3    0    1
 -2      1296      2319      1354      1377
 -1      6315    3    0    1
 -2      2241      2221      2606      2256
 -1      6316    3    0    1
 -2       624      2007      2541      2739
 -1      6317    3    0    1
 -2      2542      1322      2276      2677
 -1      6318    3    0    1
 -2      2206      2227      2240      2663
 -1      6319    3    0    1
 -2      2277      1253      2635      2717
 -1      6320    3    0    1
 -2      2613      2570      1401      2653
 -1      6321    3    0    1
 -2      1245      1246      2534      2574
 -1      6322    3    0    1
 -2      2386      2579      2449      2453
 -1      6323    3    0    1
 -2      2485      2529      2371      2703
 -1      6324    3    0    1
 -2      2489      2054      2145      2574
 -1      6325    3    0    1
 -2      1274      2220      2236      2424
 -1      6326    3    0    1
 -2      1506      1483      2416      2425
 -1      6327    3    0    1
 -2      2384      1457      2448      1520
 -1      6328    3    0    1
 -2      2222      2593      2622      1397
 -1      6329    3    0    1
 -2      1245       959      1246      2574
 -1      6330    3    0    1
 -2       980       959      1245      2574
 -1      6331    3    0    1
 -2      2485      1821      2529      2677
 -1      6332    3    0    1
 -2      1238      2537      2606      2609
 -1      6333    3    0    1
 -2      2529      2554      2690      2703
 -1      6334    3    0    1
 -2      1370      2605      1369      1354
 -1      6335    3    0    1
 -2      1269      2550      1294      2624
 -1      6336    3    0    1
 -2      1243      1244      2535      1306
 -1      6337    3    0    1
 -2      2549      1265      2704      2716
 -1      6338    3    0    1
 -2      2537      1264      2606      2609
 -1      6339    3    0    1
 -2      2620      1411      2660      2664
 -1      6340    3    0    1
 -2      1298      2341      2710      2417
 -1      6341    3    0    1
 -2      1283      2522      1282      1103
 -1      6342    3    0    1
 -2      2586      2683      2694      2719
 -1      6343    3    0    1
 -2      2065      2487      2585      2739
 -1      6344    3    0    1
 -2      1361      1288      2242      2256
 -1      6345    3    0    1
 -2      1356      1283      1357      2598
 -1      6346    3    0    1
 -2      2522      1283      1282      2598
 -1      6347    3    0    1
 -2      2564      2530      2579      2669
 -1      6348    3    0    1
 -2       980      2489      2574      2674
 -1      6349    3    0    1
 -2       504       941       505      2219
 -1      6350    3    0    1
 -2       371      2628      2647      2733
 -1      6351    3    0    1
 -2       612      1103      1105      2245
 -1      6352    3    0    1
 -2      2553      2620      2630      2688
 -1      6353    3    0    1
 -2      2309      1346      2720      2422
 -1      6354    3    0    1
 -2      2534      2580      2625      2626
 -1      6355    3    0    1
 -2      1391      2296      2350      2369
 -1      6356    3    0    1
 -2      2738      2668      1510      2453
 -1      6357    3    0    1
 -2      2662       172      2672      1446
 -1      6358    3    0    1
 -2      2250      2328      2689      2388
 -1      6359    3    0    1
 -2      2603      2252      2615      1413
 -1      6360    3    0    1
 -2      2231      2568      1388      2626
 -1      6361    3    0    1
 -2      1278      1319      1412      2401
 -1      6362    3    0    1
 -2      2603      2207      2252      1413
 -1      6363    3    0    1
 -2        85        84       725      2216
 -1      6364    3    0    1
 -2       725        84       727      2216
 -1      6365    3    0    1
 -2      1259      2202      2568      1388
 -1      6366    3    0    1
 -2      2341      2266      2710      2385
 -1      6367    3    0    1
 -2       218      2617      2728      1439
 -1      6368    3    0    1
 -2       200       764      1059      2220
 -1      6369    3    0    1
 -2        70      1405      1406      2413
 -1      6370    3    0    1
 -2      2592      1433      2688      2690
 -1      6371    3    0    1
 -2      1322      2542      2596      2677
 -1      6372    3    0    1
 -2      1270      1271      2559      1320
 -1      6373    3    0    1
 -2      1252      1276      2227      2295
 -1      6374    3    0    1
 -2       173      2660      1433      2688
 -1      6375    3    0    1
 -2       489       492      2203      2217
 -1      6376    3    0    1
 -2      2710      2341      2385      2417
 -1      6377    3    0    1
 -2      2217        63       722        64
 -1      6378    3    0    1
 -2       492       493      2203      2686
 -1      6379    3    0    1
 -2      1310      1340      1404      2357
 -1      6380    3    0    1
 -2      2641      1339      1412      2664
 -1      6381    3    0    1
 -2       722      2203        63      2217
 -1      6382    3    0    1
 -2       529       525       528      2218
 -1      6383    3    0    1
 -2       528       980       529      2218
 -1      6384    3    0    1
 -2       980       528       978      2218
 -1      6385    3    0    1
 -2       525       526       528      2218
 -1      6386    3    0    1
 -2       564      1032      1034      2233
 -1      6387    3    0    1
 -2       565       564      1034      2233
 -1      6388    3    0    1
 -2       900       480       897      2295
 -1      6389    3    0    1
 -2       565       557       564      2233
 -1      6390    3    0    1
 -2      2145      2534      2574      2674
 -1      6391    3    0    1
 -2      2542      2300      2302      2650
 -1      6392    3    0    1
 -2       735       525       733      2218
 -1      6393    3    0    1
 -2       525       735       526      2218
 -1      6394    3    0    1
 -2      2606      2242      2318      2319
 -1      6395    3    0    1
 -2      1040       191      2251      2255
 -1      6396    3    0    1
 -2      1287        84      2216      2219
 -1      6397    3    0    1
 -2       353       112      2658      1474
 -1      6398    3    0    1
 -2      2533      2572      2585      2656
 -1      6399    3    0    1
 -2      1298      2710      2385      2417
 -1      6400    3    0    1
 -2      1301      1246      1302      2580
 -1      6401    3    0    1
 -2      2706      2340      1230      2758
 -1      6402    3    0    1
 -2      2538      2566      1293      2623
 -1      6403    3    0    1
 -2      2216      2248      2265      2297
 -1      6404    3    0    1
 -2        11       706      2278      2317
 -1      6405    3    0    1
 -2      1309      1341      1406      2684
 -1      6406    3    0    1
 -2      2511      2552      2559      2678
 -1      6407    3    0    1
 -2      2206       897      2295      2663
 -1      6408    3    0    1
 -2      1261      2565      1360      2631
 -1      6409    3    0    1
 -2        82       368      1338      2590
 -1      6410    3    0    1
 -2      2540      2485      2567      2678
 -1      6411    3    0    1
 -2      1309      1258      2413      1341
 -1      6412    3    0    1
 -2      2132      2511      2677      2678
 -1      6413    3    0    1
 -2      2482      2555      2556      2592
 -1      6414    3    0    1
 -2       528       978      2068      2674
 -1      6415    3    0    1
 -2      2506      1260      2637      2674
 -1      6416    3    0    1
 -2       980       528       529      2674
 -1      6417    3    0    1
 -2      1332      2726      2447      2465
 -1      6418    3    0    1
 -2       529      2054      2489      2674
 -1      6419    3    0    1
 -2      1245       980      2574      2674
 -1      6420    3    0    1
 -2      1299      1366      2285      2349
 -1      6421    3    0    1
 -2      2565      1359      1360      2602
 -1      6422    3    0    1
 -2      2296      2706      2747      2758
 -1      6423    3    0    1
 -2      2246      2282      2285      2744
 -1      6424    3    0    1
 -2       549       550       552      2261
 -1      6425    3    0    1
 -2       368      2590      2629      1407
 -1      6426    3    0    1
 -2       477       480       481      2295
 -1      6427    3    0    1
 -2      1140       791       636      2224
 -1      6428    3    0    1
 -2      2500      2478      2563      2687
 -1      6429    3    0    1
 -2       173      2636      2326      1433
 -1      6430    3    0    1
 -2      2673      2608      1450      2353
 -1      6431    3    0    1
 -2      2528      1550      2634      2700
 -1      6432    3    0    1
 -2      2396      1463      1376      2421
 -1      6433    3    0    1
 -2      2240      2227      2253      2663
 -1      6434    3    0    1
 -2      2572      2585      2656      2669
 -1      6435    3    0    1
 -2      2611       378      2676      2722
 -1      6436    3    0    1
 -2      2638      2610      2654      2742
 -1      6437    3    0    1
 -2       715       713      2225      2237
 -1      6438    3    0    1
 -2      1237      1295      2570      2581
 -1      6439    3    0    1
 -2      2484      1237      2570      2581
 -1      6440    3    0    1
 -2      1237      2484      1238      2581
 -1      6441    3    0    1
 -2      1285      2211      2613      1401
 -1      6442    3    0    1
 -2      1354      1353      2605      1369
 -1      6443    3    0    1
 -2      2607      1364      1428      2661
 -1      6444    3    0    1
 -2      2588      2335      2346      2733
 -1      6445    3    0    1
 -2      2340      2296      2408      2758
 -1      6446    3    0    1
 -2      1413      1330      2764      2470
 -1      6447    3    0    1
 -2      1245      2534      1301      2625
 -1      6448    3    0    1
 -2      1295      1238      1296      2581
 -1      6449    3    0    1
 -2      1237      1238      1295      2581
 -1      6450    3    0    1
 -2      1370       371      1377      2330
 -1      6451    3    0    1
 -2      1265      1226      2248      2621
 -1      6452    3    0    1
 -2      2547      2500      2563      2687
 -1      6453    3    0    1
 -2      2531      2509      2576      2613
 -1      6454    3    0    1
 -2      1280      1292      2661      2690
 -1      6455    3    0    1
 -2      2509      2530      2208      2613
 -1      6456    3    0    1
 -2      1310      1293      2623      2648
 -1      6457    3    0    1
 -2      2475      2516      2563      2623
 -1      6458    3    0    1
 -2       107      2671      2390      2714
 -1      6459    3    0    1
 -2      2683      2488      2694      2719
 -1      6460    3    0    1
 -2      2062      2138      2523      2719
 -1      6461    3    0    1
 -2      2060      2568      2422      2743
 -1      6462    3    0    1
 -2      2548      1232      1332      2726
 -1      6463    3    0    1
 -2      2247      2248      2621      2297
 -1      6464    3    0    1
 -2      1258      2395      2413      2394
 -1      6465    3    0    1
 -2      1235      1141      2546      2710
 -1      6466    3    0    1
 -2      2276      2542      2302      2650
 -1      6467    3    0    1
 -2       600      1086      2191      2221
 -1      6468    3    0    1
 -2       594       600      2191      2221
 -1      6469    3    0    1
 -2      1231      2490      2543      2601
 -1      6470    3    0    1
 -2       220      1286      1288      2221
 -1      6471    3    0    1
 -2       220       769      1286      2221
 -1      6472    3    0    1
 -2      2669      1227      1453      2721
 -1      6473    3    0    1
 -2      1016      1240      2551      2643
 -1      6474    3    0    1
 -2      1342      2599      1403      2750
 -1      6475    3    0    1
 -2       636      1139       637      2635
 -1      6476    3    0    1
 -2      2673      1372      1450      2415
 -1      6477    3    0    1
 -2      1372      2678      2373      2415
 -1      6478    3    0    1
 -2      2319      1296      1354      2318
 -1      6479    3    0    1
 -2      2528      2072      2556      2583
 -1      6480    3    0    1
 -2      1339      2641      1412      2402
 -1      6481    3    0    1
 -2      2072      2490      2543      2583
 -1      6482    3    0    1
 -2      2490      2072      2528      2583
 -1      6483    3    0    1
 -2      1248      2495      1247       860
 -1      6484    3    0    1
 -2      2208      2530      2579      2613
 -1      6485    3    0    1
 -2      2535      2486      2549      2621
 -1      6486    3    0    1
 -2       862       860      1924      2584
 -1      6487    3    0    1
 -2      2205      1263      2241      2264
 -1      6488    3    0    1
 -2      2627      2334      1436      2701
 -1      6489    3    0    1
 -2      2666      2548      2681      2694
 -1      6490    3    0    1
 -2      1285      2570      2692      2766
 -1      6491    3    0    1
 -2      1510      2467      2472      2766
 -1      6492    3    0    1
 -2      1230      2490      2634      2642
 -1      6493    3    0    1
 -2      2533      2487      2546      2585
 -1      6494    3    0    1
 -2      1234      2533      2546      2585
 -1      6495    3    0    1
 -2      2596      2650      2657      2740
 -1      6496    3    0    1
 -2      2702      1437      1496      2429
 -1      6497    3    0    1
 -2      2657      1469      2650      2697
 -1      6498    3    0    1
 -2      2596      1398      1466      2740
 -1      6499    3    0    1
 -2      2418      2702      1244      2419
 -1      6500    3    0    1
 -2      2297      1477      2418      2419
 -1      6501    3    0    1
 -2      2650      2596      1466      2740
 -1      6502    3    0    1
 -2      2580      1301      2625      2745
 -1      6503    3    0    1
 -2      2533      2572      2612      2713
 -1      6504    3    0    1
 -2      1638      2487      2546      2713
 -1      6505    3    0    1
 -2      2487      2533      2572      2585
 -1      6506    3    0    1
 -2      2065      2487      2572      2585
 -1      6507    3    0    1
 -2      2097      1638      2503      2713
 -1      6508    3    0    1
 -2      1294      1309      2624      2684
 -1      6509    3    0    1
 -2      2506      2526      2565      2631
 -1      6510    3    0    1
 -2      1238      1296      2606      2318
 -1      6511    3    0    1
 -2      1238      2606      2256      2318
 -1      6512    3    0    1
 -2      1346      2561      2591      2720
 -1      6513    3    0    1
 -2      2695      1466      2434      2755
 -1      6514    3    0    1
 -2      2264      1334      2616      2284
 -1      6515    3    0    1
 -2      1969       791      2103      2224
 -1      6516    3    0    1
 -2       791      1140      2103      2224
 -1      6517    3    0    1
 -2      2516      2126      2557      2604
 -1      6518    3    0    1
 -2      2088      2509      2190      2682
 -1      6519    3    0    1
 -2      2514      2500      2547      2599
 -1      6520    3    0    1
 -2      2500      2514      2562      2599
 -1      6521    3    0    1
 -2      1348      1269      2686      2361
 -1      6522    3    0    1
 -2      1342      2562      2622      2599
 -1      6523    3    0    1
 -2      2419      2702      2428      2429
 -1      6524    3    0    1
 -2      2570      1283      2692      2766
 -1      6525    3    0    1
 -2      2632      1271      2712      2695
 -1      6526    3    0    1
 -2      1332      1333      2617      1438
 -1      6527    3    0    1
 -2        28        27       715      2225
 -1      6528    3    0    1
 -2      2601      1240      2641      2643
 -1      6529    3    0    1
 -2       713        28       715      2225
 -1      6530    3    0    1
 -2      1302      1301      2580      1382
 -1      6531    3    0    1
 -2      1455      2393      2466      2472
 -1      6532    3    0    1
 -2      1349      2629      2332      2355
 -1      6533    3    0    1
 -2      2537      2640      2682      2683
 -1      6534    3    0    1
 -2      2244      1040      2251      2255
 -1      6535    3    0    1
 -2      2595      2611      2676      2722
 -1      6536    3    0    1
 -2      2586      2640      2666      2694
 -1      6537    3    0    1
 -2      1510      2692      2753      2766
 -1      6538    3    0    1
 -2      2578      2533      2595      2656
 -1      6539    3    0    1
 -2      2567      2577      2607      2673
 -1      6540    3    0    1
 -2       349       351      2727      2735
 -1      6541    3    0    1
 -2      1121       624      1123      2739
 -1      6542    3    0    1
 -2      1273       279      2223      2226
 -1      6543    3    0    1
 -2      2533      2573      2595      2656
 -1      6544    3    0    1
 -2      1284      2561      2644      2680
 -1      6545    3    0    1
 -2      2557      1269      1348      2298
 -1      6546    3    0    1
 -2      1246      1302      2580      2644
 -1      6547    3    0    1
 -2      1281      2639      2726      2465
 -1      6548    3    0    1
 -2      2301      1276      2323      2446
 -1      6549    3    0    1
 -2      1267      2510      2549      1335
 -1      6550    3    0    1
 -2       371       234      2628      2733
 -1      6551    3    0    1
 -2      2160      2509      2531      2613
 -1      6552    3    0    1
 -2       112      2658      1473      2708
 -1      6553    3    0    1
 -2       941      2486      1244      2621
 -1      6554    3    0    1
 -2      2601      1279      1380      2643
 -1      6555    3    0    1
 -2      2595      2573      2611      2722
 -1      6556    3    0    1
 -2      2207      1342      2603      1403
 -1      6557    3    0    1
 -2      2467      2393      2472      2766
 -1      6558    3    0    1
 -2      1032      1034      2233      2689
 -1      6559    3    0    1
 -2         1      1513      1515      2762
 -1      6560    3    0    1
 -2      2393      2466      2472      2766
 -1      6561    3    0    1
 -2       358       198      1465      2715
 -1      6562    3    0    1
 -2      2548      1332      2617      2726
 -1      6563    3    0    1
 -2      2529      2521      2321      2336
 -1      6564    3    0    1
 -2      2506       978      1260      2674
 -1      6565    3    0    1
 -2      2107      2163      2560      2229
 -1      6566    3    0    1
 -2       132       739      2296      2305
 -1      6567    3    0    1
 -2      2675      1394      1489      1490
 -1      6568    3    0    1
 -2      1466      1430      2434      2457
 -1      6569    3    0    1
 -2      2518      2550      2624      2684
 -1      6570    3    0    1
 -2      2203      2204      2239      2686
 -1      6571    3    0    1
 -2      1279      2556      1339      2641
 -1      6572    3    0    1
 -2      2517      1278      2553      2641
 -1      6573    3    0    1
 -2      2207      2196      1350      2603
 -1      6574    3    0    1
 -2      2514      1342      2599      2603
 -1      6575    3    0    1
 -2      2527      1291      2584      2593
 -1      6576    3    0    1
 -2      2196      2514      1350      2603
 -1      6577    3    0    1
 -2      1242      1364      2661      2689
 -1      6578    3    0    1
 -2      2104      2078      2485      2371
 -1      6579    3    0    1
 -2       737       132       739      2296
 -1      6580    3    0    1
 -2      2446      1350      2764      2470
 -1      6581    3    0    1
 -2      2234      2259      2268      2643
 -1      6582    3    0    1
 -2      2555      2188      2556      2228
 -1      6583    3    0    1
 -2      1314      1372      2673      2678
 -1      6584    3    0    1
 -2      2475      2518      2623      2705
 -1      6585    3    0    1
 -2      1257      1293      1310      2648
 -1      6586    3    0    1
 -2      2293      1243      2686      2363
 -1      6587    3    0    1
 -2      2190      2509      2576      2682
 -1      6588    3    0    1
 -2      1259      2526      1290      2637
 -1      6589    3    0    1
 -2      2082      1279      2556      2228
 -1      6590    3    0    1
 -2      2188      2082      2556      2228
 -1      6591    3    0    1
 -2      2214      2195      1309      2589
 -1      6592    3    0    1
 -2      2528      2209      2583      2737
 -1      6593    3    0    1
 -2       885      1252      2206      2295
 -1      6594    3    0    1
 -2      2592      2555      2275      2690
 -1      6595    3    0    1
 -2      2686      2361      2363      2420
 -1      6596    3    0    1
 -2      1266      1225      2561      1346
 -1      6597    3    0    1
 -2      2597      1306      1415      2741
 -1      6598    3    0    1
 -2      1416      1480      1484      2429
 -1      6599    3    0    1
 -2      1405      1341      1406      2413
 -1      6600    3    0    1
 -2      2625      1495      2745      2427
 -1      6601    3    0    1
 -2      2296      2305      2350      2706
 -1      6602    3    0    1
 -2      1018      2259      2261      2643
 -1      6603    3    0    1
 -2      2259      2234      2261      2643
 -1      6604    3    0    1
 -2      1257      1310      1340      2648
 -1      6605    3    0    1
 -2      1309      2589      2575      1406
 -1      6606    3    0    1
 -2      2620      1319      1410      1411
 -1      6607    3    0    1
 -2      2607      2608      2661      2662
 -1      6608    3    0    1
 -2      2569      1253      1378      2717
 -1      6609    3    0    1
 -2      2668      2619      2711      2753
 -1      6610    3    0    1
 -2      2533      2572      2578      2612
 -1      6611    3    0    1
 -2      1425      1313      1426      2417
 -1      6612    3    0    1
 -2      2578      1315      1316      2612
 -1      6613    3    0    1
 -2       209      1274      2220      2230
 -1      6614    3    0    1
 -2      2533      2578      2595      2612
 -1      6615    3    0    1
 -2      1426      1425      2417      1509
 -1      6616    3    0    1
 -2      1298      2533      2573      2612
 -1      6617    3    0    1
 -2      2578      2572      1315      2612
 -1      6618    3    0    1
 -2      1266      2558      1337      2591
 -1      6619    3    0    1
 -2      2561      1266      1346      2591
 -1      6620    3    0    1
 -2      2539      2510      2561      2591
 -1      6621    3    0    1
 -2      2510      2539      2558      2591
 -1      6622    3    0    1
 -2      1343      2240      2253      2291
 -1      6623    3    0    1
 -2      2571      2575      2623      2648
 -1      6624    3    0    1
 -2      2233      2250      2328      2689
 -1      6625    3    0    1
 -2      2510      1266      2561      2591
 -1      6626    3    0    1
 -2      1266      2510      2558      2591
 -1      6627    3    0    1
 -2      2250      1024      2294      2689
 -1      6628    3    0    1
 -2      2590      2582      1349      2629
 -1      6629    3    0    1
 -2      2582      2590      2591      2629
 -1      6630    3    0    1
 -2      2490      2543      2634      2642
 -1      6631    3    0    1
 -2      2251      2244      2255      2707
 -1      6632    3    0    1
 -2      1387      2579      2386      1510
 -1      6633    3    0    1
 -2      2680      1284      2354      2760
 -1      6634    3    0    1
 -2      2506      2109      2526      2634
 -1      6635    3    0    1
 -2      1279      2601      2641      2643
 -1      6636    3    0    1
 -2       371      2647      2346      2733
 -1      6637    3    0    1
 -2      2294      1327      2306      2381
 -1      6638    3    0    1
 -2      2558      1267      1338      1349
 -1      6639    3    0    1
 -2      1267      2558      1335      1349
 -1      6640    3    0    1
 -2      2586      2288      2308      2666
 -1      6641    3    0    1
 -2      1394      1493      1324      2437
 -1      6642    3    0    1
 -2      2075      2520      2524      2743
 -1      6643    3    0    1
 -2      1416      2597      2691      2746
 -1      6644    3    0    1
 -2      2588      2609      2576      2531
 -1      6645    3    0    1
 -2      2510      2549      1335      2704
 -1      6646    3    0    1
 -2      2246      1113      2282      2286
 -1      6647    3    0    1
 -2      2521      2133      2542      2677
 -1      6648    3    0    1
 -2      1357      1356      2598      2619
 -1      6649    3    0    1
 -2      1477      2419      2428      2429
 -1      6650    3    0    1
 -2      1241      2540      2567      2678
 -1      6651    3    0    1
 -2      2503      2569      2713      2717
 -1      6652    3    0    1
 -2      2485      2132      2677      2678
 -1      6653    3    0    1
 -2       437      1490      1493      2742
 -1      6654    3    0    1
 -2      2581      2570      2613      2653
 -1      6655    3    0    1
 -2      1262      2514      2563      1350
 -1      6656    3    0    1
 -2      2475      1725      2516      2604
 -1      6657    3    0    1
 -2      2517      2553      2630      2688
 -1      6658    3    0    1
 -2      2271      1458      2698      2410
 -1      6659    3    0    1
 -2      2553      2517      2592      2688
 -1      6660    3    0    1
 -2      1376      2645      2652      2709
 -1      6661    3    0    1
 -2      2198      2047      2557      2298
 -1      6662    3    0    1
 -2      2047      1269      2557      2298
 -1      6663    3    0    1
 -2      2553      1319      2620      2664
 -1      6664    3    0    1
 -2      1238      1296      2581      2609
 -1      6665    3    0    1
 -2      2609      2537      2682      2683
 -1      6666    3    0    1
 -2      2530      2065      2572      2669
 -1      6667    3    0    1
 -2      2484      1238      2581      2609
 -1      6668    3    0    1
 -2      2531      2484      2581      2609
 -1      6669    3    0    1
 -2      1317      1296      2606      2609
 -1      6670    3    0    1
 -2      1086      2484      2537      2609
 -1      6671    3    0    1
 -2      2717      1458      2431      2456
 -1      6672    3    0    1
 -2      2650      2302      2374      2377
 -1      6673    3    0    1
 -2      1018      1016      2601      2643
 -1      6674    3    0    1
 -2      2223      1273      2226      2263
 -1      6675    3    0    1
 -2       749       557      1024      2233
 -1      6676    3    0    1
 -2       557       558      1024      2233
 -1      6677    3    0    1
 -2       558      1034      1024      2233
 -1      6678    3    0    1
 -2      1034       558       565      2233
 -1      6679    3    0    1
 -2      2614      2271      1458      2698
 -1      6680    3    0    1
 -2      1243      2486      2550      2651
 -1      6681    3    0    1
 -2      1491      2280      2396      2421
 -1      6682    3    0    1
 -2      1413      1330      1475      2718
 -1      6683    3    0    1
 -2      2337       112      1436      2701
 -1      6684    3    0    1
 -2      1468      1379      1513      2461
 -1      6685    3    0    1
 -2      1113       780      2246      2282
 -1      6686    3    0    1
 -2      2611       378      1424      1425
 -1      6687    3    0    1
 -2      2681      1461      2640      2379
 -1      6688    3    0    1
 -2      2225      1300      2237      2257
 -1      6689    3    0    1
 -2       745       153       156      2234
 -1      6690    3    0    1
 -2       237       775      2238      2245
 -1      6691    3    0    1
 -2      2672       352      1486      2392
 -1      6692    3    0    1
 -2      2675       390      2725      2693
 -1      6693    3    0    1
 -2      1274      2220      2230      2236
 -1      6694    3    0    1
 -2      1338        82      1349      1365
 -1      6695    3    0    1
 -2      2488      2586      2683      2694
 -1      6696    3    0    1
 -2      2416      2345      2425      2760
 -1      6697    3    0    1
 -2      2596      2618      2657      2699
 -1      6698    3    0    1
 -2       609      2245       775       608
 -1      6699    3    0    1
 -2      2243      2322      2659      2324
 -1      6700    3    0    1
 -2      2529      2521      2371      2703
 -1      6701    3    0    1
 -2      2643      2641      2359      2401
 -1      6702    3    0    1
 -2      2611      1312      1424      2722
 -1      6703    3    0    1
 -2      1105      2235      2245      2659
 -1      6704    3    0    1
 -2      2547      2615      2665      2718
 -1      6705    3    0    1
 -2      2580      1302      1382      2667
 -1      6706    3    0    1
 -2      2072      2109      2490      2634
 -1      6707    3    0    1
 -2      2187      2152      2532      2290
 -1      6708    3    0    1
 -2       351      2709      2727      2735
 -1      6709    3    0    1
 -2      1292      2661      1446      2388
 -1      6710    3    0    1
 -2      1321      2559      2618      2695
 -1      6711    3    0    1
 -2      1220      2476      2493      2639
 -1      6712    3    0    1
 -2      2488      1220      1232      2639
 -1      6713    3    0    1
 -2      2476      1220      2488      2639
 -1      6714    3    0    1
 -2      1300        27      2225      2237
 -1      6715    3    0    1
 -2      2488      1232      2548      2639
 -1      6716    3    0    1
 -2      2535      2594      2604      2651
 -1      6717    3    0    1
 -2      2588      2576      2647      2346
 -1      6718    3    0    1
 -2      2524      1259      2568      2625
 -1      6719    3    0    1
 -2      2576      2588      2335      2346
 -1      6720    3    0    1
 -2      2526      2496      1290      2600
 -1      6721    3    0    1
 -2      1290      2496      2210      2600
 -1      6722    3    0    1
 -2      2606      2264      2616      2284
 -1      6723    3    0    1
 -2      2638      2610      2675      2725
 -1      6724    3    0    1
 -2      2283      1260      2637      2404
 -1      6725    3    0    1
 -2      2605      1370      1369      2628
 -1      6726    3    0    1
 -2      1240      1278      2643      2401
 -1      6727    3    0    1
 -2      2579      2668      1510      2753
 -1      6728    3    0    1
 -2      2602      1389      2658      2708
 -1      6729    3    0    1
 -2      2490      1018      2155      2601
 -1      6730    3    0    1
 -2      2155      1018      2551      2601
 -1      6731    3    0    1
 -2      2347      2344      2450      2761
 -1      6732    3    0    1
 -2      2585      1227      2656      2669
 -1      6733    3    0    1
 -2      2511      2559      2677      2678
 -1      6734    3    0    1
 -2      2072      2556      2583      2601
 -1      6735    3    0    1
 -2      2543      2072      2583      2601
 -1      6736    3    0    1
 -2      1768      2155      2551      2601
 -1      6737    3    0    1
 -2      2072      2490      2155      2601
 -1      6738    3    0    1
 -2      2160      2531      2570      2613
 -1      6739    3    0    1
 -2      1324      2654      2338      2437
 -1      6740    3    0    1
 -2      1248      1414      2316      2317
 -1      6741    3    0    1
 -2      2531      2576      2588      2613
 -1      6742    3    0    1
 -2      2564      2530      2570      2613
 -1      6743    3    0    1
 -2       745       743      2234      2259
 -1      6744    3    0    1
 -2      1768      2072      2155      2601
 -1      6745    3    0    1
 -2       576      1049      1051      2255
 -1      6746    3    0    1
 -2       242       237       775      2238
 -1      6747    3    0    1
 -2       242      1100      2235      2238
 -1      6748    3    0    1
 -2       242       775      1100      2238
 -1      6749    3    0    1
 -2      2203        63      2217      2239
 -1      6750    3    0    1
 -2        63        64      2217      2239
 -1      6751    3    0    1
 -2      1430      1429      1464      2715
 -1      6752    3    0    1
 -2      1268      2203      2204      2239
 -1      6753    3    0    1
 -2      1268        63      2203      2239
 -1      6754    3    0    1
 -2        64      1236      2217      2239
 -1      6755    3    0    1
 -2      2582      2629      2292      2332
 -1      6756    3    0    1
 -2      2514      2547      2563      2687
 -1      6757    3    0    1
 -2      1269      2538      2557      2604
 -1      6758    3    0    1
 -2      1367      2585      2656      2722
 -1      6759    3    0    1
 -2      2557      2535      2594      2604
 -1      6760    3    0    1
 -2      2709      2587      2724      2737
 -1      6761    3    0    1
 -2       706       851      2278      2314
 -1      6762    3    0    1
 -2      2586      2193      2288      2682
 -1      6763    3    0    1
 -2      1725      2076      2486      2604
 -1      6764    3    0    1
 -2      2486      2076      2550      2604
 -1      6765    3    0    1
 -2      1725      2475      2076      2604
 -1      6766    3    0    1
 -2      2076      2475      2550      2604
 -1      6767    3    0    1
 -2      1269      2557      1348      2604
 -1      6768    3    0    1
 -2      1348      2557      2594      2604
 -1      6769    3    0    1
 -2       457       450       449      2314
 -1      6770    3    0    1
 -2      2126      2056      2178      2604
 -1      6771    3    0    1
 -2      1725      2056      2126      2604
 -1      6772    3    0    1
 -2      1296      1295      2581      2605
 -1      6773    3    0    1
 -2      1263      2191      2205      2241
 -1      6774    3    0    1
 -2      1295      1296      1353      2605
 -1      6775    3    0    1
 -2      2568      2231      1396      2736
 -1      6776    3    0    1
 -2      1325      1471      1375      2729
 -1      6777    3    0    1
 -2      2557      1348      2594      2298
 -1      6778    3    0    1
 -2      1086      1088      2191      2606
 -1      6779    3    0    1
 -2      1088      1086      2537      2606
 -1      6780    3    0    1
 -2      1221      1088      2537      2606
 -1      6781    3    0    1
 -2      1471       349      2729      2735
 -1      6782    3    0    1
 -2      2632      2542      2300      2719
 -1      6783    3    0    1
 -2      1238      1086      2221      2606
 -1      6784    3    0    1
 -2      2193      2200      2586      2288
 -1      6785    3    0    1
 -2      2191      1221      2205      2606
 -1      6786    3    0    1
 -2      2241      1264      2242      2606
 -1      6787    3    0    1
 -2      2529      1292      2577      2321
 -1      6788    3    0    1
 -2      1088      1221      2191      2606
 -1      6789    3    0    1
 -2      1264      1317      2242      2606
 -1      6790    3    0    1
 -2      1354      2605      2609      2647
 -1      6791    3    0    1
 -2      2602      1389      1390      2658
 -1      6792    3    0    1
 -2       379      2738      1518      2756
 -1      6793    3    0    1
 -2      2242      1361      2318      2319
 -1      6794    3    0    1
 -2      1821      2485      2529      2371
 -1      6795    3    0    1
 -2      2576      2588      1402      2335
 -1      6796    3    0    1
 -2      1320      1321      2618      1429
 -1      6797    3    0    1
 -2      2242      2241      2606      2256
 -1      6798    3    0    1
 -2       352      1427      1486      2436
 -1      6799    3    0    1
 -2      2691        57      1479      1480
 -1      6800    3    0    1
 -2       383      1310      1404      1409
 -1      6801    3    0    1
 -2       172      2672      2351      2392
 -1      6802    3    0    1
 -2      2576      2211      2289      2335
 -1      6803    3    0    1
 -2      1295      1237      2659      2324
 -1      6804    3    0    1
 -2       609       613      2235      2245
 -1      6805    3    0    1
 -2       613      1105      2235      2245
 -1      6806    3    0    1
 -2      1380      2601      2679      2737
 -1      6807    3    0    1
 -2      2228      2592      2275      2636
 -1      6808    3    0    1
 -2      2717      1458      2456      2474
 -1      6809    3    0    1
 -2       355      2714      1495      2745
 -1      6810    3    0    1
 -2      1339      1279      2643      2359
 -1      6811    3    0    1
 -2      2225      1300      2257      2368
 -1      6812    3    0    1
 -2      1314      2673      2677      2678
 -1      6813    3    0    1
 -2      2288      2586      2640      2666
 -1      6814    3    0    1
 -2      2583      2209      2279      2304
 -1      6815    3    0    1
 -2      1287      1365      2247      2248
 -1      6816    3    0    1
 -2      1225       962      2680      2366
 -1      6817    3    0    1
 -2      2485      2540      2567      2661
 -1      6818    3    0    1
 -2      2540      2485      2554      2661
 -1      6819    3    0    1
 -2      2608      2662      2673      1486
 -1      6820    3    0    1
 -2      2529      2485      2567      2661
 -1      6821    3    0    1
 -2      2529      2567      2577      2661
 -1      6822    3    0    1
 -2      2269      2251      2678      2373
 -1      6823    3    0    1
 -2      1024       749      2233      2250
 -1      6824    3    0    1
 -2      2308      2666      2379      2380
 -1      6825    3    0    1
 -2       163      1336      2233      2250
 -1      6826    3    0    1
 -2       440       379      2738      2469
 -1      6827    3    0    1
 -2      2217      2239      2293      2686
 -1      6828    3    0    1
 -2      1377       371      2319      2330
 -1      6829    3    0    1
 -2       749       163      2233      2250
 -1      6830    3    0    1
 -2       164       163       749      2250
 -1      6831    3    0    1
 -2       164      1024      1327      2250
 -1      6832    3    0    1
 -2      1354      1370      1377      2330
 -1      6833    3    0    1
 -2      2681       218      1461      2379
 -1      6834    3    0    1
 -2       164       749      1024      2250
 -1      6835    3    0    1
 -2       180      1040       191      2251
 -1      6836    3    0    1
 -2       757       180      2244      2251
 -1      6837    3    0    1
 -2      1508      1510      2467      2472
 -1      6838    3    0    1
 -2       980       529      2489      2674
 -1      6839    3    0    1
 -2      1040       180       757      2251
 -1      6840    3    0    1
 -2      1460       351      2709      2727
 -1      6841    3    0    1
 -2      1233      2488      2548      2616
 -1      6842    3    0    1
 -2      2636      2275      2326      1433
 -1      6843    3    0    1
 -2      2534      1246      2580      2644
 -1      6844    3    0    1
 -2      1513      1468      2461      2462
 -1      6845    3    0    1
 -2      2571      1257      1340      2648
 -1      6846    3    0    1
 -2      1272      1343      2240      2253
 -1      6847    3    0    1
 -2      1495      1301      2745      2427
 -1      6848    3    0    1
 -2       920       917      2550      2686
 -1      6849    3    0    1
 -2      2517      1240      1278      2641
 -1      6850    3    0    1
 -2      1268      2204      1351      2254
 -1      6851    3    0    1
 -2       917      1243      2550      2686
 -1      6852    3    0    1
 -2      2532      2582      2292      2332
 -1      6853    3    0    1
 -2      1231      2268      2643      2679
 -1      6854    3    0    1
 -2       577       576      1051      2255
 -1      6855    3    0    1
 -2      2244      1040       569       757
 -1      6856    3    0    1
 -2       577       570       569      2255
 -1      6857    3    0    1
 -2       576       577       569      2255
 -1      6858    3    0    1
 -2       191      1368      2251      2255
 -1      6859    3    0    1
 -2      1040       569       570      2255
 -1      6860    3    0    1
 -2      1049       576      2244      2255
 -1      6861    3    0    1
 -2      2345      2270      2425      2760
 -1      6862    3    0    1
 -2      1040      2244       569      2255
 -1      6863    3    0    1
 -2       576       569      2244      2255
 -1      6864    3    0    1
 -2      1245      2534      2625      2674
 -1      6865    3    0    1
 -2       529       528      2054      2674
 -1      6866    3    0    1
 -2      2227      2295      2301      2663
 -1      6867    3    0    1
 -2       897       900      2295      2663
 -1      6868    3    0    1
 -2      2199      1347      2275      2690
 -1      6869    3    0    1
 -2      2600      2496      2320      2700
 -1      6870    3    0    1
 -2      1288      2241      2242      2256
 -1      6871    3    0    1
 -2      1298      2573      1313      2696
 -1      6872    3    0    1
 -2      2528      2490      2583      2634
 -1      6873    3    0    1
 -2      2490      2543      2583      2634
 -1      6874    3    0    1
 -2      1123      2522      1282      2739
 -1      6875    3    0    1
 -2      2580      2667      2736      2751
 -1      6876    3    0    1
 -2      2568      1259      1388      2625
 -1      6877    3    0    1
 -2      2199      2188      2555      2275
 -1      6878    3    0    1
 -2      1480       372      1484      2429
 -1      6879    3    0    1
 -2      2532      2187      2197      2309
 -1      6880    3    0    1
 -2      2214        70      2589      1406
 -1      6881    3    0    1
 -2      1332      1438      1447      2465
 -1      6882    3    0    1
 -2      2595      2676      1454      2722
 -1      6883    3    0    1
 -2      2587      2645      2679      2709
 -1      6884    3    0    1
 -2      2187      2532      2197      2290
 -1      6885    3    0    1
 -2      1303       115      2218      2258
 -1      6886    3    0    1
 -2       115       111       733      2258
 -1      6887    3    0    1
 -2       735       111      2232      2258
 -1      6888    3    0    1
 -2      2614      1458      2713      2717
 -1      6889    3    0    1
 -2      2291      1343      1409      2307
 -1      6890    3    0    1
 -2       115       733      2218      2258
 -1      6891    3    0    1
 -2       733       111       735      2258
 -1      6892    3    0    1
 -2      1296      1354      2605      2609
 -1      6893    3    0    1
 -2      2488      2586      2640      2683
 -1      6894    3    0    1
 -2      1859      2138      2493      2683
 -1      6895    3    0    1
 -2      2234       745      2259      2261
 -1      6896    3    0    1
 -2       156       745      2234      2261
 -1      6897    3    0    1
 -2      2547      2500      2665      2734
 -1      6898    3    0    1
 -2      2509      2158      2211      2613
 -1      6899    3    0    1
 -2      2509      2211      2576      2613
 -1      6900    3    0    1
 -2      1493      1394      1324      2742
 -1      6901    3    0    1
 -2      1415      1488      2741      2451
 -1      6902    3    0    1
 -2      2693       437      1493      2742
 -1      6903    3    0    1
 -2      2581      2531      2588      2613
 -1      6904    3    0    1
 -2      2509      2160      2530      2613
 -1      6905    3    0    1
 -2      1265      2549      1335      2621
 -1      6906    3    0    1
 -2      1318      2553      1319      2620
 -1      6907    3    0    1
 -2      1253      1378      2717      2473
 -1      6908    3    0    1
 -2      1253      1254      2569      1378
 -1      6909    3    0    1
 -2      2585      1227      1367      2656
 -1      6910    3    0    1
 -2       153      1255      2234      2259
 -1      6911    3    0    1
 -2       745       549       743      2259
 -1      6912    3    0    1
 -2       549      2261       745       550
 -1      6913    3    0    1
 -2      1305      2232      2258      2283
 -1      6914    3    0    1
 -2      1296      1354      2609      1377
 -1      6915    3    0    1
 -2      1317      1296      2609      1377
 -1      6916    3    0    1
 -2      1315      2614      2271      1458
 -1      6917    3    0    1
 -2      1462      1390      1474      2732
 -1      6918    3    0    1
 -2      2267      2643      2359      2401
 -1      6919    3    0    1
 -2       552      1018       553      2261
 -1      6920    3    0    1
 -2       553       549       552      2261
 -1      6921    3    0    1
 -2      1328       156      2234      2261
 -1      6922    3    0    1
 -2       553      1018      2259      2261
 -1      6923    3    0    1
 -2       549       553      2259      2261
 -1      6924    3    0    1
 -2      2321      2577      2336      2353
 -1      6925    3    0    1
 -2      2294      2250      2689      2759
 -1      6926    3    0    1
 -2      2548      2488      2639      2694
 -1      6927    3    0    1
 -2      2516      2538      2563      2623
 -1      6928    3    0    1
 -2      2183      2560      2572      2713
 -1      6929    3    0    1
 -2      2546      2533      2710      2713
 -1      6930    3    0    1
 -2      1428      1364      1432      2388
 -1      6931    3    0    1
 -2      1067      1069       589      2262
 -1      6932    3    0    1
 -2      2230       764       583      2262
 -1      6933    3    0    1
 -2       589       583       582      2262
 -1      6934    3    0    1
 -2       588      1067       589      2262
 -1      6935    3    0    1
 -2       589       582       588      2262
 -1      6936    3    0    1
 -2       582       583       764      2262
 -1      6937    3    0    1
 -2      1308       200      2220      2262
 -1      6938    3    0    1
 -2       764      2230       583      1059
 -1      6939    3    0    1
 -2       589      1069      2230      2262
 -1      6940    3    0    1
 -2       583       589      2230      2262
 -1      6941    3    0    1
 -2      1248      1324      2654      2338
 -1      6942    3    0    1
 -2      1481      2667      2714      2745
 -1      6943    3    0    1
 -2      2258      2260      2398      2754
 -1      6944    3    0    1
 -2      2557      2594      1437      2364
 -1      6945    3    0    1
 -2      2342      2271      2698      2410
 -1      6946    3    0    1
 -2      2602      2627      2658      2732
 -1      6947    3    0    1
 -2      1265      2549      1437      2716
 -1      6948    3    0    1
 -2      2241      1264      2606      2264
 -1      6949    3    0    1
 -2      2578      2595      2612      1426
 -1      6950    3    0    1
 -2       198       358      2377      2697
 -1      6951    3    0    1
 -2      2549      2557      1437      2716
 -1      6952    3    0    1
 -2      2530      2564      2579      2613
 -1      6953    3    0    1
 -2       465       466       468      2287
 -1      6954    3    0    1
 -2      1323      1324      1393      2638
 -1      6955    3    0    1
 -2      2298      2594      2364      2399
 -1      6956    3    0    1
 -2      1324      1323      2633      2638
 -1      6957    3    0    1
 -2      1403      1331      1476      2439
 -1      6958    3    0    1
 -2       388      1516      2459      2763
 -1      6959    3    0    1
 -2      2577      2608      2673      2353
 -1      6960    3    0    1
 -2      2158      1285      2211      2613
 -1      6961    3    0    1
 -2       465       468       469      2287
 -1      6962    3    0    1
 -2      1285      2158      2208      2613
 -1      6963    3    0    1
 -2      2711       379      2756      2738
 -1      6964    3    0    1
 -2      2200      2586      2308      2666
 -1      6965    3    0    1
 -2      2548      1332      1333      2617
 -1      6966    3    0    1
 -2      2570      2564      2613      2692
 -1      6967    3    0    1
 -2        41       389      2252      2615
 -1      6968    3    0    1
 -2      2619      2668      2711      2756
 -1      6969    3    0    1
 -2      2200      2586      2288      2308
 -1      6970    3    0    1
 -2        41       389      2615      2665
 -1      6971    3    0    1
 -2      2488      1221      2537      2616
 -1      6972    3    0    1
 -2      1221      2488      1233      2616
 -1      6973    3    0    1
 -2      1334      2537      2606      2616
 -1      6974    3    0    1
 -2      2537      1221      2606      2616
 -1      6975    3    0    1
 -2      1334      2606      2264      2616
 -1      6976    3    0    1
 -2      2646      2723      2430      2455
 -1      6977    3    0    1
 -2       727      2216      2219      2265
 -1      6978    3    0    1
 -2      1466      1430      1469      2740
 -1      6979    3    0    1
 -2      2533      1235      2546      2710
 -1      6980    3    0    1
 -2      1495      1301      2427      2454
 -1      6981    3    0    1
 -2      2618      2657      2715      2740
 -1      6982    3    0    1
 -2      2373      2678      2391      2415
 -1      6983    3    0    1
 -2      2542      2511      2596      2677
 -1      6984    3    0    1
 -2      1350      2207      2603      1413
 -1      6985    3    0    1
 -2       505       500      2219      2265
 -1      6986    3    0    1
 -2       941       505      2219      2265
 -1      6987    3    0    1
 -2      2219      2216      2247      2265
 -1      6988    3    0    1
 -2      2247      2216      2248      2265
 -1      6989    3    0    1
 -2      1255      2234      2259      2268
 -1      6990    3    0    1
 -2      2219       500       727      2265
 -1      6991    3    0    1
 -2        85      1228      2216      2265
 -1      6992    3    0    1
 -2       727       500       725      2265
 -1      6993    3    0    1
 -2       500      2219       727       501
 -1      6994    3    0    1
 -2      2666      2308      1447      2380
 -1      6995    3    0    1
 -2       437      2693      1490      2742
 -1      6996    3    0    1
 -2      2610      2675      2693      2742
 -1      6997    3    0    1
 -2      1321      2618      1429      1430
 -1      6998    3    0    1
 -2      1298      1313      1426      2696
 -1      6999    3    0    1
 -2      2183      2503      2560      2713
 -1      7000    3    0    1
 -2      2289      1377      2647      2346
 -1      7001    3    0    1
 -2      1419      2322      2324      2367
 -1      7002    3    0    1
 -2      1385      2277      2431      2456
 -1      7003    3    0    1
 -2       480       900       481      2295
 -1      7004    3    0    1
 -2      2208      1285      2579      1387
 -1      7005    3    0    1
 -2      2295       478       885       477
 -1      7006    3    0    1
 -2      2553      2592      2636      2688
 -1      7007    3    0    1
 -2      2312      2299      2670      2403
 -1      7008    3    0    1
 -2      1321      1430      2695      2740
 -1      7009    3    0    1
 -2      1330      1250      1331      2665
 -1      7010    3    0    1
 -2      1226      1265      1335      2621
 -1      7011    3    0    1
 -2      1226      2247      2248      2621
 -1      7012    3    0    1
 -2       941       938      2144      2621
 -1      7013    3    0    1
 -2      2479      1968      2144      2621
 -1      7014    3    0    1
 -2       938      2479      2144      2621
 -1      7015    3    0    1
 -2      2219       941      2265      2621
 -1      7016    3    0    1
 -2      2247      2219      2265      2621
 -1      7017    3    0    1
 -2      2252        41      2615      1413
 -1      7018    3    0    1
 -2      2486       941      2144      2621
 -1      7019    3    0    1
 -2      1968      2486      2144      2621
 -1      7020    3    0    1
 -2      1103      1105      2245      2659
 -1      7021    3    0    1
 -2      1360      2602      1390      2732
 -1      7022    3    0    1
 -2      2549      2594      2535      2621
 -1      7023    3    0    1
 -2      2594      2549      2535      2557
 -1      7024    3    0    1
 -2      1458      2698      2410      1516
 -1      7025    3    0    1
 -2      1376      1326      2645      2679
 -1      7026    3    0    1
 -2      2358      1282      2384      2721
 -1      7027    3    0    1
 -2      2646      2364      2399      2430
 -1      7028    3    0    1
 -2      1226       938      2247      2621
 -1      7029    3    0    1
 -2       941      1244      2265      2621
 -1      7030    3    0    1
 -2       938      2219      2247      2621
 -1      7031    3    0    1
 -2      1295      1401      1402      2367
 -1      7032    3    0    1
 -2      1401      1295      2324      2367
 -1      7033    3    0    1
 -2      1357      1283      2393      2766
 -1      7034    3    0    1
 -2      1354      2319      2318      2330
 -1      7035    3    0    1
 -2      1280      2199      2321      2690
 -1      7036    3    0    1
 -2       952       959      2327      2680
 -1      7037    3    0    1
 -2      1297      2533      2585      2722
 -1      7038    3    0    1
 -2      2327      2329      2680      2366
 -1      7039    3    0    1
 -2      1235      2263      2635      2710
 -1      7040    3    0    1
 -2       378      1424      1454      2722
 -1      7041    3    0    1
 -2       198       358      2697      2715
 -1      7042    3    0    1
 -2      2527      2201      2593      2622
 -1      7043    3    0    1
 -2      2226      2223      2263      2635
 -1      7044    3    0    1
 -2      2548      2617      2681      2694
 -1      7045    3    0    1
 -2      1674      2064      2495      2622
 -1      7046    3    0    1
 -2      2495      2064      2527      2622
 -1      7047    3    0    1
 -2      2064      1674      2491      2622
 -1      7048    3    0    1
 -2      2491      2514      2201      2622
 -1      7049    3    0    1
 -2      2562      1342      2622      1256
 -1      7050    3    0    1
 -2      2514      2562      2599      2622
 -1      7051    3    0    1
 -2      2254      2331      2394      2395
 -1      7052    3    0    1
 -2      2201      2222      2593      2622
 -1      7053    3    0    1
 -2      2527      2491      2064      2110
 -1      7054    3    0    1
 -2      2491      2527      2064      2622
 -1      7055    3    0    1
 -2      2514      1256      2196      2622
 -1      7056    3    0    1
 -2      2514      2196      2201      2622
 -1      7057    3    0    1
 -2      1256      2514      1342      2622
 -1      7058    3    0    1
 -2      1342      2514      2599      2622
 -1      7059    3    0    1
 -2      2201      1256      2222      2622
 -1      7060    3    0    1
 -2      2196      1256      2201      2622
 -1      7061    3    0    1
 -2      1508       440      1510      2472
 -1      7062    3    0    1
 -2      2571      1340      1341      2685
 -1      7063    3    0    1
 -2      1406      2575      2684      2685
 -1      7064    3    0    1
 -2      1404      1340      2648      2685
 -1      7065    3    0    1
 -2        70      2589      1406      2685
 -1      7066    3    0    1
 -2      1340      2571      2648      2685
 -1      7067    3    0    1
 -2      2475      2550      2604      2624
 -1      7068    3    0    1
 -2      2516      2475      2604      2624
 -1      7069    3    0    1
 -2      2475      2518      2550      2624
 -1      7070    3    0    1
 -2      2475      2516      2518      2624
 -1      7071    3    0    1
 -2       271      2226      1385      2273
 -1      7072    3    0    1
 -2       271       786      1131      2273
 -1      7073    3    0    1
 -2       271       279      2226      2273
 -1      7074    3    0    1
 -2       279       271      1131      2273
 -1      7075    3    0    1
 -2       279      1131      2223      2273
 -1      7076    3    0    1
 -2      2524      2526      1259      2625
 -1      7077    3    0    1
 -2      2060      2146      2568      2752
 -1      7078    3    0    1
 -2      1301      2534      2580      2625
 -1      7079    3    0    1
 -2      2089      2521      2542      2677
 -1      7080    3    0    1
 -2      2389      1445      2398      2427
 -1      7081    3    0    1
 -2      1367      2656      1454      2722
 -1      7082    3    0    1
 -2      2616      1233      2405      2406
 -1      7083    3    0    1
 -2      1367      2578      2656      2360
 -1      7084    3    0    1
 -2      2606      2205      2264      2284
 -1      7085    3    0    1
 -2      1103      1283      2659      2766
 -1      7086    3    0    1
 -2      2133      2511      2542      2677
 -1      7087    3    0    1
 -2      1426      1298      2385      2417
 -1      7088    3    0    1
 -2      2667      1383      1481      1482
 -1      7089    3    0    1
 -2      1341      1309      1406      2413
 -1      7090    3    0    1
 -2      2594      2298      2646      2399
 -1      7091    3    0    1
 -2      2567      2529      2673      2677
 -1      7092    3    0    1
 -2      1376      1460      1463      2709
 -1      7093    3    0    1
 -2      2503      2569      2614      2713
 -1      7094    3    0    1
 -2      1426       375      2339      2676
 -1      7095    3    0    1
 -2      2089      2542      2276      2677
 -1      7096    3    0    1
 -2      1380      2268      2280      2679
 -1      7097    3    0    1
 -2      2329      1284      2680      2370
 -1      7098    3    0    1
 -2      1393      1324      1394      2638
 -1      7099    3    0    1
 -2       371       234      1370      2628
 -1      7100    3    0    1
 -2       234      1369      1370      2628
 -1      7101    3    0    1
 -2      2210      2600      2320      2334
 -1      7102    3    0    1
 -2      1275      1281      2639      2719
 -1      7103    3    0    1
 -2      2543      1231      2601      2679
 -1      7104    3    0    1
 -2      1244      2265      2621      2297
 -1      7105    3    0    1
 -2      2275      2228      2636      1412
 -1      7106    3    0    1
 -2      1459      1375      1471      2729
 -1      7107    3    0    1
 -2       172       352      1428      2662
 -1      7108    3    0    1
 -2      2555      2188      2228      2275
 -1      7109    3    0    1
 -2      2553      2620      2636      2664
 -1      7110    3    0    1
 -2      1049      1051      2255      2678
 -1      7111    3    0    1
 -2      2374      2650      2377      2697
 -1      7112    3    0    1
 -2      1375      1376      2652      2727
 -1      7113    3    0    1
 -2      1228      2216      2265      2297
 -1      7114    3    0    1
 -2      1318      2553      2620      2630
 -1      7115    3    0    1
 -2      2573      1298      2612      2696
 -1      7116    3    0    1
 -2      2511      2559      2596      2699
 -1      7117    3    0    1
 -2      2138      2062      2493      2719
 -1      7118    3    0    1
 -2      1284      2561      1346      2720
 -1      7119    3    0    1
 -2      2228      2556      2592      2664
 -1      7120    3    0    1
 -2      2220      1308      2272      2313
 -1      7121    3    0    1
 -2      1321      1271      2695      2755
 -1      7122    3    0    1
 -2      1277      2517      2553      2630
 -1      7123    3    0    1
 -2      1416      2691      1479      1480
 -1      7124    3    0    1
 -2      1121      1234      2585      2744
 -1      7125    3    0    1
 -2      2517      1239      2554      2630
 -1      7126    3    0    1
 -2      1239      2517      1277      2630
 -1      7127    3    0    1
 -2      2283      2258      2362      2754
 -1      7128    3    0    1
 -2      2567      2485      2677      2678
 -1      7129    3    0    1
 -2      2721      1518      2669      2756
 -1      7130    3    0    1
 -2      1449       218      2406      2435
 -1      7131    3    0    1
 -2      2072      2490      2528      2634
 -1      7132    3    0    1
 -2      1223      2478      2500      2687
 -1      7133    3    0    1
 -2      2709      1463      2724      2412
 -1      7134    3    0    1
 -2      1306      2597      2651      2741
 -1      7135    3    0    1
 -2      2442         1      2459      2763
 -1      7136    3    0    1
 -2      1463      2304      2724      2412
 -1      7137    3    0    1
 -2      1279      2556      2601      2737
 -1      7138    3    0    1
 -2      1442      2385      2417      1509
 -1      7139    3    0    1
 -2      2535      1306      2597      2651
 -1      7140    3    0    1
 -2      1131      2223      2273      2635
 -1      7141    3    0    1
 -2      2668      2579      2692      2753
 -1      7142    3    0    1
 -2      2550      2486      2604      2651
 -1      7143    3    0    1
 -2      2384      2358      2721      2448
 -1      7144    3    0    1
 -2      1483       107      1506      2416
 -1      7145    3    0    1
 -2      2612      1316      1426      2696
 -1      7146    3    0    1
 -2      1271      2493      2559      2632
 -1      7147    3    0    1
 -2      2610      2544      2638      2654
 -1      7148    3    0    1
 -2      2576      2613      1401      1402
 -1      7149    3    0    1
 -2      1276      2227      2301      2323
 -1      7150    3    0    1
 -2      1295      2605      2653      2581
 -1      7151    3    0    1
 -2      2270       952      2329      2680
 -1      7152    3    0    1
 -2      1225      2561      1346      2680
 -1      7153    3    0    1
 -2      2274      2251      2348      2707
 -1      7154    3    0    1
 -2      1302      1383      2667      2751
 -1      7155    3    0    1
 -2      2375      2378      2707      2411
 -1      7156    3    0    1
 -2      2514      2547      2687      2718
 -1      7157    3    0    1
 -2      2559      2677      2678      2699
 -1      7158    3    0    1
 -2      2731      1379      1513      2762
 -1      7159    3    0    1
 -2      1407      2582      2356      2720
 -1      7160    3    0    1
 -2      1034      2294      2689      2759
 -1      7161    3    0    1
 -2      2661      1428      2662      1446
 -1      7162    3    0    1
 -2       862       860      2584      2749
 -1      7163    3    0    1
 -2         2       706       851      2278
 -1      7164    3    0    1
 -2         2        11       706      2278
 -1      7165    3    0    1
 -2       198      2377      1469      2697
 -1      7166    3    0    1
 -2      2238      2235      2243      2659
 -1      7167    3    0    1
 -2      2542      2596      2632      1398
 -1      7168    3    0    1
 -2      1322      2596      2650      2699
 -1      7169    3    0    1
 -2      2496      2210      2600      2320
 -1      7170    3    0    1
 -2      2151      2528      2279      2700
 -1      7171    3    0    1
 -2      2636      2275      1412      2326
 -1      7172    3    0    1
 -2      2583      2528      2634      2700
 -1      7173    3    0    1
 -2      1550      2109      2528      2634
 -1      7174    3    0    1
 -2      2334      2627      1462      2701
 -1      7175    3    0    1
 -2      2337      2334      1462      2701
 -1      7176    3    0    1
 -2      2204      2254      2331      2394
 -1      7177    3    0    1
 -2      1410       173      1433      2688
 -1      7178    3    0    1
 -2      2304      2365      2724      2412
 -1      7179    3    0    1
 -2      2334      2337      1436      2701
 -1      7180    3    0    1
 -2      2490       998      1230      2634
 -1      7181    3    0    1
 -2      1839      2109      2506      2634
 -1      7182    3    0    1
 -2      2109      1839      2490      2634
 -1      7183    3    0    1
 -2      2506       998      1000      1839
 -1      7184    3    0    1
 -2      2340      2409      2440      2758
 -1      7185    3    0    1
 -2      2506      2706       998      2634
 -1      7186    3    0    1
 -2      1839       998      2490      2634
 -1      7187    3    0    1
 -2      1236      2217      2239      2293
 -1      7188    3    0    1
 -2      2691        57      2741      1479
 -1      7189    3    0    1
 -2      2522      1123      2541      2739
 -1      7190    3    0    1
 -2      2270      2354      2425      2760
 -1      7191    3    0    1
 -2      1253      1139      2273      2635
 -1      7192    3    0    1
 -2      1141      1235      2223      2635
 -1      7193    3    0    1
 -2       637      1141      2223      2635
 -1      7194    3    0    1
 -2      1253      2273      2277      2635
 -1      7195    3    0    1
 -2      1139       636      2273      2635
 -1      7196    3    0    1
 -2      2223      1235      2263      2635
 -1      7197    3    0    1
 -2       636       629      2273      2635
 -1      7198    3    0    1
 -2       630       637      2223      2635
 -1      7199    3    0    1
 -2       629       786      2273      2635
 -1      7200    3    0    1
 -2      1131       630      2223      2635
 -1      7201    3    0    1
 -2       629       630       786      2635
 -1      7202    3    0    1
 -2       786       630      1131      2635
 -1      7203    3    0    1
 -2      1265      2549      2621      1437
 -1      7204    3    0    1
 -2      2712      2695      1275      2632
 -1      7205    3    0    1
 -2      2565      1359      2602      2637
 -1      7206    3    0    1
 -2      2600      2565      2602      2637
 -1      7207    3    0    1
 -2      1362      2274      2348      2375
 -1      7208    3    0    1
 -2      1311      2270      2329      2354
 -1      7209    3    0    1
 -2      2559      2511      2677      2699
 -1      7210    3    0    1
 -2      2358      2311      1457      2384
 -1      7211    3    0    1
 -2      2646      2298      1488      2399
 -1      7212    3    0    1
 -2      1363      1241      2673      2678
 -1      7213    3    0    1
 -2      2602      1360      2631      2732
 -1      7214    3    0    1
 -2      2282      1299      2285      2325
 -1      7215    3    0    1
 -2      2652      1376      2709      2727
 -1      7216    3    0    1
 -2      2251      2678      2373      2707
 -1      7217    3    0    1
 -2      1410      2620      1411      2660
 -1      7218    3    0    1
 -2      2631      1360      1462      2732
 -1      7219    3    0    1
 -2      1318      1277      1433      2464
 -1      7220    3    0    1
 -2       625       624      1123      2286
 -1      7221    3    0    1
 -2       617       624       625      2286
 -1      7222    3    0    1
 -2       254      1384      2282      2286
 -1      7223    3    0    1
 -2      1113       617       618      2286
 -1      7224    3    0    1
 -2      1307      2597      1416      2746
 -1      7225    3    0    1
 -2      1113      2246       617      2286
 -1      7226    3    0    1
 -2      1121       624      2246      2286
 -1      7227    3    0    1
 -2      2671      2626      1495      2745
 -1      7228    3    0    1
 -2       624       617      2246      2286
 -1      7229    3    0    1
 -2      1248      1324      2633      2654
 -1      7230    3    0    1
 -2      2584      2593      1400      2654
 -1      7231    3    0    1
 -2       878      1224      2562      2750
 -1      7232    3    0    1
 -2      2207      2603      2252      1403
 -1      7233    3    0    1
 -2       389      2252      2615      1403
 -1      7234    3    0    1
 -2        28      1229      2225      2287
 -1      7235    3    0    1
 -2       466       465       713      2287
 -1      7236    3    0    1
 -2       713      2237       466      2287
 -1      7237    3    0    1
 -2       468       466      2237      2287
 -1      7238    3    0    1
 -2       878       468      2237      2287
 -1      7239    3    0    1
 -2      1333      2617      1438      1439
 -1      7240    3    0    1
 -2      2667      1482      2714      2751
 -1      7241    3    0    1
 -2      2544      2584      2633      2654
 -1      7242    3    0    1
 -2      2584      1248      2633      2654
 -1      7243    3    0    1
 -2      1508      1444      1510      2753
 -1      7244    3    0    1
 -2      2562      1224      2599      2750
 -1      7245    3    0    1
 -2      1383      1382      2667      1481
 -1      7246    3    0    1
 -2      2654      1493      2593      1400
 -1      7247    3    0    1
 -2      2285      2349      2397      2744
 -1      7248    3    0    1
 -2      2670      2693      1493      2742
 -1      7249    3    0    1
 -2      2531      2537      2609      2683
 -1      7250    3    0    1
 -2      2523      2088      2193      2682
 -1      7251    3    0    1
 -2      2227      2301      2323      2764
 -1      7252    3    0    1
 -2      1227      2656      2669      2360
 -1      7253    3    0    1
 -2      2093      2168      2682      2683
 -1      7254    3    0    1
 -2      1231      1018      2601      2643
 -1      7255    3    0    1
 -2       917       920       493      2686
 -1      7256    3    0    1
 -2      2556      1279      2601      2641
 -1      7257    3    0    1
 -2      1219      2684      1294      2550
 -1      7258    3    0    1
 -2      1405        70      1406      2685
 -1      7259    3    0    1
 -2       383      1404      2648      2685
 -1      7260    3    0    1
 -2      2550      1294      2624      2684
 -1      7261    3    0    1
 -2      1258      2518      2571      2684
 -1      7262    3    0    1
 -2      2571      2575      2648      2685
 -1      7263    3    0    1
 -2      2571      1341      2684      2685
 -1      7264    3    0    1
 -2      2571      2518      2624      2684
 -1      7265    3    0    1
 -2      1258      2571      1341      2684
 -1      7266    3    0    1
 -2      2575      2589      2648      2685
 -1      7267    3    0    1
 -2      2575      2571      2684      2685
 -1      7268    3    0    1
 -2      2589       383      2648      2685
 -1      7269    3    0    1
 -2      2575      2571      2624      2684
 -1      7270    3    0    1
 -2      2684      1219      1294      1258
 -1      7271    3    0    1
 -2      1249      2500      1250      2665
 -1      7272    3    0    1
 -2      2296      1289      2305      2340
 -1      7273    3    0    1
 -2      2551      2556      2601      2641
 -1      7274    3    0    1
 -2      2551      2517      2556      2641
 -1      7275    3    0    1
 -2      1240      2517      2551      2641
 -1      7276    3    0    1
 -2      1240      2551      2601      2641
 -1      7277    3    0    1
 -2      2660      2636      1433      2688
 -1      7278    3    0    1
 -2      2520      2561      2644      2743
 -1      7279    3    0    1
 -2      2647      2588      2346      2733
 -1      7280    3    0    1
 -2      1249      1223      2687      2764
 -1      7281    3    0    1
 -2      1395      1352      2634      2642
 -1      7282    3    0    1
 -2       900      2478      2563      2705
 -1      7283    3    0    1
 -2      1481       355      1495      2745
 -1      7284    3    0    1
 -2      1304      2238      2243      2310
 -1      7285    3    0    1
 -2      2274      2375      2378      2707
 -1      7286    3    0    1
 -2      2551      1240      2601      2643
 -1      7287    3    0    1
 -2      1016      2551      2601      2643
 -1      7288    3    0    1
 -2      2233      1024      2250      2689
 -1      7289    3    0    1
 -2      2518      1257      2571      2648
 -1      7290    3    0    1
 -2       368      2629      2355      2356
 -1      7291    3    0    1
 -2      2636       173      2660      1433
 -1      7292    3    0    1
 -2      2255      2244      2678      2707
 -1      7293    3    0    1
 -2      2583      1395      2634      2642
 -1      7294    3    0    1
 -2      2587      2583      2634      2642
 -1      7295    3    0    1
 -2       198      1465      1469      1500
 -1      7296    3    0    1
 -2      2596      2559      2618      2699
 -1      7297    3    0    1
 -2      1314      1322      2348      2707
 -1      7298    3    0    1
 -2      2200      2586      2666      2694
 -1      7299    3    0    1
 -2      2613      1401      1402      2653
 -1      7300    3    0    1
 -2      2588      2613      1402      2653
 -1      7301    3    0    1
 -2      1270      2559      2678      2707
 -1      7302    3    0    1
 -2      2559      1270      2699      2707
 -1      7303    3    0    1
 -2      1270      1049      2244      2707
 -1      7304    3    0    1
 -2      1413        41      1475      2470
 -1      7305    3    0    1
 -2      2247      1226      2248      2303
 -1      7306    3    0    1
 -2      1267      1338      1349      2303
 -1      7307    3    0    1
 -2      2514      2563      1350      2687
 -1      7308    3    0    1
 -2      2581      2588      2609      2647
 -1      7309    3    0    1
 -2      1354      2609      1377      2647
 -1      7310    3    0    1
 -2      1423      2407      2444      2445
 -1      7311    3    0    1
 -2      2576      1317      2609      2647
 -1      7312    3    0    1
 -2      2605      2581      2609      2647
 -1      7313    3    0    1
 -2      2609      2588      2576      2647
 -1      7314    3    0    1
 -2       371      1373      2319      2330
 -1      7315    3    0    1
 -2      2263      1329      2266      2341
 -1      7316    3    0    1
 -2      1339      1279      2641      2643
 -1      7317    3    0    1
 -2      1240      1278      2641      2643
 -1      7318    3    0    1
 -2      1240      2261      2267      2643
 -1      7319    3    0    1
 -2      1240      1016      2261      2643
 -1      7320    3    0    1
 -2      1018      1231      2259      2643
 -1      7321    3    0    1
 -2      1279      2234      2268      2643
 -1      7322    3    0    1
 -2      1380      1279      2268      2643
 -1      7323    3    0    1
 -2      2572      2530      2669      2360
 -1      7324    3    0    1
 -2       172      2672      1446      2351
 -1      7325    3    0    1
 -2      1252        47      1276      2295
 -1      7326    3    0    1
 -2       885        47      1252      2295
 -1      7327    3    0    1
 -2       885      2206       478      2295
 -1      7328    3    0    1
 -2       897       480      2206      2295
 -1      7329    3    0    1
 -2      2695      2712      1275      2755
 -1      7330    3    0    1
 -2       480       478      2206      2295
 -1      7331    3    0    1
 -2      2636      2620      2660      2664
 -1      7332    3    0    1
 -2      1356      2384      2448      2471
 -1      7333    3    0    1
 -2      2690      2521      2529      2703
 -1      7334    3    0    1
 -2      2487      1638      2183      2713
 -1      7335    3    0    1
 -2      1278      1319      2641      1412
 -1      7336    3    0    1
 -2      2631      1374      2407      2747
 -1      7337    3    0    1
 -2      2738      1518      2449      2469
 -1      7338    3    0    1
 -2      2141      2572      2215      2360
 -1      7339    3    0    1
 -2      2234      1328      2267      2359
 -1      7340    3    0    1
 -2      1279      2234      2643      2359
 -1      7341    3    0    1
 -2      1329      2266      2341      2385
 -1      7342    3    0    1
 -2        41      2665      1475      1476
 -1      7343    3    0    1
 -2      1406      1309      2395      2413
 -1      7344    3    0    1
 -2      1346      1284      2720      2422
 -1      7345    3    0    1
 -2      2542      2596      2300      2650
 -1      7346    3    0    1
 -2      2245      1103      2659      2766
 -1      7347    3    0    1
 -2      2542      2596      1398      2300
 -1      7348    3    0    1
 -2      1365      2247      2248      2303
 -1      7349    3    0    1
 -2      2235      2238      2245      2659
 -1      7350    3    0    1
 -2      1423      2352      2369      2407
 -1      7351    3    0    1
 -2      2226      1385      2277      2431
 -1      7352    3    0    1
 -2      1270      2274      2378      2707
 -1      7353    3    0    1
 -2      1324      1248      1414      2338
 -1      7354    3    0    1
 -2      2310      2243      2322      2659
 -1      7355    3    0    1
 -2      2238      2243      2310      2659
 -1      7356    3    0    1
 -2      2401      1412      2641      2402
 -1      7357    3    0    1
 -2      1237      1105      2570      2659
 -1      7358    3    0    1
 -2      2534      2520      2574      2644
 -1      7359    3    0    1
 -2      1246      2534      2574      2644
 -1      7360    3    0    1
 -2      2520      1246      2574      2644
 -1      7361    3    0    1
 -2      1326      1325      1375      2645
 -1      7362    3    0    1
 -2      1231      1325      1326      2645
 -1      7363    3    0    1
 -2      1326      1375      1376      2645
 -1      7364    3    0    1
 -2      1231      1230      1325      2645
 -1      7365    3    0    1
 -2      1295      2570      2581      2653
 -1      7366    3    0    1
 -2      2588      2581      2613      2653
 -1      7367    3    0    1
 -2      2276      2542      2300      2302
 -1      7368    3    0    1
 -2      1306      1307      2597      1415
 -1      7369    3    0    1
 -2       851         2      2278      2314
 -1      7370    3    0    1
 -2      2280      2679      2396      2421
 -1      7371    3    0    1
 -2      1307      2597      1415      1416
 -1      7372    3    0    1
 -2      2251      2255      2678      2707
 -1      7373    3    0    1
 -2      2584      1248      2654      2749
 -1      7374    3    0    1
 -2      2373      2391      1434      2415
 -1      7375    3    0    1
 -2      2670      2299      1493      2403
 -1      7376    3    0    1
 -2      2517      2556      2641      2664
 -1      7377    3    0    1
 -2      2517      2553      2592      2664
 -1      7378    3    0    1
 -2      2391      1434      2415      2436
 -1      7379    3    0    1
 -2      1322      2650      1421      2699
 -1      7380    3    0    1
 -2      1428       172      2662      1446
 -1      7381    3    0    1
 -2      1326      1231      2645      2679
 -1      7382    3    0    1
 -2      2678      2348      2373      2707
 -1      7383    3    0    1
 -2      2227      2323      2663      2764
 -1      7384    3    0    1
 -2      1319      2553      2641      2664
 -1      7385    3    0    1
 -2      1514      1467      1516      2748
 -1      7386    3    0    1
 -2      2556      2517      2592      2664
 -1      7387    3    0    1
 -2      1226      1267      1335      2303
 -1      7388    3    0    1
 -2      1226      1335      2248      2303
 -1      7389    3    0    1
 -2      1335      1267      1349      2303
 -1      7390    3    0    1
 -2      1349      1365      2248      2303
 -1      7391    3    0    1
 -2      1335      1349      2248      2303
 -1      7392    3    0    1
 -2      1401      1295      1402      2653
 -1      7393    3    0    1
 -2      2424      2400      2457      2755
 -1      7394    3    0    1
 -2      1821      2104      2485      2371
 -1      7395    3    0    1
 -2      1319      2641      1412      2664
 -1      7396    3    0    1
 -2      1394      1490      1493      2437
 -1      7397    3    0    1
 -2      2376      1420      2450      2452
 -1      7398    3    0    1
 -2      2658      2627      2701      2732
 -1      7399    3    0    1
 -2      2348      1322      2375      2707
 -1      7400    3    0    1
 -2      2348      2251      2373      2707
 -1      7401    3    0    1
 -2      1049      1270      2678      2707
 -1      7402    3    0    1
 -2      1289       132      2296      2305
 -1      7403    3    0    1
 -2      1412      2636      2660      2664
 -1      7404    3    0    1
 -2      1339      2556      2228      2664
 -1      7405    3    0    1
 -2      1322      1314      2678      2707
 -1      7406    3    0    1
 -2      2060      2187      2716      2752
 -1      7407    3    0    1
 -2      2200      2666      1447      2694
 -1      7408    3    0    1
 -2      2605      1354      1370      2647
 -1      7409    3    0    1
 -2      1370      1354      1377      2647
 -1      7410    3    0    1
 -2      2605      1370      2628      2647
 -1      7411    3    0    1
 -2      1370       371      2628      2647
 -1      7412    3    0    1
 -2       371      1370      1377      2647
 -1      7413    3    0    1
 -2      1377      1317      2289      2647
 -1      7414    3    0    1
 -2      2554      1242      2661      2689
 -1      7415    3    0    1
 -2      2575      2566      2623      2648
 -1      7416    3    0    1
 -2        82       368      2629      2355
 -1      7417    3    0    1
 -2      1310      1257      1340      2357
 -1      7418    3    0    1
 -2      1340      1310      1404      2648
 -1      7419    3    0    1
 -2      1310      2566      2589      2648
 -1      7420    3    0    1
 -2      2566      2575      2589      2648
 -1      7421    3    0    1
 -2      1310       383      1404      2648
 -1      7422    3    0    1
 -2       383      1310      2589      2648
 -1      7423    3    0    1
 -2      1314      2348      2678      2707
 -1      7424    3    0    1
 -2      1320      1421      2699      2707
 -1      7425    3    0    1
 -2      1322      2678      2699      2707
 -1      7426    3    0    1
 -2      2678      2559      2699      2707
 -1      7427    3    0    1
 -2      2274      2348      2375      2707
 -1      7428    3    0    1
 -2      1262      1350      2687      2764
 -1      7429    3    0    1
 -2      1496      1307      1416      2746
 -1      7430    3    0    1
 -2      1366      2285      2349      2397
 -1      7431    3    0    1
 -2      1310      1404      1409      2357
 -1      7432    3    0    1
 -2      2291      1257      2307      2357
 -1      7433    3    0    1
 -2      1303      2260      1445      2398
 -1      7434    3    0    1
 -2      1304      2243      1371      2310
 -1      7435    3    0    1
 -2      2395      1258      2413      1309
 -1      7436    3    0    1
 -2      2567      1364      2607      2661
 -1      7437    3    0    1
 -2      2636       361      1412      2660
 -1      7438    3    0    1
 -2      1247      2495      2633      2649
 -1      7439    3    0    1
 -2      1377       371      2647      2346
 -1      7440    3    0    1
 -2      2544      2610      2638      2649
 -1      7441    3    0    1
 -2      2610      2544      2622      2649
 -1      7442    3    0    1
 -2      2568      2524      2626      2736
 -1      7443    3    0    1
 -2      2633      2544      2638      2649
 -1      7444    3    0    1
 -2      2495      2544      2633      2649
 -1      7445    3    0    1
 -2      2544      2495      2622      2649
 -1      7446    3    0    1
 -2      2668      2738      1518      2449
 -1      7447    3    0    1
 -2      1505      1345      2463      2470
 -1      7448    3    0    1
 -2      2626      2534      2736      2524
 -1      7449    3    0    1
 -2      1383      1483      2760      2416
 -1      7450    3    0    1
 -2      2661      1292      2689      2388
 -1      7451    3    0    1
 -2      1364      2328      1432      2388
 -1      7452    3    0    1
 -2      1280      2306      2689      2388
 -1      7453    3    0    1
 -2      1292      1280      2689      2388
 -1      7454    3    0    1
 -2      1428       172      1446      2388
 -1      7455    3    0    1
 -2      2328      1336      1432      2388
 -1      7456    3    0    1
 -2      2572      2560      1315      2713
 -1      7457    3    0    1
 -2      1364      1428      1446      2388
 -1      7458    3    0    1
 -2      2532      2501      2716      2752
 -1      7459    3    0    1
 -2      2644      1396      1483      2736
 -1      7460    3    0    1
 -2       355      1481      1495      1512
 -1      7461    3    0    1
 -2      1458      1315      2713      2717
 -1      7462    3    0    1
 -2      2503      1253      2569      2717
 -1      7463    3    0    1
 -2         2      1251      2278      2314
 -1      7464    3    0    1
 -2       449       851       706      2314
 -1      7465    3    0    1
 -2       851       449       450      2314
 -1      7466    3    0    1
 -2      1389      1390      2658      1473
 -1      7467    3    0    1
 -2      2521      2175      2371      2703
 -1      7468    3    0    1
 -2      2583      1395      2279      2700
 -1      7469    3    0    1
 -2       375       378      2339      2676
 -1      7470    3    0    1
 -2      2358      1453      2721      2448
 -1      7471    3    0    1
 -2      2283      1305      1478      2383
 -1      7472    3    0    1
 -2      1439      1333      1461      2435
 -1      7473    3    0    1
 -2      2596      1322      2677      2699
 -1      7474    3    0    1
 -2      2640      2548      2666      2694
 -1      7475    3    0    1
 -2      2678      2269      2373      2391
 -1      7476    3    0    1
 -2      2586      2488      2640      2694
 -1      7477    3    0    1
 -2      2581      2588      2605      2653
 -1      7478    3    0    1
 -2      1353      2605      1369      2653
 -1      7479    3    0    1
 -2      1353      1402      2653      1369
 -1      7480    3    0    1
 -2      1475      1505      2463      2470
 -1      7481    3    0    1
 -2      1369      2605      2628      2653
 -1      7482    3    0    1
 -2      1369       234      1402      2653
 -1      7483    3    0    1
 -2       234      1369      2628      2653
 -1      7484    3    0    1
 -2       706       449      2314      2317
 -1      7485    3    0    1
 -2      2584      2544      2593      2654
 -1      7486    3    0    1
 -2      2593      2544      2610      2654
 -1      7487    3    0    1
 -2      1346      2591      1407      2720
 -1      7488    3    0    1
 -2      2614      2229      2271      2342
 -1      7489    3    0    1
 -2       624      1121      2007      2739
 -1      7490    3    0    1
 -2      2447      2414      1399      2465
 -1      7491    3    0    1
 -2      2554      1280      1347      2759
 -1      7492    3    0    1
 -2      2381      2294      2443      2759
 -1      7493    3    0    1
 -2      1312      1313      2611      1424
 -1      7494    3    0    1
 -2      1313      2611      1424      1425
 -1      7495    3    0    1
 -2      2393      2249      2466      2766
 -1      7496    3    0    1
 -2      1334      2288      2640      1461
 -1      7497    3    0    1
 -2      1462       353      1474      2445
 -1      7498    3    0    1
 -2      2572      2533      2578      2656
 -1      7499    3    0    1
 -2      1229      2225      2344      2347
 -1      7500    3    0    1
 -2       456       860       862      2317
 -1      7501    3    0    1
 -2       456       457       449      2317
 -1      7502    3    0    1
 -2       449       457      2314      2317
 -1      7503    3    0    1
 -2      1503      1423      2444      2445
 -1      7504    3    0    1
 -2       457       456       862      2317
 -1      7505    3    0    1
 -2      1355      2278      2316      2317
 -1      7506    3    0    1
 -2      1414      1355      2316      2317
 -1      7507    3    0    1
 -2      1355        11      2278      2317
 -1      7508    3    0    1
 -2       457       862      2314      2317
 -1      7509    3    0    1
 -2      2549      2178      2557      2716
 -1      7510    3    0    1
 -2       358      2374      2377      2697
 -1      7511    3    0    1
 -2      1392      2340      2409      2440
 -1      7512    3    0    1
 -2      2345      1422      1506      2425
 -1      7513    3    0    1
 -2      2238      1358      2249      2466
 -1      7514    3    0    1
 -2       537      2305       538      2706
 -1      7515    3    0    1
 -2      2266      1316      2710      2385
 -1      7516    3    0    1
 -2      2391      2373      1434      2269
 -1      7517    3    0    1
 -2      2065      2127      2487      2739
 -1      7518    3    0    1
 -2      2646      2594      2364      1496
 -1      7519    3    0    1
 -2      2293      2686      2361      2363
 -1      7520    3    0    1
 -2      1269      2239      2686      2361
 -1      7521    3    0    1
 -2      2702      1307      2428      2429
 -1      7522    3    0    1
 -2      1415      1416      2691      1479
 -1      7523    3    0    1
 -2      1342      2562      2599      2750
 -1      7524    3    0    1
 -2      1309      1258      1341      2684
 -1      7525    3    0    1
 -2      1361      1373      2318      2319
 -1      7526    3    0    1
 -2      1231      2280      2679      2396
 -1      7527    3    0    1
 -2      2631      1352      2634      2700
 -1      7528    3    0    1
 -2      1282      2311      2358      2384
 -1      7529    3    0    1
 -2      1427      2607      1428      2662
 -1      7530    3    0    1
 -2      2054      2145      2574      2674
 -1      7531    3    0    1
 -2      1227      2585      1367      2744
 -1      7532    3    0    1
 -2      2489      2054      2574      2674
 -1      7533    3    0    1
 -2      1482       107      2714      2751
 -1      7534    3    0    1
 -2       353      2337      1462      2701
 -1      7535    3    0    1
 -2      1519       440      2467      2472
 -1      7536    3    0    1
 -2      1347      2630      1433      2688
 -1      7537    3    0    1
 -2      2257      2225      2368      2750
 -1      7538    3    0    1
 -2      2521      2180      2199      2321
 -1      7539    3    0    1
 -2      1384      2282      2311      2358
 -1      7540    3    0    1
 -2      2282      2246      2286      2744
 -1      7541    3    0    1
 -2       368      1337      1407      1431
 -1      7542    3    0    1
 -2      2305      2296      2340      2706
 -1      7543    3    0    1
 -2      2637      2383      2404      2423
 -1      7544    3    0    1
 -2      2007      1121      2127      2739
 -1      7545    3    0    1
 -2      1282      2522      2598      2739
 -1      7546    3    0    1
 -2      1390      2658      1473      1474
 -1      7547    3    0    1
 -2      2658       112      1473      1474
 -1      7548    3    0    1
 -2      2243      1371      2310      2322
 -1      7549    3    0    1
 -2      2482      2555      2690      2703
 -1      7550    3    0    1
 -2      2523      2138      2683      2719
 -1      7551    3    0    1
 -2      2257      2368      2438      2750
 -1      7552    3    0    1
 -2      1256      2562      1342      2750
 -1      7553    3    0    1
 -2      2523      2181      2542      2719
 -1      7554    3    0    1
 -2      1401      1295      2653      2659
 -1      7555    3    0    1
 -2      2570      1401      2653      2659
 -1      7556    3    0    1
 -2      1295      2570      2653      2659
 -1      7557    3    0    1
 -2      1285      2238      2310      2659
 -1      7558    3    0    1
 -2      2235      1237      2243      2659
 -1      7559    3    0    1
 -2      1521      1467      2473      2474
 -1      7560    3    0    1
 -2      1401      1285      2310      2659
 -1      7561    3    0    1
 -2      1105      1237      2235      2659
 -1      7562    3    0    1
 -2      1467      1514      1516      2474
 -1      7563    3    0    1
 -2      1401      2310      2322      2659
 -1      7564    3    0    1
 -2      2711      1444      1507      1508
 -1      7565    3    0    1
 -2      1428      2607      2661      2662
 -1      7566    3    0    1
 -2      1398      2300      2650      1466
 -1      7567    3    0    1
 -2      1844      1944      2047      2716
 -1      7568    3    0    1
 -2      2501      2549      2704      2716
 -1      7569    3    0    1
 -2      2528      2583      2279      2700
 -1      7570    3    0    1
 -2      2152      2187      2532      2716
 -1      7571    3    0    1
 -2       361       173      2660      2326
 -1      7572    3    0    1
 -2      2596      2559      2632      2695
 -1      7573    3    0    1
 -2      1264      1317      2609      2682
 -1      7574    3    0    1
 -2      1294      1258      1309      2684
 -1      7575    3    0    1
 -2       516       962       517      2327
 -1      7576    3    0    1
 -2       516       517       510      2327
 -1      7577    3    0    1
 -2       510       511       516      2327
 -1      7578    3    0    1
 -2       959       962       516      2327
 -1      7579    3    0    1
 -2       949       108       952      2327
 -1      7580    3    0    1
 -2      2308      2200      2666      1447
 -1      7581    3    0    1
 -2      2540      1242      2567      2661
 -1      7582    3    0    1
 -2       511       949       952      2327
 -1      7583    3    0    1
 -2       108        97       952      2327
 -1      7584    3    0    1
 -2      2277      2635      2431      2456
 -1      7585    3    0    1
 -2       511       510       949      2327
 -1      7586    3    0    1
 -2      2612      1315      2710      2713
 -1      7587    3    0    1
 -2      1347      2554      2630      2690
 -1      7588    3    0    1
 -2       959       511       952      2327
 -1      7589    3    0    1
 -2       511       959       516      2327
 -1      7590    3    0    1
 -2      2594      2557      2298      2364
 -1      7591    3    0    1
 -2      2577      2567      2607      2661
 -1      7592    3    0    1
 -2      1266      1225      1346      2370
 -1      7593    3    0    1
 -2      2577      2607      2608      2661
 -1      7594    3    0    1
 -2      2548      1233      2616      2728
 -1      7595    3    0    1
 -2      1313      2573      2611      2696
 -1      7596    3    0    1
 -2      1233      2616      1461      2406
 -1      7597    3    0    1
 -2      2555      2199      2275      2690
 -1      7598    3    0    1
 -2      2548      2640      2666      2681
 -1      7599    3    0    1
 -2      2548      2617      2694      2726
 -1      7600    3    0    1
 -2      2521      1821      2529      2371
 -1      7601    3    0    1
 -2        97      1311      2270      2329
 -1      7602    3    0    1
 -2      1408       108      2327      2329
 -1      7603    3    0    1
 -2       952        97      2270      2329
 -1      7604    3    0    1
 -2      2579      2213      2386      2449
 -1      7605    3    0    1
 -2      2369      1423      2407      2444
 -1      7606    3    0    1
 -2      2605      2588      2647      2733
 -1      7607    3    0    1
 -2      2726      2639      2447      2465
 -1      7608    3    0    1
 -2      2197      2532      2292      2332
 -1      7609    3    0    1
 -2      2532      2197      2290      2332
 -1      7610    3    0    1
 -2      1223       900      2563      2705
 -1      7611    3    0    1
 -2       900      1223      2663      2705
 -1      7612    3    0    1
 -2        57       372      2723      2455
 -1      7613    3    0    1
 -2      2691       372      2746      2723
 -1      7614    3    0    1
 -2      2629      2582      2292      2356
 -1      7615    3    0    1
 -2      2369      2407      2747      2444
 -1      7616    3    0    1
 -2      1318      1277      2630      1433
 -1      7617    3    0    1
 -2      2475      1218      2518      2705
 -1      7618    3    0    1
 -2      2629      2292      2355      2356
 -1      7619    3    0    1
 -2      1262      2563      2623      2705
 -1      7620    3    0    1
 -2      1257      1218      2663      2705
 -1      7621    3    0    1
 -2      1218       897      2663      2705
 -1      7622    3    0    1
 -2       897       900      2663      2705
 -1      7623    3    0    1
 -2      1293      1262      2623      2705
 -1      7624    3    0    1
 -2       352      1427      1428      2662
 -1      7625    3    0    1
 -2      2608      2672      1486      2392
 -1      7626    3    0    1
 -2      1357      1444      2753      2766
 -1      7627    3    0    1
 -2      2211      2576      1401      2335
 -1      7628    3    0    1
 -2      1401      2576      1402      2335
 -1      7629    3    0    1
 -2      2496      1550      2528      2700
 -1      7630    3    0    1
 -2      2485      2529      2567      2677
 -1      7631    3    0    1
 -2      2616      1334      2640      1461
 -1      7632    3    0    1
 -2      1352      1395      2634      2700
 -1      7633    3    0    1
 -2      2577      2529      2321      2336
 -1      7634    3    0    1
 -2      1333      2548      2617      2728
 -1      7635    3    0    1
 -2       528       980       978      2674
 -1      7636    3    0    1
 -2      1364      1428      2661      1446
 -1      7637    3    0    1
 -2      1356      2598      2619      2721
 -1      7638    3    0    1
 -2      1360      1462      1390      2445
 -1      7639    3    0    1
 -2      1282      2598      2721      2739
 -1      7640    3    0    1
 -2      2500      2547      2599      2734
 -1      7641    3    0    1
 -2        41       389      2665      1476
 -1      7642    3    0    1
 -2      2240      2253      2291      2663
 -1      7643    3    0    1
 -2      2291      2253      2307      2663
 -1      7644    3    0    1
 -2      1293      1257      2307      2663
 -1      7645    3    0    1
 -2      1257      2291      2307      2663
 -1      7646    3    0    1
 -2       173      1410      1433      2464
 -1      7647    3    0    1
 -2      2393      1519      2467      2472
 -1      7648    3    0    1
 -2      2717      1378      1516      2474
 -1      7649    3    0    1
 -2      2253      2227      2323      2663
 -1      7650    3    0    1
 -2      1262      2253      2323      2663
 -1      7651    3    0    1
 -2      1218       897      2240      2663
 -1      7652    3    0    1
 -2      2384      1443      1520      2471
 -1      7653    3    0    1
 -2      1262      1293      2253      2663
 -1      7654    3    0    1
 -2       897      2206      2240      2663
 -1      7655    3    0    1
 -2      1330      2463      2764      2470
 -1      7656    3    0    1
 -2      2253      1293      2307      2663
 -1      7657    3    0    1
 -2      1218      2240      2291      2663
 -1      7658    3    0    1
 -2      1257      1218      2291      2663
 -1      7659    3    0    1
 -2      2210      2627      2334      1436
 -1      7660    3    0    1
 -2      2210      2600      2627      1436
 -1      7661    3    0    1
 -2      2210      1290      2600      1436
 -1      7662    3    0    1
 -2      2637      1290      2362      2383
 -1      7663    3    0    1
 -2      1305      2283      2362      2383
 -1      7664    3    0    1
 -2      1462      2631      2600      1374
 -1      7665    3    0    1
 -2      2007      2522      2541      2739
 -1      7666    3    0    1
 -2       541       537       540      2706
 -1      7667    3    0    1
 -2      2065      2585      2669      2739
 -1      7668    3    0    1
 -2      2669      2585      2721      2739
 -1      7669    3    0    1
 -2      2232      2218      2258      2754
 -1      7670    3    0    1
 -2       541       540       998      2706
 -1      7671    3    0    1
 -2       998      1000       541      2706
 -1      7672    3    0    1
 -2      2333      1345      2446      2463
 -1      7673    3    0    1
 -2      1390      2602      2658      2732
 -1      7674    3    0    1
 -2      1411       361      2660      2664
 -1      7675    3    0    1
 -2       361      1411      1412      2664
 -1      7676    3    0    1
 -2      1339      2228      1412      2664
 -1      7677    3    0    1
 -2      1249      1250      1330      2665
 -1      7678    3    0    1
 -2      1294      1219      2331      1258
 -1      7679    3    0    1
 -2      2673      2567      2677      2678
 -1      7680    3    0    1
 -2      2691      1415      1479      2741
 -1      7681    3    0    1
 -2      2567      2529      2577      2673
 -1      7682    3    0    1
 -2      2642      1325      2645      2729
 -1      7683    3    0    1
 -2       218       207      2617      1439
 -1      7684    3    0    1
 -2      2617       207      1438      1439
 -1      7685    3    0    1
 -2      2587      2642      2645      2729
 -1      7686    3    0    1
 -2        57      2691      2741      2723
 -1      7687    3    0    1
 -2      2530      2182      2669      2360
 -1      7688    3    0    1
 -2      2141      2182      2572      2360
 -1      7689    3    0    1
 -2      2215      2572      2578      2360
 -1      7690    3    0    1
 -2      2182      2530      2572      2360
 -1      7691    3    0    1
 -2      1227      1367      2656      2360
 -1      7692    3    0    1
 -2      1393      2675      1489      2725
 -1      7693    3    0    1
 -2      2556      2528      2583      2737
 -1      7694    3    0    1
 -2      1457      2358      2384      2448
 -1      7695    3    0    1
 -2      1235      2533      1298      2710
 -1      7696    3    0    1
 -2      1382      1302      1383      2667
 -1      7697    3    0    1
 -2      1283      1357      2692      2766
 -1      7698    3    0    1
 -2      1430      2695      1466      2434
 -1      7699    3    0    1
 -2      2675      2610      2693      2725
 -1      7700    3    0    1
 -2      2359      1440      2401      2402
 -1      7701    3    0    1
 -2      2234      2267      2643      2359
 -1      7702    3    0    1
 -2      2065      2530      2564      2669
 -1      7703    3    0    1
 -2      2278      2316      2317      2749
 -1      7704    3    0    1
 -2      2586      2523      2683      2719
 -1      7705    3    0    1
 -2      2593      1397      2312      2670
 -1      7706    3    0    1
 -2      1294      1258      2331      2394
 -1      7707    3    0    1
 -2      1437      2702      2419      2429
 -1      7708    3    0    1
 -2      2671      2343      2390      1495
 -1      7709    3    0    1
 -2      2299      2593      2312      2670
 -1      7710    3    0    1
 -2      2187      2532      2716      2752
 -1      7711    3    0    1
 -2      2564      2579      2668      2669
 -1      7712    3    0    1
 -2      2530      2182      2579      2669
 -1      7713    3    0    1
 -2      2626      2343      2671      1495
 -1      7714    3    0    1
 -2      2358      1282      2721      2744
 -1      7715    3    0    1
 -2      2339      2281      2676      1454
 -1      7716    3    0    1
 -2       378      2339      2676      1454
 -1      7717    3    0    1
 -2      2182      2213      2579      2669
 -1      7718    3    0    1
 -2      2702      1307      1496      2746
 -1      7719    3    0    1
 -2      1382      1481      1495      2745
 -1      7720    3    0    1
 -2      2573      2595      2656      2722
 -1      7721    3    0    1
 -2      1435      1291      2731      2765
 -1      7722    3    0    1
 -2      2757         1      2762      2763
 -1      7723    3    0    1
 -2        57       372      2691      2723
 -1      7724    3    0    1
 -2      1441      2400      1500      2457
 -1      7725    3    0    1
 -2      2697       358      2699      2715
 -1      7726    3    0    1
 -2      1489      1393      1494      2468
 -1      7727    3    0    1
 -2      2671       107      1483      2714
 -1      7728    3    0    1
 -2      2251      1362      2274      2348
 -1      7729    3    0    1
 -2      2639      1232      2726      2447
 -1      7730    3    0    1
 -2      2644      1302      2751      2760
 -1      7731    3    0    1
 -2      2577      2321      2351      2353
 -1      7732    3    0    1
 -2      2666      2681      2379      2380
 -1      7733    3    0    1
 -2       737      2305      2296       739
 -1      7734    3    0    1
 -2      2608      2661      2662      1446
 -1      7735    3    0    1
 -2      2608      2662      2672      1446
 -1      7736    3    0    1
 -2      2577      1292      2661      1446
 -1      7737    3    0    1
 -2      2608      2577      2661      1446
 -1      7738    3    0    1
 -2      1471      1325      1375      2458
 -1      7739    3    0    1
 -2      1280      2554      1347      2690
 -1      7740    3    0    1
 -2      2260      2389      2398      2754
 -1      7741    3    0    1
 -2      1312      1297      1454      2722
 -1      7742    3    0    1
 -2      2250      1336      2328      2388
 -1      7743    3    0    1
 -2      2361      2293      2363      2420
 -1      7744    3    0    1
 -2      2626      2580      2667      2736
 -1      7745    3    0    1
 -2      2626      2667      2714      2736
 -1      7746    3    0    1
 -2      2272      2313      2387      2712
 -1      7747    3    0    1
 -2      1244      2297      2419      2428
 -1      7748    3    0    1
 -2      2607      2577      2608      2673
 -1      7749    3    0    1
 -2      1427      2607      2662      2673
 -1      7750    3    0    1
 -2      2607      2608      2662      2673
 -1      7751    3    0    1
 -2      1465       198      1469      2715
 -1      7752    3    0    1
 -2      1408      2329      2366      2370
 -1      7753    3    0    1
 -2      2680      1225      2366      2370
 -1      7754    3    0    1
 -2      1863      2506      2526      2674
 -1      7755    3    0    1
 -2      2526      2506      2637      2674
 -1      7756    3    0    1
 -2      2145      1863      2524      2674
 -1      7757    3    0    1
 -2      2145      2524      2534      2674
 -1      7758    3    0    1
 -2      2625      2526      2637      2674
 -1      7759    3    0    1
 -2      2503      2569      2731      2765
 -1      7760    3    0    1
 -2      2524      1863      2526      2674
 -1      7761    3    0    1
 -2      2524      2526      2625      2674
 -1      7762    3    0    1
 -2      2534      2524      2625      2674
 -1      7763    3    0    1
 -2      1379      1468      1513      2762
 -1      7764    3    0    1
 -2      2399      2646      2430      2455
 -1      7765    3    0    1
 -2      1863      2054      2068      2674
 -1      7766    3    0    1
 -2      2054      1863      2145      2674
 -1      7767    3    0    1
 -2      1232      2639      2387      2447
 -1      7768    3    0    1
 -2      1232      1332      2726      2447
 -1      7769    3    0    1
 -2      2363      1306      2420      2451
 -1      7770    3    0    1
 -2      2306      2294      2381      2759
 -1      7771    3    0    1
 -2      1270      2244      2274      2707
 -1      7772    3    0    1
 -2      1444      1508      1510      2467
 -1      7773    3    0    1
 -2      2268      1231      2280      2679
 -1      7774    3    0    1
 -2      1447       207      2681      2380
 -1      7775    3    0    1
 -2      2617      2548      2640      2728
 -1      7776    3    0    1
 -2      1821      2133      2521      2677
 -1      7777    3    0    1
 -2      2133      1821      2511      2677
 -1      7778    3    0    1
 -2      2521      2089      2184      2677
 -1      7779    3    0    1
 -2      2521      2184      2336      2677
 -1      7780    3    0    1
 -2       952      2327      2329      2680
 -1      7781    3    0    1
 -2      1397      2312      2670      1494
 -1      7782    3    0    1
 -2      2529      2577      2673      2677
 -1      7783    3    0    1
 -2      2577      2529      2336      2677
 -1      7784    3    0    1
 -2      1821      2485      2132      2677
 -1      7785    3    0    1
 -2      1821      2132      2511      2677
 -1      7786    3    0    1
 -2      2594      2646      1488      2741
 -1      7787    3    0    1
 -2      1220      1232      2639      2387
 -1      7788    3    0    1
 -2      2488      2548      2640      2694
 -1      7789    3    0    1
 -2       959       962      2327      2680
 -1      7790    3    0    1
 -2      1513         1      2442      2763
 -1      7791    3    0    1
 -2      2277      1253      2717      2473
 -1      7792    3    0    1
 -2      1322      1314      2276      2677
 -1      7793    3    0    1
 -2      1314      2089      2276      2677
 -1      7794    3    0    1
 -2      2089      1314      2336      2677
 -1      7795    3    0    1
 -2      1314      1372      2336      2677
 -1      7796    3    0    1
 -2      2184      2089      2336      2677
 -1      7797    3    0    1
 -2      2511      2132      2552      2678
 -1      7798    3    0    1
 -2      2132      2485      2540      2678
 -1      7799    3    0    1
 -2      1241      1051      2540      2678
 -1      7800    3    0    1
 -2      1051      1049      2132      2678
 -1      7801    3    0    1
 -2      2132      1049      2552      2678
 -1      7802    3    0    1
 -2      1051      2132      2540      2678
 -1      7803    3    0    1
 -2      2298      2594      2646      1488
 -1      7804    3    0    1
 -2      2302      2276      2650      2374
 -1      7805    3    0    1
 -2      2650      1322      1421      2374
 -1      7806    3    0    1
 -2      2255      1241      2269      2678
 -1      7807    3    0    1
 -2      1051      1241      2255      2678
 -1      7808    3    0    1
 -2      1372      2336      2673      2353
 -1      7809    3    0    1
 -2      1372      2673      1450      2353
 -1      7810    3    0    1
 -2      2673      2336      2677      2353
 -1      7811    3    0    1
 -2      2577      2673      2677      2353
 -1      7812    3    0    1
 -2      2336      2577      2677      2353
 -1      7813    3    0    1
 -2      2561      2520      2644      2680
 -1      7814    3    0    1
 -2      2520       959      1246      2680
 -1      7815    3    0    1
 -2      1225       962      2561      2680
 -1      7816    3    0    1
 -2       962      2520      2561      2680
 -1      7817    3    0    1
 -2       962       959      2520      2680
 -1      7818    3    0    1
 -2      2627      2600      2320      1462
 -1      7819    3    0    1
 -2      1246       959      2270      2680
 -1      7820    3    0    1
 -2       959       952      2270      2680
 -1      7821    3    0    1
 -2      1438      1332      1447      2726
 -1      7822    3    0    1
 -2      2661      1364      1446      2388
 -1      7823    3    0    1
 -2       207       218      2617      2681
 -1      7824    3    0    1
 -2      2600      1374      2320      1462
 -1      7825    3    0    1
 -2      1378      2717      2473      2474
 -1      7826    3    0    1
 -2      1294      1258      2394      2395
 -1      7827    3    0    1
 -2      1471      2724      2412      2735
 -1      7828    3    0    1
 -2      1264      2537      1334      2682
 -1      7829    3    0    1
 -2      1219      2518      1258      2684
 -1      7830    3    0    1
 -2      2566      2575      2624      2684
 -1      7831    3    0    1
 -2      2509      2168      2531      2682
 -1      7832    3    0    1
 -2      2331      1294      2394      2395
 -1      7833    3    0    1
 -2      2586      2288      2640      2682
 -1      7834    3    0    1
 -2      1309      2575      2566      2684
 -1      7835    3    0    1
 -2      1334      2537      2616      2682
 -1      7836    3    0    1
 -2      2616      2537      2640      2682
 -1      7837    3    0    1
 -2      1334      2616      2640      2682
 -1      7838    3    0    1
 -2      2288      1334      2640      2682
 -1      7839    3    0    1
 -2      2190      1264      2193      2682
 -1      7840    3    0    1
 -2      2088      2190      2193      2682
 -1      7841    3    0    1
 -2      1264      2190      1317      2682
 -1      7842    3    0    1
 -2      2193      1264      2288      2682
 -1      7843    3    0    1
 -2      1264      1334      2288      2682
 -1      7844    3    0    1
 -2      2093      2138      2168      2683
 -1      7845    3    0    1
 -2      2138      1859      2168      2683
 -1      7846    3    0    1
 -2      1309      2566      2624      2684
 -1      7847    3    0    1
 -2      2629      2292      2332      2355
 -1      7848    3    0    1
 -2      1341      1405      1406      2684
 -1      7849    3    0    1
 -2      1404       383      1405      2685
 -1      7850    3    0    1
 -2      1341      1404      1405      2685
 -1      7851    3    0    1
 -2       383        70      1405      2685
 -1      7852    3    0    1
 -2      1341      1340      1404      2685
 -1      7853    3    0    1
 -2      2550      1243      2651      2686
 -1      7854    3    0    1
 -2      1269      2550      2651      2686
 -1      7855    3    0    1
 -2      1219      2550      2331      2686
 -1      7856    3    0    1
 -2      1348      1269      2651      2686
 -1      7857    3    0    1
 -2      2258      1305      2283      2362
 -1      7858    3    0    1
 -2      2239      2204      2254      2686
 -1      7859    3    0    1
 -2      2254      2204      2331      2686
 -1      7860    3    0    1
 -2      2550      1269      1294      2686
 -1      7861    3    0    1
 -2      1294      2254      2331      2686
 -1      7862    3    0    1
 -2      2550      1294      2331      2686
 -1      7863    3    0    1
 -2       917       492      2217      2686
 -1      7864    3    0    1
 -2      1243       917      2217      2686
 -1      7865    3    0    1
 -2      1243      2217      2293      2686
 -1      7866    3    0    1
 -2       920      1219      2203      2686
 -1      7867    3    0    1
 -2       493       920      2203      2686
 -1      7868    3    0    1
 -2      2203      1219      2204      2686
 -1      7869    3    0    1
 -2      2204      1219      2331      2686
 -1      7870    3    0    1
 -2      1269      2239      2254      2686
 -1      7871    3    0    1
 -2      1294      1269      2254      2686
 -1      7872    3    0    1
 -2      1318      2620      1410      2688
 -1      7873    3    0    1
 -2      2620      1318      2630      2688
 -1      7874    3    0    1
 -2      1318      1410      1433      2688
 -1      7875    3    0    1
 -2      2630      1318      1433      2688
 -1      7876    3    0    1
 -2      2629       368      1407      2356
 -1      7877    3    0    1
 -2      1310      1409      2307      2357
 -1      7878    3    0    1
 -2      1438       207      1447      2465
 -1      7879    3    0    1
 -2      2475       897      1218      2705
 -1      7880    3    0    1
 -2      2563      2475      2623      2705
 -1      7881    3    0    1
 -2      2478      2475      2563      2705
 -1      7882    3    0    1
 -2      1292      1280      2661      2689
 -1      7883    3    0    1
 -2      2714      2671      1495      2745
 -1      7884    3    0    1
 -2      2585      1227      2669      2721
 -1      7885    3    0    1
 -2      1032      1242      2540      2689
 -1      7886    3    0    1
 -2      2540      1242      2554      2689
 -1      7887    3    0    1
 -2      1032      2540      2554      2689
 -1      7888    3    0    1
 -2      1034      1032      2554      2689
 -1      7889    3    0    1
 -2      1332      1447      2726      2465
 -1      7890    3    0    1
 -2      1242      2233      2328      2689
 -1      7891    3    0    1
 -2      1364      1242      2328      2689
 -1      7892    3    0    1
 -2      1242      1032      2233      2689
 -1      7893    3    0    1
 -2      2639      1281      2414      2465
 -1      7894    3    0    1
 -2      1495      2625      2626      1388
 -1      7895    3    0    1
 -2      2656      2595      1454      2722
 -1      7896    3    0    1
 -2      1024      1034      2294      2689
 -1      7897    3    0    1
 -2      1447      1281      2726      2465
 -1      7898    3    0    1
 -2      2560      2503      2614      2713
 -1      7899    3    0    1
 -2      1307      1496      1416      2429
 -1      7900    3    0    1
 -2      1292      1280      2321      2690
 -1      7901    3    0    1
 -2      2275      1347      1433      2690
 -1      7902    3    0    1
 -2      2618      2657      2699      2715
 -1      7903    3    0    1
 -2      2578      1367      2281      2360
 -1      7904    3    0    1
 -2      2215      2578      2281      2360
 -1      7905    3    0    1
 -2      2487      2183      2572      2713
 -1      7906    3    0    1
 -2      2297      1477      2419      2428
 -1      7907    3    0    1
 -2      2060      1844      2146      2752
 -1      7908    3    0    1
 -2      2213      2579      2669      1453
 -1      7909    3    0    1
 -2      2146      2075      2524      2752
 -1      7910    3    0    1
 -2      2669      1227      2360      1453
 -1      7911    3    0    1
 -2      2182      2669      2360      1453
 -1      7912    3    0    1
 -2      1307      1244      2702      2428
 -1      7913    3    0    1
 -2      2626      2231      2343      1495
 -1      7914    3    0    1
 -2      2578      1367      2656      1454
 -1      7915    3    0    1
 -2      2595      2578      2656      1454
 -1      7916    3    0    1
 -2      2578      2595      2281      1454
 -1      7917    3    0    1
 -2      1367      2578      2281      1454
 -1      7918    3    0    1
 -2      2282      2286      2311      2744
 -1      7919    3    0    1
 -2      2585      1227      2721      2744
 -1      7920    3    0    1
 -2      2311      1282      2358      2744
 -1      7921    3    0    1
 -2      1253      2503      2713      2717
 -1      7922    3    0    1
 -2      1260      2283      2637      2362
 -1      7923    3    0    1
 -2      2277      1385      1497      2456
 -1      7924    3    0    1
 -2      1430      1465      2434      2457
 -1      7925    3    0    1
 -2      1468      2655      2757      2762
 -1      7926    3    0    1
 -2      1465      1500      2434      2457
 -1      7927    3    0    1
 -2      2695      1275      2632      1398
 -1      7928    3    0    1
 -2      2338      2654      1493      2437
 -1      7929    3    0    1
 -2      1513      1468      1515      2762
 -1      7930    3    0    1
 -2      2511      2596      2677      2699
 -1      7931    3    0    1
 -2      1320      1421      1429      2699
 -1      7932    3    0    1
 -2      2618      1320      1429      2699
 -1      7933    3    0    1
 -2      2539      2501      2549      2704
 -1      7934    3    0    1
 -2      2532      2582      2332      2704
 -1      7935    3    0    1
 -2      1402      1295      1353      2653
 -1      7936    3    0    1
 -2      1295      1402      1353      2367
 -1      7937    3    0    1
 -2      1353      1419      2324      2367
 -1      7938    3    0    1
 -2      1353      1369      1419      2367
 -1      7939    3    0    1
 -2      1369       234      1419      2367
 -1      7940    3    0    1
 -2      1295      1353      2324      2367
 -1      7941    3    0    1
 -2      1302      2580      2644      2751
 -1      7942    3    0    1
 -2      2213      2579      1453      1518
 -1      7943    3    0    1
 -2      2401      1412      2402      2433
 -1      7944    3    0    1
 -2      2257      1300      1418      2368
 -1      7945    3    0    1
 -2      2522      2564      2570      2692
 -1      7946    3    0    1
 -2      2522      2570      2598      2692
 -1      7947    3    0    1
 -2      1421      1322      2699      2707
 -1      7948    3    0    1
 -2      2705      2687      1262      2563
 -1      7949    3    0    1
 -2      2441      2315      2749      2460
 -1      7950    3    0    1
 -2      1391      1423      2352      2369
 -1      7951    3    0    1
 -2      2296      1391      2352      2369
 -1      7952    3    0    1
 -2      1337      1266      1407      2370
 -1      7953    3    0    1
 -2      1431      1408      2366      2370
 -1      7954    3    0    1
 -2      1266      1431      2366      2370
 -1      7955    3    0    1
 -2      1225      1266      2366      2370
 -1      7956    3    0    1
 -2      1266      1337      1431      2370
 -1      7957    3    0    1
 -2      2532      2501      2539      2704
 -1      7958    3    0    1
 -2      2133      1821      2521      2371
 -1      7959    3    0    1
 -2      2175      2133      2521      2371
 -1      7960    3    0    1
 -2      1460      1376      1463      2421
 -1      7961    3    0    1
 -2      2608      2673      1450      1486
 -1      7962    3    0    1
 -2      2582      1349      2332      2704
 -1      7963    3    0    1
 -2      2539      2510      2558      2704
 -1      7964    3    0    1
 -2      2558      1335      1349      2704
 -1      7965    3    0    1
 -2      2564      2619      2668      2692
 -1      7966    3    0    1
 -2      2564      2579      2613      2692
 -1      7967    3    0    1
 -2      2613      2579      1387      2692
 -1      7968    3    0    1
 -2      1285      2613      1387      2692
 -1      7969    3    0    1
 -2      1285      2570      2613      2692
 -1      7970    3    0    1
 -2      1480      1416      1496      2429
 -1      7971    3    0    1
 -2      2579      2564      2668      2692
 -1      7972    3    0    1
 -2      1415      1479      1488      2451
 -1      7973    3    0    1
 -2      1228      2216      2297      2418
 -1      7974    3    0    1
 -2      1314      1372      2678      2373
 -1      7975    3    0    1
 -2      2348      1314      2678      2373
 -1      7976    3    0    1
 -2      2351      2608      2353      2392
 -1      7977    3    0    1
 -2      1368      2269      1434      2373
 -1      7978    3    0    1
 -2      2693       390      1494      2432
 -1      7979    3    0    1
 -2      2585      2533      2656      2722
 -1      7980    3    0    1
 -2      1316      1426      2710      2385
 -1      7981    3    0    1
 -2      2547      2500      2687      2718
 -1      7982    3    0    1
 -2       437      2693      2403      2432
 -1      7983    3    0    1
 -2      2500      1249      2687      2718
 -1      7984    3    0    1
 -2      2267      1240      2643      2401
 -1      7985    3    0    1
 -2      1440      2267      2359      2401
 -1      7986    3    0    1
 -2      2665        41      1475      2718
 -1      7987    3    0    1
 -2      1396      2644      1483      2760
 -1      7988    3    0    1
 -2      1383      1482      1483      2416
 -1      7989    3    0    1
 -2      2138      2493      2683      2719
 -1      7990    3    0    1
 -2      2493      2511      2632      2719
 -1      7991    3    0    1
 -2      2493      2062      2511      2719
 -1      7992    3    0    1
 -2      1354      2319      2330      1377
 -1      7993    3    0    1
 -2      1452      1351      2394      2395
 -1      7994    3    0    1
 -2      1275      2632      2300      2719
 -1      7995    3    0    1
 -2      2646      2691      2723      2741
 -1      7996    3    0    1
 -2      1463      2396      1376      1326
 -1      7997    3    0    1
 -2      2151      2496      2528      2700
 -1      7998    3    0    1
 -2      2274      1362      1448      2375
 -1      7999    3    0    1
 -2      1374      1352      2631      2700
 -1      8000    3    0    1
 -2      1395      2583      2634      2700
 -1      8001    3    0    1
 -2      2554      2482      2690      2703
 -1      8002    3    0    1
 -2      1333      2617      1439      2728
 -1      8003    3    0    1
 -2      2681       218      2379      2380
 -1      8004    3    0    1
 -2       207       218      2681      2380
 -1      8005    3    0    1
 -2      1414      1324      2338      1499
 -1      8006    3    0    1
 -2      1223       900      2663      2764
 -1      8007    3    0    1
 -2      2284      2616      2405      2406
 -1      8008    3    0    1
 -2      2640      2616      1461      2728
 -1      8009    3    0    1
 -2      2548      2616      2640      2728
 -1      8010    3    0    1
 -2      2616      1233      1461      2728
 -1      8011    3    0    1
 -2      1244      2535      1307      2702
 -1      8012    3    0    1
 -2      1435      2731      1513      2762
 -1      8013    3    0    1
 -2      1356      2384      2721      2448
 -1      8014    3    0    1
 -2      2280      1380      2679      1463
 -1      8015    3    0    1
 -2      2501      2532      2539      2720
 -1      8016    3    0    1
 -2      1376      1326      2679      1463
 -1      8017    3    0    1
 -2      2561      2539      2591      2720
 -1      8018    3    0    1
 -2      1260      1359      2637      2404
 -1      8019    3    0    1
 -2      2693      2670      1493      2403
 -1      8020    3    0    1
 -2       437      2693      1493      2403
 -1      8021    3    0    1
 -2      2670      1397      2725      2593
 -1      8022    3    0    1
 -2      1479        57      1488      2451
 -1      8023    3    0    1
 -2      2353      2608      1486      2392
 -1      8024    3    0    1
 -2      2639      2548      2694      2726
 -1      8025    3    0    1
 -2      2617      2681      2694      2726
 -1      8026    3    0    1
 -2      1281      2200      1447      2694
 -1      8027    3    0    1
 -2      2047      2198      2557      2716
 -1      8028    3    0    1
 -2      2595      2612      1426      2696
 -1      8029    3    0    1
 -2      1306      2651      2363      2420
 -1      8030    3    0    1
 -2      2619      2668      2692      2753
 -1      8031    3    0    1
 -2      2596      1398      2650      1466
 -1      8032    3    0    1
 -2      2312      2670      1494      2432
 -1      8033    3    0    1
 -2       218      1439      2406      2435
 -1      8034    3    0    1
 -2      2693      2670      2403      2432
 -1      8035    3    0    1
 -2      2595      2573      2612      2696
 -1      8036    3    0    1
 -2      1313      2611      1425      2696
 -1      8037    3    0    1
 -2      1223      2663      2705      2764
 -1      8038    3    0    1
 -2      1254      2569      1379      2731
 -1      8039    3    0    1
 -2      1395      1352      2642      2758
 -1      8040    3    0    1
 -2      2440      2409      2458      2758
 -1      8041    3    0    1
 -2      2503      1254      2584      2731
 -1      8042    3    0    1
 -2      1283      2245      2249      2766
 -1      8043    3    0    1
 -2      2650      2302      2377      1469
 -1      8044    3    0    1
 -2      2302      2650      1466      1469
 -1      8045    3    0    1
 -2      2614      1458      2717      2748
 -1      8046    3    0    1
 -2      2717      2456      2473      2474
 -1      8047    3    0    1
 -2      2083      2178      2549      2716
 -1      8048    3    0    1
 -2      1844      2047      2178      2716
 -1      8049    3    0    1
 -2      1513         1      1515      2462
 -1      8050    3    0    1
 -2      2408      2296      2747      2758
 -1      8051    3    0    1
 -2      2573      2595      2611      2696
 -1      8052    3    0    1
 -2      2611       375      1425      2696
 -1      8053    3    0    1
 -2      1425       375      1426      2696
 -1      8054    3    0    1
 -2       375      2611      2676      2696
 -1      8055    3    0    1
 -2      1426       375      2676      2696
 -1      8056    3    0    1
 -2       358      1421      2374      2697
 -1      8057    3    0    1
 -2      1344      2381      2443      2464
 -1      8058    3    0    1
 -2      2500      2547      2665      2718
 -1      8059    3    0    1
 -2      2698      2342      2410      2442
 -1      8060    3    0    1
 -2      1392      2340      2408      2409
 -1      8061    3    0    1
 -2      2559      1320      2618      2699
 -1      8062    3    0    1
 -2      1285      1387      2466      2766
 -1      8063    3    0    1
 -2      1230      1325      2642      2758
 -1      8064    3    0    1
 -2       388      1514      1521      2474
 -1      8065    3    0    1
 -2      2405      1449      2406      2435
 -1      8066    3    0    1
 -2       388         1      2757      2763
 -1      8067    3    0    1
 -2       388      1514      2748      2757
 -1      8068    3    0    1
 -2      1513      2698      2762      2763
 -1      8069    3    0    1
 -2      2698      2730      2762      2763
 -1      8070    3    0    1
 -2      2652      1459      2727      2729
 -1      8071    3    0    1
 -2      2655      2730      2748      2757
 -1      8072    3    0    1
 -2      1314      1322      2678      2699
 -1      8073    3    0    1
 -2      1322      1314      2677      2699
 -1      8074    3    0    1
 -2      2677      1314      2678      2699
 -1      8075    3    0    1
 -2      2650      2596      2657      2699
 -1      8076    3    0    1
 -2      1844      2083      2501      2716
 -1      8077    3    0    1
 -2      2532      2501      2704      2716
 -1      8078    3    0    1
 -2      1429      1421      1464      2699
 -1      8079    3    0    1
 -2      2650      2657      2697      2699
 -1      8080    3    0    1
 -2      1421      2650      2697      2699
 -1      8081    3    0    1
 -2      2501      2083      2549      2716
 -1      8082    3    0    1
 -2      1421       358      1464      2699
 -1      8083    3    0    1
 -2       358      1421      2697      2699
 -1      8084    3    0    1
 -2      2178      2047      2557      2716
 -1      8085    3    0    1
 -2      2526      2496      2600      2700
 -1      8086    3    0    1
 -2      1550      2109      2634      2700
 -1      8087    3    0    1
 -2      2109      1550      2496      2700
 -1      8088    3    0    1
 -2      2600      1374      2631      2700
 -1      8089    3    0    1
 -2      2526      2600      2631      2700
 -1      8090    3    0    1
 -2      1352      2151      2279      2700
 -1      8091    3    0    1
 -2      2151      1352      2320      2700
 -1      8092    3    0    1
 -2      1395      1352      2279      2700
 -1      8093    3    0    1
 -2      1352      1374      2320      2700
 -1      8094    3    0    1
 -2      2185      2151      2320      2700
 -1      8095    3    0    1
 -2      2549      2621      1437      2702
 -1      8096    3    0    1
 -2      2549      2594      2621      2702
 -1      8097    3    0    1
 -2      2594      2535      2621      2702
 -1      8098    3    0    1
 -2      2535      2594      2597      2702
 -1      8099    3    0    1
 -2      2723      1496      2646      2430
 -1      8100    3    0    1
 -2      2557      2549      1437      2702
 -1      8101    3    0    1
 -2      2549      2557      2594      2702
 -1      8102    3    0    1
 -2      2594      2557      1437      2702
 -1      8103    3    0    1
 -2      2364      2646      1496      2430
 -1      8104    3    0    1
 -2      1436      2627      2701      2708
 -1      8105    3    0    1
 -2      1436       112      1473      2708
 -1      8106    3    0    1
 -2      2594      2646      2364      2399
 -1      8107    3    0    1
 -2      2587      2652      2709      2724
 -1      8108    3    0    1
 -2      1290      1259      2637      2754
 -1      8109    3    0    1
 -2      2078      2482      2554      2703
 -1      8110    3    0    1
 -2      2078      2096      2482      2703
 -1      8111    3    0    1
 -2      2180      2175      2521      2703
 -1      8112    3    0    1
 -2      2180      2521      2199      2703
 -1      8113    3    0    1
 -2      2199      2521      2690      2703
 -1      8114    3    0    1
 -2      2180      2199      2555      2703
 -1      8115    3    0    1
 -2      2555      2199      2690      2703
 -1      8116    3    0    1
 -2      2078      2485      2371      2703
 -1      8117    3    0    1
 -2      2485      2078      2554      2703
 -1      8118    3    0    1
 -2      2157      2082      2555      2703
 -1      8119    3    0    1
 -2      1984      2157      2555      2703
 -1      8120    3    0    1
 -2      2143      2082      2157      2703
 -1      8121    3    0    1
 -2      2188      2180      2555      2703
 -1      8122    3    0    1
 -2      2082      2188      2555      2703
 -1      8123    3    0    1
 -2      2143      2175      2180      2703
 -1      8124    3    0    1
 -2      2082      2143      2180      2703
 -1      8125    3    0    1
 -2      2175      1984      2371      2703
 -1      8126    3    0    1
 -2      1984      2096      2371      2703
 -1      8127    3    0    1
 -2      2096      2078      2371      2703
 -1      8128    3    0    1
 -2      2157      1984      2175      2703
 -1      8129    3    0    1
 -2      2143      2157      2175      2703
 -1      8130    3    0    1
 -2      2082      2180      2188      2703
 -1      8131    3    0    1
 -2      1267      2510      1335      2704
 -1      8132    3    0    1
 -2      2510      1267      2558      2704
 -1      8133    3    0    1
 -2      2558      1267      1335      2704
 -1      8134    3    0    1
 -2      2539      2558      2582      2704
 -1      8135    3    0    1
 -2      2582      2558      1349      2704
 -1      8136    3    0    1
 -2      1335      1265      2290      2704
 -1      8137    3    0    1
 -2       352      2662      2672      1486
 -1      8138    3    0    1
 -2      1335      2290      2332      2704
 -1      8139    3    0    1
 -2      1349      1335      2332      2704
 -1      8140    3    0    1
 -2      2628      2605      2647      2733
 -1      8141    3    0    1
 -2      2588      2605      2653      2733
 -1      8142    3    0    1
 -2      2605      2628      2653      2733
 -1      8143    3    0    1
 -2      1402      2588      2653      2733
 -1      8144    3    0    1
 -2      2475      2478      2129      2705
 -1      8145    3    0    1
 -2       897      2475      2129      2705
 -1      8146    3    0    1
 -2      2518      1218      1257      2705
 -1      8147    3    0    1
 -2      2518      1257      2648      2705
 -1      8148    3    0    1
 -2      2623      2518      2648      2705
 -1      8149    3    0    1
 -2      1293      1257      2663      2705
 -1      8150    3    0    1
 -2      1257      1293      2648      2705
 -1      8151    3    0    1
 -2      1350      1413      2764      2470
 -1      8152    3    0    1
 -2      1223      2563      2687      2705
 -1      8153    3    0    1
 -2      2478       900      2129      2705
 -1      8154    3    0    1
 -2       900       897      2129      2705
 -1      8155    3    0    1
 -2      2599      2547      2603      2734
 -1      8156    3    0    1
 -2      2231      2568      2626      2736
 -1      8157    3    0    1
 -2      2644      2580      2736      2751
 -1      8158    3    0    1
 -2      2687      1350      2718      2764
 -1      8159    3    0    1
 -2       537       538       540      2706
 -1      8160    3    0    1
 -2      2305       737       537       739
 -1      8161    3    0    1
 -2      2717      1458      1516      2748
 -1      8162    3    0    1
 -2      2655      2569      2717      2748
 -1      8163    3    0    1
 -2      2730      2698      2748      2763
 -1      8164    3    0    1
 -2      2698      2655      2730      2748
 -1      8165    3    0    1
 -2      2296      1289      2340      2408
 -1      8166    3    0    1
 -2         1      1513      2762      2763
 -1      8167    3    0    1
 -2      2652      1375      1459      2729
 -1      8168    3    0    1
 -2       541      1000      2350      2706
 -1      8169    3    0    1
 -2      1435      2731      2749      2460
 -1      8170    3    0    1
 -2      1000      1261      2350      2706
 -1      8171    3    0    1
 -2      1230       998      2305      2706
 -1      8172    3    0    1
 -2       537       541      2350      2706
 -1      8173    3    0    1
 -2      2350      1261      2369      2706
 -1      8174    3    0    1
 -2       998       540      2305      2706
 -1      8175    3    0    1
 -2       737       537      2350      2706
 -1      8176    3    0    1
 -2       540       538      2305      2706
 -1      8177    3    0    1
 -2       737      2305       537      2706
 -1      8178    3    0    1
 -2       537      2305       739       538
 -1      8179    3    0    1
 -2      2687      2705      1262      2764
 -1      8180    3    0    1
 -2      2600      2627      1436      2708
 -1      8181    3    0    1
 -2      2627      2602      2658      2708
 -1      8182    3    0    1
 -2      1359      2602      2637      2708
 -1      8183    3    0    1
 -2      2602      1359      1389      2708
 -1      8184    3    0    1
 -2       112      1436      2701      2708
 -1      8185    3    0    1
 -2      2658       112      2701      2708
 -1      8186    3    0    1
 -2      2602      2600      2637      2708
 -1      8187    3    0    1
 -2      2600      2602      2627      2708
 -1      8188    3    0    1
 -2      2637      1436      2600      1290
 -1      8189    3    0    1
 -2      1436      2637      2600      2708
 -1      8190    3    0    1
 -2      2645      2587      2652      2709
 -1      8191    3    0    1
 -2      2679      1376      1463      2709
 -1      8192    3    0    1
 -2      2676       378      1454      2722
 -1      8193    3    0    1
 -2      2580      2626      2667      2745
 -1      8194    3    0    1
 -2      1464      1429      2699      2715
 -1      8195    3    0    1
 -2      1380      2679      1463      2737
 -1      8196    3    0    1
 -2      2657      2697      2699      2715
 -1      8197    3    0    1
 -2       355       107      2390      2714
 -1      8198    3    0    1
 -2      2304      1463      2724      2737
 -1      8199    3    0    1
 -2      1324      2338      1499      2437
 -1      8200    3    0    1
 -2      1460       351      1463      2709
 -1      8201    3    0    1
 -2      2738      2668      1518      2756
 -1      8202    3    0    1
 -2      2654      1324      1493      2437
 -1      8203    3    0    1
 -2      2341      1442      2385      2417
 -1      8204    3    0    1
 -2      2583      2209      2304      2737
 -1      8205    3    0    1
 -2      2587      2583      2724      2737
 -1      8206    3    0    1
 -2      2560      2212      2229      2765
 -1      8207    3    0    1
 -2      1463      2709      2724      2737
 -1      8208    3    0    1
 -2      1463      2679      2709      2737
 -1      8209    3    0    1
 -2      1279      2601      1380      2737
 -1      8210    3    0    1
 -2      2583      2304      2724      2737
 -1      8211    3    0    1
 -2      2612      1316      2696      2710
 -1      8212    3    0    1
 -2      1298      2612      2696      2710
 -1      8213    3    0    1
 -2      2533      1297      2573      2722
 -1      8214    3    0    1
 -2      2263      2226      2635      2710
 -1      8215    3    0    1
 -2      2226      2263      2266      2710
 -1      8216    3    0    1
 -2      1426      1298      2696      2710
 -1      8217    3    0    1
 -2      1316      1426      2696      2710
 -1      8218    3    0    1
 -2      2266      2263      2341      2710
 -1      8219    3    0    1
 -2      2213      2208      2579      2386
 -1      8220    3    0    1
 -2      1316      1315      2266      2710
 -1      8221    3    0    1
 -2      1315      2226      2266      2710
 -1      8222    3    0    1
 -2      2579      2208      1387      2386
 -1      8223    3    0    1
 -2      1235      1298      2263      2710
 -1      8224    3    0    1
 -2      2263      1298      2341      2710
 -1      8225    3    0    1
 -2      1364      2661      2689      2388
 -1      8226    3    0    1
 -2      1069      1067      2493      2712
 -1      8227    3    0    1
 -2      2670      2693      1494      2432
 -1      8228    3    0    1
 -2      1319      1411      1412      2433
 -1      8229    3    0    1
 -2      1412      1411      2402      2433
 -1      8230    3    0    1
 -2      2493      1220      2639      2712
 -1      8231    3    0    1
 -2      1067      1069      2262      2712
 -1      8232    3    0    1
 -2      1067      1220      2493      2712
 -1      8233    3    0    1
 -2      1069      2230      2262      2712
 -1      8234    3    0    1
 -2      2262      2220      2272      2712
 -1      8235    3    0    1
 -2      2272      2220      2313      2712
 -1      8236    3    0    1
 -2      2230      2220      2262      2712
 -1      8237    3    0    1
 -2      1443      1507      1518      2756
 -1      8238    3    0    1
 -2      1241      2269      2678      2391
 -1      8239    3    0    1
 -2      2639      1220      2387      2712
 -1      8240    3    0    1
 -2      2597      1307      2702      2746
 -1      8241    3    0    1
 -2      2296      2340      2706      2758
 -1      8242    3    0    1
 -2       437       390      2693      2432
 -1      8243    3    0    1
 -2      2668      2669      1518      2756
 -1      8244    3    0    1
 -2      1424       378      1454      2426
 -1      8245    3    0    1
 -2      1281      1275      2639      2712
 -1      8246    3    0    1
 -2      1356      2619      1443      2756
 -1      8247    3    0    1
 -2      1220      2262      2272      2712
 -1      8248    3    0    1
 -2      1220      1067      2262      2712
 -1      8249    3    0    1
 -2      2670      2312      2403      2432
 -1      8250    3    0    1
 -2      1220      2272      2387      2712
 -1      8251    3    0    1
 -2      1497      1521      2473      2474
 -1      8252    3    0    1
 -2      1275      1281      2313      2712
 -1      8253    3    0    1
 -2      1315      2560      2614      2713
 -1      8254    3    0    1
 -2      2547      2603      2615      2718
 -1      8255    3    0    1
 -2      1315      2614      1458      2713
 -1      8256    3    0    1
 -2      1141      1638      2546      2713
 -1      8257    3    0    1
 -2      1141      1139      1638      2713
 -1      8258    3    0    1
 -2      1249      2500      2665      2718
 -1      8259    3    0    1
 -2        41      1413      1475      2718
 -1      8260    3    0    1
 -2      2503      1139      1253      2713
 -1      8261    3    0    1
 -2      1253      1139      2635      2713
 -1      8262    3    0    1
 -2      2547      2514      2603      2718
 -1      8263    3    0    1
 -2      2615      2603      1413      2718
 -1      8264    3    0    1
 -2      2603      1350      1413      2718
 -1      8265    3    0    1
 -2      1139      1141      2635      2713
 -1      8266    3    0    1
 -2      1141      2546      2710      2713
 -1      8267    3    0    1
 -2      2635      1141      2710      2713
 -1      8268    3    0    1
 -2      1638      2097      2183      2713
 -1      8269    3    0    1
 -2      1944      1844      2060      2716
 -1      8270    3    0    1
 -2      2557      2198      2364      2716
 -1      8271    3    0    1
 -2      1437      2557      2364      2716
 -1      8272    3    0    1
 -2      2083      1844      2178      2716
 -1      8273    3    0    1
 -2      2047      1944      2152      2716
 -1      8274    3    0    1
 -2      2047      2152      2198      2716
 -1      8275    3    0    1
 -2      2152      2060      2187      2716
 -1      8276    3    0    1
 -2      1265      2152      2290      2716
 -1      8277    3    0    1
 -2      2152      1265      2364      2716
 -1      8278    3    0    1
 -2      1944      2060      2152      2716
 -1      8279    3    0    1
 -2      2198      2152      2364      2716
 -1      8280    3    0    1
 -2      1265      1437      2364      2716
 -1      8281    3    0    1
 -2      1420      2450      2452      2468
 -1      8282    3    0    1
 -2      1315      2710      2713      2717
 -1      8283    3    0    1
 -2      1280      2554      2689      2759
 -1      8284    3    0    1
 -2      2466      1387      2472      2766
 -1      8285    3    0    1
 -2      1254      2503      2569      2731
 -1      8286    3    0    1
 -2      1315      2635      2710      2717
 -1      8287    3    0    1
 -2      2635      1253      2713      2717
 -1      8288    3    0    1
 -2      2710      2635      2713      2717
 -1      8289    3    0    1
 -2      2584      2503      2731      2765
 -1      8290    3    0    1
 -2      2615        41      2665      2718
 -1      8291    3    0    1
 -2        41      2615      1413      2718
 -1      8292    3    0    1
 -2      1350      2514      2687      2718
 -1      8293    3    0    1
 -2      2514      1350      2603      2718
 -1      8294    3    0    1
 -2       349      2727      2729      2735
 -1      8295    3    0    1
 -2      2668      2579      2386      2453
 -1      8296    3    0    1
 -2      2200      2523      2586      2719
 -1      8297    3    0    1
 -2      2675       390      2693      1490
 -1      8298    3    0    1
 -2       390       437      2693      1490
 -1      8299    3    0    1
 -2      1275      2639      2712      2719
 -1      8300    3    0    1
 -2      1470      1392      2409      2440
 -1      8301    3    0    1
 -2      2687      1223      2705      2764
 -1      8302    3    0    1
 -2      1352      2631      2634      2747
 -1      8303    3    0    1
 -2      1375      2652      1459      2727
 -1      8304    3    0    1
 -2       349       351      1460      2727
 -1      8305    3    0    1
 -2      1459       349      1460      2727
 -1      8306    3    0    1
 -2      2639      1281      2712      2414
 -1      8307    3    0    1
 -2      1290      2637      1436      2423
 -1      8308    3    0    1
 -2      2654      1400      2338      1493
 -1      8309    3    0    1
 -2      1436      2637      2708      2423
 -1      8310    3    0    1
 -2      2637      1359      2708      2423
 -1      8311    3    0    1
 -2      1400      2593      2299      1493
 -1      8312    3    0    1
 -2      2299      2593      2670      1493
 -1      8313    3    0    1
 -2      1359      2637      2404      2423
 -1      8314    3    0    1
 -2      2637      1290      2383      2423
 -1      8315    3    0    1
 -2      2631      2506      2634      2747
 -1      8316    3    0    1
 -2      1359      1389      2708      2423
 -1      8317    3    0    1
 -2      2639      1281      2694      2719
 -1      8318    3    0    1
 -2      2476      2493      2639      2719
 -1      8319    3    0    1
 -2      2488      2476      2639      2719
 -1      8320    3    0    1
 -2      2476      2488      2683      2719
 -1      8321    3    0    1
 -2      2493      2476      2683      2719
 -1      8322    3    0    1
 -2      2511      2062      2542      2719
 -1      8323    3    0    1
 -2      2181      2523      2200      2719
 -1      8324    3    0    1
 -2      2200      2586      2694      2719
 -1      8325    3    0    1
 -2      1281      2200      2694      2719
 -1      8326    3    0    1
 -2      2542      2181      2300      2719
 -1      8327    3    0    1
 -2      1734      2523      2542      2719
 -1      8328    3    0    1
 -2      2062      1734      2542      2719
 -1      8329    3    0    1
 -2      1734      2062      2523      2719
 -1      8330    3    0    1
 -2      1275      2181      2200      2719
 -1      8331    3    0    1
 -2      1281      1275      2200      2719
 -1      8332    3    0    1
 -2      2181      1275      2300      2719
 -1      8333    3    0    1
 -2       207      1438      1447      2726
 -1      8334    3    0    1
 -2       207      1447      2681      2726
 -1      8335    3    0    1
 -2      1232      2548      2639      2726
 -1      8336    3    0    1
 -2      2681      1447      2694      2726
 -1      8337    3    0    1
 -2      1312      1424      1454      2426
 -1      8338    3    0    1
 -2      2617      1332      1438      2726
 -1      8339    3    0    1
 -2      1281      2639      2694      2726
 -1      8340    3    0    1
 -2      1447      1281      2694      2726
 -1      8341    3    0    1
 -2      2344      1229      2347      2450
 -1      8342    3    0    1
 -2      2668      2386      1510      2453
 -1      8343    3    0    1
 -2      2561      1284      2644      2743
 -1      8344    3    0    1
 -2      1481      1495      1512      2454
 -1      8345    3    0    1
 -2      1417      2363      2420      2451
 -1      8346    3    0    1
 -2      2724      2709      2412      2735
 -1      8347    3    0    1
 -2      2709      2652      2727      2735
 -1      8348    3    0    1
 -2      2259      1255      2268      2396
 -1      8349    3    0    1
 -2      2280      1386      1491      2396
 -1      8350    3    0    1
 -2      2268      1386      2280      2396
 -1      8351    3    0    1
 -2      1255      1386      2268      2396
 -1      8352    3    0    1
 -2      1324      1394      2638      2742
 -1      8353    3    0    1
 -2      2638      1394      2675      2742
 -1      8354    3    0    1
 -2      1324      2638      2654      2742
 -1      8355    3    0    1
 -2      2610      2638      2675      2742
 -1      8356    3    0    1
 -2      2582      2292      2356      2720
 -1      8357    3    0    1
 -2      2582      2532      2292      2720
 -1      8358    3    0    1
 -2      2197      2532      2309      2720
 -1      8359    3    0    1
 -2      2532      2197      2292      2720
 -1      8360    3    0    1
 -2      1346      1407      2309      2720
 -1      8361    3    0    1
 -2      2593      2670      1493      2742
 -1      8362    3    0    1
 -2      2309      1407      2356      2720
 -1      8363    3    0    1
 -2      2292      2309      2356      2720
 -1      8364    3    0    1
 -2      2610      2593      2654      2742
 -1      8365    3    0    1
 -2      2292      2197      2309      2720
 -1      8366    3    0    1
 -2      2668      2619      2669      2721
 -1      8367    3    0    1
 -2      2597      2646      2691      2746
 -1      8368    3    0    1
 -2      2598      2564      2619      2721
 -1      8369    3    0    1
 -2      2619      2564      2669      2721
 -1      8370    3    0    1
 -2      1348      2651      1488      2451
 -1      8371    3    0    1
 -2      1420      1229      2344      2450
 -1      8372    3    0    1
 -2      1282      1356      2384      2721
 -1      8373    3    0    1
 -2      2258      2218      2260      2754
 -1      8374    3    0    1
 -2      2723       372      2430      2455
 -1      8375    3    0    1
 -2      2625      1388      1495      2427
 -1      8376    3    0    1
 -2      2625      1495      2626      2745
 -1      8377    3    0    1
 -2      1382      2580      2667      2745
 -1      8378    3    0    1
 -2      1382      2667      1481      2745
 -1      8379    3    0    1
 -2      2646      2594      1496      2746
 -1      8380    3    0    1
 -2      1416      2691      1480      2746
 -1      8381    3    0    1
 -2      1430      2618      2715      2740
 -1      8382    3    0    1
 -2       862      2314      2317      2749
 -1      8383    3    0    1
 -2      2249      2238      2466      2766
 -1      8384    3    0    1
 -2      1482       107      1483      2416
 -1      8385    3    0    1
 -2      1395      2583      2279      2724
 -1      8386    3    0    1
 -2      2631      1360      2747      2444
 -1      8387    3    0    1
 -2      1261      2369      2747      2444
 -1      8388    3    0    1
 -2      2279      2304      2365      2724
 -1      8389    3    0    1
 -2      2630      1347      1433      2759
 -1      8390    3    0    1
 -2      2250      2306      2689      2759
 -1      8391    3    0    1
 -2      2279      2365      1471      2724
 -1      8392    3    0    1
 -2      1395      2279      1471      2724
 -1      8393    3    0    1
 -2      2375      1448      2378      2411
 -1      8394    3    0    1
 -2      2270      1422      2345      2425
 -1      8395    3    0    1
 -2      2314      2278      2317      2749
 -1      8396    3    0    1
 -2      1393      1323      2638      2725
 -1      8397    3    0    1
 -2      2610      2593      2670      2725
 -1      8398    3    0    1
 -2      1507       379      1518      2756
 -1      8399    3    0    1
 -2      1440      1456      2401      2402
 -1      8400    3    0    1
 -2      2593      2610      2622      2725
 -1      8401    3    0    1
 -2      2622      2610      2649      2725
 -1      8402    3    0    1
 -2      2610      2670      2693      2725
 -1      8403    3    0    1
 -2      2693      2670      1494      2725
 -1      8404    3    0    1
 -2       390      2693      1494      2725
 -1      8405    3    0    1
 -2       390      2675      2725      1489
 -1      8406    3    0    1
 -2      1489       390      1494      2725
 -1      8407    3    0    1
 -2      2738       379      1518      2469
 -1      8408    3    0    1
 -2      1397      2622      2649      2725
 -1      8409    3    0    1
 -2      2593      2622      1397      2725
 -1      8410    3    0    1
 -2      1397      2670      2725      1494
 -1      8411    3    0    1
 -2      2617       207      2681      2726
 -1      8412    3    0    1
 -2       207      2617      1438      2726
 -1      8413    3    0    1
 -2      2714      1483      2736      2751
 -1      8414    3    0    1
 -2      1356      1518      2721      2756
 -1      8415    3    0    1
 -2      2712      2236      1069      2230
 -1      8416    3    0    1
 -2      2668      2619      2721      2756
 -1      8417    3    0    1
 -2      2434      1466      2457      2755
 -1      8418    3    0    1
 -2      2619      1356      2721      2756
 -1      8419    3    0    1
 -2      2711      2668      2738      2756
 -1      8420    3    0    1
 -2      1376      1459      1460      2727
 -1      8421    3    0    1
 -2      1376      1375      1459      2727
 -1      8422    3    0    1
 -2      1261      2506      2631      2747
 -1      8423    3    0    1
 -2      2617       218      2728      2681
 -1      8424    3    0    1
 -2      1333      1439      1461      2728
 -1      8425    3    0    1
 -2      2617      2640      2681      2728
 -1      8426    3    0    1
 -2      1233      2548      1333      2728
 -1      8427    3    0    1
 -2      1334      2616      2284      2406
 -1      8428    3    0    1
 -2       218      1439      1461      2406
 -1      8429    3    0    1
 -2      1427      1450      1486      2436
 -1      8430    3    0    1
 -2      1449      1381      2405      2406
 -1      8431    3    0    1
 -2      1363      2391      2415      2436
 -1      8432    3    0    1
 -2      1461      2681      2640      2728
 -1      8433    3    0    1
 -2       218      2681      1461      2728
 -1      8434    3    0    1
 -2      1439       218      1461      2728
 -1      8435    3    0    1
 -2      1233      1461      2435      2406
 -1      8436    3    0    1
 -2      1427      1363      1450      2436
 -1      8437    3    0    1
 -2      1233      2406      2435      2405
 -1      8438    3    0    1
 -2      2631      1374      1462      2407
 -1      8439    3    0    1
 -2      1360      2631      1462      2445
 -1      8440    3    0    1
 -2      2270      2680      2354      2760
 -1      8441    3    0    1
 -2      2352      2296      2369      2747
 -1      8442    3    0    1
 -2       389      1403      1476      2439
 -1      8443    3    0    1
 -2      1289      1392      2340      2408
 -1      8444    3    0    1
 -2      2645      1375      2652      2729
 -1      8445    3    0    1
 -2      2587      2645      2652      2729
 -1      8446    3    0    1
 -2      2587      2652      2724      2729
 -1      8447    3    0    1
 -2      2654      1248      2316      2749
 -1      8448    3    0    1
 -2      1325      1375      2645      2729
 -1      8449    3    0    1
 -2      2387      2639      2712      2414
 -1      8450    3    0    1
 -2      1459       349      2727      2729
 -1      8451    3    0    1
 -2       349      1459      1471      2729
 -1      8452    3    0    1
 -2      2583      2587      2724      2729
 -1      8453    3    0    1
 -2      2583      1395      2642      2729
 -1      8454    3    0    1
 -2      2587      2583      2642      2729
 -1      8455    3    0    1
 -2      1395      2583      2724      2729
 -1      8456    3    0    1
 -2      1471      1395      2724      2729
 -1      8457    3    0    1
 -2      1444      1510      2753      2766
 -1      8458    3    0    1
 -2      1510      1444      2467      2766
 -1      8459    3    0    1
 -2      1379      2569      2655      2731
 -1      8460    3    0    1
 -2      1291      1435      2749      2460
 -1      8461    3    0    1
 -2      2459      2698      2442      2763
 -1      8462    3    0    1
 -2      2226      2277      2635      2431
 -1      8463    3    0    1
 -2      2698      2459      2442      2410
 -1      8464    3    0    1
 -2      1458      2698      1516      2748
 -1      8465    3    0    1
 -2      1516      2698      2459      2763
 -1      8466    3    0    1
 -2      2698      1516      2748      2763
 -1      8467    3    0    1
 -2       388      1514      1516      2748
 -1      8468    3    0    1
 -2      1315      2635      2717      2431
 -1      8469    3    0    1
 -2      2448      2384      1520      2471
 -1      8470    3    0    1
 -2      2569      2655      2698      2748
 -1      8471    3    0    1
 -2      1421      1429      1464      2411
 -1      8472    3    0    1
 -2      1320      1421      2707      2411
 -1      8473    3    0    1
 -2      2378      1320      2707      2411
 -1      8474    3    0    1
 -2      1322      2375      2707      2411
 -1      8475    3    0    1
 -2      1421      1322      2707      2411
 -1      8476    3    0    1
 -2       358      1421      1464      2411
 -1      8477    3    0    1
 -2      1472      1429      2378      2411
 -1      8478    3    0    1
 -2      1448      1472      2378      2411
 -1      8479    3    0    1
 -2      1429      1320      2378      2411
 -1      8480    3    0    1
 -2      1464      1429      1472      2411
 -1      8481    3    0    1
 -2       358      1464      1472      2411
 -1      8482    3    0    1
 -2      2631      1462      2600      2732
 -1      8483    3    0    1
 -2      2600      2602      2631      2732
 -1      8484    3    0    1
 -2      2602      2600      2627      2732
 -1      8485    3    0    1
 -2       353      1462      1474      2732
 -1      8486    3    0    1
 -2      1462       353      2701      2732
 -1      8487    3    0    1
 -2      2658       353      1474      2732
 -1      8488    3    0    1
 -2       353      2658      2701      2732
 -1      8489    3    0    1
 -2      1356      1443      2384      2471
 -1      8490    3    0    1
 -2      2407      2631      2747      2444
 -1      8491    3    0    1
 -2      1360      1261      2747      2444
 -1      8492    3    0    1
 -2      1443      1518      1356      2756
 -1      8493    3    0    1
 -2      2628       234      2653      2733
 -1      8494    3    0    1
 -2      2346      2335      2382      2733
 -1      8495    3    0    1
 -2       371      2346      2382      2733
 -1      8496    3    0    1
 -2       234       371      2382      2733
 -1      8497    3    0    1
 -2      1402       234      2382      2733
 -1      8498    3    0    1
 -2      2335      1402      2382      2733
 -1      8499    3    0    1
 -2      2445      1390      1360      2444
 -1      8500    3    0    1
 -2      2615      2547      2665      2734
 -1      8501    3    0    1
 -2       389      2665      1476      2734
 -1      8502    3    0    1
 -2      1403       389      1476      2734
 -1      8503    3    0    1
 -2      2500      1250      2665      2734
 -1      8504    3    0    1
 -2      1250      2500      2599      2734
 -1      8505    3    0    1
 -2      2603      2547      2615      2734
 -1      8506    3    0    1
 -2      2603      2615      1403      2734
 -1      8507    3    0    1
 -2       389      2615      2665      2734
 -1      8508    3    0    1
 -2      2615       389      1403      2734
 -1      8509    3    0    1
 -2         1       388      2459      2763
 -1      8510    3    0    1
 -2      1452      1406      2395      2413
 -1      8511    3    0    1
 -2        70      1406      1452      2413
 -1      8512    3    0    1
 -2      2652      2724      2729      2735
 -1      8513    3    0    1
 -2      2727      2652      2729      2735
 -1      8514    3    0    1
 -2       351       349      2412      2735
 -1      8515    3    0    1
 -2       349      1471      2412      2735
 -1      8516    3    0    1
 -2       107      1483      2714      2751
 -1      8517    3    0    1
 -2      2667      1383      1482      2751
 -1      8518    3    0    1
 -2      1458      2717      1516      2474
 -1      8519    3    0    1
 -2      1467      1378      2473      2474
 -1      8520    3    0    1
 -2      1482      1383      1483      2751
 -1      8521    3    0    1
 -2      1483      2644      2736      2751
 -1      8522    3    0    1
 -2      1308      2272      2313      2414
 -1      8523    3    0    1
 -2       107      1482      1483      2751
 -1      8524    3    0    1
 -2      2272      1399      2387      2414
 -1      8525    3    0    1
 -2      2667      2714      2736      2751
 -1      8526    3    0    1
 -2      2272      1308      1399      2414
 -1      8527    3    0    1
 -2      2231      2626      2343      2736
 -1      8528    3    0    1
 -2      2532      2187      2422      2752
 -1      8529    3    0    1
 -2      2524      2075      2743      2752
 -1      8530    3    0    1
 -2      2671      2626      2714      2736
 -1      8531    3    0    1
 -2      1483      2671      2714      2736
 -1      8532    3    0    1
 -2      2501      1844      2716      2752
 -1      8533    3    0    1
 -2      2343      2626      2671      2736
 -1      8534    3    0    1
 -2      2343      2671      1483      2736
 -1      8535    3    0    1
 -2      1396      2231      1483      2736
 -1      8536    3    0    1
 -2      2231      2343      1483      2736
 -1      8537    3    0    1
 -2      2528      2082      2209      2737
 -1      8538    3    0    1
 -2      2082      2528      2556      2737
 -1      8539    3    0    1
 -2      2583      2543      2601      2737
 -1      8540    3    0    1
 -2      2543      2583      2587      2737
 -1      8541    3    0    1
 -2      2543      2587      2679      2737
 -1      8542    3    0    1
 -2      2601      2543      2679      2737
 -1      8543    3    0    1
 -2      1279      1380      2304      2737
 -1      8544    3    0    1
 -2      2209      1279      2304      2737
 -1      8545    3    0    1
 -2      2304      1380      1463      2737
 -1      8546    3    0    1
 -2      2082      1279      2209      2737
 -1      8547    3    0    1
 -2      2651      1348      2420      2451
 -1      8548    3    0    1
 -2      2060      2568      2743      2752
 -1      8549    3    0    1
 -2       440       379      2711      2738
 -1      8550    3    0    1
 -2      1379      2655      1468      2762
 -1      8551    3    0    1
 -2      2450      2376      2452      2761
 -1      8552    3    0    1
 -2      1483      2416      2425      2760
 -1      8553    3    0    1
 -2       379      2711      1507      1508
 -1      8554    3    0    1
 -2       379       440      2711      1508
 -1      8555    3    0    1
 -2      2711       440      2753      1508
 -1      8556    3    0    1
 -2      2501      2532      2720      2752
 -1      8557    3    0    1
 -2      2568      2524      2743      2752
 -1      8558    3    0    1
 -2      2146      2524      2568      2752
 -1      8559    3    0    1
 -2       379      2711      2756      1507
 -1      8560    3    0    1
 -2      1844      2060      2716      2752
 -1      8561    3    0    1
 -2      2720      2532      2422      2752
 -1      8562    3    0    1
 -2      1435      2731      2762      2765
 -1      8563    3    0    1
 -2      2579      2668      2449      2453
 -1      8564    3    0    1
 -2       440      2738      1510      2453
 -1      8565    3    0    1
 -2      2083      1844      2501      2752
 -1      8566    3    0    1
 -2      2216      2248      2297      2418
 -1      8567    3    0    1
 -2      1321      2618      1430      2740
 -1      8568    3    0    1
 -2      2618      2596      2657      2740
 -1      8569    3    0    1
 -2      1465      1430      2715      2740
 -1      8570    3    0    1
 -2      2248      1265      2621      2418
 -1      8571    3    0    1
 -2      2248      2621      2297      2418
 -1      8572    3    0    1
 -2      2621      1265      1437      2418
 -1      8573    3    0    1
 -2      2695      1430      1466      2740
 -1      8574    3    0    1
 -2      2621      1244      2297      2418
 -1      8575    3    0    1
 -2      2621      1437      2702      2418
 -1      8576    3    0    1
 -2      2657      1469      2715      2740
 -1      8577    3    0    1
 -2      1469      1465      2715      2740
 -1      8578    3    0    1
 -2      2618      1321      2695      2740
 -1      8579    3    0    1
 -2      1228      2297      1477      2418
 -1      8580    3    0    1
 -2      2650      1466      1469      2740
 -1      8581    3    0    1
 -2      1430      1465      1469      2740
 -1      8582    3    0    1
 -2      2522      2564      2598      2739
 -1      8583    3    0    1
 -2       625       624      2541      2739
 -1      8584    3    0    1
 -2       624       625      1123      2739
 -1      8585    3    0    1
 -2      1123       625      2541      2739
 -1      8586    3    0    1
 -2      2487      2127      2546      2739
 -1      8587    3    0    1
 -2      2127      1121      2546      2739
 -1      8588    3    0    1
 -2      2546      1121      2585      2739
 -1      8589    3    0    1
 -2      2487      2546      2585      2739
 -1      8590    3    0    1
 -2      2564      2669      2721      2739
 -1      8591    3    0    1
 -2      2598      2564      2721      2739
 -1      8592    3    0    1
 -2      2007      2065      2136      2739
 -1      8593    3    0    1
 -2      2065      2007      2127      2739
 -1      8594    3    0    1
 -2      1469      2657      2650      2740
 -1      8595    3    0    1
 -2      2559      2618      2695      2740
 -1      8596    3    0    1
 -2      2596      2559      2695      2740
 -1      8597    3    0    1
 -2      2559      2596      2618      2740
 -1      8598    3    0    1
 -2      2632      2596      2695      2740
 -1      8599    3    0    1
 -2      2596      2632      1398      2740
 -1      8600    3    0    1
 -2      1398      2632      2695      2740
 -1      8601    3    0    1
 -2      2293      1417      2363      2420
 -1      8602    3    0    1
 -2      2293      1236      1417      2420
 -1      8603    3    0    1
 -2        57      1479      1488      2741
 -1      8604    3    0    1
 -2      2597      2594      2651      2741
 -1      8605    3    0    1
 -2      2594      2597      2646      2741
 -1      8606    3    0    1
 -2      2651      1488      2594      1348
 -1      8607    3    0    1
 -2      1488      2651      2594      2741
 -1      8608    3    0    1
 -2      1376      1460      1491      2421
 -1      8609    3    0    1
 -2      1460       351      1491      2421
 -1      8610    3    0    1
 -2      2532      2187      2720      2422
 -1      8611    3    0    1
 -2      1424      1312      1451      2426
 -1      8612    3    0    1
 -2      2246      1121      2286      2744
 -1      8613    3    0    1
 -2      1451      1312      2397      2426
 -1      8614    3    0    1
 -2       378      1424      1451      2426
 -1      8615    3    0    1
 -2      2232      2258      2283      2754
 -1      8616    3    0    1
 -2      2721      1282      2739      2744
 -1      8617    3    0    1
 -2      1312      1297      2397      2426
 -1      8618    3    0    1
 -2      1123      1121      2739      2744
 -1      8619    3    0    1
 -2      1121      1123      2286      2744
 -1      8620    3    0    1
 -2      2202      2568      2231      2422
 -1      8621    3    0    1
 -2      2202      2060      2568      2422
 -1      8622    3    0    1
 -2      1121      2585      2739      2744
 -1      8623    3    0    1
 -2      1453      2358      2721      2744
 -1      8624    3    0    1
 -2      1493      2654      2593      2742
 -1      8625    3    0    1
 -2      1492      1389      2404      2423
 -1      8626    3    0    1
 -2      1478      1492      2404      2423
 -1      8627    3    0    1
 -2      1473      1389      1492      2423
 -1      8628    3    0    1
 -2       112      1473      1492      2423
 -1      8629    3    0    1
 -2      1389      1359      2404      2423
 -1      8630    3    0    1
 -2      1439      1461      2406      2435
 -1      8631    3    0    1
 -2      1333      1461      1233      2728
 -1      8632    3    0    1
 -2      1441      2236      2400      2424
 -1      8633    3    0    1
 -2      1321      2695      2434      2755
 -1      8634    3    0    1
 -2      2220      2313      2712      2755
 -1      8635    3    0    1
 -2      1274      2236      1441      2424
 -1      8636    3    0    1
 -2      1323      1247      2649      2761
 -1      8637    3    0    1
 -2      2449      2738      2453      2668
 -1      8638    3    0    1
 -2      1357      1444      2711      2753
 -1      8639    3    0    1
 -2      2668      2738      1510      2753
 -1      8640    3    0    1
 -2      2668      2711      2738      2753
 -1      8641    3    0    1
 -2      2711      1444      1508      2753
 -1      8642    3    0    1
 -2       390      1489      1494      2468
 -1      8643    3    0    1
 -2      2568      2524      2736      2743
 -1      8644    3    0    1
 -2      1396      2568      2736      2743
 -1      8645    3    0    1
 -2      2568      2231      2422      2743
 -1      8646    3    0    1
 -2      2231      2568      1396      2743
 -1      8647    3    0    1
 -2      2213      2579      1518      2449
 -1      8648    3    0    1
 -2      1420      2344      2376      2450
 -1      8649    3    0    1
 -2      1284      1396      2644      2743
 -1      8650    3    0    1
 -2      2644      1396      2736      2743
 -1      8651    3    0    1
 -2      2524      2520      2534      2743
 -1      8652    3    0    1
 -2      2534      2520      2644      2743
 -1      8653    3    0    1
 -2      2524      2534      2736      2743
 -1      8654    3    0    1
 -2      2736      2534      2644      2743
 -1      8655    3    0    1
 -2      2534      2736      2644      2580
 -1      8656    3    0    1
 -2      1396      1284      2422      2743
 -1      8657    3    0    1
 -2      2231      1396      2422      2743
 -1      8658    3    0    1
 -2      1282      1123      2739      2744
 -1      8659    3    0    1
 -2      2397      2349      2426      2744
 -1      8660    3    0    1
 -2      1297      2397      2426      2744
 -1      8661    3    0    1
 -2      1367      2585      2722      2744
 -1      8662    3    0    1
 -2      2585      1297      2722      2744
 -1      8663    3    0    1
 -2      1454      1297      2426      2744
 -1      8664    3    0    1
 -2      1454      1367      2722      2744
 -1      8665    3    0    1
 -2      1297      1454      2722      2744
 -1      8666    3    0    1
 -2      2286      1282      2311      2744
 -1      8667    3    0    1
 -2      1234      2285      2397      2744
 -1      8668    3    0    1
 -2      1227      2325      2358      2744
 -1      8669    3    0    1
 -2      2325      2282      2358      2744
 -1      8670    3    0    1
 -2      2325      1367      2349      2744
 -1      8671    3    0    1
 -2      1227      1367      2325      2744
 -1      8672    3    0    1
 -2      1234      1121      2285      2744
 -1      8673    3    0    1
 -2      1123      1282      2286      2744
 -1      8674    3    0    1
 -2      1297      1234      2397      2744
 -1      8675    3    0    1
 -2      1227      2358      1453      2744
 -1      8676    3    0    1
 -2      1121      2246      2285      2744
 -1      8677    3    0    1
 -2      2349      1367      2426      2744
 -1      8678    3    0    1
 -2      1367      1454      2426      2744
 -1      8679    3    0    1
 -2      1353      1402      1369      2367
 -1      8680    3    0    1
 -2      1307      2429      1416      2428
 -1      8681    3    0    1
 -2      1496      2702      2594      1437
 -1      8682    3    0    1
 -2      2702      1496      2594      2746
 -1      8683    3    0    1
 -2      2594      2597      2702      2746
 -1      8684    3    0    1
 -2      2597      2594      2646      2746
 -1      8685    3    0    1
 -2      1480       372      1496      2746
 -1      8686    3    0    1
 -2      1496       372      2723      2746
 -1      8687    3    0    1
 -2      2730      2757      2762      2763
 -1      8688    3    0    1
 -2      2698      1513      2442      2763
 -1      8689    3    0    1
 -2      2460      2461      1501      2462
 -1      8690    3    0    1
 -2      1458      1315      2717      2431
 -1      8691    3    0    1
 -2      2635      1315      2710      2431
 -1      8692    3    0    1
 -2      2226      2635      2710      2431
 -1      8693    3    0    1
 -2      1315      2226      2710      2431
 -1      8694    3    0    1
 -2      2669      2668      2721      2756
 -1      8695    3    0    1
 -2      1465      1469      1500      2457
 -1      8696    3    0    1
 -2      1467      2717      1516      2748
 -1      8697    3    0    1
 -2      1411       361      2402      2433
 -1      8698    3    0    1
 -2       361      1456      2402      2433
 -1      8699    3    0    1
 -2      2236      2220      2712      2755
 -1      8700    3    0    1
 -2      2695      1271      2712      2755
 -1      8701    3    0    1
 -2      2236      2400      2424      2755
 -1      8702    3    0    1
 -2      2400      2434      2457      2755
 -1      8703    3    0    1
 -2      2313      1275      2712      2755
 -1      8704    3    0    1
 -2      2220      2236      2424      2755
 -1      8705    3    0    1
 -2      1363      1450      2415      2673
 -1      8706    3    0    1
 -2      1450      1363      2415      2436
 -1      8707    3    0    1
 -2      2506      2706      2634      2747
 -1      8708    3    0    1
 -2      1498      1450      2415      2436
 -1      8709    3    0    1
 -2      1434      1498      2415      2436
 -1      8710    3    0    1
 -2      1486      1450      1498      2436
 -1      8711    3    0    1
 -2       352      1486      1498      2436
 -1      8712    3    0    1
 -2      1394      1324      1499      2437
 -1      8713    3    0    1
 -2      1490      1394      1499      2437
 -1      8714    3    0    1
 -2       437      1490      1499      2437
 -1      8715    3    0    1
 -2      1453      2721      2448      1518
 -1      8716    3    0    1
 -2      2352      2369      2407      2747
 -1      8717    3    0    1
 -2      1352      1374      2631      2747
 -1      8718    3    0    1
 -2      1418      2257      2368      2438
 -1      8719    3    0    1
 -2      1459       349      1471      2458
 -1      8720    3    0    1
 -2      1261      2369      2706      2747
 -1      8721    3    0    1
 -2      2446      2333      2463      2764
 -1      8722    3    0    1
 -2      1360      1261      2631      2747
 -1      8723    3    0    1
 -2      2257      1418      2372      2438
 -1      8724    3    0    1
 -2      1476      1331      1504      2439
 -1      8725    3    0    1
 -2      1331      2372      1504      2439
 -1      8726    3    0    1
 -2      2372      1418      1504      2439
 -1      8727    3    0    1
 -2       389      1476      1504      2439
 -1      8728    3    0    1
 -2      2706      1261      2506      1000
 -1      8729    3    0    1
 -2       900      2295      2663      2764
 -1      8730    3    0    1
 -2      2369      2706      2296      2350
 -1      8731    3    0    1
 -2      2706      2369      2296      2747
 -1      8732    3    0    1
 -2      2731      2441      2749      2460
 -1      8733    3    0    1
 -2      1435      2731      2460      2462
 -1      8734    3    0    1
 -2      2706      2506       998      1000
 -1      8735    3    0    1
 -2      1261      2706      2506      2747
 -1      8736    3    0    1
 -2      1251      2315      1501      2460
 -1      8737    3    0    1
 -2      2731      1435      1513      2462
 -1      8738    3    0    1
 -2      1374      2352      2407      2747
 -1      8739    3    0    1
 -2      1374      1352      2352      2747
 -1      8740    3    0    1
 -2      1462      2631      2407      2445
 -1      8741    3    0    1
 -2      2352      1352      2408      2747
 -1      8742    3    0    1
 -2      2296      2352      2408      2747
 -1      8743    3    0    1
 -2      2698      2410      1516      2459
 -1      8744    3    0    1
 -2      2460      2731      2461      2462
 -1      8745    3    0    1
 -2      1378      1467      2717      1516
 -1      8746    3    0    1
 -2      2400      1441      2424      2457
 -1      8747    3    0    1
 -2      1500      2400      2434      2457
 -1      8748    3    0    1
 -2      1518      2721      2669      1453
 -1      8749    3    0    1
 -2      1430      1466      1469      2457
 -1      8750    3    0    1
 -2      1518      1356      2721      2448
 -1      8751    3    0    1
 -2      1443      2619      2711      2756
 -1      8752    3    0    1
 -2      1378      2655      2717      2748
 -1      8753    3    0    1
 -2      2655      1378      1467      2748
 -1      8754    3    0    1
 -2      1467      1378      2717      2748
 -1      8755    3    0    1
 -2      2569      2614      2717      2748
 -1      8756    3    0    1
 -2      2614      2569      2698      2748
 -1      8757    3    0    1
 -2      2295      2301      2663      2764
 -1      8758    3    0    1
 -2      2731      1513      2461      2462
 -1      8759    3    0    1
 -2      1438      1332      2447      2465
 -1      8760    3    0    1
 -2      1239      1034      2554      2759
 -1      8761    3    0    1
 -2      2461      2460      1501      2441
 -1      8762    3    0    1
 -2      2294      1344      2381      2443
 -1      8763    3    0    1
 -2      2584      1291      2731      2749
 -1      8764    3    0    1
 -2      1254      2584      2731      2749
 -1      8765    3    0    1
 -2      1291      2584      1400      2749
 -1      8766    3    0    1
 -2      1400      2584      2654      2749
 -1      8767    3    0    1
 -2      1400      2654      2316      2749
 -1      8768    3    0    1
 -2      1291      1435      2731      2749
 -1      8769    3    0    1
 -2      1379      2731      1513      2461
 -1      8770    3    0    1
 -2      1379      1254      2731      2749
 -1      8771    3    0    1
 -2      1379      2731      2441      2749
 -1      8772    3    0    1
 -2      2731      1379      2441      2461
 -1      8773    3    0    1
 -2      2314      1254      2315      2749
 -1      8774    3    0    1
 -2       862      1254      2314      2749
 -1      8775    3    0    1
 -2      2278      1291      2316      2749
 -1      8776    3    0    1
 -2      1248       860      2317      2749
 -1      8777    3    0    1
 -2      2315      1254      2441      2749
 -1      8778    3    0    1
 -2      1291      1400      2316      2749
 -1      8779    3    0    1
 -2      2731      2441      2460      2461
 -1      8780    3    0    1
 -2      1330      1413      1475      2470
 -1      8781    3    0    1
 -2      1254      1379      2441      2749
 -1      8782    3    0    1
 -2      1517      1501      2461      2462
 -1      8783    3    0    1
 -2      1390      1503      2444      2445
 -1      8784    3    0    1
 -2      1474       353      1503      2445
 -1      8785    3    0    1
 -2      1390      1474      1503      2445
 -1      8786    3    0    1
 -2      1518      1443      1356      2471
 -1      8787    3    0    1
 -2      1345      2301      2333      2446
 -1      8788    3    0    1
 -2      1345      1276      2301      2446
 -1      8789    3    0    1
 -2      2639      2414      2447      2465
 -1      8790    3    0    1
 -2      1249      2687      2718      2764
 -1      8791    3    0    1
 -2      2748       388      2757      2763
 -1      8792    3    0    1
 -2      2237      2225      2257      2750
 -1      8793    3    0    1
 -2      1331      2372      2439      2750
 -1      8794    3    0    1
 -2      1403      2599      2734      2750
 -1      8795    3    0    1
 -2      2599      1250      2734      2750
 -1      8796    3    0    1
 -2      1285      2238      2659      2766
 -1      8797    3    0    1
 -2      2655      1379      2731      2762
 -1      8798    3    0    1
 -2      2614      2342      2698      2765
 -1      8799    3    0    1
 -2      1387      2692      1510      2766
 -1      8800    3    0    1
 -2      1250      1331      2734      2750
 -1      8801    3    0    1
 -2      1403      1331      2439      2750
 -1      8802    3    0    1
 -2      1331      1403      2734      2750
 -1      8803    3    0    1
 -2      1224      2257      2372      2750
 -1      8804    3    0    1
 -2      2368      1342      2438      2750
 -1      8805    3    0    1
 -2      1250      1224      2372      2750
 -1      8806    3    0    1
 -2      1224      2237      2257      2750
 -1      8807    3    0    1
 -2      1256      1342      2368      2750
 -1      8808    3    0    1
 -2      1224       878      2237      2750
 -1      8809    3    0    1
 -2      2347      1256      2368      2750
 -1      8810    3    0    1
 -2      2150      2503      2584      2765
 -1      8811    3    0    1
 -2      2438      1342      2439      2750
 -1      8812    3    0    1
 -2      1331      1250      2372      2750
 -1      8813    3    0    1
 -2      1342      1403      2439      2750
 -1      8814    3    0    1
 -2      2560      2229      2614      2765
 -1      8815    3    0    1
 -2      2655      2698      2730      2762
 -1      8816    3    0    1
 -2      2579      2669      1453      1518
 -1      8817    3    0    1
 -2      2561      2501      2720      2752
 -1      8818    3    0    1
 -2      2083      2501      2520      2752
 -1      8819    3    0    1
 -2      2075      2083      2520      2752
 -1      8820    3    0    1
 -2      2520      2501      2561      2752
 -1      8821    3    0    1
 -2      2520      2561      2743      2752
 -1      8822    3    0    1
 -2      1284      2422      2743      2752
 -1      8823    3    0    1
 -2      1284      2720      2422      2752
 -1      8824    3    0    1
 -2      2561      1284      2743      2752
 -1      8825    3    0    1
 -2      1284      2561      2720      2752
 -1      8826    3    0    1
 -2      2083      2075      2146      2752
 -1      8827    3    0    1
 -2      1844      2083      2146      2752
 -1      8828    3    0    1
 -2      2187      2060      2422      2752
 -1      8829    3    0    1
 -2      1306      1415      2741      2451
 -1      8830    3    0    1
 -2      2363      1417      1487      2451
 -1      8831    3    0    1
 -2      1415      2363      1487      2451
 -1      8832    3    0    1
 -2      1415      1306      2363      2451
 -1      8833    3    0    1
 -2      1479      1415      1487      2451
 -1      8834    3    0    1
 -2        57      1479      1487      2451
 -1      8835    3    0    1
 -2      2619      1357      2711      2753
 -1      8836    3    0    1
 -2      1357      2619      2692      2753
 -1      8837    3    0    1
 -2       440      1508      1510      2753
 -1      8838    3    0    1
 -2       440      2711      2753      2738
 -1      8839    3    0    1
 -2      2738       440      1510      2753
 -1      8840    3    0    1
 -2      2692      1510      2579      1387
 -1      8841    3    0    1
 -2      1510      2692      2579      2753
 -1      8842    3    0    1
 -2      1256      2562      2750      2761
 -1      8843    3    0    1
 -2      1247      2562      2649      2761
 -1      8844    3    0    1
 -2      2347      1256      2750      2761
 -1      8845    3    0    1
 -2      1247       880      2562      2761
 -1      8846    3    0    1
 -2      2237      2225      2750      2761
 -1      8847    3    0    1
 -2      2225      2344      2347      2761
 -1      8848    3    0    1
 -2       880       878      2562      2761
 -1      8849    3    0    1
 -2      1481      1382      1495      2454
 -1      8850    3    0    1
 -2      1495      1382      2745      2454
 -1      8851    3    0    1
 -2      1301      1495      2745      2454
 -1      8852    3    0    1
 -2      1382      1301      2745      2454
 -1      8853    3    0    1
 -2      1512      1495      2427      2454
 -1      8854    3    0    1
 -2      1445      1512      2427      2454
 -1      8855    3    0    1
 -2      1260      2637      2674      2754
 -1      8856    3    0    1
 -2       978      1260      2674      2754
 -1      8857    3    0    1
 -2      2625      1245      2674      2754
 -1      8858    3    0    1
 -2      1259      1388      2625      2754
 -1      8859    3    0    1
 -2       978      2218      2232      2754
 -1      8860    3    0    1
 -2       978       980      2218      2754
 -1      8861    3    0    1
 -2      1259      2625      2637      2754
 -1      8862    3    0    1
 -2      2637      2625      2674      2754
 -1      8863    3    0    1
 -2      1245       980      2674      2754
 -1      8864    3    0    1
 -2       980       978      2674      2754
 -1      8865    3    0    1
 -2      2625      1388      2427      2754
 -1      8866    3    0    1
 -2      1301      1245      2625      2754
 -1      8867    3    0    1
 -2      1301      2625      2427      2754
 -1      8868    3    0    1
 -2      2389      1301      2427      2754
 -1      8869    3    0    1
 -2      2218      1245      2260      2754
 -1      8870    3    0    1
 -2      1260      2232      2283      2754
 -1      8871    3    0    1
 -2      2362      2258      2398      2754
 -1      8872    3    0    1
 -2      1259      2362      2398      2754
 -1      8873    3    0    1
 -2      2260      1245      2389      2754
 -1      8874    3    0    1
 -2      1260       978      2232      2754
 -1      8875    3    0    1
 -2       980      1245      2218      2754
 -1      8876    3    0    1
 -2      1259      1290      2362      2754
 -1      8877    3    0    1
 -2      1388      1259      2398      2754
 -1      8878    3    0    1
 -2      1245      1301      2389      2754
 -1      8879    3    0    1
 -2      1388      2398      2427      2754
 -1      8880    3    0    1
 -2      1271      1069      2712      2755
 -1      8881    3    0    1
 -2      2400      1321      2434      2755
 -1      8882    3    0    1
 -2      2236      1271      2400      2755
 -1      8883    3    0    1
 -2      1398      1275      2424      2755
 -1      8884    3    0    1
 -2      1398      2424      2457      2755
 -1      8885    3    0    1
 -2      1271      1321      2400      2755
 -1      8886    3    0    1
 -2      2313      2220      2424      2755
 -1      8887    3    0    1
 -2      2755      1069      2236      1271
 -1      8888    3    0    1
 -2      1275      2313      2424      2755
 -1      8889    3    0    1
 -2      1466      1398      2457      2755
 -1      8890    3    0    1
 -2      2236      2712      1069      2755
 -1      8891    3    0    1
 -2      1470      1375      2440      2458
 -1      8892    3    0    1
 -2      1375      1325      2440      2458
 -1      8893    3    0    1
 -2      1459      1375      1470      2458
 -1      8894    3    0    1
 -2       349      1459      1470      2458
 -1      8895    3    0    1
 -2      2730      2748      2757      2763
 -1      8896    3    0    1
 -2      1516       388      2748      2763
 -1      8897    3    0    1
 -2      2655      1467      1468      2757
 -1      8898    3    0    1
 -2      1467      2655      2748      2757
 -1      8899    3    0    1
 -2      1514      1467      2748      2757
 -1      8900    3    0    1
 -2      1514       388      1515      2757
 -1      8901    3    0    1
 -2      1468      1514      1515      2757
 -1      8902    3    0    1
 -2       388         1      1515      2757
 -1      8903    3    0    1
 -2      1468      1467      1514      2757
 -1      8904    3    0    1
 -2      2634      1230      2642      2758
 -1      8905    3    0    1
 -2      2706      2634      2747      2758
 -1      8906    3    0    1
 -2      2642      1325      2729      2758
 -1      8907    3    0    1
 -2      1395      2642      2729      2758
 -1      8908    3    0    1
 -2      2634      1352      2747      2758
 -1      8909    3    0    1
 -2      1352      2634      2642      2758
 -1      8910    3    0    1
 -2      1325      2440      2458      2758
 -1      8911    3    0    1
 -2      2506       998      1839      2634
 -1      8912    3    0    1
 -2      2706      1230      2634      2758
 -1      8913    3    0    1
 -2      1230      2706      2634       998
 -1      8914    3    0    1
 -2      1471      1395      2729      2758
 -1      8915    3    0    1
 -2      1325      1471      2729      2758
 -1      8916    3    0    1
 -2      1471      1325      2458      2758
 -1      8917    3    0    1
 -2      1230      2340      2440      2758
 -1      8918    3    0    1
 -2      2408      1395      2409      2758
 -1      8919    3    0    1
 -2      2340      2706      1230      2305
 -1      8920    3    0    1
 -2      1352      1395      2408      2758
 -1      8921    3    0    1
 -2      2409      1395      2458      2758
 -1      8922    3    0    1
 -2      1325      1230      2440      2758
 -1      8923    3    0    1
 -2      1395      1471      2458      2758
 -1      8924    3    0    1
 -2      1501      2315      2441      2460
 -1      8925    3    0    1
 -2      1468      1513      1515      2462
 -1      8926    3    0    1
 -2      1515      1517      2461      2462
 -1      8927    3    0    1
 -2      1515         1      1517      2462
 -1      8928    3    0    1
 -2      1468      1515      2461      2462
 -1      8929    3    0    1
 -2      2463      2446      2764      2470
 -1      8930    3    0    1
 -2      1443      1507      1520      2471
 -1      8931    3    0    1
 -2      1356      2448      1518      2471
 -1      8932    3    0    1
 -2      1345      2446      2463      2470
 -1      8933    3    0    1
 -2      1502      1344      2443      2464
 -1      8934    3    0    1
 -2      1318      1502      2443      2464
 -1      8935    3    0    1
 -2      1277      1318      2443      2464
 -1      8936    3    0    1
 -2      1318      1410      1502      2464
 -1      8937    3    0    1
 -2      1410       173      1502      2464
 -1      8938    3    0    1
 -2      2630      1433      2464      2759
 -1      8939    3    0    1
 -2      1277      2630      2464      2759
 -1      8940    3    0    1
 -2      2443      1277      2464      2759
 -1      8941    3    0    1
 -2      2554      1347      2630      2759
 -1      8942    3    0    1
 -2      1239      2554      2630      2759
 -1      8943    3    0    1
 -2      1277      1239      2630      2759
 -1      8944    3    0    1
 -2      2294      1239      2443      2759
 -1      8945    3    0    1
 -2      1347      2381      2464      2759
 -1      8946    3    0    1
 -2      1239      1277      2443      2759
 -1      8947    3    0    1
 -2      1034      1239      2294      2759
 -1      8948    3    0    1
 -2      1347      2306      2381      2759
 -1      8949    3    0    1
 -2      1347      1280      2306      2759
 -1      8950    3    0    1
 -2      1433      1347      2464      2759
 -1      8951    3    0    1
 -2      1483      1383      2760      2751
 -1      8952    3    0    1
 -2      1302      1383      2751      2760
 -1      8953    3    0    1
 -2      1396      1483      2425      2760
 -1      8954    3    0    1
 -2      2354      1396      2425      2760
 -1      8955    3    0    1
 -2      1302      2345      2416      2760
 -1      8956    3    0    1
 -2      1302      1246      2345      2760
 -1      8957    3    0    1
 -2      1284      1396      2354      2760
 -1      8958    3    0    1
 -2      1246      2270      2345      2760
 -1      8959    3    0    1
 -2      1383      1302      2416      2760
 -1      8960    3    0    1
 -2      1497      2277      2456      2473
 -1      8961    3    0    1
 -2      2277      2717      2456      2473
 -1      8962    3    0    1
 -2      2249      1455      2393      2466
 -1      8963    3    0    1
 -2      2249      1358      1455      2466
 -1      8964    3    0    1
 -2      1387      1285      2692      2766
 -1      8965    3    0    1
 -2       440      2738      2453      2469
 -1      8966    3    0    1
 -2      1511      1420      2452      2468
 -1      8967    3    0    1
 -2      1489      1511      2452      2468
 -1      8968    3    0    1
 -2      1489       390      1511      2468
 -1      8969    3    0    1
 -2      1393      1489      2452      2468
 -1      8970    3    0    1
 -2       878       880      2287      2761
 -1      8971    3    0    1
 -2      2450      2452      2468      2761
 -1      8972    3    0    1
 -2      1323      2649      2725      2761
 -1      8973    3    0    1
 -2      2225      2237      2287      2761
 -1      8974    3    0    1
 -2      2225      2287      2344      2761
 -1      8975    3    0    1
 -2       878      2237      2750      2761
 -1      8976    3    0    1
 -2      2237       878      2287      2761
 -1      8977    3    0    1
 -2      1397      1494      2725      2761
 -1      8978    3    0    1
 -2      2649      1397      2725      2761
 -1      8979    3    0    1
 -2      1393      1323      2725      2761
 -1      8980    3    0    1
 -2      1494      1393      2725      2761
 -1      8981    3    0    1
 -2      1393      1494      2468      2761
 -1      8982    3    0    1
 -2      2452      1393      2468      2761
 -1      8983    3    0    1
 -2      1397      1256      2347      2761
 -1      8984    3    0    1
 -2      2344      1247      2376      2761
 -1      8985    3    0    1
 -2      1247      1323      2376      2761
 -1      8986    3    0    1
 -2      1397      2347      2450      2761
 -1      8987    3    0    1
 -2       880      1247      2344      2761
 -1      8988    3    0    1
 -2      1397      2450      2468      2761
 -1      8989    3    0    1
 -2      2376      1323      2452      2761
 -1      8990    3    0    1
 -2      2347      2750      2225      2761
 -1      8991    3    0    1
 -2      2287       880      2344      2761
 -1      8992    3    0    1
 -2      1494      1397      2468      2761
 -1      8993    3    0    1
 -2      1323      1393      2452      2761
 -1      8994    3    0    1
 -2      1350      1413      2718      2764
 -1      8995    3    0    1
 -2      1330      1249      2718      2764
 -1      8996    3    0    1
 -2      1413      1330      2718      2764
 -1      8997    3    0    1
 -2      2301      1223      2333      2764
 -1      8998    3    0    1
 -2      1223      1249      2333      2764
 -1      8999    3    0    1
 -2      1350      2323      2446      2764
 -1      9000    3    0    1
 -2       900      1223      2301      2764
 -1      9001    3    0    1
 -2      1350      1262      2323      2764
 -1      9002    3    0    1
 -2      2333      1249      2463      2764
 -1      9003    3    0    1
 -2      2295       900      2301      2764
 -1      9004    3    0    1
 -2      1507      1443      1518      2471
 -1      9005    3    0    1
 -2      1249      1330      2463      2764
 -1      9006    3    0    1
 -2      2393      1455      1519      2472
 -1      9007    3    0    1
 -2      1378      1467      1516      2474
 -1      9008    3    0    1
 -2       440      1508      2467      2472
 -1      9009    3    0    1
 -2      2527      2150      2584      2765
 -1      9010    3    0    1
 -2      2150      2527      2560      2765
 -1      9011    3    0    1
 -2      2560      2527      2212      2765
 -1      9012    3    0    1
 -2      2503      2560      2614      2765
 -1      9013    3    0    1
 -2      2503      2150      2560      2765
 -1      9014    3    0    1
 -2      1513      1435      2762      2765
 -1      9015    3    0    1
 -2      2698      1513      2762      2765
 -1      9016    3    0    1
 -2      2569      2655      2731      2765
 -1      9017    3    0    1
 -2      2731      2655      2762      2765
 -1      9018    3    0    1
 -2      2655      2698      2762      2765
 -1      9019    3    0    1
 -2      2655      2569      2698      2765
 -1      9020    3    0    1
 -2      2212      2527      2593      2765
 -1      9021    3    0    1
 -2      1291      2212      2593      2765
 -1      9022    3    0    1
 -2      2527      1291      2593      2765
 -1      9023    3    0    1
 -2      1513      2698      2442      2765
 -1      9024    3    0    1
 -2      2698      2342      2442      2765
 -1      9025    3    0    1
 -2      2229      1291      1435      2765
 -1      9026    3    0    1
 -2      2229      1435      2342      2765
 -1      9027    3    0    1
 -2      2212      1291      2229      2765
 -1      9028    3    0    1
 -2      2342      1435      1513      2765
 -1      9029    3    0    1
 -2      2342      1513      2442      2765
 -1      9030    3    0    1
 -2      1387      1510      2472      2766
 -1      9031    3    0    1
 -2      2238      1285      2466      2766
 -1      9032    3    0    1
 -2      1283      1103      2245      2766
 -1      9033    3    0    1
 -2      1357      2393      2467      2766
 -1      9034    3    0    1
 -2      1444      1357      2467      2766
 -3
    1PSTEP                         1           1           1          
  100CL  101 1.000000000        2766                     0    1           1
 -4  DISP        4    1
 -5  D1          1    2    1    0
 -5  D2          1    2    2    0
 -5  D3          1    2    3    0
 -5  ALL         1    2    0    0    1ALL
 -1         1-1.56183E-02 2.58394E-03-5.11247E-01
 -1         2-5.61553E-02-8.39616E-04-5.12586E-01
 -1         3-6.64403E-02-1.15227E-03-2.51294E-01
 -1         4-6.36622E-02-1.02900E-03-3.86989E-01
 -1         5-6.31363E-02-6.57411E-04-3.88809E-01
 -1         6-6.61419E-02-9.35396E-04-2.51558E-01
 -1         7-1.89789E-02 6.07535E-04-1.02235E-01
 -1         8-6.82651E-02-1.19728E-03-1.03709E-01
 -1         9-6.83106E-02-1.21396E-03-1.02148E-01
 -1        10-1.92046E-02-2.01852E-03-3.89597E-01
 -1        11-5.69045E-02-2.35128E-04-5.11755E-01
 -1        12-1.90942E-02 9.84097E-04-3.90807E-01
 -1        13-6.69849E-02-4.95299E-04-2.52600E-01
 -1        14-2.08137E-02 8.57666E-04-2.53634E-01
 -1        15-2.13203E-02-1.30998E-03-2.51848E-01
 -1        16-6.30265E-02-9.76199E-04-3.88950E-01
 -1        17-6.78867E-02-7.95290E-04-2.52614E-01
 -1        18-6.32408E-02-9.39904E-04-3.87250E-01
 -1        19-6.03617E-02-2.88573E-02-2.48109E-01
 -1        20-6.05288E-02-2.77651E-02-9.99721E-02
 -1        21-6.07328E-02-2.90916E-02-2.46198E-01
 -1        22-5.91588E-02-2.74141E-02-3.87737E-01
 -1        23-6.13092E-02-2.90389E-02-2.45433E-01
 -1        24-1.67274E-02-7.62657E-03-9.96383E-02
 -1        25-5.99528E-02-2.74797E-02-1.02053E-01
 -1        26-5.79243E-02-2.83236E-02-3.84887E-01
 -1        27-5.29841E-02-2.29443E-02-5.12144E-01
 -1        28-5.31071E-02-2.34840E-02-5.12216E-01
 -1        29-5.89597E-02-2.80306E-02-3.87890E-01
 -1        30-1.84323E-02-7.11772E-03-3.90264E-01
 -1        31-1.86323E-02-5.79489E-03-3.87740E-01
 -1        32-5.80196E-02-2.82081E-02-3.83831E-01
 -1        33-1.72004E-02-9.25485E-03-3.87343E-01
 -1        34-6.13207E-02-2.93884E-02-2.49665E-01
 -1        35-1.90740E-02-8.32749E-03-2.49687E-01
 -1        36-2.01650E-02-8.21897E-03-2.49669E-01
 -1        37-1.87126E-02-1.02332E-02-2.44908E-01
 -1        38-1.90096E-02-9.29922E-03-2.47241E-01
 -1        39-1.68089E-02-1.16134E-02-3.82603E-01
 -1        40-3.89469E-02-4.38153E-02-5.09077E-01
 -1        41-1.22755E-02-9.93727E-03-5.09891E-01
 -1        42-4.55269E-02-4.87573E-02-2.39526E-01
 -1        43-4.36011E-02-4.86693E-02-3.81983E-01
 -1        44-1.15929E-02-1.26500E-02-9.67688E-02
 -1        45-4.24771E-02-4.61457E-02-9.66755E-02
 -1        46-1.34468E-02-1.56425E-02-2.41138E-01
 -1        47-3.90507E-02-4.42795E-02-5.10873E-01
 -1        48-4.32422E-02-4.64067E-02-9.83285E-02
 -1        49-4.63413E-02-4.80099E-02-2.40077E-01
 -1        50-4.36444E-02-4.83927E-02-3.83321E-01
 -1        51-4.34725E-02-4.87906E-02-3.79056E-01
 -1        52-4.34697E-02-4.84843E-02-3.80715E-01
 -1        53-1.57545E-02-1.38845E-02-2.40144E-01
 -1        54-4.61719E-02-4.81717E-02-2.40964E-01
 -1        55-4.59880E-02-4.90423E-02-2.39291E-01
 -1        56-1.54376E-02-1.30754E-02-3.82628E-01
 -1        57-2.88991E-03-1.62922E-02-5.05370E-01
 -1        58-2.48151E-02-6.17913E-02-2.40617E-01
 -1        59-2.61077E-02-6.12221E-02-2.41177E-01
 -1        60-2.44352E-02-5.96317E-02-3.78071E-01
 -1        61-2.49735E-02-6.13089E-02-2.41552E-01
 -1        62-2.40623E-02-5.98620E-02-3.78666E-01
 -1        63-2.07711E-02-5.49426E-02-5.07081E-01
 -1        64-2.10452E-02-5.47192E-02-5.07485E-01
 -1        65-2.39063E-02-5.87396E-02-1.02632E-01
 -1        66-2.43971E-02-5.80164E-02-1.02218E-01
 -1        67-7.14370E-03-1.98840E-02-2.43092E-01
 -1        68-5.58695E-03-1.58271E-02-1.01816E-01
 -1        69-2.38895E-02-6.08378E-02-3.78442E-01
 -1        70-7.26832E-03-1.40412E-02-5.07695E-01
 -1        71-8.52091E-03-1.95952E-02-2.43168E-01
 -1        72-8.17799E-03-1.81932E-02-3.80592E-01
 -1        73-4.97367E-03-1.97535E-02-3.77598E-01
 -1        74-2.42134E-02-6.11102E-02-3.78534E-01
 -1        75-1.05206E-02-1.95284E-02-2.40338E-01
 -1        76-2.57615E-02-6.12174E-02-2.41392E-01
 -1        77-1.79359E-03-6.38517E-02-1.03432E-01
 -1        78-4.94501E-04-6.58637E-02-2.43375E-01
 -1        79-1.17007E-03-6.45763E-02-3.78487E-01
 -1        80-1.52388E-03-6.41230E-02-1.04102E-01
 -1        81-9.04333E-04-1.96322E-02-1.03345E-01
 -1        82 2.31959E-03-1.65525E-02-5.05781E-01
 -1        83 1.23749E-03-2.02289E-02-3.81076E-01
 -1        84 5.35483E-04-5.96454E-02-5.05830E-01
 -1        85 1.22826E-03-5.88504E-02-5.07288E-01
 -1        86-1.53041E-03-6.59500E-02-2.43252E-01
 -1        87-3.15767E-03-2.00998E-02-3.79274E-01
 -1        88 2.80927E-03-2.02757E-02-3.81014E-01
 -1        89 4.04253E-04-6.56914E-02-3.79008E-01
 -1        90-5.59039E-04-6.44585E-02-3.79098E-01
 -1        91-2.21073E-03-2.09220E-02-2.42499E-01
 -1        92-2.84068E-04-2.11652E-02-2.44569E-01
 -1        93-1.17957E-03-6.49272E-02-3.79262E-01
 -1        94-1.39003E-03-6.59108E-02-2.43022E-01
 -1        95 1.64666E-03-2.11434E-02-2.43561E-01
 -1        96-6.04249E-04-6.60237E-02-2.44035E-01
 -1        97 2.04782E-02-5.46418E-02-5.06951E-01
 -1        98 2.52296E-02-6.02692E-02-3.79961E-01
 -1        99 2.60679E-02-6.14961E-02-2.42418E-01
 -1       100 2.52177E-02-5.87810E-02-3.78583E-01
 -1       101 2.61733E-02-6.09526E-02-2.42129E-01
 -1       102 2.51783E-02-5.86784E-02-3.78209E-01
 -1       103 2.70632E-02-6.12442E-02-2.41019E-01
 -1       104 2.60588E-02-5.79519E-02-1.04333E-01
 -1       105 2.72372E-02-6.18861E-02-2.40300E-01
 -1       106 2.68189E-02-5.69660E-02-1.01861E-01
 -1       107 8.01873E-03-1.36255E-02-5.05578E-01
 -1       108 2.10739E-02-5.45331E-02-5.06255E-01
 -1       109 2.55009E-02-5.99822E-02-3.80681E-01
 -1       110 9.56805E-03-1.71912E-02-3.78351E-01
 -1       111 3.80882E-02-4.27402E-02-5.07785E-01
 -1       112 1.24775E-02-9.71578E-03-5.05833E-01
 -1       113 4.38754E-02-4.67637E-02-3.78966E-01
 -1       114 4.42748E-02-4.69745E-02-3.81279E-01
 -1       115 3.90526E-02-4.28833E-02-5.05576E-01
 -1       116 4.64874E-02-4.50525E-02-9.79834E-02
 -1       117 1.45551E-02-1.48465E-02-2.43992E-01
 -1       118 4.57831E-02-4.40726E-02-9.85601E-02
 -1       119 1.59693E-02-1.26006E-02-3.82020E-01
 -1       120 4.38324E-02-4.67910E-02-3.81340E-01
 -1       121 1.42595E-02-1.34475E-02-3.81927E-01
 -1       122 1.38439E-02-1.59407E-02-2.42815E-01
 -1       123 4.53609E-02-4.87494E-02-2.40198E-01
 -1       124 1.12712E-02-1.68649E-02-2.41490E-01
 -1       125 4.53266E-02-4.85177E-02-2.41618E-01
 -1       126 4.58976E-02-4.82373E-02-2.43251E-01
 -1       127 4.36627E-02-4.69088E-02-3.79136E-01
 -1       128 1.15011E-02-1.65423E-02-3.79778E-01
 -1       129 1.47099E-02-1.40762E-02-2.42209E-01
 -1       130 4.59241E-02-4.71423E-02-2.43088E-01
 -1       131 5.24690E-02-2.32189E-02-5.06656E-01
 -1       132 5.20906E-02-2.34757E-02-5.06954E-01
 -1       133 5.87530E-02-2.53465E-02-1.02558E-01
 -1       134 5.76345E-02-2.64093E-02-3.79507E-01
 -1       135 5.79875E-02-2.59078E-02-3.80846E-01
 -1       136 6.01383E-02-2.63465E-02-2.44353E-01
 -1       137 1.59619E-02-7.58914E-03-1.02869E-01
 -1       138 5.86293E-02-2.58636E-02-1.02176E-01
 -1       139 1.74181E-02-8.97030E-03-3.83402E-01
 -1       140 5.87782E-02-2.53501E-02-3.81924E-01
 -1       141 5.87436E-02-2.54147E-02-3.82699E-01
 -1       142 1.88776E-02-5.54039E-03-3.82099E-01
 -1       143 1.92682E-02-7.25314E-03-2.46122E-01
 -1       144 5.98080E-02-2.62299E-02-2.45621E-01
 -1       145 6.01142E-02-2.66285E-02-2.45824E-01
 -1       146 6.06582E-02-2.65817E-02-2.44093E-01
 -1       147 6.43365E-02-2.44214E-03-2.47232E-01
 -1       148 6.23805E-02-2.45759E-03-3.81500E-01
 -1       149 6.23315E-02-2.24756E-03-3.84637E-01
 -1       150 6.19239E-02-2.68231E-03-3.81424E-01
 -1       151 6.47938E-02-2.23343E-03-2.48856E-01
 -1       152 6.23126E-02-2.64054E-03-3.85434E-01
 -1       153 5.62384E-02-9.16356E-04-5.07088E-01
 -1       154 6.32622E-02-2.08760E-03-1.08934E-01
 -1       155 6.32279E-02-1.65940E-03-1.09763E-01
 -1       156 5.69415E-02-1.43257E-03-5.08312E-01
 -1       157 1.87513E-02-1.97425E-03-3.83907E-01
 -1       158 1.87936E-02 7.18111E-04-3.86191E-01
 -1       159 1.98407E-02-1.92452E-03-2.48525E-01
 -1       160 6.48191E-02-2.53322E-03-2.47042E-01
 -1       161 6.50308E-02-2.32743E-03-2.50298E-01
 -1       162 1.90820E-02 1.97342E-03-3.83855E-01
 -1       163 5.15239E-02 2.16094E-02-5.08334E-01
 -1       164 5.14009E-02 2.20433E-02-5.08264E-01
 -1       165 5.75181E-02 2.40999E-02-3.83986E-01
 -1       166 5.98261E-02 2.58483E-02-2.47793E-01
 -1       167 5.94826E-02 2.54621E-02-2.48744E-01
 -1       168 5.95601E-02 2.47869E-02-2.49287E-01
 -1       169 5.96722E-02 2.45604E-02-2.50112E-01
 -1       170 5.86735E-02 2.42368E-02-1.09065E-01
 -1       171 5.85922E-02 2.45246E-02-1.08607E-01
 -1       172 1.35582E-02 8.23620E-03-5.06295E-01
 -1       173 1.45499E-02 2.57628E-03-5.07098E-01
 -1       174 1.92320E-02 6.48399E-03-2.50386E-01
 -1       175 5.80773E-02 2.36830E-02-3.84511E-01
 -1       176 5.79907E-02 2.41090E-02-3.85055E-01
 -1       177 1.70692E-02 8.10233E-03-3.86868E-01
 -1       178 1.62939E-02 9.42157E-03-3.84169E-01
 -1       179 5.79772E-02 2.41749E-02-3.84845E-01
 -1       180 4.06806E-02 3.85920E-02-5.08124E-01
 -1       181 4.58647E-02 4.33553E-02-3.84082E-01
 -1       182 4.54521E-02 4.29598E-02-3.83541E-01
 -1       183 4.57022E-02 4.38088E-02-3.85300E-01
 -1       184 4.78966E-02 4.40621E-02-2.45366E-01
 -1       185 4.84904E-02 4.46121E-02-2.45264E-01
 -1       186 4.76262E-02 4.46911E-02-2.47327E-01
 -1       187 1.08723E-02 1.27574E-02-1.07165E-01
 -1       188 4.61149E-02 4.23454E-02-1.06628E-01
 -1       189 1.37695E-02 1.40199E-02-2.48184E-01
 -1       190 4.57028E-02 4.33536E-02-3.85688E-01
 -1       191 4.05429E-02 3.94109E-02-5.08019E-01
 -1       192 1.18658E-02 8.50226E-03-1.03766E-01
 -1       193 4.63235E-02 4.08023E-02-1.01682E-01
 -1       194 1.41875E-02 1.22568E-02-3.86626E-01
 -1       195 1.21634E-02 1.50166E-02-3.85592E-01
 -1       196 1.60326E-02 1.25072E-02-2.45705E-01
 -1       197 4.82870E-02 4.49535E-02-2.48127E-01
 -1       198 9.00349E-03 1.24976E-02-5.07293E-01
 -1       199 2.59888E-02 5.75332E-02-3.84350E-01
 -1       200 2.06539E-02 5.18036E-02-5.07805E-01
 -1       201 2.53467E-02 5.75158E-02-3.85860E-01
 -1       202 2.57419E-02 6.04562E-02-2.49301E-01
 -1       203 2.55631E-02 5.82714E-02-3.87363E-01
 -1       204 2.61194E-02 6.04768E-02-2.48517E-01
 -1       205 2.79445E-02 5.95132E-02-1.07409E-01
 -1       206 2.56121E-02 5.78585E-02-3.87562E-01
 -1       207 3.95840E-03 1.46533E-02-5.08502E-01
 -1       208 6.90472E-03 1.80353E-02-3.89060E-01
 -1       209 2.01558E-02 5.17000E-02-5.09825E-01
 -1       210 2.77730E-02 5.72375E-02-1.05422E-01
 -1       211 5.57056E-03 1.85308E-02-3.86143E-01
 -1       212 2.62910E-02 6.10035E-02-2.50083E-01
 -1       213 6.79842E-03 1.89836E-02-2.50292E-01
 -1       214 8.48033E-03 1.87954E-02-2.48780E-01
 -1       215 1.03438E-02 1.64678E-02-3.85355E-01
 -1       216 2.61397E-02 6.05644E-02-2.48298E-01
 -1       217 1.91828E-03 5.53407E-02-5.09805E-01
 -1       218 3.42608E-03 1.47642E-02-5.08680E-01
 -1       219 1.34806E-03 6.31303E-02-3.87251E-01
 -1       220 2.14202E-03 5.53094E-02-5.11338E-01
 -1       221 1.42750E-03 6.58355E-02-2.52738E-01
 -1       222-4.44029E-04 6.55661E-02-1.07613E-01
 -1       223 2.12333E-04 6.51638E-02-1.08028E-01
 -1       224 1.14111E-03 6.27934E-02-3.88731E-01
 -1       225-9.91473E-04 1.91286E-02-3.90455E-01
 -1       226 1.89640E-03 1.92683E-02-3.90504E-01
 -1       227 1.11939E-03 6.21027E-02-3.86861E-01
 -1       228-2.89605E-03 1.88729E-02-3.89056E-01
 -1       229 1.63672E-03 6.64362E-02-2.52376E-01
 -1       230 2.01541E-04 2.04675E-02-2.53929E-01
 -1       231 1.74106E-03 6.64633E-02-2.52118E-01
 -1       232 1.69582E-03 6.64600E-02-2.53828E-01
 -1       233 1.32496E-03 6.38086E-02-3.89857E-01
 -1       234-2.91127E-03 1.47679E-02-5.10083E-01
 -1       235-2.16096E-02 6.26040E-02-1.12009E-01
 -1       236-2.44234E-02 6.06799E-02-2.54180E-01
 -1       237-2.13409E-02 5.17751E-02-5.12315E-01
 -1       238-2.46826E-02 6.11447E-02-2.54536E-01
 -1       239-2.45999E-02 6.13076E-02-2.55064E-01
 -1       240-8.68113E-03 1.86377E-02-2.55821E-01
 -1       241-2.43569E-02 5.74708E-02-3.90262E-01
 -1       242-2.16590E-02 5.11085E-02-5.12611E-01
 -1       243-6.35100E-03 1.67473E-02-1.08376E-01
 -1       244-2.12417E-02 6.21907E-02-1.08299E-01
 -1       245-6.37033E-03 1.84551E-02-3.93286E-01
 -1       246-2.43395E-02 5.84680E-02-3.90465E-01
 -1       247-2.44095E-02 5.77563E-02-3.91402E-01
 -1       248-8.54625E-03 1.72509E-02-3.92711E-01
 -1       249-6.57134E-03 1.97818E-02-2.55003E-01
 -1       250-5.07051E-03 1.85143E-02-3.90384E-01
 -1       251-2.46234E-02 6.13464E-02-2.56115E-01
 -1       252-2.42442E-02 5.77293E-02-3.91424E-01
 -1       253-3.81212E-02 3.94821E-02-5.12113E-01
 -1       254-3.90324E-02 3.94570E-02-5.11896E-01
 -1       255-4.45691E-02 4.34701E-02-3.89577E-01
 -1       256-4.66376E-02 4.60092E-02-2.56939E-01
 -1       257-4.66357E-02 4.60331E-02-2.58090E-01
 -1       258-4.74201E-02 4.56256E-02-2.56424E-01
 -1       259-4.74524E-02 4.49511E-02-1.12743E-01
 -1       260-4.79634E-02 4.55982E-02-1.11759E-01
 -1       261-1.42489E-02 1.26608E-02-3.91513E-01
 -1       262-4.40212E-02 4.38368E-02-3.91493E-01
 -1       263-1.19233E-02 1.46675E-02-3.93187E-01
 -1       264-1.36977E-02 1.32175E-02-1.12543E-01
 -1       265-1.10407E-02 1.58638E-02-3.90667E-01
 -1       266-4.49143E-02 4.42836E-02-3.92149E-01
 -1       267-4.45815E-02 4.31980E-02-3.90033E-01
 -1       268-1.36332E-02 1.54374E-02-2.58729E-01
 -1       269-4.77315E-02 4.63496E-02-2.55823E-01
 -1       270-1.53495E-02 1.14405E-02-3.90815E-01
 -1       271-5.24336E-02 1.99100E-02-5.11810E-01
 -1       272-5.95332E-02 2.30609E-02-3.88111E-01
 -1       273-5.85017E-02 2.27313E-02-3.90277E-01
 -1       274-5.87399E-02 2.23477E-02-3.90841E-01
 -1       275-6.14220E-02 2.36648E-02-1.09551E-01
 -1       276-6.17671E-02 2.38218E-02-2.53457E-01
 -1       277-6.13949E-02 2.38705E-02-1.09866E-01
 -1       278-6.15811E-02 2.30906E-02-2.52567E-01
 -1       279-5.26557E-02 1.90247E-02-5.13495E-01
 -1       280-1.80572E-02 6.07831E-03-3.90845E-01
 -1       281-1.96391E-02 7.81614E-03-2.54735E-01
 -1       282-6.21164E-02 2.37319E-02-2.52267E-01
 -1       283-6.21712E-02 2.38719E-02-2.53940E-01
 -1       284-2.02262E-02 5.97761E-03-2.51414E-01
 -1       285-5.89267E-02 2.28028E-02-3.87999E-01
 -1       286 0.00000E+00 0.00000E+00 0.00000E+00
 -1       287 0.00000E+00 0.00000E+00 0.00000E+00
 -1       288 0.00000E+00 0.00000E+00 0.00000E+00
 -1       289 0.00000E+00 0.00000E+00 0.00000E+00
 -1       290 0.00000E+00 0.00000E+00 0.00000E+00
 -1       291 0.00000E+00 0.00000E+00 0.00000E+00
 -1       292 0.00000E+00 0.00000E+00 0.00000E+00
 -1       293 0.00000E+00 0.00000E+00 0.00000E+00
 -1       294 0.00000E+00 0.00000E+00 0.00000E+00
 -1       295 0.00000E+00 0.00000E+00 0.00000E+00
 -1       296 0.00000E+00 0.00000E+00 0.00000E+00
 -1       297 0.00000E+00 0.00000E+00 0.00000E+00
 -1       298 0.00000E+00 0.00000E+00 0.00000E+00
 -1       299 0.00000E+00 0.00000E+00 0.00000E+00
 -1       300 0.00000E+00 0.00000E+00 0.00000E+00
 -1       301 0.00000E+00 0.00000E+00 0.00000E+00
 -1       302 0.00000E+00 0.00000E+00 0.00000E+00
 -1       303 0.00000E+00 0.00000E+00 0.00000E+00
 -1       304 0.00000E+00 0.00000E+00 0.00000E+00
 -1       305 0.00000E+00 0.00000E+00 0.00000E+00
 -1       306 0.00000E+00 0.00000E+00 0.00000E+00
 -1       307 0.00000E+00 0.00000E+00 0.00000E+00
 -1       308 0.00000E+00 0.00000E+00 0.00000E+00
 -1       309 0.00000E+00 0.00000E+00 0.00000E+00
 -1       310 0.00000E+00 0.00000E+00 0.00000E+00
 -1       311 0.00000E+00 0.00000E+00 0.00000E+00
 -1       312 0.00000E+00 0.00000E+00 0.00000E+00
 -1       313 0.00000E+00 0.00000E+00 0.00000E+00
 -1       314 0.00000E+00 0.00000E+00 0.00000E+00
 -1       315 0.00000E+00 0.00000E+00 0.00000E+00
 -1       316 0.00000E+00 0.00000E+00 0.00000E+00
 -1       317 0.00000E+00 0.00000E+00 0.00000E+00
 -1       318 0.00000E+00 0.00000E+00 0.00000E+00
 -1       319 0.00000E+00 0.00000E+00 0.00000E+00
 -1       320 0.00000E+00 0.00000E+00 0.00000E+00
 -1       321 1.86510E-02-1.68140E-03-1.07890E-01
 -1       322 1.75352E-02-7.06944E-03-1.02894E-01
 -1       323 2.04605E-02 1.66475E-03-2.49974E-01
 -1       324 2.00902E-02 2.87819E-04-2.49209E-01
 -1       325 1.86248E-02-2.14676E-03-1.09853E-01
 -1       326 0.00000E+00 0.00000E+00 0.00000E+00
 -1       327 0.00000E+00 0.00000E+00 0.00000E+00
 -1       328 0.00000E+00 0.00000E+00 0.00000E+00
 -1       329 1.80564E-02-1.00960E-02-2.43628E-01
 -1       330 1.86411E-02-9.15393E-03-2.46072E-01
 -1       331 0.00000E+00 0.00000E+00 0.00000E+00
 -1       332 1.40969E-02-1.06551E-02-9.81568E-02
 -1       333 1.99371E-02-6.43691E-03-2.46698E-01
 -1       334 1.85863E-02-3.85364E-03-3.81496E-01
 -1       335 2.00542E-02-2.37906E-03-2.47125E-01
 -1       336 1.53687E-02 1.29480E-02-2.46848E-01
 -1       337 1.83029E-02 7.74547E-03-2.49987E-01
 -1       338 0.00000E+00 0.00000E+00 0.00000E+00
 -1       339 1.74766E-02 7.31762E-03-1.08711E-01
 -1       340 1.76690E-02 6.71355E-03-1.09589E-01
 -1       341 1.68552E-02-1.05795E-02-3.80875E-01
 -1       342 7.68551E-03 1.88455E-02-2.49228E-01
 -1       343 8.19608E-03 1.56559E-02-1.04882E-01
 -1       344 1.55996E-02 1.09602E-02-3.82693E-01
 -1       345 1.88614E-02 8.48561E-03-2.47508E-01
 -1       346 9.00780E-03-1.93600E-02-2.42329E-01
 -1       347 7.56604E-03-1.67529E-02-1.00511E-01
 -1       348 1.01693E-02-1.89537E-02-2.39482E-01
 -1       349 1.50780E-02-3.52461E-03-5.06167E-01
 -1       350 1.82848E-02-6.16775E-03-3.83602E-01
 -1       351 1.50869E-02-2.86676E-03-5.06028E-01
 -1       352 1.27046E-02 8.64324E-03-5.06267E-01
 -1       353 1.28575E-02-9.28921E-03-5.05695E-01
 -1       354 7.76732E-03-1.79182E-02-3.80977E-01
 -1       355 8.57546E-03-1.33123E-02-5.05642E-01
 -1       356 1.26517E-02-1.51133E-02-3.81738E-01
 -1       357 3.67126E-03 1.86719E-02-3.85935E-01
 -1       358 9.47542E-03 1.21591E-02-5.07003E-01
 -1       359 8.80896E-03 1.70371E-02-3.88366E-01
 -1       360 1.29867E-02 1.38986E-02-3.86890E-01
 -1       361 1.48101E-02 1.98317E-03-5.07064E-01
 -1       362 1.80485E-02 5.23040E-03-3.85965E-01
 -1       363 1.95374E-02 4.95998E-03-2.50212E-01
 -1       364 1.86817E-02 3.76601E-03-3.83409E-01
 -1       365 1.39428E-02 1.49777E-02-2.47471E-01
 -1       366 1.84467E-03 2.09945E-02-2.53046E-01
 -1       367 4.26147E-03-1.98362E-02-3.79704E-01
 -1       368 2.98007E-03-1.63437E-02-5.05642E-01
 -1       369 5.63173E-03-1.92843E-02-3.82798E-01
 -1       370-9.79246E-04-2.16757E-02-2.44761E-01
 -1       371-2.24563E-03 1.47921E-02-5.09933E-01
 -1       372-2.46354E-03-1.63797E-02-5.05376E-01
 -1       373-6.84379E-03-1.90756E-02-3.80540E-01
 -1       374-1.79753E-03-2.01485E-02-3.81622E-01
 -1       375-1.30320E-02 8.02473E-03-5.12049E-01
 -1       376-1.63069E-02 9.86395E-03-3.90046E-01
 -1       377-1.71245E-02 8.79647E-03-3.92656E-01
 -1       378-1.27588E-02 8.44396E-03-5.11894E-01
 -1       379-8.90194E-03 1.26689E-02-5.11430E-01
 -1       380-9.66897E-03 1.81940E-02-2.56393E-01
 -1       381-1.09307E-02-1.69016E-02-3.79213E-01
 -1       382-1.20264E-02-1.59236E-02-3.81092E-01
 -1       383-7.82333E-03-1.36446E-02-5.07717E-01
 -1       384-9.20262E-03-1.76250E-02-3.79196E-01
 -1       385-6.99328E-03 1.91659E-02-1.11881E-01
 -1       386-1.24093E-02 1.57083E-02-2.57378E-01
 -1       387-1.87438E-02 4.52299E-03-3.87986E-01
 -1       388-1.55125E-02 3.24601E-03-5.11283E-01
 -1       389-1.26990E-02-9.52403E-03-5.10052E-01
 -1       390-1.50738E-02-3.54369E-03-5.11235E-01
 -1       391-1.60433E-02 1.25924E-02-2.54000E-01
 -1       392-1.89893E-02 2.47681E-03-3.87794E-01
 -1       393 0.00000E+00 0.00000E+00 0.00000E+00
 -1       394-1.18862E-02-1.33275E-02-9.81815E-02
 -1       395-7.30024E-03-1.55771E-02-1.01147E-01
 -1       396 0.00000E+00 0.00000E+00 0.00000E+00
 -1       397 0.00000E+00 0.00000E+00 0.00000E+00
 -1       398-1.23290E-02-1.63683E-02-2.38500E-01
 -1       399-5.22110E-03-2.09461E-02-2.41599E-01
 -1       400 0.00000E+00 0.00000E+00 0.00000E+00
 -1       401 0.00000E+00 0.00000E+00 0.00000E+00
 -1       402 2.61728E-04-2.05641E-02-1.03773E-01
 -1       403 0.00000E+00 0.00000E+00 0.00000E+00
 -1       404 7.99291E-03-1.84016E-02-1.03286E-01
 -1       405 6.44692E-03-2.12315E-02-2.43066E-01
 -1       406 6.94238E-03-1.99637E-02-2.43941E-01
 -1       407 0.00000E+00 0.00000E+00 0.00000E+00
 -1       408 0.00000E+00 0.00000E+00 0.00000E+00
 -1       409 1.25283E-02-1.29889E-02-9.96590E-02
 -1       410 0.00000E+00 0.00000E+00 0.00000E+00
 -1       411-1.45998E-02-1.39794E-02-2.40884E-01
 -1       412 0.00000E+00 0.00000E+00 0.00000E+00
 -1       413 0.00000E+00 0.00000E+00 0.00000E+00
 -1       414 0.00000E+00 0.00000E+00 0.00000E+00
 -1       415-2.07222E-02 4.51001E-04-1.02996E-01
 -1       416-1.73440E-02-7.09645E-03-1.01454E-01
 -1       417-2.10108E-02-4.16527E-04-2.52865E-01
 -1       418 0.00000E+00 0.00000E+00 0.00000E+00
 -1       419-2.09285E-02 1.55765E-03-2.51119E-01
 -1       420-2.04615E-02 6.76762E-03-1.09273E-01
 -1       421-1.93997E-02 6.50083E-03-2.53864E-01
 -1       422 0.00000E+00 0.00000E+00 0.00000E+00
 -1       423-1.95513E-02 8.68094E-03-2.54176E-01
 -1       424-1.97440E-02 5.94021E-03-1.09706E-01
 -1       425-1.42291E-02 1.39216E-02-1.11626E-01
 -1       426-1.52115E-02 1.36455E-02-2.57796E-01
 -1       427-6.90934E-03 1.91601E-02-2.55940E-01
 -1       428-5.33014E-04 1.98863E-02-1.08048E-01
 -1       429-1.72886E-04 2.13557E-02-2.53591E-01
 -1       430 2.58999E-03 2.04557E-02-2.51683E-01
 -1       431 6.59079E-03 2.00075E-02-2.49211E-01
 -1       432 0.00000E+00 0.00000E+00 0.00000E+00
 -1       433 1.78201E-03 1.90601E-02-1.07275E-01
 -1       434 8.79382E-03 1.90020E-02-1.07168E-01
 -1       435 0.00000E+00 0.00000E+00 0.00000E+00
 -1       436-1.90523E-02-3.87280E-03-3.87035E-01
 -1       437-1.53771E-02-2.94701E-03-5.11128E-01
 -1       438-1.38567E-02-1.45285E-02-3.84185E-01
 -1       439-1.00970E-02 1.63637E-02-3.91272E-01
 -1       440-8.42101E-03 1.28923E-02-5.11480E-01
 -1       441 0.00000E+00 0.00000E+00 0.00000E+00
 -1       442 0.00000E+00 0.00000E+00 0.00000E+00
 -1       443 0.00000E+00 0.00000E+00 0.00000E+00
 -1       444 0.00000E+00 0.00000E+00 0.00000E+00
 -1       445 0.00000E+00 0.00000E+00 0.00000E+00
 -1       446 0.00000E+00 0.00000E+00 0.00000E+00
 -1       447 0.00000E+00 0.00000E+00 0.00000E+00
 -1       448 0.00000E+00 0.00000E+00 0.00000E+00
 -1       449-5.89398E-02-2.00949E-04-4.52869E-01
 -1       450-5.91099E-02-8.03589E-04-4.54942E-01
 -1       451-6.53435E-02-1.24887E-03-3.20317E-01
 -1       452-6.46492E-02-1.71464E-04-3.21870E-01
 -1       453-6.84978E-02-1.64818E-03-1.77568E-01
 -1       454-6.86062E-02-1.69480E-03-1.79650E-01
 -1       455-2.10308E-02-6.63801E-04-1.77921E-01
 -1       456-1.80277E-02-1.07760E-03-4.55408E-01
 -1       457-1.87873E-02 1.52257E-03-4.55425E-01
 -1       458-2.15352E-02 5.00083E-04-1.79620E-01
 -1       459-2.03197E-02 2.52131E-03-3.22944E-01
 -1       460-2.03700E-02-1.94397E-03-3.22622E-01
 -1       461-6.08570E-02-2.89185E-02-1.74131E-01
 -1       462-6.09220E-02-2.91242E-02-1.72115E-01
 -1       463-6.01429E-02-2.82613E-02-3.19464E-01
 -1       464-5.96155E-02-2.87080E-02-3.15764E-01
 -1       465-5.46047E-02-2.47819E-02-4.51283E-01
 -1       466-5.40213E-02-2.41787E-02-4.51617E-01
 -1       467-1.82488E-02-9.56856E-03-1.71773E-01
 -1       468-1.64521E-02-9.44809E-03-4.52363E-01
 -1       469-1.77856E-02-6.14382E-03-4.54209E-01
 -1       470-1.91798E-02-8.45618E-03-1.74430E-01
 -1       471-1.96796E-02-6.75405E-03-3.21815E-01
 -1       472-1.74445E-02-1.09457E-02-3.16434E-01
 -1       473-4.50901E-02-4.65291E-02-1.67602E-01
 -1       474-4.43854E-02-4.69985E-02-1.67108E-01
 -1       475-4.59858E-02-4.83400E-02-3.11790E-01
 -1       476-4.54069E-02-4.88434E-02-3.09427E-01
 -1       477-3.97007E-02-4.66087E-02-4.49347E-01
 -1       478-3.98308E-02-4.58405E-02-4.47647E-01
 -1       479-1.25104E-02-1.38417E-02-1.66444E-01
 -1       480-1.10826E-02-1.59741E-02-4.47988E-01
 -1       481-1.35518E-02-1.37233E-02-4.52986E-01
 -1       482-1.34627E-02-1.37000E-02-1.66855E-01
 -1       483-1.55834E-02-1.30921E-02-3.13867E-01
 -1       484-1.19746E-02-1.63017E-02-3.09661E-01
 -1       485-2.36287E-02-6.14607E-02-3.09939E-01
 -1       486-2.50150E-02-6.02922E-02-1.69402E-01
 -1       487-2.43936E-02-6.03765E-02-1.69746E-01
 -1       488-2.13557E-02-5.65314E-02-4.45253E-01
 -1       489-2.11320E-02-5.74188E-02-4.45863E-01
 -1       490-2.52812E-02-6.08448E-02-3.10499E-01
 -1       491-7.46745E-03-1.93212E-02-1.69991E-01
 -1       492-4.34435E-03-1.88565E-02-4.47558E-01
 -1       493-7.95471E-03-1.75330E-02-4.48505E-01
 -1       494-8.67183E-03-1.93227E-02-1.69116E-01
 -1       495-9.63519E-03-1.83667E-02-3.11529E-01
 -1       496-5.76536E-03-2.00559E-02-3.11892E-01
 -1       497 5.59198E-04-6.60329E-02-3.10496E-01
 -1       498-2.59479E-03-6.58848E-02-1.69678E-01
 -1       499-2.14027E-03-6.61072E-02-1.72213E-01
 -1       500-9.11080E-04-6.11481E-02-4.44639E-01
 -1       501-9.20685E-04-6.15118E-02-4.45721E-01
 -1       502-8.28603E-04-6.53307E-02-3.11358E-01
 -1       503 5.96067E-05-2.13918E-02-1.72190E-01
 -1       504 5.55446E-04-1.92592E-02-4.46774E-01
 -1       505-2.34386E-03-1.92166E-02-4.47647E-01
 -1       506-1.01925E-03-2.10826E-02-1.69373E-01
 -1       507-3.05689E-03-2.06937E-02-3.12168E-01
 -1       508 2.16138E-03-2.10944E-02-3.12638E-01
 -1       509 2.56577E-02-6.10642E-02-3.12119E-01
 -1       510 2.28214E-02-5.63550E-02-4.44855E-01
 -1       511 2.19033E-02-5.57706E-02-4.46554E-01
 -1       512 2.64620E-02-6.01721E-02-1.69486E-01
 -1       513 2.68033E-02-6.02684E-02-1.68478E-01
 -1       514 2.69095E-02-6.02599E-02-3.09957E-01
 -1       515 8.86886E-03-1.94821E-02-1.68091E-01
 -1       516 8.21426E-03-1.69304E-02-4.47287E-01
 -1       517 5.80083E-03-1.82258E-02-4.48032E-01
 -1       518 8.01984E-03-1.89283E-02-1.69658E-01
 -1       519 6.70959E-03-2.00525E-02-3.13948E-01
 -1       520 9.83074E-03-1.82270E-02-3.11110E-01
 -1       521 4.51841E-02-4.81818E-02-1.68249E-01
 -1       522 4.50589E-02-4.72092E-02-1.69235E-01
 -1       523 4.45435E-02-4.85985E-02-3.10706E-01
 -1       524 4.52442E-02-4.80216E-02-3.14317E-01
 -1       525 4.06452E-02-4.40479E-02-4.45015E-01
 -1       526 4.02367E-02-4.37606E-02-4.48458E-01
 -1       527 1.29763E-02-1.45844E-02-1.68667E-01
 -1       528 1.39770E-02-1.20567E-02-4.49970E-01
 -1       529 1.21340E-02-1.51523E-02-4.48130E-01
 -1       530 1.33498E-02-1.46928E-02-1.67476E-01
 -1       531 1.15981E-02-1.69263E-02-3.13015E-01
 -1       532 1.58208E-02-1.25218E-02-3.14566E-01
 -1       533 5.98400E-02-2.59699E-02-1.72796E-01
 -1       534 6.00925E-02-2.54619E-02-1.72625E-01
 -1       535 5.89772E-02-2.73283E-02-3.12468E-01
 -1       536 5.97950E-02-2.49974E-02-3.14609E-01
 -1       537 5.38035E-02-2.41143E-02-4.45457E-01
 -1       538 5.48362E-02-2.43756E-02-4.47439E-01
 -1       539 1.83584E-02-7.86834E-03-1.72623E-01
 -1       540 1.74129E-02-6.63647E-03-4.49528E-01
 -1       541 1.63655E-02-9.59494E-03-4.48415E-01
 -1       542 1.81144E-02-7.96662E-03-1.72332E-01
 -1       543 1.74615E-02-1.07906E-02-3.14680E-01
 -1       544 1.88315E-02-6.66629E-03-3.16322E-01
 -1       545 6.45681E-02-1.67813E-03-1.76585E-01
 -1       546 6.46664E-02-1.53585E-03-1.77759E-01
 -1       547 6.34981E-02-2.99009E-03-3.13877E-01
 -1       548 6.41924E-02-2.40627E-03-3.18895E-01
 -1       549 5.81985E-02-2.30493E-03-4.45793E-01
 -1       550 5.84696E-02-2.45369E-03-4.48494E-01
 -1       551 1.96567E-02 1.57792E-04-1.77295E-01
 -1       552 1.84063E-02 9.92161E-04-4.49065E-01
 -1       553 1.81725E-02-1.59792E-03-4.48187E-01
 -1       554 2.04418E-02-1.69445E-03-1.77513E-01
 -1       555 1.91615E-02-2.66829E-03-3.16156E-01
 -1       556 1.96653E-02 2.14007E-03-3.19428E-01
 -1       557 5.35743E-02 2.23604E-02-4.48590E-01
 -1       558 5.38685E-02 2.26834E-02-4.49124E-01
 -1       559 5.87280E-02 2.54137E-02-3.16322E-01
 -1       560 5.93257E-02 2.40755E-02-3.17022E-01
 -1       561 5.93616E-02 2.54759E-02-1.77158E-01
 -1       562 5.96273E-02 2.49158E-02-1.78161E-01
 -1       563 1.78336E-02 8.58262E-03-1.77297E-01
 -1       564 1.58143E-02 8.37853E-03-4.51384E-01
 -1       565 1.62967E-02 6.45195E-03-4.50792E-01
 -1       566 1.87874E-02 7.17776E-03-1.78271E-01
 -1       567 1.85788E-02 5.34991E-03-3.18524E-01
 -1       568 1.72358E-02 9.79686E-03-3.18583E-01
 -1       569 4.17411E-02 4.11217E-02-4.48218E-01
 -1       570 4.20040E-02 4.11121E-02-4.49561E-01
 -1       571 4.64106E-02 4.56799E-02-3.16967E-01
 -1       572 4.74946E-02 4.40353E-02-3.15551E-01
 -1       573 4.63034E-02 4.41070E-02-1.74527E-01
 -1       574 4.66157E-02 4.34783E-02-1.72963E-01
 -1       575 1.30730E-02 1.38922E-02-1.74511E-01
 -1       576 1.24543E-02 1.32313E-02-4.50651E-01
 -1       577 1.43653E-02 1.06563E-02-4.51291E-01
 -1       578 1.34527E-02 1.27685E-02-1.72477E-01
 -1       579 1.61768E-02 1.12107E-02-3.16754E-01
 -1       580 1.22288E-02 1.53685E-02-3.19351E-01
 -1       581 2.68431E-02 5.92089E-02-3.17155E-01
 -1       582 2.23626E-02 5.42879E-02-4.50453E-01
 -1       583 2.14925E-02 5.32995E-02-4.51817E-01
 -1       584 2.63651E-02 6.08954E-02-1.76362E-01
 -1       585 2.62748E-02 5.97327E-02-1.75245E-01
 -1       586 2.53271E-02 6.02849E-02-3.19313E-01
 -1       587 6.82502E-03 1.96044E-02-1.76733E-01
 -1       588 5.09656E-03 1.71288E-02-4.53932E-01
 -1       589 8.32981E-03 1.62077E-02-4.52718E-01
 -1       590 8.06316E-03 1.79417E-02-1.74761E-01
 -1       591 9.54791E-03 1.75430E-02-3.18986E-01
 -1       592 6.54327E-03 1.90795E-02-3.20774E-01
 -1       593 2.70413E-03 6.47309E-02-3.18793E-01
 -1       594 8.33055E-04 5.80834E-02-4.52302E-01
 -1       595 6.43806E-04 5.77275E-02-4.53223E-01
 -1       596 1.11646E-06 6.65011E-02-1.77943E-01
 -1       597 2.87874E-04 6.67762E-02-1.78841E-01
 -1       598 2.23506E-03 6.48073E-02-3.23107E-01
 -1       599-4.08320E-04 2.06634E-02-1.78437E-01
 -1       600 1.04276E-04 1.81894E-02-4.54606E-01
 -1       601 1.94684E-03 1.77795E-02-4.54677E-01
 -1       602 1.70848E-03 2.06990E-02-1.78938E-01
 -1       603 3.14538E-03 2.00067E-02-3.21307E-01
 -1       604-1.81353E-03 2.01147E-02-3.23800E-01
 -1       605-2.49690E-02 5.97137E-02-3.24739E-01
 -1       606-2.32353E-02 6.30311E-02-1.83296E-01
 -1       607-2.29634E-02 6.26886E-02-1.81447E-01
 -1       608-2.20672E-02 5.32959E-02-4.53461E-01
 -1       609-2.21126E-02 5.39903E-02-4.54728E-01
 -1       610-2.46206E-02 5.92124E-02-3.24398E-01
 -1       611-8.10917E-03 1.93068E-02-1.83278E-01
 -1       612-7.61374E-03 1.63958E-02-4.56106E-01
 -1       613-5.37314E-03 1.74391E-02-4.56521E-01
 -1       614-7.36335E-03 1.94494E-02-1.81701E-01
 -1       615-6.71827E-03 1.86210E-02-3.25239E-01
 -1       616-9.09808E-03 1.75822E-02-3.25039E-01
 -1       617-4.10679E-02 3.96264E-02-4.54312E-01
 -1       618-4.11006E-02 3.99759E-02-4.55951E-01
 -1       619-4.66078E-02 4.42417E-02-3.23655E-01
 -1       620-4.62390E-02 4.43400E-02-3.26592E-01
 -1       621-4.85868E-02 4.50224E-02-1.83390E-01
 -1       622-4.83833E-02 4.52945E-02-1.84663E-01
 -1       623-1.59826E-02 1.24243E-02-1.83893E-01
 -1       624-1.39507E-02 1.15308E-02-4.56077E-01
 -1       625-1.22197E-02 1.31618E-02-4.57506E-01
 -1       626-1.47217E-02 1.41807E-02-1.84432E-01
 -1       627-1.23178E-02 1.56161E-02-3.27051E-01
 -1       628-1.61756E-02 1.13675E-02-3.26393E-01
 -1       629-5.49571E-02 2.02754E-02-4.51935E-01
 -1       630-5.45466E-02 2.01641E-02-4.54441E-01
 -1       631-6.11956E-02 2.24060E-02-3.20542E-01
 -1       632-6.06294E-02 2.33801E-02-3.23648E-01
 -1       633-6.21134E-02 2.42299E-02-1.78875E-01
 -1       634-6.23257E-02 2.43672E-02-1.80144E-01
 -1       635-1.98089E-02 6.69274E-03-1.79759E-01
 -1       636-1.75740E-02 4.68409E-03-4.55109E-01
 -1       637-1.63742E-02 8.91836E-03-4.55299E-01
 -1       638-1.95159E-02 8.02646E-03-1.80170E-01
 -1       639-1.83098E-02 9.38515E-03-3.24272E-01
 -1       640-1.94994E-02 4.98001E-03-3.22544E-01
 -1       641 0.00000E+00 0.00000E+00 0.00000E+00
 -1       642 0.00000E+00 0.00000E+00 0.00000E+00
 -1       643 0.00000E+00 0.00000E+00 0.00000E+00
 -1       644 0.00000E+00 0.00000E+00 0.00000E+00
 -1       645 0.00000E+00 0.00000E+00 0.00000E+00
 -1       646 0.00000E+00 0.00000E+00 0.00000E+00
 -1       647 0.00000E+00 0.00000E+00 0.00000E+00
 -1       648 0.00000E+00 0.00000E+00 0.00000E+00
 -1       649 0.00000E+00 0.00000E+00 0.00000E+00
 -1       650 0.00000E+00 0.00000E+00 0.00000E+00
 -1       651 0.00000E+00 0.00000E+00 0.00000E+00
 -1       652 0.00000E+00 0.00000E+00 0.00000E+00
 -1       653 0.00000E+00 0.00000E+00 0.00000E+00
 -1       654 0.00000E+00 0.00000E+00 0.00000E+00
 -1       655 0.00000E+00 0.00000E+00 0.00000E+00
 -1       656 0.00000E+00 0.00000E+00 0.00000E+00
 -1       657 0.00000E+00 0.00000E+00 0.00000E+00
 -1       658 0.00000E+00 0.00000E+00 0.00000E+00
 -1       659 0.00000E+00 0.00000E+00 0.00000E+00
 -1       660 0.00000E+00 0.00000E+00 0.00000E+00
 -1       661 0.00000E+00 0.00000E+00 0.00000E+00
 -1       662 0.00000E+00 0.00000E+00 0.00000E+00
 -1       663 0.00000E+00 0.00000E+00 0.00000E+00
 -1       664 0.00000E+00 0.00000E+00 0.00000E+00
 -1       665 0.00000E+00 0.00000E+00 0.00000E+00
 -1       666 0.00000E+00 0.00000E+00 0.00000E+00
 -1       667 0.00000E+00 0.00000E+00 0.00000E+00
 -1       668 0.00000E+00 0.00000E+00 0.00000E+00
 -1       669 0.00000E+00 0.00000E+00 0.00000E+00
 -1       670 0.00000E+00 0.00000E+00 0.00000E+00
 -1       671 0.00000E+00 0.00000E+00 0.00000E+00
 -1       672 0.00000E+00 0.00000E+00 0.00000E+00
 -1       673 0.00000E+00 0.00000E+00 0.00000E+00
 -1       674 0.00000E+00 0.00000E+00 0.00000E+00
 -1       675 0.00000E+00 0.00000E+00 0.00000E+00
 -1       676 0.00000E+00 0.00000E+00 0.00000E+00
 -1       677 0.00000E+00 0.00000E+00 0.00000E+00
 -1       678 0.00000E+00 0.00000E+00 0.00000E+00
 -1       679 0.00000E+00 0.00000E+00 0.00000E+00
 -1       680 0.00000E+00 0.00000E+00 0.00000E+00
 -1       681 0.00000E+00 0.00000E+00 0.00000E+00
 -1       682 0.00000E+00 0.00000E+00 0.00000E+00
 -1       683 0.00000E+00 0.00000E+00 0.00000E+00
 -1       684 0.00000E+00 0.00000E+00 0.00000E+00
 -1       685 0.00000E+00 0.00000E+00 0.00000E+00
 -1       686 0.00000E+00 0.00000E+00 0.00000E+00
 -1       687 0.00000E+00 0.00000E+00 0.00000E+00
 -1       688 0.00000E+00 0.00000E+00 0.00000E+00
 -1       689 0.00000E+00 0.00000E+00 0.00000E+00
 -1       690 0.00000E+00 0.00000E+00 0.00000E+00
 -1       691 0.00000E+00 0.00000E+00 0.00000E+00
 -1       692 0.00000E+00 0.00000E+00 0.00000E+00
 -1       693 0.00000E+00 0.00000E+00 0.00000E+00
 -1       694 0.00000E+00 0.00000E+00 0.00000E+00
 -1       695 0.00000E+00 0.00000E+00 0.00000E+00
 -1       696 0.00000E+00 0.00000E+00 0.00000E+00
 -1       697 0.00000E+00 0.00000E+00 0.00000E+00
 -1       698 0.00000E+00 0.00000E+00 0.00000E+00
 -1       699 0.00000E+00 0.00000E+00 0.00000E+00
 -1       700 0.00000E+00 0.00000E+00 0.00000E+00
 -1       701 0.00000E+00 0.00000E+00 0.00000E+00
 -1       702 0.00000E+00 0.00000E+00 0.00000E+00
 -1       703 0.00000E+00 0.00000E+00 0.00000E+00
 -1       704 0.00000E+00 0.00000E+00 0.00000E+00
 -1       705-6.12744E-02-5.49158E-05-4.20039E-01
 -1       706-5.74131E-02-2.13911E-04-4.81884E-01
 -1       707-6.13934E-02-1.01017E-03-4.20978E-01
 -1       708-6.46006E-02-1.38716E-03-3.53423E-01
 -1       709-6.73724E-02-1.62495E-03-2.14583E-01
 -1       710-6.85491E-02-9.51043E-04-1.41908E-01
 -1       711-2.07337E-02-1.98671E-03-2.88255E-01
 -1       712-1.99619E-02-3.16085E-03-3.55968E-01
 -1       713-5.35270E-02-2.38077E-02-4.81797E-01
 -1       714-5.65186E-02-2.63979E-02-4.19736E-01
 -1       715-5.30357E-02-2.33061E-02-4.81274E-01
 -1       716-1.77124E-02-8.02548E-03-4.23356E-01
 -1       717-1.78775E-02-1.11423E-02-2.81287E-01
 -1       718-1.69586E-02-1.09903E-02-3.49796E-01
 -1       719-4.13244E-02-4.78916E-02-4.15962E-01
 -1       720-3.93557E-02-4.44202E-02-4.78238E-01
 -1       721-1.23165E-02-1.37973E-02-1.31522E-01
 -1       722-2.09557E-02-5.55091E-02-4.76162E-01
 -1       723-2.58077E-02-6.00007E-02-3.44371E-01
 -1       724-2.64080E-02-6.08295E-02-2.75764E-01
 -1       725 3.08899E-04-5.92784E-02-4.75717E-01
 -1       726-4.77347E-04-6.28433E-02-4.10518E-01
 -1       727 1.40958E-04-6.00519E-02-4.74510E-01
 -1       728-2.37435E-03-6.57862E-02-2.77000E-01
 -1       729 2.82734E-02-6.04181E-02-2.74702E-01
 -1       730 2.72246E-02-5.91313E-02-3.43546E-01
 -1       731 9.86783E-03-1.89265E-02-2.76225E-01
 -1       732 9.34331E-03-1.79155E-02-3.45356E-01
 -1       733 3.93114E-02-4.29616E-02-4.74572E-01
 -1       734 4.23607E-02-4.52869E-02-4.12023E-01
 -1       735 3.86869E-02-4.28115E-02-4.77433E-01
 -1       736 1.33760E-02-1.38028E-02-4.15193E-01
 -1       737 5.26973E-02-2.35105E-02-4.75691E-01
 -1       738 5.61644E-02-2.51780E-02-4.13208E-01
 -1       739 5.26516E-02-2.39971E-02-4.76471E-01
 -1       740 1.71746E-02-8.44453E-03-4.16480E-01
 -1       741 1.94532E-02-5.93585E-03-2.81703E-01
 -1       742 1.88190E-02-5.99046E-03-3.49370E-01
 -1       743 5.68551E-02-1.38885E-03-4.76500E-01
 -1       744 6.02842E-02-2.22275E-03-4.13839E-01
 -1       745 5.72608E-02-1.66373E-03-4.77188E-01
 -1       746 1.89288E-02-2.46226E-03-4.18602E-01
 -1       747 2.01747E-02 1.14275E-03-2.84880E-01
 -1       748 1.94240E-02 1.58502E-03-3.52880E-01
 -1       749 5.19540E-02 2.16259E-02-4.78023E-01
 -1       750 5.59561E-02 2.30033E-02-4.16460E-01
 -1       751 5.88382E-02 2.41152E-02-3.51083E-01
 -1       752 5.94309E-02 2.44536E-02-2.83340E-01
 -1       753 5.92032E-02 2.42541E-02-1.43278E-01
 -1       754 1.79978E-02 5.32658E-03-4.19341E-01
 -1       755 1.78098E-02 9.37900E-03-2.83389E-01
 -1       756 1.65900E-02 9.56962E-03-3.51719E-01
 -1       757 4.10517E-02 3.93263E-02-4.78388E-01
 -1       758 4.42140E-02 4.21140E-02-4.15286E-01
 -1       759 4.72681E-02 4.28749E-02-3.49005E-01
 -1       760 4.85752E-02 4.34915E-02-2.79615E-01
 -1       761 4.57532E-02 4.25572E-02-1.37510E-01
 -1       762 1.32504E-02 1.47935E-02-2.83531E-01
 -1       763 1.25808E-02 1.50119E-02-3.53615E-01
 -1       764 2.10646E-02 5.25282E-02-4.78730E-01
 -1       765 2.43231E-02 5.57552E-02-4.18514E-01
 -1       766 2.54324E-02 5.93636E-02-3.53475E-01
 -1       767 9.82650E-03 1.63363E-02-4.22164E-01
 -1       768 6.24159E-03 1.84723E-02-3.55447E-01
 -1       769 1.78016E-03 5.63722E-02-4.81308E-01
 -1       770 9.57769E-04 6.10129E-02-4.20159E-01
 -1       771 1.05886E-03 6.62656E-02-2.15604E-01
 -1       772-3.75117E-04 6.60842E-02-1.42822E-01
 -1       773-1.62827E-03 2.07580E-02-2.89463E-01
 -1       774-1.97313E-03 1.94959E-02-3.57363E-01
 -1       775-2.15711E-02 5.20661E-02-4.82310E-01
 -1       776-2.30023E-02 5.60283E-02-4.22859E-01
 -1       777-2.44031E-02 5.89516E-02-3.57683E-01
 -1       778-2.41682E-02 6.02715E-02-2.88887E-01
 -1       779-6.69140E-03 1.77538E-02-4.25742E-01
 -1       780-3.89757E-02 3.95535E-02-4.83434E-01
 -1       781-4.25056E-02 4.20296E-02-4.23338E-01
 -1       782-4.57681E-02 4.37797E-02-3.56954E-01
 -1       783-4.78256E-02 4.54098E-02-2.19981E-01
 -1       784-4.81211E-02 4.47982E-02-1.48286E-01
 -1       785-1.27039E-02 1.35380E-02-4.26410E-01
 -1       786-5.34462E-02 1.98591E-02-4.81636E-01
 -1       787-5.66205E-02 2.13372E-02-4.22360E-01
 -1       788-6.04897E-02 2.24660E-02-3.54102E-01
 -1       789-6.19645E-02 2.40011E-02-2.16060E-01
 -1       790-6.19808E-02 2.42712E-02-1.44148E-01
 -1       791-1.70343E-02 7.43349E-03-4.25629E-01
 -1       792-2.00865E-02 4.59070E-03-2.87690E-01
 -1       793-1.93572E-02 4.78582E-03-3.56660E-01
 -1       794 0.00000E+00 0.00000E+00 0.00000E+00
 -1       795 0.00000E+00 0.00000E+00 0.00000E+00
 -1       796 0.00000E+00 0.00000E+00 0.00000E+00
 -1       797 0.00000E+00 0.00000E+00 0.00000E+00
 -1       798 0.00000E+00 0.00000E+00 0.00000E+00
 -1       799 0.00000E+00 0.00000E+00 0.00000E+00
 -1       800 0.00000E+00 0.00000E+00 0.00000E+00
 -1       801 0.00000E+00 0.00000E+00 0.00000E+00
 -1       802 0.00000E+00 0.00000E+00 0.00000E+00
 -1       803 0.00000E+00 0.00000E+00 0.00000E+00
 -1       804 0.00000E+00 0.00000E+00 0.00000E+00
 -1       805 0.00000E+00 0.00000E+00 0.00000E+00
 -1       806 0.00000E+00 0.00000E+00 0.00000E+00
 -1       807 0.00000E+00 0.00000E+00 0.00000E+00
 -1       808 0.00000E+00 0.00000E+00 0.00000E+00
 -1       809 0.00000E+00 0.00000E+00 0.00000E+00
 -1       810 0.00000E+00 0.00000E+00 0.00000E+00
 -1       811 0.00000E+00 0.00000E+00 0.00000E+00
 -1       812 0.00000E+00 0.00000E+00 0.00000E+00
 -1       813 0.00000E+00 0.00000E+00 0.00000E+00
 -1       814 0.00000E+00 0.00000E+00 0.00000E+00
 -1       815 0.00000E+00 0.00000E+00 0.00000E+00
 -1       816 0.00000E+00 0.00000E+00 0.00000E+00
 -1       817 0.00000E+00 0.00000E+00 0.00000E+00
 -1       818 0.00000E+00 0.00000E+00 0.00000E+00
 -1       819 0.00000E+00 0.00000E+00 0.00000E+00
 -1       820 0.00000E+00 0.00000E+00 0.00000E+00
 -1       821 0.00000E+00 0.00000E+00 0.00000E+00
 -1       822 0.00000E+00 0.00000E+00 0.00000E+00
 -1       823 0.00000E+00 0.00000E+00 0.00000E+00
 -1       824 0.00000E+00 0.00000E+00 0.00000E+00
 -1       825 0.00000E+00 0.00000E+00 0.00000E+00
 -1       826 0.00000E+00 0.00000E+00 0.00000E+00
 -1       827 0.00000E+00 0.00000E+00 0.00000E+00
 -1       828 0.00000E+00 0.00000E+00 0.00000E+00
 -1       829 0.00000E+00 0.00000E+00 0.00000E+00
 -1       830 0.00000E+00 0.00000E+00 0.00000E+00
 -1       831 0.00000E+00 0.00000E+00 0.00000E+00
 -1       832 0.00000E+00 0.00000E+00 0.00000E+00
 -1       833 0.00000E+00 0.00000E+00 0.00000E+00
 -1       834 0.00000E+00 0.00000E+00 0.00000E+00
 -1       835 0.00000E+00 0.00000E+00 0.00000E+00
 -1       836 0.00000E+00 0.00000E+00 0.00000E+00
 -1       837 0.00000E+00 0.00000E+00 0.00000E+00
 -1       838 0.00000E+00 0.00000E+00 0.00000E+00
 -1       839 0.00000E+00 0.00000E+00 0.00000E+00
 -1       840 0.00000E+00 0.00000E+00 0.00000E+00
 -1       841 0.00000E+00 0.00000E+00 0.00000E+00
 -1       842 0.00000E+00 0.00000E+00 0.00000E+00
 -1       843 0.00000E+00 0.00000E+00 0.00000E+00
 -1       844 0.00000E+00 0.00000E+00 0.00000E+00
 -1       845 0.00000E+00 0.00000E+00 0.00000E+00
 -1       846 0.00000E+00 0.00000E+00 0.00000E+00
 -1       847 0.00000E+00 0.00000E+00 0.00000E+00
 -1       848 0.00000E+00 0.00000E+00 0.00000E+00
 -1       849 0.00000E+00 0.00000E+00 0.00000E+00
 -1       850 0.00000E+00 0.00000E+00 0.00000E+00
 -1       851-5.69068E-02-7.04096E-04-4.83245E-01
 -1       852-6.57790E-02-7.53404E-04-2.86862E-01
 -1       853-6.59678E-02 1.68077E-03-2.86528E-01
 -1       854-6.39565E-02-2.93969E-04-3.54736E-01
 -1       855-6.82569E-02-1.37516E-03-1.40595E-01
 -1       856-6.77714E-02-1.98383E-03-2.16639E-01
 -1       857-1.87058E-02 1.05642E-03-4.22429E-01
 -1       858-2.12120E-02-1.43229E-03-2.16300E-01
 -1       859-2.07099E-02 3.61842E-04-1.40233E-01
 -1       860-1.75350E-02-1.49779E-03-4.84683E-01
 -1       861-1.87947E-02-8.53676E-04-4.23912E-01
 -1       862-1.73800E-02 2.82038E-03-4.84469E-01
 -1       863-2.11607E-02 6.56403E-04-1.41345E-01
 -1       864-2.13503E-02-5.08553E-04-2.17613E-01
 -1       865-2.08727E-02 3.10547E-03-2.88540E-01
 -1       866-1.95707E-02 1.87752E-03-3.55694E-01
 -1       867-6.03736E-02-2.95111E-02-2.08837E-01
 -1       868-6.04442E-02-2.80433E-02-1.37664E-01
 -1       869-6.09452E-02-2.90783E-02-2.11745E-01
 -1       870-6.05716E-02-2.84105E-02-1.35520E-01
 -1       871-6.04875E-02-2.80886E-02-2.84332E-01
 -1       872-5.97462E-02-2.80220E-02-3.54248E-01
 -1       873-5.84705E-02-2.91727E-02-3.48848E-01
 -1       874-6.00695E-02-2.95208E-02-2.80546E-01
 -1       875-5.60609E-02-2.55411E-02-4.19798E-01
 -1       876-1.82543E-02-9.95189E-03-2.09402E-01
 -1       877-1.81229E-02-8.24238E-03-1.35130E-01
 -1       878-1.51971E-02-8.77227E-03-4.82965E-01
 -1       879-1.68619E-02-9.74140E-03-4.21953E-01
 -1       880-1.66445E-02-6.16568E-03-4.84428E-01
 -1       881-1.82027E-02-7.97826E-03-1.37014E-01
 -1       882-1.97685E-02-8.90335E-03-2.12288E-01
 -1       883-1.99957E-02-6.57358E-03-2.86432E-01
 -1       884-1.93866E-02-6.46043E-03-3.56723E-01
 -1       885-3.91839E-02-4.48125E-02-4.79343E-01
 -1       886-4.64557E-02-4.78862E-02-2.76180E-01
 -1       887-4.35727E-02-4.65092E-02-1.32179E-01
 -1       888-4.56850E-02-4.72067E-02-2.03216E-01
 -1       889-4.53499E-02-4.77124E-02-2.03245E-01
 -1       890-4.29423E-02-4.62296E-02-1.30571E-01
 -1       891-4.49669E-02-4.84027E-02-3.47521E-01
 -1       892-4.43376E-02-4.90737E-02-3.45017E-01
 -1       893-4.53911E-02-4.91527E-02-2.74811E-01
 -1       894-4.16724E-02-4.74042E-02-4.14378E-01
 -1       895-1.29675E-02-1.54824E-02-2.02825E-01
 -1       896-1.13390E-02-1.29038E-02-1.29842E-01
 -1       897-9.71634E-03-1.57466E-02-4.79204E-01
 -1       898-1.15832E-02-1.59376E-02-4.16014E-01
 -1       899-1.36989E-02-1.40151E-02-4.20353E-01
 -1       900-1.30148E-02-1.25776E-02-4.82102E-01
 -1       901-1.38691E-02-1.40018E-02-2.03416E-01
 -1       902-1.17093E-02-1.60475E-02-3.46042E-01
 -1       903-1.23367E-02-1.62814E-02-2.75358E-01
 -1       904-1.51692E-02-1.35753E-02-2.77451E-01
 -1       905-1.44296E-02-1.33139E-02-3.49757E-01
 -1       906-2.25416E-02-5.83836E-02-4.12920E-01
 -1       907-2.08777E-02-5.55977E-02-4.76251E-01
 -1       908-2.38853E-02-6.11914E-02-3.44673E-01
 -1       909-2.43282E-02-6.14578E-02-2.76706E-01
 -1       910-2.43567E-02-5.88952E-02-1.35817E-01
 -1       911-2.55101E-02-6.07519E-02-2.05317E-01
 -1       912-2.46812E-02-6.09783E-02-2.06034E-01
 -1       913-2.39014E-02-5.95539E-02-1.35560E-01
 -1       914-2.32710E-02-5.91138E-02-4.12346E-01
 -1       915-6.38802E-03-2.05025E-02-2.06198E-01
 -1       916-6.52049E-03-1.93326E-02-1.34867E-01
 -1       917-3.64263E-03-1.83273E-02-4.77650E-01
 -1       918-6.18313E-03-1.88314E-02-4.14133E-01
 -1       919-7.51833E-03-1.78705E-02-4.15891E-01
 -1       920-8.10815E-03-1.68736E-02-4.79032E-01
 -1       921-7.37745E-03-1.75208E-02-1.35481E-01
 -1       922-8.15881E-03-1.97912E-02-2.05880E-01
 -1       923-5.00453E-03-2.01853E-02-3.45480E-01
 -1       924-5.88598E-03-2.03164E-02-2.77854E-01
 -1       925-9.90345E-03-1.88503E-02-2.77299E-01
 -1       926-9.30904E-03-1.81888E-02-3.46096E-01
 -1       927 6.67011E-04-6.55484E-02-3.44741E-01
 -1       928 1.43637E-04-6.60247E-02-2.77956E-01
 -1       929-2.08738E-03-6.48438E-02-1.35758E-01
 -1       930-1.79868E-03-6.57994E-02-2.06303E-01
 -1       931-1.70788E-03-6.63331E-02-2.08818E-01
 -1       932-1.69148E-03-6.48569E-02-1.37149E-01
 -1       933-1.03914E-03-6.28148E-02-4.12682E-01
 -1       934-9.74182E-04-6.49795E-02-3.45435E-01
 -1       935-1.09527E-03-2.11942E-02-1.35457E-01
 -1       936 9.13390E-04-2.16426E-02-2.09240E-01
 -1       937 1.45658E-04-2.08119E-02-1.36363E-01
 -1       938 1.02236E-03-1.88709E-02-4.76963E-01
 -1       939 1.47583E-03-1.96771E-02-4.13615E-01
 -1       940-1.65872E-03-2.01544E-02-4.14087E-01
 -1       941-2.49146E-03-1.82668E-02-4.77631E-01
 -1       942-3.03678E-04-2.11119E-02-2.07393E-01
 -1       943 2.69554E-02-6.06810E-02-2.04885E-01
 -1       944 2.34987E-02-5.78112E-02-4.12649E-01
 -1       945 2.15128E-03-2.09259E-02-3.47029E-01
 -1       946 1.99981E-03-2.15260E-02-2.78763E-01
 -1       947-2.56544E-03-2.12026E-02-2.78329E-01
 -1       948-2.78656E-03-2.03624E-02-3.46382E-01
 -1       949 2.12821E-02-5.50627E-02-4.75189E-01
 -1       950 2.58550E-02-6.10947E-02-2.78373E-01
 -1       951 2.57713E-02-6.07823E-02-3.46846E-01
 -1       952 2.08333E-02-5.48716E-02-4.76298E-01
 -1       953 2.31356E-02-5.75621E-02-4.13327E-01
 -1       954 2.63480E-02-5.87198E-02-1.35823E-01
 -1       955 2.62090E-02-6.08744E-02-2.06284E-01
 -1       956 2.66793E-02-5.86959E-02-1.33621E-01
 -1       957 8.63241E-03-1.95367E-02-2.05391E-01
 -1       958 7.86479E-03-1.96095E-02-1.32634E-01
 -1       959 7.70018E-03-1.65616E-02-4.77304E-01
 -1       960 8.66179E-03-1.75163E-02-4.14797E-01
 -1       961 5.25212E-03-1.88714E-02-4.16675E-01
 -1       962 4.45338E-03-1.78614E-02-4.77696E-01
 -1       963 8.28541E-03-1.86382E-02-1.34209E-01
 -1       964 7.11833E-03-2.00458E-02-2.06511E-01
 -1       965 5.48600E-03-2.03607E-02-2.79437E-01
 -1       966 5.54114E-03-2.02695E-02-3.47826E-01
 -1       967 4.48092E-02-4.86714E-02-2.75546E-01
 -1       968 4.59986E-02-4.64497E-02-1.32819E-01
 -1       969 4.53638E-02-4.88319E-02-2.04762E-01
 -1       970 4.54845E-02-4.86823E-02-2.06380E-01
 -1       971 4.52813E-02-4.53430E-02-1.33669E-01
 -1       972 4.41363E-02-4.77923E-02-3.44924E-01
 -1       973 4.47824E-02-4.74320E-02-3.48395E-01
 -1       974 4.61284E-02-4.79412E-02-2.78724E-01
 -1       975 4.19984E-02-4.54249E-02-4.15499E-01
 -1       976 1.35944E-02-1.48339E-02-2.05694E-01
 -1       977 1.36541E-02-1.19097E-02-1.33175E-01
 -1       978 1.44445E-02-1.04786E-02-4.78306E-01
 -1       979 1.47117E-02-1.29393E-02-4.17478E-01
 -1       980 1.03825E-02-1.46932E-02-4.78044E-01
 -1       981 1.50722E-02-1.36246E-02-3.49491E-01
 -1       982 1.44714E-02-1.31449E-02-1.32364E-01
 -1       983 1.26544E-02-1.61863E-02-2.05257E-01
 -1       984 1.58511E-02-1.30768E-02-2.79531E-01
 -1       985 1.29357E-02-1.64271E-02-2.77423E-01
 -1       986 1.23280E-02-1.61805E-02-3.47352E-01
 -1       987 5.93319E-02-2.74611E-02-2.77981E-01
 -1       988 5.89325E-02-2.55883E-02-1.36426E-01
 -1       989 5.97081E-02-2.66162E-02-2.08145E-01
 -1       990 6.02061E-02-2.63299E-02-2.09694E-01
 -1       991 5.94411E-02-2.52655E-02-1.37279E-01
 -1       992 5.82160E-02-2.75281E-02-3.46116E-01
 -1       993 5.92059E-02-2.57097E-02-3.48431E-01
 -1       994 6.00090E-02-2.57353E-02-2.80598E-01
 -1       995 5.66902E-02-2.54833E-02-4.15124E-01
 -1       996 1.91729E-02-7.47994E-03-2.09827E-01
 -1       997 1.76241E-02-7.24331E-03-1.36949E-01
 -1       998 1.64325E-02-6.26488E-03-4.77996E-01
 -1       999 1.84271E-02-6.36207E-03-4.17121E-01
 -1      1000 1.49054E-02-9.26602E-03-4.78011E-01
 -1      1001 1.67151E-02-7.61340E-03-1.35797E-01
 -1      1002 1.80384E-02-9.26139E-03-2.09033E-01
 -1      1003 1.80835E-02-9.87761E-03-2.79606E-01
 -1      1004 1.70543E-02-1.01644E-02-3.47937E-01
 -1      1005 6.38818E-02-2.89736E-03-2.80613E-01
 -1      1006 6.38883E-02-1.69596E-03-1.42728E-01
 -1      1007 6.45319E-02-2.00994E-03-2.12219E-01
 -1      1008 6.47934E-02-1.95679E-03-2.14032E-01
 -1      1009 6.39023E-02-1.53643E-03-1.42911E-01
 -1      1010 6.29220E-02-3.12570E-03-3.47502E-01
 -1      1011 6.34375E-02-2.06293E-03-3.51975E-01
 -1      1012 6.46760E-02-2.00662E-03-2.84324E-01
 -1      1013 6.03599E-02-2.70452E-03-4.17255E-01
 -1      1014 2.02315E-02-1.25030E-04-2.14231E-01
 -1      1015 1.94726E-02-8.27805E-04-1.42309E-01
 -1      1016 1.63698E-02 1.05926E-03-4.79919E-01
 -1      1017 1.83507E-02 1.05877E-03-4.19024E-01
 -1      1018 1.63418E-02-2.32113E-03-4.78481E-01
 -1      1019 2.01007E-02-1.30976E-03-1.42548E-01
 -1      1020 2.03204E-02-8.72854E-05-2.12425E-01
 -1      1021 1.98874E-02-2.54487E-03-2.82572E-01
 -1      1022 1.86847E-02-3.51458E-03-3.50122E-01
 -1      1023 5.57876E-02 2.24496E-02-4.16721E-01
 -1      1024 5.21960E-02 2.24001E-02-4.78323E-01
 -1      1025 5.87122E-02 2.38582E-02-3.50992E-01
 -1      1026 5.90394E-02 2.59658E-02-2.82518E-01
 -1      1027 5.96681E-02 2.52124E-02-2.13046E-01
 -1      1028 5.90255E-02 2.46178E-02-1.42918E-01
 -1      1029 5.97132E-02 2.47830E-02-2.14199E-01
 -1      1030 1.90564E-02 7.09271E-03-2.13729E-01
 -1      1031 1.79811E-02 6.78559E-03-1.42755E-01
 -1      1032 1.45369E-02 8.84342E-03-4.80473E-01
 -1      1033 1.71293E-02 6.83140E-03-4.18479E-01
 -1      1034 1.54622E-02 5.56591E-03-4.79639E-01
 -1      1035 1.83036E-02 5.87375E-03-1.43302E-01
 -1      1036 1.93048E-02 6.15827E-03-2.14657E-01
 -1      1037 1.90732E-02 6.44869E-03-2.84781E-01
 -1      1038 1.87974E-02 4.10421E-03-3.51310E-01
 -1      1039 4.41457E-02 4.17047E-02-4.17582E-01
 -1      1040 4.09742E-02 3.98111E-02-4.77903E-01
 -1      1041 4.63455E-02 4.47381E-02-3.52079E-01
 -1      1042 4.71908E-02 4.50275E-02-2.82813E-01
 -1      1043 4.71344E-02 4.45053E-02-2.10379E-01
 -1      1044 4.56302E-02 4.28221E-02-1.40076E-01
 -1      1045 4.73324E-02 4.40073E-02-2.09145E-01
 -1      1046 1.44977E-02 1.22840E-02-4.18187E-01
 -1      1047 1.38429E-02 1.40156E-02-2.10593E-01
 -1      1048 1.18831E-02 1.34898E-02-1.38693E-01
 -1      1049 1.14915E-02 1.21884E-02-4.80285E-01
 -1      1050 1.22367E-02 1.34708E-02-4.19563E-01
 -1      1051 1.39111E-02 1.03095E-02-4.80540E-01
 -1      1052 1.19143E-02 1.23598E-02-1.37275E-01
 -1      1053 1.46212E-02 1.25220E-02-2.08842E-01
 -1      1054 1.64143E-02 1.14072E-02-2.81077E-01
 -1      1055 1.55598E-02 1.11066E-02-3.51208E-01
 -1      1056 2.46548E-02 5.59331E-02-4.19430E-01
 -1      1057 2.72387E-02 5.95098E-02-2.82308E-01
 -1      1058 2.65429E-02 5.84241E-02-3.51355E-01
 -1      1059 2.03859E-02 5.21455E-02-4.80623E-01
 -1      1060 2.64332E-02 5.90965E-02-1.39780E-01
 -1      1061 2.62483E-02 6.07916E-02-2.13171E-01
 -1      1062 2.67625E-02 6.01784E-02-1.41491E-01
 -1      1063 2.60285E-02 6.05693E-02-2.12132E-01
 -1      1064 2.56827E-02 6.04115E-02-2.85206E-01
 -1      1065 7.70859E-03 1.91272E-02-2.13614E-01
 -1      1066 7.47043E-03 1.90269E-02-1.41181E-01
 -1      1067 5.77259E-03 1.65418E-02-4.81197E-01
 -1      1068 6.72107E-03 1.70757E-02-4.21492E-01
 -1      1069 8.24755E-03 1.47894E-02-4.82001E-01
 -1      1070 6.46612E-03 1.80534E-02-1.38912E-01
 -1      1071 7.73375E-03 1.88553E-02-2.12035E-01
 -1      1072 5.93441E-03 1.97822E-02-2.86049E-01
 -1      1073 9.26877E-03 1.80540E-02-2.83642E-01
 -1      1074 9.20624E-03 1.71396E-02-3.52820E-01
 -1      1075 1.30092E-03 6.05293E-02-4.21130E-01
 -1      1076 2.71407E-03 6.52791E-02-2.85176E-01
 -1      1077 2.63724E-03 6.40059E-02-3.52841E-01
 -1      1078 1.12367E-03 5.56518E-02-4.80197E-01
 -1      1079-3.92314E-04 6.59762E-02-1.42237E-01
 -1      1080 8.96905E-04 6.69060E-02-2.14935E-01
 -1      1081 1.66966E-03 6.38807E-02-3.56370E-01
 -1      1082 1.52469E-03 6.55620E-02-2.88624E-01
 -1      1083 1.57524E-03 1.90467E-02-4.23941E-01
 -1      1084 4.57266E-04 2.08812E-02-2.16458E-01
 -1      1085-3.53841E-04 2.03443E-02-1.41610E-01
 -1      1086-9.89410E-04 1.70012E-02-4.83245E-01
 -1      1087-1.33668E-03 1.79263E-02-4.23068E-01
 -1      1088 2.27780E-03 1.64076E-02-4.82336E-01
 -1      1089-9.14647E-05 2.04440E-02-1.42398E-01
 -1      1090 8.81606E-04 2.08678E-02-2.15078E-01
 -1      1091 2.25930E-03 2.07242E-02-2.87167E-01
 -1      1092 4.05628E-03 1.95794E-02-3.55901E-01
 -1      1093-2.27635E-02 5.54644E-02-4.23984E-01
 -1      1094-2.49657E-02 5.85775E-02-3.58163E-01
 -1      1095-2.50997E-02 6.06312E-02-2.90100E-01
 -1      1096-2.38865E-02 6.21253E-02-2.19318E-01
 -1      1097-2.19332E-02 6.25605E-02-1.48340E-01
 -1      1098-2.13305E-02 6.25984E-02-1.45111E-01
 -1      1099-2.37174E-02 6.17511E-02-2.18350E-01
 -1      1100-2.19787E-02 5.18004E-02-4.83278E-01
 -1      1101-7.83348E-03 1.92535E-02-2.20318E-01
 -1      1102-6.64451E-03 1.93366E-02-1.47437E-01
 -1      1103-7.76056E-03 1.56613E-02-4.84932E-01
 -1      1104-8.72741E-03 1.68930E-02-4.26462E-01
 -1      1105-5.26270E-03 1.61326E-02-4.84924E-01
 -1      1106-6.12079E-03 1.93604E-02-1.44047E-01
 -1      1107-6.95880E-03 1.95176E-02-2.18938E-01
 -1      1108-1.03943E-02 1.65218E-02-3.58774E-01
 -1      1109-9.49186E-03 1.79363E-02-2.90762E-01
 -1      1110-5.82238E-03 1.91215E-02-2.90691E-01
 -1      1111-5.80293E-03 1.89254E-02-3.58809E-01
 -1      1112-4.22670E-02 4.21699E-02-4.24155E-01
 -1      1113-3.94224E-02 3.95034E-02-4.82564E-01
 -1      1114-4.73657E-02 4.43306E-02-2.89947E-01
 -1      1115-4.65307E-02 4.53978E-02-2.92478E-01
 -1      1116-4.50620E-02 4.39656E-02-3.59785E-01
 -1      1117-4.84990E-02 4.49320E-02-1.47404E-01
 -1      1118-4.81700E-02 4.55303E-02-2.20742E-01
 -1      1119-1.59392E-02 1.34522E-02-2.20898E-01
 -1      1120-1.56074E-02 1.26815E-02-1.47273E-01
 -1      1121-1.36645E-02 1.07722E-02-4.84948E-01
 -1      1122-1.34818E-02 1.27263E-02-4.26926E-01
 -1      1123-1.04500E-02 1.35045E-02-4.85049E-01
 -1      1124-1.51602E-02 1.27748E-02-1.48156E-01
 -1      1125-1.53233E-02 1.40899E-02-2.21028E-01
 -1      1126-1.53583E-02 1.22995E-02-3.59729E-01
 -1      1127-1.61253E-02 1.24216E-02-2.92162E-01
 -1      1128-1.30488E-02 1.56342E-02-2.93494E-01
 -1      1129-1.20025E-02 1.50848E-02-3.60836E-01
 -1      1130-5.71378E-02 2.17509E-02-4.21538E-01
 -1      1131-5.34398E-02 1.94299E-02-4.84092E-01
 -1      1132-6.14229E-02 2.26633E-02-2.86828E-01
 -1      1133-6.09968E-02 2.43373E-02-2.88201E-01
 -1      1134-5.95983E-02 2.36682E-02-3.56953E-01
 -1      1135-6.16884E-02 2.40802E-02-1.43785E-01
 -1      1136-6.21517E-02 2.41437E-02-2.17452E-01
 -1      1137-1.92348E-02 7.46203E-03-2.17224E-01
 -1      1138-1.93185E-02 7.68604E-03-1.43455E-01
 -1      1139-1.71044E-02 4.81402E-03-4.84333E-01
 -1      1140-1.80517E-02 5.72200E-03-4.23978E-01
 -1      1141-1.52832E-02 8.83712E-03-4.85694E-01
 -1      1142-1.99349E-02 7.34851E-03-1.43221E-01
 -1      1143-1.89006E-02 8.39350E-03-2.17837E-01
 -1      1144-1.88157E-02 8.08568E-03-2.89601E-01
 -1      1145-1.77829E-02 9.56502E-03-3.58084E-01
 -1      1146 0.00000E+00 0.00000E+00 0.00000E+00
 -1      1147 0.00000E+00 0.00000E+00 0.00000E+00
 -1      1148 0.00000E+00 0.00000E+00 0.00000E+00
 -1      1149 0.00000E+00 0.00000E+00 0.00000E+00
 -1      1150 0.00000E+00 0.00000E+00 0.00000E+00
 -1      1151 0.00000E+00 0.00000E+00 0.00000E+00
 -1      1152 0.00000E+00 0.00000E+00 0.00000E+00
 -1      1153 0.00000E+00 0.00000E+00 0.00000E+00
 -1      1154 0.00000E+00 0.00000E+00 0.00000E+00
 -1      1155 0.00000E+00 0.00000E+00 0.00000E+00
 -1      1156 0.00000E+00 0.00000E+00 0.00000E+00
 -1      1157 0.00000E+00 0.00000E+00 0.00000E+00
 -1      1158 0.00000E+00 0.00000E+00 0.00000E+00
 -1      1159 0.00000E+00 0.00000E+00 0.00000E+00
 -1      1160 0.00000E+00 0.00000E+00 0.00000E+00
 -1      1161 0.00000E+00 0.00000E+00 0.00000E+00
 -1      1162 0.00000E+00 0.00000E+00 0.00000E+00
 -1      1163 0.00000E+00 0.00000E+00 0.00000E+00
 -1      1164 0.00000E+00 0.00000E+00 0.00000E+00
 -1      1165 0.00000E+00 0.00000E+00 0.00000E+00
 -1      1166 0.00000E+00 0.00000E+00 0.00000E+00
 -1      1167 0.00000E+00 0.00000E+00 0.00000E+00
 -1      1168 0.00000E+00 0.00000E+00 0.00000E+00
 -1      1169 0.00000E+00 0.00000E+00 0.00000E+00
 -1      1170 0.00000E+00 0.00000E+00 0.00000E+00
 -1      1171 0.00000E+00 0.00000E+00 0.00000E+00
 -1      1172 0.00000E+00 0.00000E+00 0.00000E+00
 -1      1173 0.00000E+00 0.00000E+00 0.00000E+00
 -1      1174 0.00000E+00 0.00000E+00 0.00000E+00
 -1      1175 0.00000E+00 0.00000E+00 0.00000E+00
 -1      1176 0.00000E+00 0.00000E+00 0.00000E+00
 -1      1177 0.00000E+00 0.00000E+00 0.00000E+00
 -1      1178 0.00000E+00 0.00000E+00 0.00000E+00
 -1      1179 0.00000E+00 0.00000E+00 0.00000E+00
 -1      1180 0.00000E+00 0.00000E+00 0.00000E+00
 -1      1181 0.00000E+00 0.00000E+00 0.00000E+00
 -1      1182 0.00000E+00 0.00000E+00 0.00000E+00
 -1      1183 0.00000E+00 0.00000E+00 0.00000E+00
 -1      1184 0.00000E+00 0.00000E+00 0.00000E+00
 -1      1185 0.00000E+00 0.00000E+00 0.00000E+00
 -1      1186 0.00000E+00 0.00000E+00 0.00000E+00
 -1      1187 0.00000E+00 0.00000E+00 0.00000E+00
 -1      1188 0.00000E+00 0.00000E+00 0.00000E+00
 -1      1189 0.00000E+00 0.00000E+00 0.00000E+00
 -1      1190 0.00000E+00 0.00000E+00 0.00000E+00
 -1      1191 0.00000E+00 0.00000E+00 0.00000E+00
 -1      1192 0.00000E+00 0.00000E+00 0.00000E+00
 -1      1193 0.00000E+00 0.00000E+00 0.00000E+00
 -1      1194 0.00000E+00 0.00000E+00 0.00000E+00
 -1      1195 0.00000E+00 0.00000E+00 0.00000E+00
 -1      1196 0.00000E+00 0.00000E+00 0.00000E+00
 -1      1197 0.00000E+00 0.00000E+00 0.00000E+00
 -1      1198 0.00000E+00 0.00000E+00 0.00000E+00
 -1      1199 0.00000E+00 0.00000E+00 0.00000E+00
 -1      1200 0.00000E+00 0.00000E+00 0.00000E+00
 -1      1201 0.00000E+00 0.00000E+00 0.00000E+00
 -1      1202 0.00000E+00 0.00000E+00 0.00000E+00
 -1      1203 0.00000E+00 0.00000E+00 0.00000E+00
 -1      1204 0.00000E+00 0.00000E+00 0.00000E+00
 -1      1205 0.00000E+00 0.00000E+00 0.00000E+00
 -1      1206 0.00000E+00 0.00000E+00 0.00000E+00
 -1      1207 0.00000E+00 0.00000E+00 0.00000E+00
 -1      1208 0.00000E+00 0.00000E+00 0.00000E+00
 -1      1209 0.00000E+00 0.00000E+00 0.00000E+00
 -1      1210 0.00000E+00 0.00000E+00 0.00000E+00
 -1      1211 0.00000E+00 0.00000E+00 0.00000E+00
 -1      1212 0.00000E+00 0.00000E+00 0.00000E+00
 -1      1213 0.00000E+00 0.00000E+00 0.00000E+00
 -1      1214 0.00000E+00 0.00000E+00 0.00000E+00
 -1      1215 0.00000E+00 0.00000E+00 0.00000E+00
 -1      1216 0.00000E+00 0.00000E+00 0.00000E+00
 -1      1217-9.79123E-03 1.63769E-02-3.75664E-01
 -1      1218-8.72111E-03-1.49798E-02-4.94259E-01
 -1      1219-7.52323E-03-1.57974E-02-4.95432E-01
 -1      1220 4.75813E-03 1.57663E-02-4.95294E-01
 -1      1221 3.14439E-03 1.57096E-02-4.97123E-01
 -1      1222 1.62947E-02 9.36237E-03-3.68429E-01
 -1      1223-1.26058E-02-1.12877E-02-4.96483E-01
 -1      1224-1.39284E-02-9.30788E-03-4.98679E-01
 -1      1225 3.08845E-03-1.74772E-02-4.91902E-01
 -1      1226 1.69045E-03-1.76786E-02-4.93444E-01
 -1      1227-1.03255E-02 1.04898E-02-5.11749E-01
 -1      1228 3.42460E-04-3.82023E-02-5.07298E-01
 -1      1229-3.44207E-02-1.55369E-02-5.12554E-01
 -1      1230 1.58433E-02-4.72676E-03-4.92562E-01
 -1      1231 1.58355E-02-2.86917E-03-4.94085E-01
 -1      1232 4.40484E-03 1.51227E-02-5.02414E-01
 -1      1233 3.03612E-03 1.52455E-02-5.03468E-01
 -1      1234-1.31883E-02 9.63662E-03-4.98979E-01
 -1      1235-1.43489E-02 7.88637E-03-5.00390E-01
 -1      1236-1.33868E-02-3.59116E-02-5.06812E-01
 -1      1237-3.76182E-03 1.58828E-02-4.98339E-01
 -1      1238-1.87257E-03 1.61061E-02-4.98605E-01
 -1      1239 1.57110E-02 3.39746E-03-4.94554E-01
 -1      1240 1.58252E-02 1.62726E-03-4.95508E-01
 -1      1241 1.27413E-02 1.00219E-02-4.93707E-01
 -1      1242 1.40889E-02 8.18607E-03-4.94977E-01
 -1      1243-3.05161E-03-1.70744E-02-4.91988E-01
 -1      1244-1.44589E-03-1.74267E-02-4.94187E-01
 -1      1245 9.70115E-03-1.37257E-02-4.92796E-01
 -1      1246 8.15915E-03-1.50119E-02-4.94137E-01
 -1      1247-1.63284E-02-4.99545E-03-4.98592E-01
 -1      1248-1.66983E-02-2.69224E-03-4.99572E-01
 -1      1249-1.23200E-02-1.06292E-02-5.03575E-01
 -1      1250-1.31479E-02-9.40598E-03-5.04805E-01
 -1      1251-3.69208E-02-1.82801E-04-5.12438E-01
 -1      1252-3.89600E-02-4.40465E-02-5.09741E-01
 -1      1253-1.61290E-02 4.28318E-03-4.98437E-01
 -1      1254-1.64517E-02 2.69147E-03-4.99772E-01
 -1      1255 3.63639E-02-9.05966E-05-5.06724E-01
 -1      1256-1.28886E-02-6.45035E-03-5.11747E-01
 -1      1257-8.44557E-03-1.41127E-02-5.01211E-01
 -1      1258-7.41665E-03-1.47661E-02-5.01549E-01
 -1      1259 9.17592E-03-1.07544E-02-5.07131E-01
 -1      1260 1.27318E-02-1.02161E-02-4.92773E-01
 -1      1261 1.41875E-02-8.91307E-03-4.93003E-01
 -1      1262-8.95646E-03-1.09352E-02-5.09294E-01
 -1      1263 1.05312E-03 3.61357E-02-5.09517E-01
 -1      1264 5.86894E-04 1.46387E-02-5.10195E-01
 -1      1265 7.77694E-06-1.62811E-02-5.07338E-01
 -1      1266 3.11296E-03-1.65345E-02-4.98973E-01
 -1      1267 1.89104E-03-1.69179E-02-4.99956E-01
 -1      1268-1.28944E-02-3.59738E-02-5.07333E-01
 -1      1269-4.52805E-03-1.48178E-02-5.06363E-01
 -1      1270 1.07057E-02 1.25911E-02-4.94438E-01
 -1      1271 9.27192E-03 1.32805E-02-4.96890E-01
 -1      1272-2.54198E-02-2.89013E-02-5.09068E-01
 -1      1273-3.43916E-02 1.27055E-02-5.13258E-01
 -1      1274 1.36437E-02 3.37917E-02-5.09368E-01
 -1      1275 6.47575E-03 1.28971E-02-5.08681E-01
 -1      1276-2.51385E-02-2.92570E-02-5.11007E-01
 -1      1277 1.52023E-02 2.84994E-03-5.00879E-01
 -1      1278 1.53232E-02 1.93447E-03-5.01760E-01
 -1      1279 1.44574E-02-3.06745E-04-5.07283E-01
 -1      1280 1.35807E-02 5.28465E-03-5.07502E-01
 -1      1281 5.33918E-03 1.35010E-02-5.08943E-01
 -1      1282-9.78876E-03 1.35059E-02-4.98342E-01
 -1      1283-8.08030E-03 1.44429E-02-4.99778E-01
 -1      1284 5.24821E-03-1.44452E-02-5.07083E-01
 -1      1285-5.50965E-03 1.35633E-02-5.11526E-01
 -1      1286 2.04390E-03 5.53429E-02-5.10241E-01
 -1      1287 3.86078E-04-3.87568E-02-5.06278E-01
 -1      1288 1.21412E-03 3.60060E-02-5.11221E-01
 -1      1289 3.39304E-02-1.53391E-02-5.07129E-01
 -1      1290 1.06227E-02-1.04190E-02-5.07136E-01
 -1      1291-1.42719E-02-3.14881E-04-5.12108E-01
 -1      1292 1.29758E-02 6.34887E-03-5.07191E-01
 -1      1293-8.97961E-03-1.21748E-02-5.09067E-01
 -1      1294-5.41423E-03-1.49639E-02-5.07592E-01
 -1      1295-3.45202E-03 1.51744E-02-5.04557E-01
 -1      1296-1.90053E-03 1.53290E-02-5.04606E-01
 -1      1297-1.29218E-02 8.93467E-03-5.05660E-01
 -1      1298-1.40052E-02 7.77928E-03-5.06675E-01
 -1      1299-2.49457E-02 2.58650E-02-5.12349E-01
 -1      1300-3.42539E-02-1.52155E-02-5.12259E-01
 -1      1301 8.91547E-03-1.36239E-02-4.99239E-01
 -1      1302 8.01945E-03-1.43173E-02-5.00064E-01
 -1      1303 2.53162E-02-2.76170E-02-5.06042E-01
 -1      1304-1.39151E-02 3.34540E-02-5.12463E-01
 -1      1305 2.50906E-02-2.75918E-02-5.07531E-01
 -1      1306-3.32676E-03-1.66568E-02-4.99342E-01
 -1      1307-2.00412E-03-1.69365E-02-5.00342E-01
 -1      1308 1.40313E-02 3.37842E-02-5.08173E-01
 -1      1309-6.24426E-03-1.44961E-02-5.07741E-01
 -1      1310-8.43428E-03-1.29014E-02-5.08478E-01
 -1      1311 1.32761E-02-3.51847E-02-5.07059E-01
 -1      1312-1.27539E-02 8.71303E-03-5.08928E-01
 -1      1313-1.35126E-02 7.92624E-03-5.09616E-01
 -1      1314 1.08698E-02 1.03444E-02-5.07559E-01
 -1      1315-1.35904E-02 4.76444E-03-5.13164E-01
 -1      1316-1.37278E-02 6.12873E-03-5.12920E-01
 -1      1317-5.81915E-04 1.43690E-02-5.10291E-01
 -1      1318 1.47230E-02 2.77747E-03-5.04129E-01
 -1      1319 1.50298E-02 1.88131E-03-5.04593E-01
 -1      1320 9.99375E-03 1.23871E-02-5.00835E-01
 -1      1321 9.07013E-03 1.27734E-02-5.02359E-01
 -1      1322 1.01278E-02 1.09343E-02-5.07708E-01
 -1      1323-1.56476E-02-4.17417E-03-5.05490E-01
 -1      1324-1.60260E-02-2.56104E-03-5.05948E-01
 -1      1325 1.53228E-02-4.03324E-03-4.99657E-01
 -1      1326 1.53986E-02-2.32007E-03-5.00716E-01
 -1      1327 3.29593E-02 1.42217E-02-5.08578E-01
 -1      1328 3.65468E-02-7.86765E-04-5.08287E-01
 -1      1329-2.49281E-02 9.77959E-03-5.12824E-01
 -1      1330-1.19767E-02-1.04190E-02-5.06810E-01
 -1      1331-1.29342E-02-9.10239E-03-5.07526E-01
 -1      1332 4.50822E-03 1.48463E-02-5.05683E-01
 -1      1333 3.36450E-03 1.50248E-02-5.06292E-01
 -1      1334 1.85418E-03 1.47166E-02-5.09902E-01
 -1      1335 1.07052E-03-1.62054E-02-5.06870E-01
 -1      1336 3.32597E-02 1.38569E-02-5.07901E-01
 -1      1337 3.05755E-03-1.62558E-02-5.02466E-01
 -1      1338 1.91981E-03-1.64409E-02-5.02886E-01
 -1      1339 1.41224E-02 7.46877E-04-5.07470E-01
 -1      1340-8.09688E-03-1.37829E-02-5.04745E-01
 -1      1341-7.36930E-03-1.43185E-02-5.04936E-01
 -1      1342-1.26620E-02-7.54567E-03-5.11316E-01
 -1      1343-1.82669E-02-2.09729E-02-5.08755E-01
 -1      1344 2.41271E-02 9.74108E-03-5.08107E-01
 -1      1345-1.80597E-02-2.05265E-02-5.10937E-01
 -1      1346 4.39421E-03-1.52656E-02-5.06630E-01
 -1      1347 1.39753E-02 4.24821E-03-5.07533E-01
 -1      1348-3.84542E-03-1.52518E-02-5.06541E-01
 -1      1349 1.58512E-03-1.62081E-02-5.06289E-01
 -1      1350-1.02358E-02-1.06188E-02-5.09818E-01
 -1      1351-9.05299E-03-2.58865E-02-5.07705E-01
 -1      1352 1.36011E-02-6.28755E-03-5.07020E-01
 -1      1353-3.37016E-03 1.47341E-02-5.07395E-01
 -1      1354-1.94278E-03 1.49988E-02-5.07475E-01
 -1      1355-3.70026E-02 5.39318E-04-5.11611E-01
 -1      1356-9.74689E-03 1.28460E-02-5.05312E-01
 -1      1357-8.74108E-03 1.34968E-02-5.06128E-01
 -1      1358-1.37724E-02 3.35467E-02-5.12450E-01
 -1      1359 1.22951E-02-1.02042E-02-4.99940E-01
 -1      1360 1.35657E-02-9.25808E-03-5.00162E-01
 -1      1361 6.67385E-04 2.61089E-02-5.10845E-01
 -1      1362 2.65161E-02 2.49784E-02-5.08318E-01
 -1      1363 1.28434E-02 9.52500E-03-5.00548E-01
 -1      1364 1.36008E-02 8.20678E-03-5.01000E-01
 -1      1365 5.19962E-04-2.79203E-02-5.06430E-01
 -1      1366-1.84760E-02 1.84174E-02-5.12367E-01
 -1      1367-1.11181E-02 9.92119E-03-5.11900E-01
 -1      1368 2.64850E-02 2.53642E-02-5.07819E-01
 -1      1369-3.13978E-03 1.47028E-02-5.08902E-01
 -1      1370-2.16191E-03 1.49098E-02-5.08928E-01
 -1      1371-9.79462E-03 2.42546E-02-5.11894E-01
 -1      1372 1.15337E-02 9.58510E-03-5.07557E-01
 -1      1373-2.54832E-05 2.08467E-02-5.10740E-01
 -1      1374 1.30800E-02-7.61152E-03-5.06748E-01
 -1      1375 1.51136E-02-3.72495E-03-5.03109E-01
 -1      1376 1.51747E-02-2.53952E-03-5.03712E-01
 -1      1377-1.32172E-03 1.45887E-02-5.10195E-01
 -1      1378-1.57696E-02 3.98214E-03-5.05296E-01
 -1      1379-1.61538E-02 2.48421E-03-5.06191E-01
 -1      1380 1.49439E-02-1.17604E-03-5.06907E-01
 -1      1381 1.23114E-03 2.58995E-02-5.09423E-01
 -1      1382 8.79775E-03-1.33903E-02-5.02650E-01
 -1      1383 7.88943E-03-1.39767E-02-5.02971E-01
 -1      1384-2.53629E-02 2.57525E-02-5.11706E-01
 -1      1385-3.43721E-02 1.31320E-02-5.11843E-01
 -1      1386 2.55885E-02-6.92334E-04-5.07028E-01
 -1      1387-6.41790E-03 1.31513E-02-5.11910E-01
 -1      1388 9.05041E-03-1.18735E-02-5.06634E-01
 -1      1389 1.21682E-02-1.00910E-02-5.03016E-01
 -1      1390 1.31849E-02-9.18446E-03-5.03093E-01
 -1      1391 3.36453E-02-1.52327E-02-5.06582E-01
 -1      1392 2.47265E-02-1.06886E-02-5.07169E-01
 -1      1393-1.51982E-02-3.92411E-03-5.08435E-01
 -1      1394-1.56416E-02-2.82493E-03-5.08780E-01
 -1      1395 1.38015E-02-4.93485E-03-5.07271E-01
 -1      1396 6.29938E-03-1.39221E-02-5.06228E-01
 -1      1397-1.35156E-02-5.27412E-03-5.11835E-01
 -1      1398 7.26706E-03 1.21149E-02-5.08353E-01
 -1      1399 1.02384E-02 2.40285E-02-5.08392E-01
 -1      1400-1.52000E-02-1.04778E-03-5.11796E-01
 -1      1401-4.52379E-03 1.38062E-02-5.11208E-01
 -1      1402-3.78618E-03 1.40511E-02-5.11005E-01
 -1      1403-1.28835E-02-8.28271E-03-5.10680E-01
 -1      1404-8.00920E-03-1.34797E-02-5.06286E-01
 -1      1405-7.21590E-03-1.41638E-02-5.06349E-01
 -1      1406-6.72911E-03-1.43201E-02-5.07629E-01
 -1      1407 3.60944E-03-1.57783E-02-5.06255E-01
 -1      1408 1.37371E-02-3.56339E-02-5.06218E-01
 -1      1409-1.38619E-02-1.72208E-02-5.08635E-01
 -1      1410 1.46183E-02 2.69778E-03-5.05702E-01
 -1      1411 1.48835E-02 1.87383E-03-5.05919E-01
 -1      1412 1.50389E-02 8.11717E-04-5.07371E-01
 -1      1413-1.11097E-02-1.06132E-02-5.10091E-01
 -1      1414-2.60659E-02 2.35750E-04-5.11982E-01
 -1      1415-3.34946E-03-1.63097E-02-5.02456E-01
 -1      1416-2.20930E-03-1.65848E-02-5.02919E-01
 -1      1417-8.99702E-03-2.58858E-02-5.06482E-01
 -1      1418-2.43458E-02-1.14834E-02-5.11781E-01
 -1      1419-7.63987E-03 1.93870E-02-5.11324E-01
 -1      1420-2.46076E-02-1.09218E-02-5.12382E-01
 -1      1421 1.01388E-02 1.15236E-02-5.07555E-01
 -1      1422 9.83656E-03-2.55175E-02-5.06925E-01
 -1      1423 2.39638E-02-1.14817E-02-5.06530E-01
 -1      1424-1.27038E-02 8.59797E-03-5.10505E-01
 -1      1425-1.32874E-02 7.82801E-03-5.10916E-01
 -1      1426-1.35578E-02 6.96943E-03-5.12753E-01
 -1      1427 1.28051E-02 8.97985E-03-5.03588E-01
 -1      1428 1.35452E-02 7.91446E-03-5.03880E-01
 -1      1429 9.71285E-03 1.21100E-02-5.04107E-01
 -1      1430 8.73862E-03 1.26625E-02-5.05132E-01
 -1      1431 9.88791E-03-2.56703E-02-5.06161E-01
 -1      1432 2.36751E-02 9.74234E-03-5.07346E-01
 -1      1433 1.42715E-02 3.72821E-03-5.07771E-01
 -1      1434 1.94111E-02 1.82080E-02-5.07425E-01
 -1      1435-1.51744E-02 7.81189E-04-5.11991E-01
 -1      1436 1.14479E-02-1.03354E-02-5.06674E-01
 -1      1437-8.79695E-04-1.60925E-02-5.07513E-01
 -1      1438 4.34621E-03 1.46413E-02-5.07101E-01
 -1      1439 3.24063E-03 1.48561E-02-5.07533E-01
 -1      1440 2.57317E-02-3.04732E-04-5.08018E-01
 -1      1441 1.09829E-02 2.41152E-02-5.08934E-01
 -1      1442-1.98608E-02 8.41197E-03-5.12663E-01
 -1      1443-9.43279E-03 1.25691E-02-5.08351E-01
 -1      1444-8.38371E-03 1.32670E-02-5.09020E-01
 -1      1445 1.79506E-02-2.00954E-02-5.06196E-01
 -1      1446 1.37773E-02 6.83608E-03-5.07106E-01
 -1      1447 5.06678E-03 1.40211E-02-5.08679E-01
 -1      1448 1.90065E-02 1.82366E-02-5.07999E-01
 -1      1449 1.59387E-03 2.06143E-02-5.09149E-01
 -1      1450 1.20740E-02 9.39034E-03-5.06583E-01
 -1      1451-1.48699E-02 1.43638E-02-5.12372E-01
 -1      1452-7.61639E-03-2.05558E-02-5.07841E-01
 -1      1453-1.01000E-02 1.15431E-02-5.11396E-01
 -1      1454-1.17566E-02 9.29981E-03-5.12200E-01
 -1      1455-1.04066E-02 2.39781E-02-5.12377E-01
 -1      1456 2.04708E-02 2.98886E-04-5.07697E-01
 -1      1457-1.82853E-02 1.85021E-02-5.11654E-01
 -1      1458-1.45778E-02 4.43679E-03-5.12403E-01
 -1      1459 1.50434E-02-3.65694E-03-5.04725E-01
 -1      1460 1.51009E-02-2.58323E-03-5.05017E-01
 -1      1461 2.18587E-03 1.49015E-02-5.09360E-01
 -1      1462 1.33899E-02-8.11806E-03-5.06519E-01
 -1      1463 1.51645E-02-1.62611E-03-5.06641E-01
 -1      1464 9.61985E-03 1.20714E-02-5.05640E-01
 -1      1465 8.63342E-03 1.24688E-02-5.06290E-01
 -1      1466 7.89025E-03 1.23611E-02-5.07854E-01
 -1      1467-1.55636E-02 3.68694E-03-5.08467E-01
 -1      1468-1.58268E-02 2.47798E-03-5.08829E-01
 -1      1469 8.39099E-03 1.24660E-02-5.07502E-01
 -1      1470 1.97468E-02-8.14417E-03-5.07029E-01
 -1      1471 1.43970E-02-4.42779E-03-5.06772E-01
 -1      1472 1.49830E-02 1.46384E-02-5.07784E-01
 -1      1473 1.22725E-02-9.91318E-03-5.04521E-01
 -1      1474 1.30132E-02-9.17522E-03-5.04556E-01
 -1      1475-1.20015E-02-1.02285E-02-5.08487E-01
 -1      1476-1.27944E-02-9.27435E-03-5.09027E-01
 -1      1477-2.95462E-04-2.75975E-02-5.06859E-01
 -1      1478 1.78982E-02-1.96238E-02-5.07162E-01
 -1      1479-3.15176E-03-1.62542E-02-5.04003E-01
 -1      1480-2.28550E-03-1.64484E-02-5.04316E-01
 -1      1481 8.67166E-03-1.32317E-02-5.04149E-01
 -1      1482 8.03522E-03-1.37462E-02-5.04417E-01
 -1      1483 7.05258E-03-1.38982E-02-5.05816E-01
 -1      1484-7.23259E-04-2.18985E-02-5.06355E-01
 -1      1485 7.89266E-03 1.90219E-02-5.08626E-01
 -1      1486 1.23720E-02 9.01894E-03-5.06421E-01
 -1      1487-6.50344E-03-2.06119E-02-5.06139E-01
 -1      1488-3.70253E-03-1.58248E-02-5.06165E-01
 -1      1489-1.50121E-02-3.84827E-03-5.09964E-01
 -1      1490-1.54801E-02-2.92427E-03-5.10091E-01
 -1      1491 2.02919E-02-8.00315E-04-5.06805E-01
 -1      1492 1.43220E-02-1.51566E-02-5.06818E-01
 -1      1493-1.56239E-02-1.59536E-03-5.11843E-01
 -1      1494-1.43458E-02-4.70863E-03-5.11773E-01
 -1      1495 9.47854E-03-1.26592E-02-5.06169E-01
 -1      1496-1.35084E-03-1.62522E-02-5.06603E-01
 -1      1497-2.46894E-02 9.06904E-03-5.11846E-01
 -1      1498 1.62976E-02 1.37394E-02-5.06907E-01
 -1      1499-2.09985E-02-4.03167E-04-5.11714E-01
 -1      1500 9.47955E-03 1.90327E-02-5.08487E-01
 -1      1501-2.66145E-02 5.40873E-05-5.12058E-01
 -1      1502 1.89443E-02 6.83624E-03-5.07917E-01
 -1      1503 1.84447E-02-9.75111E-03-5.06293E-01
 -1      1504-1.90277E-02-9.49796E-03-5.11182E-01
 -1      1505-1.44119E-02-1.62269E-02-5.10662E-01
 -1      1506 8.55693E-03-2.03638E-02-5.06462E-01
 -1      1507-9.17953E-03 1.25754E-02-5.09976E-01
 -1      1508-8.31740E-03 1.30471E-02-5.10325E-01
 -1      1509-1.68161E-02 8.26276E-03-5.12507E-01
 -1      1510-7.27000E-03 1.30212E-02-5.11874E-01
 -1      1511-1.95627E-02-8.63357E-03-5.12084E-01
 -1      1512 1.33543E-02-1.66351E-02-5.06072E-01
 -1      1513-1.55857E-02 1.27712E-03-5.11945E-01
 -1      1514-1.54862E-02 3.54307E-03-5.09910E-01
 -1      1515-1.56627E-02 2.37162E-03-5.10129E-01
 -1      1516-1.52323E-02 4.37784E-03-5.12053E-01
 -1      1517-2.12065E-02 5.54035E-04-5.11872E-01
 -1      1518-9.83812E-03 1.18794E-02-5.11707E-01
 -1      1519-8.75426E-03 1.93199E-02-5.12029E-01
 -1      1520-1.38862E-02 1.50785E-02-5.11654E-01
 -1      1521-1.97164E-02 6.91578E-03-5.11741E-01
 -1      1522-7.86442E-03-1.73603E-02-1.01103E-01
 -1      1523 1.63737E-02 1.17992E-02-9.22490E-02
 -1      1524-1.31844E-02 1.28148E-02-9.25397E-02
 -1      1525 2.41015E-02 4.25638E-03-1.56098E-01
 -1      1526-1.77413E-02-9.11916E-03-1.05353E-01
 -1      1527 2.20493E-02-1.47872E-02-2.70110E-01
 -1      1528 5.27501E-03-4.17516E-03-3.01181E-02
 -1      1529 1.11461E-02 1.77213E-03-4.93146E-02
 -1      1530 1.58059E-02-4.14684E-03-4.26038E-02
 -1      1531 1.44583E-02-6.77376E-04-3.58684E-02
 -1      1532 1.54929E-02 6.92807E-03-6.48941E-02
 -1      1533 6.99787E-03-6.15188E-03-3.20666E-02
 -1      1534 2.16198E-02-5.32768E-03-1.22966E-01
 -1      1535 1.03878E-02-8.02497E-03-4.42883E-02
 -1      1536 9.53198E-03 6.61714E-03-4.29199E-02
 -1      1537 1.46973E-02 6.42993E-03-3.34762E-02
 -1      1538 1.19314E-03-2.58250E-04-5.38582E-01
 -1      1539-1.04092E-02-1.02400E-02-3.36585E-02
 -1      1540-1.99531E-02-3.43672E-03-1.01680E-01
 -1      1541-6.69850E-03-9.28341E-03-4.19133E-02
 -1      1542-3.82060E-03-1.02563E-02-3.23279E-02
 -1      1543-2.37260E-03-1.45030E-02-4.35093E-02
 -1      1544 8.16266E-04-1.39517E-02-3.43631E-02
 -1      1545 2.39738E-03-1.14820E-02-4.42991E-02
 -1      1546-6.20291E-03-5.02583E-03-4.36331E-02
 -1      1547 3.67050E-03-1.02752E-02-2.99724E-02
 -1      1548 5.05142E-03-9.30799E-03-4.33452E-02
 -1      1549-6.82557E-03-2.84775E-03-2.86564E-02
 -1      1550-1.03875E-02 3.47104E-03-5.20203E-01
 -1      1551 2.88773E-03-7.37295E-03-1.76190E-02
 -1      1552-1.63457E-02-1.65796E-03-3.17547E-02
 -1      1553-1.02663E-02-8.14550E-04-4.58907E-02
 -1      1554-2.43757E-02 9.67557E-03-2.87987E-01
 -1      1555-1.29521E-02-2.60976E-03-4.17438E-02
 -1      1556-1.30389E-02 5.34639E-03-3.38794E-02
 -1      1557-2.23718E-02-4.83342E-03-1.87227E-01
 -1      1558-1.17570E-02 7.60484E-03-4.61533E-02
 -1      1559-1.25776E-02 1.18034E-02-3.43082E-02
 -1      1560-5.97517E-03 8.08064E-03-5.08223E-02
 -1      1561-4.97339E-03 1.08635E-02-3.26959E-02
 -1      1562 1.21593E-02 1.61647E-02-1.19168E-01
 -1      1563-2.85808E-03 1.18359E-02-4.48516E-02
 -1      1564 1.98278E-02 1.63223E-02-3.83830E-01
 -1      1565 2.83939E-04 1.44821E-02-2.96684E-02
 -1      1566 2.76486E-03 1.27610E-02-4.38544E-02
 -1      1567 5.83968E-03 1.04576E-02-3.41938E-02
 -1      1568 6.39036E-03 9.64228E-03-4.88839E-02
 -1      1569 7.18926E-03 5.10656E-03-3.40361E-02
 -1      1570-1.08337E-02-6.38614E-04-3.17001E-02
 -1      1571 5.68485E-03 3.28683E-03-2.34744E-02
 -1      1572 1.73687E-02-1.26012E-02-9.42184E-02
 -1      1573-1.24257E-02-5.34290E-03-3.42581E-02
 -1      1574-1.37023E-02 6.03735E-03-5.46470E-02
 -1      1575-1.66040E-02 9.98202E-03-1.17547E-01
 -1      1576-1.50653E-02-1.25063E-02-1.40425E-01
 -1      1577 3.00145E-03 7.66910E-03-1.98796E-02
 -1      1578-2.00275E-02 3.25523E-03-1.49218E-01
 -1      1579-1.84034E-02-1.87274E-02-3.34624E-01
 -1      1580 7.25087E-04-1.37921E-02-5.65861E-02
 -1      1581 7.48815E-03 7.76724E-03-5.76111E-02
 -1      1582-1.52912E-02 4.94346E-03-5.98534E-02
 -1      1583-5.19068E-03-1.34704E-02-5.32929E-02
 -1      1584 1.02980E-02 6.58684E-03-3.58328E-02
 -1      1585 1.05264E-02-1.87146E-03-4.30348E-02
 -1      1586-1.05964E-02 1.48393E-02-1.22203E-01
 -1      1587-1.91948E-02 6.48100E-03-9.90229E-02
 -1      1588 6.54724E-03 8.62874E-03-4.82913E-02
 -1      1589-4.11372E-03 2.49305E-02-2.60822E-01
 -1      1590 8.20911E-03-3.95892E-03-2.25225E-02
 -1      1591-5.22334E-03-2.46935E-03-1.64759E-02
 -1      1592 9.55585E-03-1.54414E-03-2.75315E-02
 -1      1593 2.34432E-02 1.05974E-02-1.83796E-01
 -1      1594 8.59547E-03 1.30406E-03-2.99000E-02
 -1      1595-6.85332E-03 1.44141E-02-6.07978E-02
 -1      1596 2.47533E-02 4.95715E-03-3.19691E-01
 -1      1597 1.00300E-02-9.61980E-03-3.09526E-02
 -1      1598-4.84374E-03-2.62059E-03-1.71056E-02
 -1      1599 4.27826E-03 1.95139E-02-1.16676E-01
 -1      1600-1.31105E-02-1.26439E-02-7.19359E-02
 -1      1601 1.55182E-02 1.03133E-02-1.14517E-01
 -1      1602 1.98970E-02-4.10054E-03-1.14022E-01
 -1      1603-1.05026E-02 8.35751E-03-5.90692E-02
 -1      1604-2.56178E-02-5.37992E-03-2.88842E-01
 -1      1605-1.66699E-03-1.40666E-02-5.43522E-02
 -1      1606 5.84390E-03-1.55333E-03-2.26459E-02
 -1      1607 1.96973E-02 5.46271E-03-8.67051E-02
 -1      1608 9.16541E-03-2.39832E-02-1.68462E-01
 -1      1609 4.22178E-03 1.38099E-02-4.88036E-02
 -1      1610-3.85645E-03 1.81790E-02-1.16309E-01
 -1      1611-2.11291E-03-2.04513E-02-1.12380E-01
 -1      1612-1.23236E-02-7.19874E-03-8.84202E-02
 -1      1613-1.02188E-02 9.95652E-03-5.02755E-02
 -1      1614-5.66864E-03-4.69562E-03-2.11735E-02
 -1      1615 1.81982E-04-1.90348E-02-1.02044E-01
 -1      1616-1.17477E-02 1.71877E-02-1.92339E-01
 -1      1617 1.12416E-02 8.07162E-03-7.62153E-02
 -1      1618 4.16598E-03-6.48698E-03-2.06329E-02
 -1      1619 2.04272E-02 1.81997E-02-2.25059E-01
 -1      1620-4.49065E-05-1.32769E-02-3.05415E-02
 -1      1621 1.47947E-02-1.04781E-02-1.10483E-01
 -1      1622 1.00905E-02 2.31977E-02-2.99496E-01
 -1      1623-2.27976E-02-5.73487E-03-1.74366E-01
 -1      1624-1.20255E-02-1.64648E-02-1.41298E-01
 -1      1625 4.05430E-03 1.42675E-02-6.46904E-02
 -1      1626-3.96128E-03-1.41048E-03-2.08130E-02
 -1      1627 2.15756E-02 2.28993E-03-1.89170E-01
 -1      1628 1.18924E-02 6.05776E-03-5.53267E-02
 -1      1629-5.53428E-03 4.43064E-03-1.93137E-02
 -1      1630 1.84292E-02-4.82798E-03-7.45328E-02
 -1      1631-1.52391E-02-1.90965E-02-1.72440E-01
 -1      1632-2.48020E-03 6.50672E-03-2.72575E-02
 -1      1633-1.82526E-02 2.66236E-03-8.11383E-02
 -1      1634 6.72945E-03 6.84503E-03-4.07214E-02
 -1      1635 2.76213E-03-1.94252E-02-1.13440E-01
 -1      1636 1.01999E-02-1.60463E-02-1.09810E-01
 -1      1637 1.30716E-03 3.55250E-03-1.75610E-02
 -1      1638 1.80265E-02-7.59524E-03-4.91486E-01
 -1      1639-7.17623E-03 1.25922E-03-2.88779E-02
 -1      1640-6.89532E-04 1.69399E-02-9.13474E-02
 -1      1641-1.34843E-02 9.04810E-03-5.43270E-02
 -1      1642-3.82060E-03 8.17813E-03-2.16154E-02
 -1      1643 8.58475E-03 3.43950E-03-2.88764E-02
 -1      1644 4.75600E-03-3.87485E-03-5.36185E-01
 -1      1645 1.60139E-02 1.54663E-02-1.20554E-01
 -1      1646-1.28192E-02-6.08697E-03-5.52343E-02
 -1      1647 1.24413E-02-1.15117E-04-3.29646E-02
 -1      1648-9.29451E-04 1.63016E-02-5.72354E-02
 -1      1649 1.63280E-02 1.27275E-02-1.80778E-01
 -1      1650 1.57432E-03-8.48540E-03-1.98514E-02
 -1      1651-1.33978E-02 5.47008E-03-3.66058E-02
 -1      1652-2.23238E-02-1.51643E-02-2.23746E-01
 -1      1653 4.80487E-03 2.62062E-03-2.21515E-02
 -1      1654 4.26522E-03 2.03644E-02-4.60304E-01
 -1      1655-3.36219E-03 5.91247E-03-1.86046E-02
 -1      1656-2.30016E-02 1.69043E-03-4.08061E-01
 -1      1657 4.01564E-03-1.48781E-02-5.89810E-02
 -1      1658 4.69991E-03-3.29973E-03-1.78682E-02
 -1      1659-1.63824E-02-2.16730E-03-3.11259E-02
 -1      1660-1.00244E-02-2.50896E-02-2.64499E-01
 -1      1661-6.16990E-03 5.26805E-03-3.10254E-02
 -1      1662 1.74237E-02-9.85967E-03-1.01710E-01
 -1      1663-1.57624E-02-3.43162E-03-5.59800E-02
 -1      1664-3.31612E-03-2.30757E-02-1.63353E-01
 -1      1665 6.48608E-03 1.23377E-05-1.73292E-02
 -1      1666 7.94381E-03-1.99228E-03-2.10136E-02
 -1      1667 3.83614E-03 2.36795E-02-1.71722E-01
 -1      1668-1.16025E-03 9.72646E-03-2.90023E-02
 -1      1669 4.51779E-03-5.15452E-03-2.03654E-02
 -1      1670 4.40375E-03 2.14783E-02-1.85238E-01
 -1      1671 1.65947E-02-2.75497E-03-6.38068E-02
 -1      1672 1.14180E-02-1.08194E-02-6.19282E-02
 -1      1673-1.49316E-02 1.86642E-02-3.79693E-01
 -1      1674 1.50635E-02 9.03008E-03-4.96972E-01
 -1      1675-1.78521E-02 4.38201E-03-9.41828E-02
 -1      1676-6.57925E-03-1.97139E-05-1.80351E-02
 -1      1677 2.84621E-03 6.54249E-03-1.96952E-02
 -1      1678 1.10780E-02 1.45779E-02-1.14629E-01
 -1      1679-7.21349E-04 6.54561E-03-2.05217E-02
 -1      1680-9.03091E-03-8.56573E-03-3.82990E-02
 -1      1681 7.75403E-03 5.13514E-03-2.24139E-02
 -1      1682-1.14729E-02-1.39103E-02-1.04557E-01
 -1      1683-1.88613E-02-1.53728E-02-1.50979E-01
 -1      1684 5.39264E-03 2.23218E-03-2.04888E-02
 -1      1685 5.08097E-03-2.09562E-02-1.79157E-01
 -1      1686-1.90620E-02-4.86712E-03-9.17628E-02
 -1      1687 8.33432E-04-4.62924E-03-1.50916E-02
 -1      1688-7.23974E-03 4.97001E-03-2.13557E-02
 -1      1689-2.11294E-02 1.17580E-02-1.61791E-01
 -1      1690 2.14094E-02 4.73621E-03-4.22822E-01
 -1      1691-1.69690E-02 8.12432E-03-1.01004E-01
 -1      1692 2.33479E-02 1.29563E-02-2.92073E-01
 -1      1693 1.27767E-02 1.84788E-02-4.40768E-01
 -1      1694-3.76564E-03 1.04309E-03-1.32288E-02
 -1      1695-4.59812E-03 4.48571E-03-2.31294E-02
 -1      1696-2.54014E-02 3.62311E-03-2.10381E-01
 -1      1697-2.23263E-02 3.00552E-03-1.42405E-01
 -1      1698-2.57547E-02 2.66084E-03-3.14134E-01
 -1      1699-2.37985E-02 6.81861E-03-3.54570E-01
 -1      1700-2.10044E-02-3.75155E-03-1.05753E-01
 -1      1701-8.23728E-03-1.12123E-03-2.13067E-02
 -1      1702-6.56182E-03-1.33141E-03-2.25389E-02
 -1      1703-2.87444E-03 2.12350E-02-1.87912E-01
 -1      1704-1.60429E-02-3.49318E-03-4.50368E-02
 -1      1705-1.36396E-02 6.06060E-03-4.77331E-02
 -1      1706-7.00599E-03-1.51987E-03-2.24573E-02
 -1      1707-8.62328E-03 3.68905E-04-1.82246E-02
 -1      1708-1.27378E-02-3.20289E-03-5.43464E-02
 -1      1709 1.73691E-02 1.24939E-02-4.44342E-01
 -1      1710 1.92557E-02 8.04705E-03-8.07257E-02
 -1      1711 4.42074E-03 3.51722E-03-1.87227E-02
 -1      1712-7.44494E-03 5.04142E-03-2.46896E-02
 -1      1713-1.74150E-02-2.70715E-04-7.00724E-02
 -1      1714 4.39408E-03-7.07060E-03-2.02098E-02
 -1      1715 9.76507E-04-6.32879E-03-2.26904E-02
 -1      1716 5.30690E-03 1.19141E-02-4.71771E-02
 -1      1717 7.45829E-03 1.91144E-02-1.18112E-01
 -1      1718-5.50583E-03-4.05169E-03-2.29655E-02
 -1      1719-3.05102E-03-2.04247E-02-4.50774E-01
 -1      1720 1.39478E-02 8.10708E-04-5.67593E-02
 -1      1721 1.73447E-02 2.06955E-03-7.87386E-02
 -1      1722 2.15632E-02 1.47835E-02-1.75544E-01
 -1      1723-1.96898E-02 1.05407E-02-4.35347E-01
 -1      1724-2.39994E-02-1.02732E-02-2.32126E-01
 -1      1725 8.33684E-03 1.51990E-02-4.92189E-01
 -1      1726 2.79471E-03-1.51358E-02-5.93626E-02
 -1      1727-1.22770E-02 9.52068E-03-5.82614E-02
 -1      1728 1.52225E-02-2.00829E-02-1.63750E-01
 -1      1729 1.07123E-02-9.06814E-03-5.78104E-02
 -1      1730 6.21529E-03-1.32519E-02-5.44260E-02
 -1      1731 2.59721E-02-4.07436E-03-2.34436E-01
 -1      1732-1.71902E-02-1.15371E-02-4.57747E-01
 -1      1733 2.40031E-02 7.01922E-03-1.45661E-01
 -1      1734-4.01575E-03-8.29802E-03-5.24088E-01
 -1      1735 4.71474E-03 2.47618E-02-2.66962E-01
 -1      1736 7.57250E-03 1.54078E-02-8.38214E-02
 -1      1737 2.35934E-03 1.73184E-02-8.27748E-02
 -1      1738 2.09703E-02-3.79557E-03-1.81631E-01
 -1      1739 2.32682E-02-7.97605E-03-3.63992E-01
 -1      1740-3.21411E-03 1.07396E-02-3.63350E-02
 -1      1741 5.10892E-03-1.77937E-03-1.39676E-02
 -1      1742 1.25552E-02-7.12314E-03-5.99049E-02
 -1      1743-9.79421E-03-9.44031E-03-5.76759E-02
 -1      1744 1.23717E-02-8.64855E-03-5.37017E-02
 -1      1745 1.41249E-02-5.83179E-03-5.65211E-02
 -1      1746-5.53455E-03 1.16568E-02-5.51103E-02
 -1      1747-2.30217E-02-1.15641E-02-3.16443E-01
 -1      1748 2.58013E-02 6.75033E-03-2.36750E-01
 -1      1749 2.44713E-02-1.38956E-03-3.72145E-01
 -1      1750-1.20456E-02-5.53877E-03-5.36036E-02
 -1      1751 1.43242E-02 4.59113E-03-3.63445E-02
 -1      1752-9.17005E-03 1.08626E-02-5.96600E-02
 -1      1753-5.25959E-03 7.68388E-03-1.98605E-02
 -1      1754-2.03303E-02-1.27612E-02-1.47433E-01
 -1      1755 1.55900E-02-1.54768E-02-1.20776E-01
 -1      1756-2.97601E-03-2.02079E-02-8.57985E-02
 -1      1757-1.01746E-02-2.36713E-02-1.79276E-01
 -1      1758-4.68633E-03-2.72505E-03-1.36260E-02
 -1      1759-2.11613E-02 1.38298E-02-3.43880E-01
 -1      1760-9.68499E-03 1.83956E-02-4.70260E-01
 -1      1761 1.38523E-04 2.30009E-02-1.75557E-01
 -1      1762-5.16131E-03-9.85657E-03-2.88556E-02
 -1      1763-9.89352E-03-6.26632E-03-3.28878E-02
 -1      1764-1.75109E-02-1.24760E-02-8.08469E-02
 -1      1765-7.24296E-03-4.05373E-03-2.53548E-02
 -1      1766 1.95543E-02-1.74175E-02-1.96948E-01
 -1      1767 1.00167E-02 1.20796E-02-8.05291E-02
 -1      1768-1.91364E-02 1.60428E-04-4.76192E-01
 -1      1769 3.06558E-03 5.35749E-03-5.33912E-01
 -1      1770 1.15007E-02-1.71023E-02-5.92823E-02
 -1      1771 5.13675E-03-1.12321E-02-2.34634E-02
 -1      1772 1.86021E-02 1.94265E-02-3.12963E-01
 -1      1773 4.17512E-03-2.45442E-02-1.47740E-01
 -1      1774 2.63921E-02 1.72301E-03-2.56794E-01
 -1      1775 1.46643E-03 1.93488E-02-1.22666E-01
 -1      1776-6.28976E-03-5.96483E-03-1.80735E-02
 -1      1777-1.76298E-03-1.32836E-02-3.85891E-02
 -1      1778 1.08911E-03-6.65174E-03-1.42198E-02
 -1      1779-1.26288E-02 2.12354E-02-1.95359E-01
 -1      1780-1.54243E-02-2.17649E-02-2.66708E-01
 -1      1781-1.00016E-02-1.64947E-02-4.74625E-01
 -1      1782 1.68440E-02-6.66185E-04-7.17896E-02
 -1      1783 1.09261E-02 1.93517E-02-1.39270E-01
 -1      1784 5.38473E-03 3.61210E-03-2.05071E-02
 -1      1785 3.05123E-03 2.39309E-02-3.66931E-01
 -1      1786-1.04774E-02-2.27316E-02-3.70009E-01
 -1      1787-2.22393E-02 7.09325E-03-4.08521E-01
 -1      1788 1.39869E-02-1.72909E-02-9.68435E-02
 -1      1789 1.04270E-02 2.18429E-02-3.69969E-01
 -1      1790 1.40270E-02 2.17663E-02-3.19234E-01
 -1      1791 8.29811E-03 2.33623E-02-3.50265E-01
 -1      1792 7.04438E-03-1.82152E-02-7.89772E-02
 -1      1793 7.01511E-03-2.19281E-02-1.08559E-01
 -1      1794-2.15403E-02-7.01747E-03-4.15232E-01
 -1      1795 1.99047E-02 1.76590E-02-3.12026E-01
 -1      1796 1.40166E-02 9.17455E-03-7.36952E-02
 -1      1797 1.67868E-02 1.96074E-02-1.75010E-01
 -1      1798 5.81193E-03-1.27001E-03-1.54655E-02
 -1      1799 2.22547E-02 1.64427E-02-2.41845E-01
 -1      1800-6.60094E-03-1.01213E-02-5.55791E-02
 -1      1801-9.94876E-03-2.04786E-02-4.29125E-01
 -1      1802-2.25567E-02 5.16932E-04-1.26148E-01
 -1      1803-3.01442E-03-7.21604E-03-2.16709E-02
 -1      1804-1.87932E-02 1.15280E-02-1.90217E-01
 -1      1805-8.01989E-03 5.10551E-03-2.00555E-02
 -1      1806 1.36801E-02 4.84121E-03-6.51680E-02
 -1      1807-1.50415E-02-1.68894E-02-4.30344E-01
 -1      1808 8.16996E-03-1.24420E-02-7.10822E-02
 -1      1809 1.25043E-02-1.86378E-02-1.75674E-01
 -1      1810 2.17252E-02-3.24901E-03-4.39974E-01
 -1      1811 1.82342E-02 2.98943E-03-1.17098E-01
 -1      1812 2.12223E-02 9.75790E-03-4.04894E-01
 -1      1813-1.40433E-02-2.21919E-02-3.29952E-01
 -1      1814-7.57704E-03-9.75742E-03-2.52300E-02
 -1      1815 1.31419E-03 1.57479E-02-6.09953E-02
 -1      1816 2.70932E-03 7.59582E-03-1.73092E-02
 -1      1817-1.99286E-02-1.32215E-02-3.87614E-01
 -1      1818 2.36402E-03 5.39959E-03-1.75945E-02
 -1      1819 8.90761E-03 1.42325E-02-6.61380E-02
 -1      1820 5.55126E-03 1.08646E-02-6.22540E-02
 -1      1821-1.08484E-02-1.07891E-02-5.01811E-01
 -1      1822-1.72538E-02-1.29958E-02-1.98481E-01
 -1      1823-2.37833E-02 7.67554E-03-1.73405E-01
 -1      1824 2.30709E-02 1.33046E-02-2.35954E-01
 -1      1825 1.41025E-02 2.18722E-02-2.24944E-01
 -1      1826 1.82776E-02 1.80162E-02-1.70668E-01
 -1      1827 1.78534E-02 2.10196E-02-2.44618E-01
 -1      1828 6.18982E-03 7.46476E-03-2.81520E-02
 -1      1829 2.12412E-02 1.45803E-02-3.41347E-01
 -1      1830-2.44162E-02-2.57914E-03-3.54114E-01
 -1      1831 2.00350E-03-6.17172E-03-2.39643E-02
 -1      1832 1.23110E-02-2.10462E-02-1.28788E-01
 -1      1833 8.10075E-03-1.38266E-02-5.24413E-02
 -1      1834 6.08454E-03 2.38863E-02-3.06517E-01
 -1      1835 1.05782E-02-1.41154E-02-3.70719E-02
 -1      1836-2.42237E-02-9.30356E-04-1.79420E-01
 -1      1837-6.53310E-03-1.19950E-02-2.84295E-02
 -1      1838 1.59531E-02 1.91750E-02-3.86502E-01
 -1      1839-1.90730E-02 7.09593E-03-4.77462E-01
 -1      1840 2.05409E-02-1.37373E-02-1.65054E-01
 -1      1841 1.54411E-02-2.11849E-02-2.74535E-01
 -1      1842-2.78974E-04 6.99681E-03-1.76169E-02
 -1      1843-2.12510E-03-5.92060E-03-1.72174E-02
 -1      1844-1.59614E-03 8.76765E-03-5.23169E-01
 -1      1845-1.70777E-02 1.55027E-02-3.91564E-01
 -1      1846-1.28518E-02-2.32304E-02-1.95493E-01
 -1      1847-1.92044E-02 1.79165E-02-2.19140E-01
 -1      1848 4.51413E-03 4.29776E-03-1.29199E-02
 -1      1849-1.99241E-02-1.79563E-02-2.35474E-01
 -1      1850-1.67961E-02-1.36936E-02-1.09463E-01
 -1      1851 4.31378E-03-5.01635E-03-1.47865E-02
 -1      1852-1.17843E-02-1.59744E-02-6.54443E-02
 -1      1853-1.33752E-02 1.72092E-02-1.26553E-01
 -1      1854-1.84237E-02 1.27101E-02-1.17523E-01
 -1      1855-2.34318E-02-1.22569E-02-2.63924E-01
 -1      1856-3.38962E-04-2.59038E-02-3.33478E-01
 -1      1857 2.82195E-03 2.59946E-03-1.48761E-02
 -1      1858 2.10190E-02 1.09683E-02-1.31012E-01
 -1      1859-2.50974E-03-1.65647E-02-4.95647E-01
 -1      1860-1.72299E-02-5.64793E-03-7.50959E-02
 -1      1861 2.32349E-02 1.15006E-02-3.34731E-01
 -1      1862-1.69426E-03-7.08982E-03-1.60373E-02
 -1      1863-1.35428E-02 1.16343E-02-4.91727E-01
 -1      1864-1.11027E-03-7.37452E-03-1.79976E-02
 -1      1865-1.35469E-02 3.38274E-03-3.84522E-02
 -1      1866-5.80307E-03 1.93816E-03-1.40794E-02
 -1      1867 1.83740E-02-9.40072E-03-1.09648E-01
 -1      1868-1.06928E-02 1.11930E-02-8.32212E-02
 -1      1869-1.60984E-02 3.99435E-03-6.65853E-02
 -1      1870 3.57873E-03-9.13290E-03-5.19760E-01
 -1      1871 3.61147E-03-4.26355E-04-1.82675E-02
 -1      1872-2.01081E-02 1.58050E-02-1.82271E-01
 -1      1873 2.00701E-02-3.06270E-03-7.62030E-02
 -1      1874-3.36261E-03-2.28791E-02-1.33987E-01
 -1      1875 5.54615E-03 4.65115E-03-1.39940E-02
 -1      1876 1.65632E-02-6.22009E-03-8.67797E-02
 -1      1877-2.03536E-02-1.54477E-02-3.37612E-01
 -1      1878 2.50984E-02-1.28064E-03-1.38417E-01
 -1      1879-2.09516E-03 5.00742E-03-1.55368E-02
 -1      1880-3.56454E-03-1.94637E-02-1.05284E-01
 -1      1881 5.16973E-04 1.25596E-02-5.11518E-02
 -1      1882-2.33459E-04-1.41946E-02-3.39196E-02
 -1      1883-2.28745E-02-9.22842E-03-1.64557E-01
 -1      1884 2.96588E-03 2.37171E-02-2.11630E-01
 -1      1885-1.25499E-02-2.07504E-02-1.42478E-01
 -1      1886 3.43484E-03-3.53241E-03-1.46708E-02
 -1      1887 1.56595E-02-1.17213E-02-1.78401E-01
 -1      1888-3.24263E-04 6.01574E-03-1.88966E-02
 -1      1889-2.83732E-03-2.15705E-02-1.78804E-01
 -1      1890-1.51632E-02 1.66747E-02-4.38314E-01
 -1      1891-2.27632E-02-1.01128E-02-3.67404E-01
 -1      1892 1.64634E-03-6.82307E-04-5.42293E-01
 -1      1893-2.42851E-02-7.42696E-03-3.32202E-01
 -1      1894-4.30735E-03-2.31580E-02-3.85139E-01
 -1      1895-6.58493E-03-1.14931E-02-5.57882E-02
 -1      1896 2.48519E-02 1.09838E-02-2.67098E-01
 -1      1897 2.04363E-03-2.52849E-02-1.70052E-01
 -1      1898 6.14572E-03 1.71304E-02-9.57438E-02
 -1      1899 1.69095E-05-5.49944E-03-1.51954E-02
 -1      1900-1.73968E-03-2.55094E-02-1.97599E-01
 -1      1901 1.85416E-02 1.47360E-02-1.30213E-01
 -1      1902-1.77679E-02 1.61590E-02-1.51718E-01
 -1      1903-2.25713E-02 1.31823E-02-2.35228E-01
 -1      1904 2.09069E-03-2.04590E-02-8.60907E-02
 -1      1905-9.40542E-04-1.73081E-02-5.23527E-02
 -1      1906-1.38294E-02 5.98436E-03-5.47015E-02
 -1      1907 4.49780E-03 6.50701E-03-1.20595E-02
 -1      1908 1.92294E-02 8.60988E-03-4.65063E-01
 -1      1909-6.29261E-03-6.34774E-04-1.79017E-02
 -1      1910-1.54348E-02-1.37512E-03-6.01880E-02
 -1      1911-2.45632E-02 5.82396E-03-3.11387E-01
 -1      1912-2.66591E-02-2.43927E-04-2.59226E-01
 -1      1913 4.98203E-03-2.59764E-02-2.58849E-01
 -1      1914 8.79522E-03-2.33124E-02-3.60623E-01
 -1      1915-3.33016E-03 5.27844E-03-1.45747E-02
 -1      1916-8.35816E-03 2.58442E-03-2.04654E-02
 -1      1917-1.16756E-02-2.37880E-02-2.93381E-01
 -1      1918 2.40666E-02 1.71669E-03-3.71706E-01
 -1      1919 7.46656E-03-1.87775E-02-4.67577E-01
 -1      1920 2.66882E-02-4.83515E-03-1.79640E-01
 -1      1921-2.20826E-02 1.01136E-02-3.71772E-01
 -1      1922-1.61111E-02-1.64469E-02-1.54776E-01
 -1      1923 1.10514E-02 1.58075E-02-1.82238E-01
 -1      1924 1.93810E-02-1.39532E-03-4.87450E-01
 -1      1925 1.98265E-03-6.61393E-03-1.95759E-02
 -1      1926 7.68645E-03 2.36807E-02-2.28767E-01
 -1      1927-1.49096E-02 2.12628E-02-2.82108E-01
 -1      1928 7.25292E-03-2.64483E-02-1.99866E-01
 -1      1929-3.12826E-03-5.25806E-03-1.29241E-02
 -1      1930 3.78846E-03-1.45540E-03-1.42879E-02
 -1      1931 4.76216E-03 1.09566E-03-1.26858E-02
 -1      1932 2.58392E-02-1.27935E-03-3.06574E-01
 -1      1933-1.94989E-02-1.77877E-02-2.88088E-01
 -1      1934-1.05894E-02 2.33612E-02-2.73627E-01
 -1      1935-6.85827E-03 2.17528E-02-3.87904E-01
 -1      1936-1.94829E-02 1.82339E-02-2.93126E-01
 -1      1937-5.69802E-04 2.51124E-02-3.14669E-01
 -1      1938 2.58663E-02 6.98332E-04-1.89421E-01
 -1      1939-9.28950E-03-2.40710E-02-3.25204E-01
 -1      1940-1.19351E-02-2.40204E-02-2.39820E-01
 -1      1941 5.75318E-03-1.00895E-03-1.47750E-02
 -1      1942 9.32212E-03-2.43979E-02-2.67007E-01
 -1      1943 1.51004E-02 9.63905E-03-5.44509E-02
 -1      1944 1.08596E-03-6.00767E-03-5.33140E-01
 -1      1945-3.22991E-03 5.79040E-03-1.59267E-02
 -1      1946-3.05042E-03 5.35363E-03-1.63272E-02
 -1      1947 1.29928E-03 6.23411E-03-1.69941E-02
 -1      1948 2.12313E-02 9.36867E-03-1.21852E-01
 -1      1949-1.13783E-02 1.87432E-02-4.18227E-01
 -1      1950 7.46349E-03-7.35865E-04-5.27360E-01
 -1      1951 2.09015E-03 1.52096E-02-5.01119E-02
 -1      1952-1.96353E-02-2.34977E-03-1.26602E-01
 -1      1953-1.50762E-03 5.80172E-03-1.63481E-02
 -1      1954-1.31108E-02 3.16196E-04-5.61489E-02
 -1      1955 1.18222E-03-4.00430E-03-1.10315E-02
 -1      1956 1.36302E-02-2.23490E-02-2.08575E-01
 -1      1957 6.77361E-03 2.16759E-02-4.08091E-01
 -1      1958 1.39322E-02 6.14689E-04-5.53565E-02
 -1      1959-9.42052E-03-1.51747E-02-8.72485E-02
 -1      1960-1.13353E-02 2.14507E-02-3.65061E-01
 -1      1961-1.67198E-02 1.86490E-02-1.82876E-01
 -1      1962-1.39651E-03 4.78551E-03-1.51667E-02
 -1      1963-2.36913E-03 1.20431E-02-4.93430E-02
 -1      1964-1.01121E-02-1.46017E-02-5.23137E-02
 -1      1965-1.21095E-02 2.23531E-02-3.10739E-01
 -1      1966-6.29848E-03 1.56331E-02-8.64334E-02
 -1      1967-1.87614E-02-1.95063E-02-2.83751E-01
 -1      1968-2.39118E-03 1.84152E-02-4.88063E-01
 -1      1969 1.87289E-02-1.01406E-02-4.24368E-01
 -1      1970-1.43415E-02 1.65183E-02-1.33535E-01
 -1      1971-2.23542E-02 1.50130E-02-2.55640E-01
 -1      1972 6.31026E-03 4.04878E-03-1.61829E-02
 -1      1973 2.42581E-02 2.88210E-03-1.31714E-01
 -1      1974-1.54091E-02-1.86252E-02-3.78343E-01
 -1      1975-2.43886E-02 9.66445E-03-2.28059E-01
 -1      1976-1.70326E-02-1.98508E-02-2.30076E-01
 -1      1977-6.09195E-03-1.33533E-02-6.22279E-02
 -1      1978-3.91042E-03-5.02212E-03-1.27039E-02
 -1      1979 5.14982E-03-1.11791E-02-2.49279E-02
 -1      1980 4.10571E-03 4.50334E-03-5.29408E-01
 -1      1981-2.26078E-03-5.89359E-03-1.50428E-02
 -1      1982-4.17202E-03 2.13625E-02-4.40213E-01
 -1      1983-5.20949E-03-1.52157E-02-5.35180E-02
 -1      1984-1.17210E-02-2.58247E-03-5.13085E-01
 -1      1985-2.45331E-02 5.57682E-03-1.92804E-01
 -1      1986 1.34291E-02-1.81848E-02-4.18921E-01
 -1      1987-4.68355E-04 2.24719E-02-4.03831E-01
 -1      1988-1.26394E-02-1.78006E-02-1.08598E-01
 -1      1989 1.70527E-02-1.95112E-02-2.22084E-01
 -1      1990 2.33328E-02-1.03814E-02-1.76323E-01
 -1      1991-2.50008E-02 5.25744E-03-2.51538E-01
 -1      1992 3.33464E-03-2.06034E-03-1.37494E-02
 -1      1993 2.24500E-03-2.33116E-02-4.00245E-01
 -1      1994 4.34410E-03-2.53311E-02-3.27536E-01
 -1      1995-1.05114E-02 1.69915E-02-1.11914E-01
 -1      1996-9.55416E-04-4.34162E-03-1.57656E-02
 -1      1997 1.43134E-03-2.65412E-02-2.91016E-01
 -1      1998-4.14599E-03 6.50456E-04-5.36205E-01
 -1      1999-1.32406E-02 2.17921E-02-2.57598E-01
 -1      2000 7.13136E-03 2.17524E-02-1.70733E-01
 -1      2001-3.79886E-03-2.61723E-02-2.71394E-01
 -1      2002 1.22397E-03-4.42657E-03-1.39943E-02
 -1      2003 2.05255E-02-2.55558E-03-7.42696E-02
 -1      2004-1.88910E-02 9.66375E-03-9.97568E-02
 -1      2005-1.01056E-02 1.62085E-02-8.85523E-02
 -1      2006-2.54994E-02-3.55163E-03-2.27158E-01
 -1      2007 1.38469E-02-1.36546E-02-4.74528E-01
 -1      2008-4.65059E-03-2.53680E-02-3.21984E-01
 -1      2009-6.07999E-03-2.50653E-02-2.22576E-01
 -1      2010 2.00729E-02-1.85025E-02-2.68375E-01
 -1      2011 2.51507E-02-8.90364E-03-2.73541E-01
 -1      2012-5.57017E-03 2.40511E-02-3.19191E-01
 -1      2013 1.08964E-02-2.31990E-02-3.17920E-01
 -1      2014-3.50061E-03-5.55905E-03-5.32888E-01
 -1      2015-6.53257E-04-2.67905E-02-2.45679E-01
 -1      2016 1.07382E-02 2.22267E-02-1.93664E-01
 -1      2017 1.08489E-02-2.39494E-02-2.17635E-01
 -1      2018-4.88465E-03 1.29425E-02-4.52414E-02
 -1      2019-1.72331E-02 1.94111E-02-2.37684E-01
 -1      2020-1.23950E-03 5.98140E-03-1.14862E-02
 -1      2021 2.28881E-02-1.17411E-02-2.40787E-01
 -1      2022-7.60562E-03 2.12016E-02-1.76371E-01
 -1      2023-5.85159E-03 1.18240E-02-4.82132E-02
 -1      2024-2.25690E-02 1.22192E-02-2.91785E-01
 -1      2025-1.71731E-03 2.40789E-02-3.57633E-01
 -1      2026 2.15905E-02-1.34037E-02-3.48287E-01
 -1      2027-6.45320E-03-2.86985E-03-1.27587E-02
 -1      2028 7.64730E-03-2.04857E-02-4.17173E-01
 -1      2029 7.61890E-04 5.09951E-03-1.30635E-02
 -1      2030-4.67972E-03-1.35147E-02-6.08833E-02
 -1      2031 1.73408E-02-1.56793E-02-3.89935E-01
 -1      2032 2.51691E-02-5.80136E-03-3.16443E-01
 -1      2033-1.06041E-02 2.27193E-02-2.14095E-01
 -1      2034-3.24058E-03 1.67733E-02-8.56508E-02
 -1      2035 8.14320E-03-2.44796E-02-2.88716E-01
 -1      2036 2.29708E-03-2.61430E-02-2.18243E-01
 -1      2037-6.28449E-03 1.91584E-02-1.22961E-01
 -1      2038-8.25326E-03 1.51249E-02-6.53571E-02
 -1      2039 2.57472E-02-7.11967E-03-2.13427E-01
 -1      2040-1.07026E-02 2.14543E-02-1.58780E-01
 -1      2041 1.24357E-02-2.07747E-02-3.68417E-01
 -1      2042-3.58470E-03 2.24366E-02-1.63900E-01
 -1      2043 1.98368E-02-1.71349E-02-3.18241E-01
 -1      2044 2.31039E-02-1.14761E-02-2.98247E-01
 -1      2045-6.65290E-03 2.40597E-02-2.37281E-01
 -1      2046 1.59901E-02-2.04182E-02-3.23613E-01
 -1      2047-8.69221E-04-8.29554E-03-5.26739E-01
 -1      2048 1.95768E-02 1.28132E-02-4.12917E-01
 -1      2049 2.31232E-02 1.47460E-03-4.00154E-01
 -1      2050 5.58247E-03-7.52308E-03-5.21320E-01
 -1      2051-6.75090E-03-1.95486E-02-4.69692E-01
 -1      2052 2.76006E-03-1.49749E-02-4.99723E-01
 -1      2053 1.66289E-02-1.14489E-02-4.61085E-01
 -1      2054-1.42552E-02 1.51376E-02-4.70268E-01
 -1      2055-2.43217E-02 2.92135E-03-3.62359E-01
 -1      2056 2.80872E-03 1.49655E-02-4.96129E-01
 -1      2057-2.21688E-02-1.26674E-02-3.57972E-01
 -1      2058 1.81487E-02 9.84813E-03-4.71753E-01
 -1      2059-2.29961E-02 4.36613E-03-3.87236E-01
 -1      2060 2.61439E-03-8.80315E-03-5.19336E-01
 -1      2061-2.01115E-02 1.21289E-02-3.99442E-01
 -1      2062-7.83343E-03-1.22141E-02-5.03291E-01
 -1      2063 1.90056E-02 1.75346E-02-3.48239E-01
 -1      2064 1.25733E-02 3.11714E-03-5.11438E-01
 -1      2065 1.11163E-02-1.09177E-02-5.03159E-01
 -1      2066 1.90572E-02-1.19284E-02-3.85983E-01
 -1      2067 2.45598E-02-4.59692E-03-3.54616E-01
 -1      2068-1.83749E-02 1.01269E-02-4.67700E-01
 -1      2069 3.43578E-03-3.30390E-03-5.38509E-01
 -1      2070-1.48607E-02-1.48101E-02-4.62725E-01
 -1      2071-6.71095E-03 1.97922E-02-4.66663E-01
 -1      2072-1.63071E-02 1.60984E-03-5.00676E-01
 -1      2073-2.09654E-02 1.18632E-02-3.71348E-01
 -1      2074 1.97851E-02-5.23119E-03-4.70646E-01
 -1      2075-7.18441E-03 1.31982E-02-5.05213E-01
 -1      2076 9.74838E-03 1.98534E-02-4.57890E-01
 -1      2077-1.40363E-02 1.85333E-02-4.13392E-01
 -1      2078-1.77894E-02-7.23925E-03-4.86333E-01
 -1      2079-2.60593E-02 2.25868E-03-2.62064E-01
 -1      2080-2.34953E-02 4.54163E-03-3.62921E-01
 -1      2081-1.33460E-02 2.12882E-02-3.43642E-01
 -1      2082 7.71773E-03-1.36987E-03-5.25074E-01
 -1      2083-3.18583E-03 1.38052E-02-5.06664E-01
 -1      2084-1.30361E-02-1.85372E-02-4.07416E-01
 -1      2085 1.77748E-02 3.95077E-03-4.87729E-01
 -1      2086-2.05161E-02-1.43860E-02-3.63620E-01
 -1      2087-7.63493E-03 7.60241E-03-5.17822E-01
 -1      2088 3.40222E-04 8.70107E-03-5.21668E-01
 -1      2089 6.35661E-03 6.94523E-03-5.25944E-01
 -1      2090-2.25357E-02-7.13676E-03-3.76638E-01
 -1      2091 1.16151E-02 1.79935E-02-4.68275E-01
 -1      2092-1.87045E-02-3.47359E-03-4.11168E-01
 -1      2093 5.74335E-04-8.63224E-03-5.25104E-01
 -1      2094-2.01341E-02-1.04723E-02-4.22298E-01
 -1      2095-2.10135E-02-6.83998E-03-4.51028E-01
 -1      2096-1.69639E-02-3.45549E-03-4.94467E-01
 -1      2097 1.66127E-02-4.54724E-03-4.93225E-01
 -1      2098 2.33474E-02 2.99940E-03-3.97623E-01
 -1      2099 5.77306E-03 2.27252E-02-3.78409E-01
 -1      2100 1.61032E-02 2.00958E-02-3.50291E-01
 -1      2101 1.85192E-02 2.51230E-03-4.05628E-01
 -1      2102 2.14494E-02 7.05578E-04-4.59538E-01
 -1      2103 2.18410E-02-5.96964E-03-4.10528E-01
 -1      2104-1.61258E-02-1.18084E-02-4.81011E-01
 -1      2105 1.30843E-02 2.03618E-02-4.05908E-01
 -1      2106-2.14084E-02 2.03287E-03-4.51477E-01
 -1      2107-7.62103E-03-9.06741E-04-5.24902E-01
 -1      2108-1.22901E-02-2.07679E-02-3.77401E-01
 -1      2109-1.42408E-02 6.77354E-03-4.99964E-01
 -1      2110 7.22921E-03 3.82490E-03-5.20430E-01
 -1      2111-5.89763E-03-2.16288E-02-4.19869E-01
 -1      2112-6.31876E-03-2.44679E-02-3.53169E-01
 -1      2113 1.58113E-03-2.08746E-02-4.40669E-01
 -1      2114 4.13581E-03-1.94864E-02-4.03845E-01
 -1      2115-1.23436E-02 1.93544E-02-3.91936E-01
 -1      2116 3.32319E-03 2.26201E-02-4.04316E-01
 -1      2117 8.43571E-03-2.57642E-02-2.41170E-01
 -1      2118-1.51570E-02 1.03631E-02-4.14389E-01
 -1      2119 1.05313E-02 1.16267E-02-5.07808E-01
 -1      2120-1.03301E-02 1.56551E-02-4.13164E-01
 -1      2121-4.26983E-03 1.82350E-02-4.14800E-01
 -1      2122 6.02705E-03-2.34696E-02-3.66304E-01
 -1      2123 1.07163E-02-1.76470E-02-4.52433E-01
 -1      2124-7.23553E-03 2.30156E-02-3.54235E-01
 -1      2125 1.04998E-02-2.02170E-02-3.97205E-01
 -1      2126 3.32693E-03 9.08631E-03-5.14750E-01
 -1      2127 1.54817E-02-1.18188E-02-4.84028E-01
 -1      2128-1.24312E-02 1.78074E-02-4.48353E-01
 -1      2129 1.37790E-02 1.62708E-02-4.67407E-01
 -1      2130 1.87320E-02-3.81267E-03-4.05495E-01
 -1      2131 1.59706E-02-1.10553E-02-4.03961E-01
 -1      2132-1.30747E-02-1.37251E-02-4.89292E-01
 -1      2133-6.54312E-03-7.91289E-03-5.16987E-01
 -1      2134 2.06593E-02 1.51779E-02-3.65996E-01
 -1      2135-2.23170E-02-3.01683E-03-3.99236E-01
 -1      2136 9.00104E-03-1.35566E-02-4.97046E-01
 -1      2137 4.10425E-03 1.82455E-02-4.08495E-01
 -1      2138-3.63008E-03-1.20243E-02-5.13018E-01
 -1      2139 2.30042E-02-5.23824E-03-3.86821E-01
 -1      2140-2.96333E-03 6.92636E-03-5.31380E-01
 -1      2141-5.30618E-03 4.04029E-03-5.25972E-01
 -1      2142-1.28558E-02-1.67059E-02-4.51250E-01
 -1      2143-4.07538E-03-2.53255E-03-5.37766E-01
 -1      2144-1.01629E-03 2.08361E-02-4.60943E-01
 -1      2145-1.13374E-02 1.54810E-02-4.88343E-01
 -1      2146-4.76958E-03 8.51550E-03-5.24238E-01
 -1      2147 5.61268E-03 2.35754E-02-3.52964E-01
 -1      2148 1.37928E-02 1.99965E-02-3.79152E-01
 -1      2149 1.05522E-02-1.63412E-02-4.02842E-01
 -1      2150 1.44188E-02-9.35501E-04-5.11401E-01
 -1      2151 9.21186E-03-4.33792E-03-5.19809E-01
 -1      2152 7.66159E-04-1.14156E-02-5.17456E-01
 -1      2153 1.12818E-02 1.53428E-02-4.05363E-01
 -1      2154 5.86583E-02 2.38754E-02-3.45954E-01
 -1      2155-1.93939E-02 1.15456E-03-4.75915E-01
 -1      2156-1.00241E-02-1.69514E-02-4.02458E-01
 -1      2157-1.04424E-02 2.72764E-04-5.19247E-01
 -1      2158-3.22204E-03 9.67447E-03-5.21701E-01
 -1      2159-1.68503E-02-1.44394E-02-4.22475E-01
 -1      2160 2.35960E-03-1.14290E-02-5.14575E-01
 -1      2161-2.13651E-02-8.56770E-04-4.44252E-01
 -1      2162-2.15445E-02-5.58232E-03-3.98326E-01
 -1      2163-8.20140E-03 1.28224E-03-5.21999E-01
 -1      2164 6.09386E-03 1.45041E-03-5.29455E-01
 -1      2165 1.20001E-04-1.95927E-02-4.73109E-01
 -1      2166-6.07922E-03-5.70808E-03-5.25524E-01
 -1      2167-4.96672E-03-1.96546E-02-4.01657E-01
 -1      2168-8.30823E-04-1.45625E-02-5.07107E-01
 -1      2169 9.39982E-04-2.48640E-02-3.59373E-01
 -1      2170 1.72677E-03-2.39455E-02-3.76794E-01
 -1      2171 8.81724E-03-5.49253E-03-5.22298E-01
 -1      2172 2.28117E-02-3.71437E-03-4.13342E-01
 -1      2173 8.52543E-03-1.73061E-02-4.74980E-01
 -1      2174-2.53228E-02 5.91256E-02-3.40349E-01
 -1      2175-6.81311E-03-4.35299E-03-5.24533E-01
 -1      2176-2.50966E-02 5.83241E-02-3.63229E-01
 -1      2177 1.26875E-02-1.92082E-02-3.92947E-01
 -1      2178 9.95095E-04 9.89665E-03-5.15230E-01
 -1      2179-3.44650E-03-8.33980E-03-5.22188E-01
 -1      2180 8.08514E-03 3.37148E-03-5.21240E-01
 -1      2181 4.59975E-03 8.06982E-03-5.20803E-01
 -1      2182-6.12933E-03 8.84762E-03-5.21997E-01
 -1      2183 1.23383E-02-3.78450E-03-5.14486E-01
 -1      2184 9.58092E-03 6.06983E-03-5.17490E-01
 -1      2185 9.03520E-03-7.23057E-03-5.15459E-01
 -1      2186 1.68765E-02 9.33959E-03-4.07659E-01
 -1      2187 1.87823E-03-1.17636E-02-5.13885E-01
 -1      2188 9.43809E-03 1.00250E-03-5.18313E-01
 -1      2189-5.64253E-03-1.14762E-02-5.13667E-01
 -1      2190-1.17258E-03 1.09742E-02-5.16440E-01
 -1      2191 1.25328E-03 3.63904E-02-4.89248E-01
 -1      2192 5.13277E-03 7.87909E-03-5.17817E-01
 -1      2193 2.81571E-03 1.03099E-02-5.16270E-01
 -1      2194-1.86662E-02 3.52318E-03-4.10490E-01
 -1      2195-6.50018E-03-1.26433E-02-5.10305E-01
 -1      2196-8.99862E-03-7.40601E-03-5.17239E-01
 -1      2197 1.96441E-03-1.39310E-02-5.09301E-01
 -1      2198-9.05943E-04-1.20442E-02-5.16471E-01
 -1      2199 1.03065E-02 3.12469E-03-5.14190E-01
 -1      2200 3.78732E-03 1.14991E-02-5.13434E-01
 -1      2201-7.70952E-03-3.66308E-03-5.22648E-01
 -1      2202 4.68845E-03-8.98059E-03-5.15855E-01
 -1      2203-1.32671E-02-3.66864E-02-4.85984E-01
 -1      2204-1.02444E-02-2.86204E-02-4.96536E-01
 -1      2205 1.27772E-03 2.85544E-02-4.99193E-01
 -1      2206-2.58531E-02-2.98430E-02-4.88053E-01
 -1      2207-1.05680E-02-8.50808E-03-5.13368E-01
 -1      2208-5.06982E-03 1.06210E-02-5.18350E-01
 -1      2209 1.04780E-02-2.89353E-03-5.15992E-01
 -1      2210 9.82486E-03-8.57116E-03-5.10461E-01
 -1      2211-2.85187E-03 1.17849E-02-5.15439E-01
 -1      2212-1.07463E-02-1.85247E-03-5.17486E-01
 -1      2213-7.66368E-03 1.05467E-02-5.16976E-01
 -1      2214-6.94814E-03-1.32098E-02-5.08843E-01
 -1      2215-8.85951E-03 5.78204E-03-5.18050E-01
 -1      2216 2.57318E-04-3.71973E-02-5.06390E-01
 -1      2217-1.33751E-02-3.64504E-02-4.86097E-01
 -1      2218 2.62575E-02-2.83723E-02-4.84187E-01
 -1      2219 3.75883E-04-3.89912E-02-4.83519E-01
 -1      2220 1.34304E-02 3.22186E-02-5.08830E-01
 -1      2221 1.11960E-03 3.64049E-02-4.90935E-01
 -1      2222-1.13739E-02-3.67592E-03-5.16296E-01
 -1      2223-3.47859E-02 1.29770E-02-4.93341E-01
 -1      2224 1.94053E-02-8.29537E-03-4.65346E-01
 -1      2225-3.34452E-02-1.49688E-02-5.12003E-01
 -1      2226-2.84292E-02 1.08285E-02-5.12432E-01
 -1      2227-2.44691E-02-2.82612E-02-5.09666E-01
 -1      2228 1.20486E-02 1.20269E-03-5.11708E-01
 -1      2229-1.11298E-02 3.96915E-04-5.17464E-01
 -1      2230 1.40391E-02 3.36960E-02-4.88911E-01
 -1      2231 6.28030E-03-1.13102E-02-5.10604E-01
 -1      2232 2.57645E-02-2.78577E-02-4.86834E-01
 -1      2233 3.35678E-02 1.41321E-02-4.87373E-01
 -1      2234 3.50881E-02-5.27775E-04-5.07587E-01
 -1      2235-1.41853E-02 3.43052E-02-4.92659E-01
 -1      2236 1.14319E-02 2.68475E-02-4.98705E-01
 -1      2237-3.43996E-02-1.55727E-02-4.89723E-01
 -1      2238-1.31606E-02 3.23211E-02-5.12277E-01
 -1      2239-1.05382E-02-3.01031E-02-5.06909E-01
 -1      2240-1.86907E-02-2.18121E-02-4.97456E-01
 -1      2241 7.07930E-04 2.99125E-02-5.10167E-01
 -1      2242 4.30263E-04 2.42764E-02-5.10173E-01
 -1      2243-1.03347E-02 2.63277E-02-5.01519E-01
 -1      2244 2.70073E-02 2.57932E-02-4.88045E-01
 -1      2245-1.38257E-02 3.35918E-02-4.90757E-01
 -1      2246-2.59837E-02 2.62602E-02-4.92711E-01
 -1      2247 5.94175E-04-3.06410E-02-4.93830E-01
 -1      2248 2.35853E-04-2.66557E-02-5.06305E-01
 -1      2249-1.14393E-02 2.67978E-02-5.01557E-01
 -1      2250 3.17258E-02 1.35901E-02-5.08214E-01
 -1      2251 2.55245E-02 2.40658E-02-5.07982E-01
 -1      2252-1.14185E-02-9.06303E-03-5.11238E-01
 -1      2253-1.90889E-02-2.19628E-02-5.08792E-01
 -1      2254-8.28182E-03-2.43919E-02-5.07067E-01
 -1      2255 2.70197E-02 2.51638E-02-4.86029E-01
 -1      2256 3.81827E-04 2.58598E-02-5.01080E-01
 -1      2257-2.70767E-02-1.27344E-02-5.00987E-01
 -1      2258 2.44901E-02-2.66510E-02-5.06437E-01
 -1      2259 3.64711E-02-9.33823E-04-4.85199E-01
 -1      2260 2.01721E-02-2.19743E-02-4.95051E-01
 -1      2261 3.68735E-02-5.84127E-04-4.85894E-01
 -1      2262 1.41855E-02 3.41848E-02-4.86531E-01
 -1      2263-2.45900E-02 9.94399E-03-5.03348E-01
 -1      2264 8.06669E-04 2.51978E-02-5.09596E-01
 -1      2265-5.35145E-04-3.83625E-02-4.84698E-01
 -1      2266-2.30698E-02 9.36764E-03-5.12334E-01
 -1      2267 2.89168E-02-2.14218E-04-4.97016E-01
 -1      2268 2.69506E-02-3.11756E-04-5.06772E-01
 -1      2269 2.16196E-02 2.01069E-02-4.96685E-01
 -1      2270 1.07079E-02-2.78442E-02-4.96662E-01
 -1      2271-1.19803E-02 2.03997E-03-5.15952E-01
 -1      2272 1.12751E-02 2.72547E-02-4.97408E-01
 -1      2273-3.49388E-02 1.37247E-02-4.91433E-01
 -1      2274 2.05412E-02 1.97367E-02-4.97365E-01
 -1      2275 1.29295E-02 2.18114E-03-5.09454E-01
 -1      2276 7.87365E-03 1.00940E-02-5.12624E-01
 -1      2277-2.69581E-02 9.98772E-03-5.00782E-01
 -1      2278-3.57007E-02 1.72508E-04-5.12033E-01
 -1      2279 1.21781E-02-3.44918E-03-5.12006E-01
 -1      2280 2.17899E-02-7.78046E-04-5.06667E-01
 -1      2281-1.08585E-02 6.93943E-03-5.14660E-01
 -1      2282-2.42845E-02 2.50750E-02-5.11787E-01
 -1      2283 2.01738E-02-2.09131E-02-4.96061E-01
 -1      2284 1.34684E-03 2.29264E-02-5.09428E-01
 -1      2285-1.97178E-02 2.00496E-02-5.01023E-01
 -1      2286-2.52717E-02 2.60623E-02-4.90207E-01
 -1      2287-3.49392E-02-1.56611E-02-4.89762E-01
 -1      2288 2.72311E-03 1.27659E-02-5.12035E-01
 -1      2289-1.80021E-03 1.25137E-02-5.13592E-01
 -1      2290 1.13453E-03-1.41325E-02-5.09458E-01
 -1      2291-1.52395E-02-1.84750E-02-5.02461E-01
 -1      2292 2.16795E-03-1.49762E-02-5.07558E-01
 -1      2293-9.74123E-03-2.81234E-02-4.95219E-01
 -1      2294 2.47964E-02 1.03146E-02-4.97363E-01
 -1      2295-2.52830E-02-2.94585E-02-4.87388E-01
 -1      2296 3.24816E-02-1.47312E-02-5.06650E-01
 -1      2297-8.07973E-04-3.04750E-02-4.95953E-01
 -1      2298-2.14180E-03-1.36866E-02-5.10275E-01
 -1      2299-1.29975E-02-2.38144E-03-5.13673E-01
 -1      2300 6.70077E-03 1.02754E-02-5.13499E-01
 -1      2301-1.97774E-02-2.28270E-02-4.98097E-01
 -1      2302 7.80792E-03 1.08004E-02-5.10390E-01
 -1      2303 8.51156E-04-2.48983E-02-4.99262E-01
 -1      2304 1.29712E-02-2.65495E-03-5.09730E-01
 -1      2305 3.39146E-02-1.57452E-02-4.84457E-01
 -1      2306 2.35600E-02 9.31751E-03-5.07812E-01
 -1      2307-1.47620E-02-1.77387E-02-5.08443E-01
 -1      2308 3.46173E-03 1.27950E-02-5.10959E-01
 -1      2309 2.69580E-03-1.42478E-02-5.08448E-01
 -1      2310-9.92215E-03 2.52646E-02-5.11731E-01
 -1      2311-2.02005E-02 2.08811E-02-5.00822E-01
 -1      2312-1.31021E-02-3.38068E-03-5.13086E-01
 -1      2313 1.03321E-02 2.33440E-02-5.08421E-01
 -1      2314-3.71782E-02 1.54408E-04-4.91595E-01
 -1      2315-2.96271E-02 4.07429E-04-5.01820E-01
 -1      2316-2.75529E-02 5.15820E-04-5.11355E-01
 -1      2317-3.72668E-02 2.02653E-04-4.90316E-01
 -1      2318-3.32523E-04 2.06336E-02-5.05803E-01
 -1      2319-8.01637E-05 2.03327E-02-5.10278E-01
 -1      2320 1.10541E-02-7.95786E-03-5.09776E-01
 -1      2321 1.13601E-02 5.92883E-03-5.12380E-01
 -1      2322-7.73807E-03 2.07352E-02-5.11356E-01
 -1      2323-1.77318E-02-2.01305E-02-5.09648E-01
 -1      2324-7.35624E-03 2.00759E-02-5.06082E-01
 -1      2325-1.83003E-02 1.81472E-02-5.11680E-01
 -1      2326 1.38380E-02 2.16980E-03-5.07825E-01
 -1      2327 1.42036E-02-3.64661E-02-4.84977E-01
 -1      2328 2.62610E-02 1.11836E-02-4.97255E-01
 -1      2329 1.12475E-02-2.97428E-02-5.06353E-01
 -1      2330-8.08577E-04 1.83790E-02-5.08214E-01
 -1      2331-8.88565E-03-2.11712E-02-4.97329E-01
 -1      2332 1.49232E-03-1.49972E-02-5.07957E-01
 -1      2333-1.60998E-02-1.83357E-02-5.03550E-01
 -1      2334 1.13052E-02-8.76165E-03-5.07650E-01
 -1      2335-2.79141E-03 1.31083E-02-5.12430E-01
 -1      2336 1.02992E-02 7.10427E-03-5.12676E-01
 -1      2337 1.20164E-02-9.04816E-03-5.06445E-01
 -1      2338-2.27069E-02-6.12546E-04-5.11330E-01
 -1      2339-1.17881E-02 7.58807E-03-5.13129E-01
 -1      2340 2.56433E-02-1.14191E-02-4.95761E-01
 -1      2341-2.08981E-02 8.95719E-03-5.07753E-01
 -1      2342-1.33260E-02 1.23842E-03-5.14014E-01
 -1      2343 7.28519E-03-1.22505E-02-5.07752E-01
 -1      2344-2.70290E-02-1.21451E-02-5.00191E-01
 -1      2345 8.75526E-03-2.20239E-02-5.00390E-01
 -1      2346-1.96474E-03 1.34948E-02-5.11563E-01
 -1      2347-2.40157E-02-1.06993E-02-5.11830E-01
 -1      2348 1.86588E-02 1.77223E-02-5.07418E-01
 -1      2349-1.66553E-02 1.62688E-02-5.11809E-01
 -1      2350 3.39406E-02-1.52776E-02-4.85113E-01
 -1      2351 1.24149E-02 7.31362E-03-5.08660E-01
 -1      2352 2.49841E-02-1.19731E-02-5.06285E-01
 -1      2353 1.11955E-02 7.49638E-03-5.09679E-01
 -1      2354 1.06487E-02-2.75896E-02-5.06425E-01
 -1      2355 2.50594E-03-1.57980E-02-5.06250E-01
 -1      2356 2.87243E-03-1.51582E-02-5.07048E-01
 -1      2357-1.23937E-02-1.63233E-02-5.04717E-01
 -1      2358-1.79978E-02 1.79898E-02-5.11113E-01
 -1      2359 2.25740E-02-3.75446E-05-5.07397E-01
 -1      2360-7.84740E-03 8.23991E-03-5.19391E-01
 -1      2361-8.83980E-03-2.50746E-02-5.06351E-01
 -1      2362 1.76180E-02-1.94437E-02-5.06334E-01
 -1      2363-6.91630E-03-2.31402E-02-4.99975E-01
 -1      2364-1.05050E-03-1.43451E-02-5.10011E-01
 -1      2365 1.35213E-02-3.20039E-03-5.09007E-01
 -1      2366 1.01054E-02-2.68970E-02-4.94708E-01
 -1      2367-6.39336E-03 1.82729E-02-5.10820E-01
 -1      2368-2.44107E-02-1.18824E-02-5.11767E-01
 -1      2369 2.38863E-02-1.17014E-02-4.95964E-01
 -1      2370 9.05927E-03-2.39866E-02-5.05884E-01
 -1      2371-1.18324E-02-7.61502E-03-5.08990E-01
 -1      2372-2.12224E-02-1.04651E-02-5.04801E-01
 -1      2373 1.95485E-02 1.79988E-02-5.07407E-01
 -1      2374 8.74354E-03 1.13624E-02-5.08819E-01
 -1      2375 1.66515E-02 1.63002E-02-5.07587E-01
 -1      2376-2.19427E-02-9.83206E-03-5.05285E-01
 -1      2377 8.62105E-03 1.17475E-02-5.07922E-01
 -1      2378 1.53716E-02 1.52453E-02-5.02398E-01
 -1      2379 2.63128E-03 1.40854E-02-5.09820E-01
 -1      2380 3.41612E-03 1.37121E-02-5.09304E-01
 -1      2381 2.13539E-02 8.06421E-03-5.07649E-01
 -1      2382-2.50828E-03 1.38054E-02-5.11170E-01
 -1      2383 1.59361E-02-1.70802E-02-5.06760E-01
 -1      2384-1.53823E-02 1.71310E-02-5.05175E-01
 -1      2385-1.96037E-02 8.30890E-03-5.12153E-01
 -1      2386-6.75884E-03 1.16790E-02-5.14422E-01
 -1      2387 8.55138E-03 2.18480E-02-5.02066E-01
 -1      2388 2.11038E-02 9.16285E-03-5.07049E-01
 -1      2389 1.54539E-02-1.78124E-02-4.99520E-01
 -1      2390 7.82301E-03-1.28124E-02-5.06447E-01
 -1      2391 1.73327E-02 1.58392E-02-5.00739E-01
 -1      2392 1.23229E-02 7.92565E-03-5.07790E-01
 -1      2393-9.03377E-03 2.01084E-02-5.07174E-01
 -1      2394-8.05523E-03-2.01240E-02-5.02706E-01
 -1      2395-7.29447E-03-2.02800E-02-5.07451E-01
 -1      2396 2.01149E-02-1.47412E-03-5.01983E-01
 -1      2397-1.55178E-02 1.47676E-02-5.06966E-01
 -1      2398 1.88833E-02-2.09604E-02-5.06021E-01
 -1      2399-2.17170E-03-1.46268E-02-5.07714E-01
 -1      2400 9.78654E-03 2.10795E-02-5.02276E-01
 -1      2401 2.02310E-02 1.08229E-03-5.02919E-01
 -1      2402 1.97433E-02 5.37082E-04-5.07178E-01
 -1      2403-1.40702E-02-2.56406E-03-5.12330E-01
 -1      2404 1.51120E-02-1.52600E-02-5.01263E-01
 -1      2405 2.19735E-03 2.02690E-02-5.04399E-01
 -1      2406 1.74203E-03 1.97481E-02-5.08928E-01
 -1      2407 1.93095E-02-1.01614E-02-5.06200E-01
 -1      2408 2.55632E-02-1.10996E-02-5.06568E-01
 -1      2409 2.11311E-02-8.53209E-03-5.06630E-01
 -1      2410-1.37921E-02 2.37540E-03-5.13315E-01
 -1      2411 1.42082E-02 1.43836E-02-5.07389E-01
 -1      2412 1.43991E-02-3.11021E-03-5.07288E-01
 -1      2413-7.23711E-03-1.80607E-02-5.05232E-01
 -1      2414 8.94472E-03 2.07755E-02-5.08380E-01
 -1      2415 1.66662E-02 1.45758E-02-5.07059E-01
 -1      2416 7.81443E-03-1.77643E-02-5.03590E-01
 -1      2417-1.79849E-02 8.43265E-03-5.09565E-01
 -1      2418-2.70929E-04-2.73395E-02-5.06234E-01
 -1      2419-8.46878E-04-2.38578E-02-5.06290E-01
 -1      2420-7.46943E-03-2.27170E-02-5.06311E-01
 -1      2421 1.88535E-02-1.33595E-03-5.06359E-01
 -1      2422 3.53666E-03-1.20578E-02-5.12678E-01
 -1      2423 1.41639E-02-1.44205E-02-5.06353E-01
 -1      2424 1.02551E-02 2.08838E-02-5.08424E-01
 -1      2425 8.94978E-03-2.19229E-02-5.06347E-01
 -1      2426-1.45780E-02 1.36671E-02-5.11829E-01
 -1      2427 1.42262E-02-1.69019E-02-5.05987E-01
 -1      2428-1.26671E-03-2.19186E-02-5.01228E-01
 -1      2429-1.21018E-03-2.09845E-02-5.05909E-01
 -1      2430-1.94014E-03-1.54034E-02-5.06947E-01
 -1      2431-2.34692E-02 8.82415E-03-5.12200E-01
 -1      2432-1.40688E-02-3.23594E-03-5.11958E-01
 -1      2433 1.81666E-02 1.04707E-03-5.05115E-01
 -1      2434 9.36460E-03 1.68725E-02-5.03402E-01
 -1      2435 2.26310E-03 1.82864E-02-5.06589E-01
 -1      2436 1.52481E-02 1.29279E-02-5.03139E-01
 -1      2437-1.97094E-02-1.30623E-03-5.11131E-01
 -1      2438-2.07279E-02-1.05813E-02-5.11452E-01
 -1      2439-1.80400E-02-9.53839E-03-5.10771E-01
 -1      2440 2.03974E-02-8.42165E-03-5.01236E-01
 -1      2441-2.35413E-02 1.36258E-03-5.05835E-01
 -1      2442-1.43603E-02 1.62682E-03-5.12694E-01
 -1      2443 1.96309E-02 7.22635E-03-5.02391E-01
 -1      2444 1.82101E-02-1.05906E-02-5.01375E-01
 -1      2445 1.73506E-02-9.72431E-03-5.05839E-01
 -1      2446-1.58442E-02-1.77535E-02-5.10212E-01
 -1      2447 7.11021E-03 1.86019E-02-5.04741E-01
 -1      2448-1.49905E-02 1.58189E-02-5.10939E-01
 -1      2449-8.12140E-03 1.14335E-02-5.13929E-01
 -1      2450-2.15081E-02-9.38032E-03-5.12036E-01
 -1      2451-5.95212E-03-2.00851E-02-5.05910E-01
 -1      2452-1.89901E-02-7.91293E-03-5.07983E-01
 -1      2453-7.56139E-03 1.20089E-02-5.12809E-01
 -1      2454 1.21903E-02-1.60563E-02-5.02222E-01
 -1      2455-2.42451E-03-1.54272E-02-5.06106E-01
 -1      2456-2.16615E-02 7.73766E-03-5.12089E-01
 -1      2457 9.27311E-03 1.78149E-02-5.07940E-01
 -1      2458 1.85357E-02-6.91692E-03-5.06484E-01
 -1      2459-1.45071E-02 2.62146E-03-5.12051E-01
 -1      2460-2.32955E-02 3.36294E-04-5.11630E-01
 -1      2461-2.03240E-02 1.43514E-03-5.07828E-01
 -1      2462-2.04292E-02 8.27397E-04-5.11353E-01
 -1      2463-1.41006E-02-1.53694E-02-5.06349E-01
 -1      2464 1.81475E-02 6.01101E-03-5.07376E-01
 -1      2465 7.46383E-03 1.82300E-02-5.08166E-01
 -1      2466-9.40119E-03 2.09757E-02-5.12232E-01
 -1      2467-8.53540E-03 1.73161E-02-5.08957E-01
 -1      2468-1.89682E-02-7.96721E-03-5.11664E-01
 -1      2469-8.32185E-03 1.21194E-02-5.12518E-01
 -1      2470-1.40432E-02-1.53365E-02-5.10054E-01
 -1      2471-1.26033E-02 1.43281E-02-5.11229E-01
 -1      2472-8.46558E-03 1.82533E-02-5.11867E-01
 -1      2473-2.04740E-02 6.99296E-03-5.06201E-01
 -1      2474-1.93144E-02 6.54175E-03-5.11453E-01
 -1      2475 4.90274E-04-8.36325E-04-4.95934E-01
 -1      2476 5.31521E-04 4.12658E-04-4.96808E-01
 -1      2477-1.02849E-03-1.11018E-03-3.72048E-01
 -1      2478-4.74414E-04-4.27789E-04-4.99309E-01
 -1      2479-4.48308E-04-3.33335E-04-4.93299E-01
 -1      2480 3.14663E-03 1.51425E-03-3.98560E-01
 -1      2481 6.32095E-04-4.86977E-04-3.74653E-01
 -1      2482-2.07533E-03-6.78047E-04-5.07958E-01
 -1      2483 5.32641E-04-2.30212E-04-4.68134E-01
 -1      2484-7.22988E-04 7.93083E-04-4.99859E-01
 -1      2485-1.62525E-03-1.22206E-03-4.99243E-01
 -1      2486 1.74905E-04-1.65947E-04-4.93407E-01
 -1      2487 2.26143E-03-1.25103E-03-5.02603E-01
 -1      2488 2.05806E-03 7.17472E-03-5.04029E-01
 -1      2489 5.16838E-05-9.40952E-04-4.63449E-01
 -1      2490-2.09944E-03 3.41903E-04-4.94724E-01
 -1      2491 1.25395E-04 1.59904E-04-5.18747E-01
 -1      2492 4.09222E-05-1.00645E-03-3.64755E-01
 -1      2493 1.71644E-03 2.35059E-03-4.98602E-01
 -1      2494-5.72821E-04 6.05941E-04-3.62703E-01
 -1      2495 1.96134E-04-6.40582E-04-5.00543E-01
 -1      2496-2.87518E-04 6.40018E-05-5.19120E-01
 -1      2497-2.15511E-03-1.10856E-03-4.65300E-01
 -1      2498 2.01257E-04-1.46419E-03-3.60996E-01
 -1      2499-1.53038E-03-2.16854E-03-3.66602E-01
 -1      2500-6.18050E-03-4.95642E-03-5.06203E-01
 -1      2501-6.08403E-04 1.82327E-04-5.10176E-01
 -1      2502-2.16221E-03 5.35769E-04-4.66644E-01
 -1      2503-1.19921E-03 2.03764E-04-4.99879E-01
 -1      2504 2.29360E-04-1.28679E-04-3.61832E-01
 -1      2505 3.07675E-04 5.92743E-04-4.71247E-01
 -1      2506-1.89161E-03-3.71562E-05-4.94264E-01
 -1      2507-3.59345E-04-1.29480E-03-3.68982E-01
 -1      2508-7.89166E-04-2.22650E-03-3.70314E-01
 -1      2509-1.18160E-03 5.96732E-04-5.19934E-01
 -1      2510 9.73680E-04-7.91256E-03-5.00579E-01
 -1      2511-1.40111E-03-8.63334E-04-5.06267E-01
 -1      2512 3.54286E-05-1.03929E-03-4.62885E-01
 -1      2513 1.76102E-03-1.80306E-04-3.71836E-01
 -1      2514-5.24697E-03-4.09671E-03-5.15210E-01
 -1      2515 1.05343E-04-1.06803E-03-3.63644E-01
 -1      2516 1.26812E-03 4.89361E-04-5.15692E-01
 -1      2517 5.96586E-03 8.47291E-04-5.02263E-01
 -1      2518-3.16135E-03-6.90071E-03-5.02957E-01
 -1      2519-1.51077E-03-6.91170E-04-4.69001E-01
 -1      2520-8.11211E-04-7.63861E-04-4.99024E-01
 -1      2521 4.16678E-04 9.84045E-04-5.20552E-01
 -1      2522-1.13651E-03 1.13182E-03-4.99656E-01
 -1      2523 1.45110E-03 1.49037E-03-5.19481E-01
 -1      2524-5.51913E-04-2.41482E-04-5.12175E-01
 -1      2525-4.29294E-04-4.37218E-04-4.66693E-01
 -1      2526 9.78041E-04-7.36504E-04-5.08208E-01
 -1      2527-1.01805E-03-7.15470E-04-5.18075E-01
 -1      2528-8.01739E-04-5.57711E-04-5.18287E-01
 -1      2529 2.79748E-03 1.89747E-03-5.10048E-01
 -1      2530-1.03665E-03 1.13466E-03-5.20555E-01
 -1      2531-1.32156E-03 3.64442E-03-5.10253E-01
 -1      2532 1.14587E-03-7.98321E-03-5.11703E-01
 -1      2533-5.32388E-03 3.74285E-03-5.07983E-01
 -1      2534 2.75375E-03-5.06089E-03-5.01055E-01
 -1      2535-7.17511E-04-7.68964E-03-5.00587E-01
 -1      2536 1.04696E-04-4.00507E-05-4.71069E-01
 -1      2537 1.03387E-03 8.87539E-03-5.02413E-01
 -1      2538-2.46849E-03-5.54148E-03-5.13405E-01
 -1      2539 1.36293E-03-9.39126E-03-5.06424E-01
 -1      2540 5.24412E-03 4.13992E-03-4.88891E-01
 -1      2541-1.07721E-03 1.70411E-04-4.71747E-01
 -1      2542 2.63239E-03 3.65529E-03-5.14836E-01
 -1      2543 5.99648E-03-8.86420E-04-5.01630E-01
 -1      2544-5.98043E-03-1.27699E-03-5.09871E-01
 -1      2545-9.16471E-04 1.15925E-04-3.73904E-01
 -1      2546-6.17496E-03 4.57569E-03-4.94079E-01
 -1      2547-7.82944E-03-6.32819E-03-5.10480E-01
 -1      2548 2.74292E-03 1.09223E-02-5.06611E-01
 -1      2549-2.90263E-04-2.39473E-03-5.05088E-01
 -1      2550-3.65224E-03-1.02007E-02-5.00078E-01
 -1      2551 5.23332E-03 6.35939E-04-4.89382E-01
 -1      2552 5.13269E-04 1.23392E-03-4.90335E-01
 -1      2553 1.02662E-02 1.42792E-03-5.04855E-01
 -1      2554 9.29915E-03 2.06362E-03-5.02411E-01
 -1      2555 5.39611E-03 1.19626E-04-5.14968E-01
 -1      2556 4.15003E-03-3.59114E-04-5.09705E-01
 -1      2557-1.38248E-04-3.43102E-03-5.13441E-01
 -1      2558 1.77763E-03-1.30743E-02-5.03137E-01
 -1      2559 4.94339E-03 6.09217E-03-5.02583E-01
 -1      2560-8.03362E-04 3.58241E-04-5.22088E-01
 -1      2561 1.84248E-03-9.31568E-03-5.02753E-01
 -1      2562-8.78138E-03-4.88833E-03-5.03812E-01
 -1      2563-3.12163E-03-4.42930E-03-5.08836E-01
 -1      2564-2.62371E-03 3.92740E-03-5.12114E-01
 -1      2565 6.56983E-03-5.22098E-03-5.00917E-01
 -1      2566-4.74890E-03-9.37785E-03-5.10605E-01
 -1      2567 7.24808E-03 4.82078E-03-5.02041E-01
 -1      2568 3.08593E-03-5.75210E-03-5.13157E-01
 -1      2569-7.99371E-03 1.39426E-03-5.06639E-01
 -1      2570-2.21919E-03 5.98644E-03-5.04631E-01
 -1      2571-5.34192E-03-1.03966E-02-5.05576E-01
 -1      2572-2.36263E-03 1.54839E-03-5.23507E-01
 -1      2573-9.29879E-03 5.89955E-03-5.10215E-01
 -1      2574 2.94624E-03-5.48561E-03-4.87341E-01
 -1      2575-5.82728E-03-1.10759E-02-5.07996E-01
 -1      2576-1.76866E-03 7.84829E-03-5.15138E-01
 -1      2577 7.51642E-03 4.70792E-03-5.07860E-01
 -1      2578-6.81762E-03 4.41917E-03-5.17898E-01
 -1      2579-4.62573E-03 6.78734E-03-5.16533E-01
 -1      2580 5.28955E-03-8.86010E-03-5.03562E-01
 -1      2581-1.75393E-03 9.32641E-03-5.08510E-01
 -1      2582 1.85425E-03-1.28555E-02-5.06369E-01
 -1      2583 5.57727E-03-9.80181E-04-5.11547E-01
 -1      2584-9.54594E-03-1.93609E-04-5.05101E-01
 -1      2585-6.57494E-03 6.05656E-03-5.06253E-01
 -1      2586 2.29567E-03 8.19886E-03-5.13068E-01
 -1      2587 8.90352E-03-1.69439E-03-5.06621E-01
 -1      2588-1.91916E-03 1.02076E-02-5.11875E-01
 -1      2589-6.42953E-03-1.21535E-02-5.08860E-01
 -1      2590 2.10226E-03-1.45539E-02-5.04485E-01
 -1      2591 2.41097E-03-1.24487E-02-5.04512E-01
 -1      2592 8.87855E-03 1.00806E-03-5.10186E-01
 -1      2593-7.01313E-03-1.62370E-03-5.16452E-01
 -1      2594-8.57671E-04-8.19500E-03-5.07863E-01
 -1      2595-9.21267E-03 5.84383E-03-5.14319E-01
 -1      2596 4.94741E-03 6.48178E-03-5.09083E-01
 -1      2597-1.50016E-03-1.17339E-02-5.03774E-01
 -1      2598-4.75676E-03 7.40102E-03-5.03905E-01
 -1      2599-9.68335E-03-6.31874E-03-5.07531E-01
 -1      2600 6.73776E-03-5.27901E-03-5.08103E-01
 -1      2601 9.29762E-03-3.85127E-04-4.99319E-01
 -1      2602 9.43344E-03-7.03038E-03-5.04235E-01
 -1      2603-8.96823E-03-7.14538E-03-5.12944E-01
 -1      2604 1.03634E-03 3.96041E-04-5.04956E-01
 -1      2605-2.18152E-03 1.20891E-02-5.09491E-01
 -1      2606 3.61849E-04 2.26030E-02-4.96767E-01
 -1      2607 1.03091E-02 6.61846E-03-5.04375E-01
 -1      2608 1.00033E-02 6.27404E-03-5.07248E-01
 -1      2609-9.24345E-04 9.90172E-03-5.06563E-01
 -1      2610-9.63669E-03-2.00441E-03-5.11929E-01
 -1      2611-1.06860E-02 6.68814E-03-5.11913E-01
 -1      2612-9.01852E-03 4.60245E-03-5.11980E-01
 -1      2613-2.33065E-03 6.60136E-03-5.12135E-01
 -1      2614-6.86199E-03 1.13779E-03-5.16500E-01
 -1      2615-1.06279E-02-8.40153E-03-5.11420E-01
 -1      2616 2.04821E-03 1.11850E-02-5.05799E-01
 -1      2617 3.14166E-03 1.27863E-02-5.07754E-01
 -1      2618 7.01239E-03 9.08303E-03-5.05096E-01
 -1      2619-5.72712E-03 8.50294E-03-5.09960E-01
 -1      2620 1.24015E-02 1.74600E-03-5.06093E-01
 -1      2621-4.68637E-04-1.00950E-02-4.98668E-01
 -1      2622-5.46994E-03-2.12978E-03-5.13761E-01
 -1      2623-4.60176E-03-7.86777E-03-5.08731E-01
 -1      2624-3.34169E-03-8.71653E-03-5.07858E-01
 -1      2625 6.90324E-03-9.42373E-03-5.02712E-01
 -1      2626 5.13146E-03-8.49450E-03-5.08814E-01
 -1      2627 9.43612E-03-7.17889E-03-5.07109E-01
 -1      2628-2.36758E-03 1.33718E-02-5.09769E-01
 -1      2629 2.20392E-03-1.44704E-02-5.06044E-01
 -1      2630 1.13053E-02 2.13507E-03-5.05090E-01
 -1      2631 1.04165E-02-6.75862E-03-5.02885E-01
 -1      2632 4.46969E-03 6.33141E-03-5.06194E-01
 -1      2633-1.04521E-02-2.43615E-03-5.04027E-01
 -1      2634 2.25558E-03-1.04836E-03-5.06380E-01
 -1      2635-2.36541E-02 9.73987E-03-4.92073E-01
 -1      2636 1.14901E-02 1.68854E-03-5.08710E-01
 -1      2637 8.40265E-03-7.18523E-03-5.02204E-01
 -1      2638-1.17938E-02-2.45028E-03-5.08275E-01
 -1      2639 3.54813E-03 1.09325E-02-5.04896E-01
 -1      2640 2.15911E-03 9.53855E-03-5.09814E-01
 -1      2641 1.13346E-02 1.12224E-03-5.04045E-01
 -1      2642 9.90278E-03-3.08653E-03-5.03009E-01
 -1      2643 2.13779E-02-8.03701E-06-4.95376E-01
 -1      2644 5.46215E-03-1.13001E-02-5.03146E-01
 -1      2645 1.10698E-02-2.28408E-03-5.02750E-01
 -1      2646-1.65935E-03-1.19090E-02-5.06738E-01
 -1      2647-1.57510E-03 1.17379E-02-5.10592E-01
 -1      2648-6.66675E-03-1.11930E-02-5.06557E-01
 -1      2649-1.14625E-02-3.53194E-03-5.08889E-01
 -1      2650 6.81269E-03 9.13501E-03-5.09563E-01
 -1      2651-2.32665E-03-1.20368E-02-5.01941E-01
 -1      2652 1.18633E-02-2.45820E-03-5.05539E-01
 -1      2653-3.03687E-03 1.24091E-02-5.09100E-01
 -1      2654-1.23296E-02-1.51025E-03-5.08117E-01
 -1      2655-1.17658E-02 2.28471E-03-5.09282E-01
 -1      2656-7.77145E-03 6.02963E-03-5.11625E-01
 -1      2657 7.40003E-03 9.69878E-03-5.07385E-01
 -1      2658 1.08405E-02-8.01375E-03-5.05255E-01
 -1      2659-7.24469E-03 1.99511E-02-5.01299E-01
 -1      2660 1.28191E-02 1.92001E-03-5.07457E-01
 -1      2661 1.07311E-02 5.70990E-03-5.03637E-01
 -1      2662 1.16587E-02 7.27132E-03-5.05418E-01
 -1      2663-1.42924E-02-1.76825E-02-4.97074E-01
 -1      2664 1.08744E-02 1.26599E-03-5.07506E-01
 -1      2665-1.03942E-02-8.18972E-03-5.09357E-01
 -1      2666 2.94328E-03 1.10410E-02-5.10943E-01
 -1      2667 6.82099E-03-1.10244E-02-5.04693E-01
 -1      2668-6.19726E-03 9.10687E-03-5.13352E-01
 -1      2669-5.43807E-03 5.76014E-03-5.11792E-01
 -1      2670-1.15237E-02-2.41794E-03-5.13569E-01
 -1      2671 6.63559E-03-1.08781E-02-5.07518E-01
 -1      2672 1.14993E-02 7.24920E-03-5.06807E-01
 -1      2673 9.72144E-03 7.08905E-03-5.05281E-01
 -1      2674 9.45323E-04-1.56757E-03-4.87645E-01
 -1      2675-1.25685E-02-2.57207E-03-5.10627E-01
 -1      2676-1.09200E-02 6.95191E-03-5.13442E-01
 -1      2677 3.13342E-03 2.91205E-03-5.12010E-01
 -1      2678 1.22138E-02 1.13106E-02-4.96219E-01
 -1      2679 1.16742E-02-1.60277E-03-5.02752E-01
 -1      2680 8.87078E-03-2.19275E-02-4.94207E-01
 -1      2681 3.10050E-03 1.25047E-02-5.09498E-01
 -1      2682 4.56754E-04 5.62135E-03-5.17321E-01
 -1      2683 8.14723E-04-6.83336E-04-5.10514E-01
 -1      2684-5.39978E-03-1.18098E-02-5.05722E-01
 -1      2685-6.67590E-03-1.25338E-02-5.07367E-01
 -1      2686-8.57500E-03-2.56212E-02-4.90679E-01
 -1      2687-8.24359E-03-8.18281E-03-5.06641E-01
 -1      2688 1.13952E-02 1.82183E-03-5.07571E-01
 -1      2689 2.02686E-02 8.78813E-03-4.95908E-01
 -1      2690 7.70158E-03 1.31453E-03-5.10757E-01
 -1      2691-2.02207E-03-1.40685E-02-5.04433E-01
 -1      2692-6.04912E-03 1.02757E-02-5.09125E-01
 -1      2693-1.28894E-02-2.73881E-03-5.12098E-01
 -1      2694 2.90795E-03 9.64630E-03-5.09104E-01
 -1      2695 6.90866E-03 9.97198E-03-5.04952E-01
 -1      2696-1.16417E-02 6.39175E-03-5.10990E-01
 -1      2697 8.12235E-03 1.07556E-02-5.08078E-01
 -1      2698-1.07968E-02 1.91279E-03-5.13974E-01
 -1      2699 8.29192E-03 9.79235E-03-5.05645E-01
 -1      2700 3.54247E-03-2.06157E-03-5.15033E-01
 -1      2701 1.09208E-02-8.17590E-03-5.06582E-01
 -1      2702-1.07011E-03-1.25705E-02-5.02802E-01
 -1      2703-2.05892E-03-1.35485E-03-5.17493E-01
 -1      2704 9.46052E-04-9.76464E-03-5.09005E-01
 -1      2705-7.47535E-03-1.08889E-02-4.99884E-01
 -1      2706 2.29333E-02-1.06905E-02-4.85129E-01
 -1      2707 1.46080E-02 1.43820E-02-4.97643E-01
 -1      2708 9.99979E-03-8.16485E-03-5.04477E-01
 -1      2709 1.27450E-02-2.16704E-03-5.06184E-01
 -1      2710-1.37530E-02 6.06654E-03-5.04402E-01
 -1      2711-7.40156E-03 1.06770E-02-5.10744E-01
 -1      2712 7.44972E-03 1.57489E-02-4.95210E-01
 -1      2713-1.60617E-03 5.89993E-04-5.06652E-01
 -1      2714 7.16510E-03-1.16431E-02-5.05967E-01
 -1      2715 8.25246E-03 1.11365E-02-5.06838E-01
 -1      2716-2.35361E-04-1.82806E-03-5.17146E-01
 -1      2717-1.19144E-02 3.34010E-03-5.07877E-01
 -1      2718-9.93716E-03-9.12768E-03-5.08379E-01
 -1      2719 2.77378E-03 5.25465E-03-5.10921E-01
 -1      2720 1.97696E-03-1.04778E-02-5.09303E-01
 -1      2721-7.39894E-03 9.30732E-03-5.07588E-01
 -1      2722-1.03423E-02 7.52581E-03-5.10464E-01
 -1      2723-2.05599E-03-1.39735E-02-5.06010E-01
 -1      2724 1.15758E-02-2.66158E-03-5.08427E-01
 -1      2725-1.27215E-02-3.55081E-03-5.10187E-01
 -1      2726 3.94218E-03 1.26939E-02-5.07024E-01
 -1      2727 1.34913E-02-2.92773E-03-5.05815E-01
 -1      2728 2.60005E-03 1.27559E-02-5.07627E-01
 -1      2729 1.23034E-02-3.35278E-03-5.04649E-01
 -1      2730-1.26491E-02 2.31253E-03-5.11651E-01
 -1      2731-1.24477E-02 1.49514E-03-5.08363E-01
 -1      2732 1.13445E-02-7.59200E-03-5.04718E-01
 -1      2733-2.31795E-03 1.28163E-02-5.11190E-01
 -1      2734-1.10816E-02-7.69861E-03-5.08994E-01
 -1      2735 1.32911E-02-3.00311E-03-5.07229E-01
 -1      2736 5.53121E-03-9.95090E-03-5.06897E-01
 -1      2737 9.07313E-03-1.15675E-03-5.09766E-01
 -1      2738-7.33861E-03 1.07876E-02-5.12470E-01
 -1      2739-3.08941E-03 2.83916E-03-4.97566E-01
 -1      2740 7.28563E-03 1.02730E-02-5.06211E-01
 -1      2741-2.56290E-03-1.36671E-02-5.03980E-01
 -1      2742-1.32560E-02-1.96964E-03-5.10146E-01
 -1      2743 2.19436E-03-6.13501E-03-5.09770E-01
 -1      2744-1.48443E-02 1.44334E-02-5.01584E-01
 -1      2745 7.35233E-03-1.10924E-02-5.04023E-01
 -1      2746-1.47510E-03-1.41722E-02-5.04585E-01
 -1      2747 1.86453E-02-9.46511E-03-4.95881E-01
 -1      2748-1.28623E-02 3.09874E-03-5.09969E-01
 -1      2749-2.28487E-02 7.97663E-04-5.00078E-01
 -1      2750-1.67406E-02-9.22539E-03-5.04820E-01
 -1      2751 6.78723E-03-1.24170E-02-5.04264E-01
 -1      2752 7.15457E-04-3.51866E-03-5.15221E-01
 -1      2753-7.00888E-03 1.13418E-02-5.10512E-01
 -1      2754 1.54167E-02-1.63709E-02-4.93919E-01
 -1      2755 8.96544E-03 1.76225E-02-5.00157E-01
 -1      2756-8.11409E-03 1.05810E-02-5.09714E-01
 -1      2757-1.41780E-02 2.61844E-03-5.11044E-01
 -1      2758 1.89408E-02-8.09330E-03-4.95718E-01
 -1      2759 1.86445E-02 6.86291E-03-4.97701E-01
 -1      2760 7.71294E-03-1.77118E-02-5.00206E-01
 -1      2761-1.82491E-02-7.97601E-03-5.04818E-01
 -1      2762-1.33464E-02 1.83724E-03-5.10340E-01
 -1      2763-1.35700E-02 2.34785E-03-5.12638E-01
 -1      2764-1.34705E-02-1.50698E-02-5.02662E-01
 -1      2765-9.48658E-03 4.64630E-04-5.14341E-01
 -1      2766-7.95811E-03 1.72081E-02-5.05487E-01
 -3
    1PSTEP                         2           1           1          
  100CL  101 1.000000000        2766                     0    1           1
 -4  STRESS      6    1
 -5  SXX         1    4    1    1
 -5  SYY         1    4    2    2
 -5  SZZ         1    4    3    3
 -5  SXY         1    4    1    2
 -5  SYZ         1    4    2    3
 -5  SZX         1    4    3    1
 -1         1-7.57110E+01-9.26147E+01-4.29319E+01-1.67465E+00-3.73595E+00-1.35820E+01
 -1         2-2.46010E+00 1.61000E-01-6.54961E-01-2.36575E-03-2.02730E-01-1.61419E+00
 -1         3-5.35869E+00-5.61787E+00-1.40022E+00 9.05761E-02 1.43932E+00 2.82555E+00
 -1         4-6.55785E+00-6.56780E+00 5.30384E-01-1.37811E-01 9.24230E-01-3.56541E-01
 -1         5-4.85284E+00-3.48672E+00-3.04138E-02-3.06551E-01-1.92075E+00-3.96244E-03
 -1         6-3.90201E+00-4.28772E+00 6.14617E-01-6.85501E-01 3.20907E-01 1.12327E+00
 -1         7 3.67930E+00 2.45677E+00 2.26995E+00 8.09049E-01 5.91306E-01 4.10031E+00
 -1         8 3.33998E-01-3.52282E-01-1.00911E+00 8.91784E-01-6.55218E-01 8.63843E-01
 -1         9-1.37155E-01-2.99266E-02 1.90178E-01 1.65879E-01-1.81251E-01 8.90545E-04
 -1        10-6.50271E+00-1.02233E+01-3.94744E+00-8.25965E-01-1.67627E-01 1.89765E+00
 -1        11-1.48673E+00 8.41543E-01-2.11255E-01-7.95503E-01-7.14463E-01-1.83004E+00
 -1        12-2.93623E+00-5.75059E+00-1.52921E+00-5.23648E-01 2.92426E-01 9.51045E-01
 -1        13-3.83496E+00-2.42225E+00 1.65738E-01-1.31095E+00-1.72860E+00 8.23592E-01
 -1        14-4.50331E+00-5.66566E+00-3.19015E+00-8.98201E-01-4.91348E-02 2.30044E+00
 -1        15-8.75989E+00-1.01912E+01-6.07184E+00 1.70021E-01 1.04285E-01 3.71207E+00
 -1        16-4.51327E+00-1.00379E+00-2.61625E+00-1.84533E-01-2.62662E+00-3.24583E-02
 -1        17-5.10607E+00-1.03482E+00-1.81735E+00-8.11486E-01-1.94251E+00 1.56534E+00
 -1        18-4.04376E+00-4.92398E-01 1.54792E+00 1.11359E+00 1.88261E+00-1.23159E+00
 -1        19-3.72486E+00-3.06773E+00 7.59779E-01 2.50682E-01-4.43013E-02 1.53869E+00
 -1        20 3.00321E+00 1.47582E+00 5.77048E-01 1.12930E+00-8.43083E-01-1.62677E+00
 -1        21-3.32403E+00-2.66598E+00-5.07657E-01 3.40394E-01 1.13793E+00 1.20324E+00
 -1        22-9.23448E+00-1.10095E+01-3.72249E+00 2.24576E-01-6.85748E+00 4.81761E-01
 -1        23-3.06387E+00-4.13392E-01-1.14298E+00-8.76898E-01 1.17794E+00 1.03666E+00
 -1        24 1.38880E+00 7.75181E-01-7.79547E-01 1.72494E+00 2.61323E+00 3.36966E+00
 -1        25 1.88537E+00 7.86419E-01-4.34890E-01 9.80118E-01-8.14803E-01-1.11035E+00
 -1        26-6.17347E+00-6.00611E+00 9.66361E-01 2.84661E-02 1.23500E+00-4.81807E-01
 -1        27-8.46592E-01-2.32332E-01-4.58540E-01-5.15423E-01-5.98035E-01-6.15897E-01
 -1        28-1.70173E+00-5.71624E-02 1.15749E-01-4.34358E-01-1.67235E-01-1.30763E+00
 -1        29-4.80335E+00-5.02949E+00 2.44477E+00-1.10338E-01-6.03625E-01 3.46899E-01
 -1        30-5.65632E+00-6.66308E+00-3.90943E+00 8.43284E-01 8.36922E-01 1.52893E+00
 -1        31-2.27080E+01-3.00476E+01-1.80088E+01 1.02922E+00-1.00677E+00 3.50908E-01
 -1        32-2.24936E+00-1.34909E+00-1.92990E+00-6.71095E-01 2.04177E+00-5.10809E-01
 -1        33-2.97808E+00-4.41970E+00-3.95807E-01 1.41513E+00 1.21625E+00 2.25286E+00
 -1        34-3.21218E+00 2.90951E-01 1.89347E+00-6.54832E-01-1.00830E-01 1.96979E+00
 -1        35-5.09056E+00-6.07379E+00-4.36476E+00-3.43058E-01 7.11570E-01 2.13660E+00
 -1        36-6.98410E+00-9.95785E+00-3.36901E+00 8.08663E-03 8.10693E-01 2.87209E+00
 -1        37-5.62609E+00-6.38418E+00-4.38320E+00 5.71000E-01 2.58777E+00 2.30298E+00
 -1        38-5.32288E+00-5.73622E+00-2.82363E+00 7.45229E-01 5.16719E-01 2.41683E+00
 -1        39-1.84484E+01-2.25836E+01-1.06844E+01 4.38589E+00 1.29587E+00 1.36003E+00
 -1        40-8.00862E-01-8.54149E-01 1.61019E-01-1.06493E+00-1.10875E+00-6.32595E-01
 -1        41-8.19120E+01-8.89543E+01-4.87752E+01 1.09038E+01-9.05273E+00-8.03434E+00
 -1        42-2.19327E+00-2.30223E+00 5.80834E-01 1.73645E+00 1.17779E+00 1.13625E+00
 -1        43-5.19340E+00-4.28304E+00 1.01028E+00 5.69187E-01-8.87736E-02 4.45018E-01
 -1        44 4.40038E+00 5.70960E+00 4.88830E+00-2.79982E-01 2.99537E+00 2.32940E+00
 -1        45 8.89375E-01 1.82134E+00 1.41816E+00 7.98591E-01-1.61524E+00-1.42974E+00
 -1        46-5.59996E-01 2.99788E-02 2.48919E+00 1.41435E+00 2.57236E+00 1.71914E+00
 -1        47-6.13255E-01-5.46609E-02 5.94835E-01-7.56100E-01 3.73584E-02-9.18612E-01
 -1        48 2.32590E+00 3.84795E+00 1.89602E+00 4.19666E-01-1.61956E+00-1.66603E+00
 -1        49-3.05320E+00-2.20089E+00-3.70490E-01 1.06908E+00 1.08841E-01 2.80142E+00
 -1        50-2.84878E-01-9.47521E-01 1.77115E+00 2.21728E-01-8.93381E-01 1.02513E+00
 -1        51-7.53182E+00-6.68930E+00-4.44465E+00 1.20617E+00 1.76343E+00-3.33677E+00
 -1        52-2.19813E+00-1.74466E+00 7.22546E-01-7.57592E-01 8.28231E-01-1.25188E+00
 -1        53-8.09833E+00-6.31526E+00-3.89333E+00 1.02938E+00 1.87984E+00 2.89775E+00
 -1        54-7.34316E-01-1.87871E+00-3.53427E+00-5.18048E-01 2.27039E-01 1.50280E+00
 -1        55 1.61138E-01-1.56253E+00-9.51209E-01-5.52905E-01 1.74989E+00 4.05593E-01
 -1        56-1.35239E+01-1.40720E+01-7.06714E+00 3.64221E+00 8.79098E-01 2.08818E+00
 -1        57-8.51689E+01-7.19260E+01-5.31324E+01 1.56862E+00-1.43993E+01-1.04480E+01
 -1        58-1.08895E+01-9.52990E+00-4.96631E+00 1.43153E+00 4.28441E+00-2.55376E+00
 -1        59-5.18138E+00-3.65086E+00-2.66421E-01 1.04933E+00 1.53637E+00 1.69180E+00
 -1        60-7.04940E+00-5.42278E+00-5.25544E-01 3.20120E-02-1.25687E+00 3.05607E+00
 -1        61-3.96366E+00-2.17576E+00 1.27127E+00 6.16501E-01 1.87163E+00 5.41818E-03
 -1        62-4.32622E+00-4.38465E+00 2.24099E+00-6.38077E-01-2.68195E-03 5.21726E-01
 -1        63-9.92939E-01-2.26087E+00-3.80721E-01-8.54149E-01-1.93736E+00-7.78075E-01
 -1        64 3.58911E-01-1.29883E+00-1.69125E+00-1.78790E-01-2.03304E+00-5.29598E-01
 -1        65 4.87988E-01 5.75199E+00 6.14648E-01 2.43307E+00-2.29488E+00-1.12486E+00
 -1        66 1.75529E-01 4.04119E+00-3.12603E-01 1.69025E+00-1.88955E+00 4.48820E-02
 -1        67-6.54408E+00-5.68281E+00-1.16190E+00 1.62650E+00 2.40705E+00 1.35005E+00
 -1        68-1.04801E+00 4.35796E+00-1.11987E+00 2.40301E+00 2.80718E+00 5.79856E-01
 -1        69-5.63983E+00-5.51397E+00-4.49132E-01 5.22172E-01 3.08556E-01-1.49026E+00
 -1        70-1.09874E+02-9.95944E+01-6.67518E+01 1.20444E+01-1.20937E+01-3.16912E+00
 -1        71-4.85539E+00-4.91327E+00-2.32843E+00 8.30425E-01 2.60768E+00 1.57626E+00
 -1        72-9.06581E+00-7.52914E+00-6.86471E+00 3.47676E-01 1.71903E+00 1.02002E+00
 -1        73-2.52365E+01-1.88658E+01-1.65885E+01 2.13630E+00 2.82116E-01-3.45413E-01
 -1        74-8.75417E-01-3.21306E+00-4.49992E+00 6.60053E-01 2.64317E-01-1.87448E+00
 -1        75-1.30947E+01-7.91998E+00-5.91579E+00 4.65681E-01 2.27642E+00 2.76399E+00
 -1        76-8.51815E-01-3.95664E+00-5.15236E+00 3.42138E-01 8.32405E-01 1.95100E+00
 -1        77 7.18840E-01 4.09587E+00 4.03949E-01-2.06884E-01-2.19494E+00-4.60390E-01
 -1        78-4.17039E+00-1.56026E+00 6.32633E-01-1.60966E-02 1.31637E+00-5.40212E-01
 -1        79-5.87913E+00-4.43444E+00 1.71477E+00-1.67433E-01-3.34252E-01 3.71280E-01
 -1        80 3.61700E-01 3.52098E+00-6.54491E-01-2.92160E-01-1.96681E+00-5.44302E-01
 -1        81 3.67408E+00 6.33048E+00 2.38625E+00-1.18264E+00 2.93518E+00-1.65136E+00
 -1        82-1.27297E+02-1.06384E+02-8.89407E+01-6.09705E+00-1.53146E+01-2.26552E+00
 -1        83-1.04562E+01-6.05669E+00-1.81138E+00-1.12320E-02 1.55086E+00 6.09662E-01
 -1        84-1.16379E+00-2.09754E+00-2.83327E-01 3.58739E-01-1.72471E+00-3.06890E-01
 -1        85-5.50915E-01-1.81636E+00-5.18641E-01-8.72694E-01-1.39116E+00-3.73483E-01
 -1        86-1.84022E+00 6.20270E-01 2.77480E+00 1.02731E+00 2.13522E+00 1.22803E+00
 -1        87-1.47590E+01-1.08120E+01-1.07291E+01 1.38956E+00 9.23170E-01 1.34694E+00
 -1        88-1.81653E+01-1.44160E+01-1.23215E+01-1.09064E+00 1.58406E+00-1.11696E-01
 -1        89-8.33577E+00-2.34770E+00 1.41529E+00 1.77661E+00 8.74354E-01-2.36231E+00
 -1        90-3.87105E+00-3.95844E+00 2.57494E+00 1.58304E+00 7.83326E-01-1.49326E+00
 -1        91-5.09097E+00-4.14434E+00-3.29540E+00 8.77871E-01 3.70394E+00 1.10500E+00
 -1        92-7.37689E+00-4.73175E+00-2.99744E+00 4.60817E-01 2.37616E+00 8.22361E-01
 -1        93-4.76854E-01-5.80425E-01-4.10850E-01-4.87901E-01 2.56622E-01 3.56584E-01
 -1        94-1.56496E+00-2.53091E+00-3.27590E+00 1.45616E+00 2.98209E-01 1.36352E+00
 -1        95-1.09368E+01-7.58616E+00-5.26433E+00-9.76500E-01 3.06691E+00-3.48536E-01
 -1        96-8.58532E-01-1.33975E+00-2.33314E+00-6.88205E-01 3.32280E-01-8.95450E-01
 -1        97-4.91648E-01-1.80377E+00-1.15246E+00 4.38207E-01-1.88355E+00 4.42069E-01
 -1        98-6.10743E+00-5.91965E+00 1.06355E+00 3.30580E-01 3.17870E-01 1.20818E+00
 -1        99-7.03322E+00-7.71842E+00-2.72403E+00-4.63735E-01 3.70019E+00 1.72929E+00
 -1       100-7.62991E+00-8.27321E+00 9.11412E-02 1.74013E-01-3.58120E-01-1.23657E+00
 -1       101-4.39846E+00-2.67733E+00 1.14147E+00-6.44085E-01 1.53558E+00-4.87024E-02
 -1       102-2.02940E+00-2.90646E+00 8.19211E-01 1.30864E+00-8.64769E-03-1.28707E+00
 -1       103-3.51103E+00-2.36690E+00 2.76215E-02-5.01539E-01 1.05660E+00-1.36062E+00
 -1       104 3.08016E+00 6.61512E+00 6.03069E-01-1.39185E+00-3.08538E+00 8.84948E-01
 -1       105-1.43900E+00-1.96064E+00-3.85473E-01 1.08669E+00 1.04261E+00-1.88409E+00
 -1       106 1.03813E+00 7.35192E+00 6.52086E-02-2.59955E+00-2.90792E+00 9.81119E-01
 -1       107-9.75769E+01-9.40539E+01-6.05204E+01-7.59441E+00-1.60077E+01-1.28185E+00
 -1       108 4.38274E-01-1.47850E+00-5.30518E-01 6.87488E-01-1.29030E+00 2.95148E-01
 -1       109-1.90043E+00-3.28183E+00-2.17671E+00 2.13875E+00-4.83828E-01 2.69241E+00
 -1       110-2.12441E+01-1.69935E+01-8.88273E+00-3.99334E+00 2.35999E+00-7.28794E-01
 -1       111-9.64441E-01-1.07776E+00-1.42665E+00 7.54715E-01-1.28637E+00 7.11861E-01
 -1       112-8.79737E+01-9.17456E+01-6.20337E+01-9.64333E+00-1.81149E+01 5.80595E+00
 -1       113-5.21858E+00-5.25013E+00 9.11282E-01 5.79790E-02 2.86258E-01 2.07818E-01
 -1       114-9.24955E+00-8.03184E+00-4.87789E+00-1.12028E+00-3.28427E+00-1.59785E+00
 -1       115-2.56717E-01-1.50134E+00-2.01210E-01 7.29137E-01-1.09027E+00-1.15815E-01
 -1       116 1.06481E+00 7.09084E-01 3.47432E-01-1.73413E+00-1.55798E+00 9.23150E-01
 -1       117-1.68332E+00-3.78937E+00-1.23712E+00-9.69696E-01 1.90659E+00-2.40042E+00
 -1       118 5.50960E-01 1.21302E+00-5.89252E-01-9.63690E-01-1.23503E+00 2.86939E-01
 -1       119-1.60171E+01-2.01086E+01-1.44945E+01-2.23831E+00 8.32315E-01-1.44468E-01
 -1       120-2.92474E+00-1.97308E+00 8.72076E-01 1.06010E+00-8.10237E-01-1.08616E+00
 -1       121-1.19651E+01-1.02228E+01-7.75865E+00-1.64010E+00 1.07112E+00-1.30493E+00
 -1       122-5.04092E+00-6.26888E+00-2.13342E+00-1.90808E+00 2.29417E+00-1.95327E+00
 -1       123-7.38201E+00-6.91865E+00-1.70198E+00-2.38786E+00 3.12018E+00 7.60428E-01
 -1       124-7.38226E+00-7.71750E+00-5.70498E+00-1.23756E+00 3.73839E+00-2.14581E+00
 -1       125-1.54206E+00-1.94069E+00 1.33849E+00-4.53931E-01 1.32697E+00-5.01375E-01
 -1       126-2.69454E-01-1.29646E+00 1.54057E+00-1.27525E+00 5.92878E-01-1.20437E+00
 -1       127-1.14696E+00-1.69648E-01 4.00372E+00 3.38778E-01 1.57277E-01 3.54245E-01
 -1       128-1.34669E+01-1.08638E+01-6.12474E+00-2.10926E+00 1.70418E+00 1.21276E-01
 -1       129-6.05631E+00-7.54387E+00-5.07227E+00-1.58404E+00 1.97970E+00-4.39601E+00
 -1       130-3.50679E+00-4.96217E+00-3.77059E+00-2.58266E+00-1.15509E+00-3.91683E+00
 -1       131-3.01524E-01 3.88805E-02-4.37329E-01 5.32125E-01-1.09990E+00 1.28112E+00
 -1       132-1.45115E+00-1.71157E-01 2.24626E-02 7.27322E-01-4.58098E-01 1.33234E+00
 -1       133 7.66377E-01-9.35460E-01-1.81355E-01-1.20343E+00-1.06602E+00 1.86312E+00
 -1       134-5.14707E+00-7.81677E+00 2.27852E-01-8.61422E-01 3.91519E+00 1.06247E+00
 -1       135-4.67445E+00-5.65653E+00 2.25964E+00-1.87401E-01 1.53901E-01 9.91896E-02
 -1       136-2.30467E+00-3.76137E+00 3.68604E-01-6.58950E-01 1.08657E+00-1.07188E+00
 -1       137 4.30047E+00 2.75033E+00 3.19043E+00-2.05446E+00 1.56524E+00-3.75081E+00
 -1       138 2.67011E+00 6.87837E-01 3.47303E+00-1.58659E-01-1.13251E+00 2.31931E+00
 -1       139-4.12132E+00-7.24288E+00-2.59229E+00-9.67372E-01 9.34019E-01-1.23794E+00
 -1       140-4.27002E+00-5.08223E+00 1.08965E-01-1.99626E-02-1.24701E+00-7.43470E-01
 -1       141-1.09892E+00-7.71986E-01-2.83459E-01 7.11617E-01-1.25878E+00-5.07132E-01
 -1       142-8.16546E+00-1.18217E+01-9.99253E+00 5.06075E-01 1.12844E+00-2.26247E+00
 -1       143-4.96408E+00-6.78141E+00-1.69224E+00-7.44828E-01 7.72392E-01-1.53132E+00
 -1       144-1.20728E+00-3.79046E-01 8.17507E-01 8.35575E-02-3.70161E-01-1.55418E+00
 -1       145-5.39888E+00-6.04746E+00-2.36551E+00 7.68071E-03-8.91968E-01-2.14304E+00
 -1       146-1.29625E+00-1.10927E+00 7.07482E-01 7.81506E-01 1.34272E+00-9.07163E-01
 -1       147-1.71965E+00-2.64732E+00 7.12522E-01-2.03810E-01 1.25521E-01-1.36696E+00
 -1       148-5.66877E+00-6.88541E+00 7.62468E-01-1.75490E-01 8.54223E-01-1.58249E-01
 -1       149-4.82277E+00-3.02933E+00-4.81506E-01-1.98094E-01-1.92367E+00 1.02523E-01
 -1       150-7.41823E-01-2.06928E-01 3.59538E+00-9.34130E-01 9.84267E-01 2.98355E-01
 -1       151-3.33256E+00-3.72712E+00-2.10463E+00-4.98207E-01-7.65034E-01-1.23914E+00
 -1       152-4.74040E+00-9.65816E-01-3.40318E+00-8.99550E-02-2.55785E+00 7.25283E-01
 -1       153-1.58792E+00 4.65911E-01-3.92925E-01 5.62208E-01-1.15422E-01 1.39437E+00
 -1       154 3.68209E+00 8.59811E-01 2.38804E-01 1.12033E+00 2.40649E-01 1.64689E+00
 -1       155 3.53508E+00 5.50995E-01 9.60580E-01 1.00398E+00 7.98531E-01 2.53659E+00
 -1       156-1.91151E+00-4.69598E-01-7.91532E-01-8.57029E-01 9.51357E-02 1.02926E+00
 -1       157-6.67379E+00-1.23548E+01-4.60946E+00-1.09621E-01-2.22121E-01-2.17807E+00
 -1       158-5.21729E+00-5.66043E+00-6.57043E+00-4.88466E-01-1.01898E-01-1.80078E+00
 -1       159-3.82755E+00-4.65205E+00-2.30794E+00-7.73229E-01 1.20600E-01-2.24291E+00
 -1       160-1.01985E+00 1.15112E-01 2.64893E+00 6.95323E-01 1.52986E-01-1.67304E+00
 -1       161-1.51685E+00-2.10743E-01-3.82912E-01-6.62634E-01-5.51130E-01-1.45092E+00
 -1       162-1.32597E+01-1.69441E+01-1.36259E+01 1.20409E+00-2.88655E-01-6.06026E-01
 -1       163-6.38742E-01-6.70186E-02-9.46500E-01-9.10333E-01 7.87853E-01 1.58834E+00
 -1       164-3.25516E+00-5.07574E-01-9.34590E-01-6.45233E-01 4.88867E-01 1.78122E+00
 -1       165-4.55402E+00-4.76386E+00 1.82587E+00 2.27996E-01-5.24583E-01 2.76792E-01
 -1       166-5.77990E+00-5.44011E+00-2.91434E+00 7.24587E-02-3.62049E+00-7.98265E-01
 -1       167-1.99752E+00-1.87156E+00 1.20750E+00 9.61953E-01-5.37437E-01-1.01089E+00
 -1       168-3.34486E+00-3.44204E+00-1.33027E-02 1.31841E+00 5.09525E-02-1.12282E+00
 -1       169-2.24690E-01 6.84697E-01 2.48209E+00 1.12009E+00-9.52569E-02-8.54382E-01
 -1       170 1.06954E+00-1.50602E+00 2.36660E-01 3.38266E-01 4.70068E-01 8.63412E-01
 -1       171 1.67724E+00-2.26447E-01 5.22863E-01 1.73136E-01 3.04479E-01 7.83339E-01
 -1       172-1.00649E+02-1.01797E+02-6.41742E+01 1.54084E+01 5.67996E+00 1.65380E+01
 -1       173-8.84203E+01-1.01238E+02-6.08433E+01 4.55528E+00 1.17111E+01 9.76529E+00
 -1       174-5.42228E+00-6.99046E+00-2.99176E+00 1.63468E+00-1.30642E-01-1.38320E+00
 -1       175-4.92929E+00-3.97781E+00-9.65327E-01 5.70339E-02 2.05507E+00-1.12583E+00
 -1       176-3.81615E+00-1.17165E+00-4.20602E+00-1.01384E+00 2.37357E+00-5.78430E-01
 -1       177-3.70845E+00-6.42090E+00-3.38464E+00 9.73514E-01-1.49233E+00-1.29779E+00
 -1       178-1.03929E+01-1.44064E+01-1.21900E+01 1.99682E+00-2.15757E+00-1.56645E-01
 -1       179-1.28898E+00-1.19042E+00-1.28959E+00-7.88502E-01-2.91081E-01 1.00278E+00
 -1       180-1.18319E+00-1.68835E+00-1.81498E-01-1.12397E+00 1.40571E+00 1.26929E+00
 -1       181-5.92451E+00-5.80052E+00 7.27259E-01 1.51044E-01 1.12190E+00-1.40976E-02
 -1       182-1.36584E+00-2.19807E+00 5.11289E-01-9.30852E-01 1.66147E+00-1.17959E+00
 -1       183-7.47909E+00-9.33846E+00-4.08153E+00 7.48488E-01-2.62318E+00 3.72485E+00
 -1       184-2.68492E+00-3.02329E+00 3.15767E-01 1.29789E+00-9.89798E-01-1.32767E+00
 -1       185-1.05916E+00-1.36752E-01 2.32084E+00-7.94953E-01-6.25400E-01-7.18551E-01
 -1       186-1.43169E+00-2.19706E+00-1.68315E-02 6.16091E-02-1.94352E+00-4.84113E-01
 -1       187 4.72753E+00 4.54682E+00 3.09986E+00 3.49979E+00-1.27889E+00-2.35766E+00
 -1       188 2.55003E-01 2.21859E+00 2.63406E+00 1.39148E+00 1.00788E+00 1.05708E+00
 -1       189-2.46802E+00-3.77638E+00-1.00716E-01 1.01675E+00-2.31236E+00-2.44052E+00
 -1       190-2.59692E+00-3.95843E+00 1.52487E+00-1.14702E+00-9.93871E-01 1.48877E+00
 -1       191-2.91662E+00-5.19003E-01-8.27942E-01-8.77640E-01 1.37120E+00 1.44804E+00
 -1       192 8.08275E-01 3.47434E+00 2.34656E+00 1.73610E+00-2.81323E+00-6.51355E+00
 -1       193-3.28267E+00-2.45893E+00 1.47259E+00 3.85133E+00 1.62096E+00-8.05075E-01
 -1       194-5.80949E+00-5.98101E+00-3.86541E+00 2.33700E+00-1.01813E+00-1.54753E+00
 -1       195-2.06861E+01-1.94615E+01-1.54248E+01 4.34070E+00 7.18354E-01 3.24451E-01
 -1       196-3.55582E+00-4.58477E+00-1.83845E+00 7.02445E-01-2.96108E+00-2.38910E+00
 -1       197-1.19718E+00-2.42444E+00-1.43337E+00-1.55539E+00-2.11915E+00-3.97134E-01
 -1       198-1.03144E+02-9.10249E+01-6.89892E+01 1.19992E+01 1.96497E+01 1.70121E+00
 -1       199-8.28545E+00-6.46425E+00-1.28644E+00 1.21829E+00 1.78664E+00-4.53043E+00
 -1       200-4.39531E-01-3.16935E+00-5.22230E-02-1.99472E-01 1.61655E+00 5.40214E-01
 -1       201-5.98798E+00-6.44743E+00 1.27428E+00-1.87177E-01 5.42991E-01-6.75376E-01
 -1       202-2.90774E+00-3.16345E+00-2.52681E-01 4.90002E-01-1.80330E+00 6.69882E-02
 -1       203-4.87636E+00-5.44777E+00-1.00452E-01-6.72858E-01 9.35443E-02 1.41863E+00
 -1       204-1.07966E+00-2.16119E+00 6.49070E-01 5.08104E-01-9.38259E-01-6.03887E-01
 -1       205 9.34411E-01 2.88092E+00 8.88133E-02 6.87587E-01 1.33963E+00 7.26845E-01
 -1       206-1.78579E+00-2.88676E+00-1.14524E+00-1.58365E+00 4.12257E-01 2.83316E+00
 -1       207-9.26002E+01-7.42734E+01-4.54731E+01 1.94623E+00 1.07331E+01 6.00703E+00
 -1       208-4.73043E+00-3.78657E+00-2.60123E+00 9.06055E-01-1.78429E+00 1.12305E-01
 -1       209-8.29182E-01-9.93253E-01-9.65783E-01-1.16947E+00 1.65760E+00 6.97710E-01
 -1       210 5.19398E-01 5.09446E+00 2.74112E-01 1.43670E+00 1.65024E+00 1.09201E+00
 -1       211-2.00672E+01-1.23590E+01-1.13677E+01 8.45527E-01-2.60960E-01 1.95049E+00
 -1       212 3.87686E-01-3.15043E+00-1.20674E+00-3.79132E-01-2.97527E+00-1.53980E-01
 -1       213-6.11306E+00-5.31011E+00-5.34545E+00 1.46798E-01-2.14951E+00-1.05626E+00
 -1       214-2.59167E+00-2.44026E+00-1.05575E+00 7.57755E-01-2.51255E+00-1.46239E+00
 -1       215-2.09260E+01-1.67161E+01-1.22230E+01 4.54587E+00-2.22404E-01 3.61126E-01
 -1       216-1.65315E-01-3.81766E+00-2.47499E-01 6.90034E-01 8.23513E-02-1.14758E-01
 -1       217 5.28089E-01-1.89370E-01-4.26076E-01 3.61901E-01 1.17245E+00 6.19144E-02
 -1       218-8.14869E+01-6.90668E+01-4.32744E+01 3.45376E+00 1.42576E+01-5.20826E+00
 -1       219-6.82022E+00-6.78403E+00 1.11897E+00-4.68179E-01 4.21944E-01-8.42596E-01
 -1       220 1.76804E-01-1.70003E+00 6.59440E-01 2.77387E-01 1.48960E+00-6.28712E-01
 -1       221-2.99383E+00-2.91581E+00 2.54093E-01-8.97358E-02-1.82957E+00 1.97483E-02
 -1       222-9.53988E-01 2.80076E+00 1.05465E-01-7.16592E-01 1.38270E+00 6.01183E-02
 -1       223-3.50799E-01 4.18461E+00-1.32822E-01-1.20554E+00 1.06156E+00-5.10073E-01
 -1       224-6.07350E+00-7.04408E+00-2.00448E+00-2.48861E-01 8.39189E-01 2.42972E+00
 -1       225-9.03344E+00-3.98906E+00 5.38200E-01-2.26943E-02-2.22240E+00-1.55668E+00
 -1       226-6.68963E+00-2.67088E+00-1.95216E+00 3.95682E-01-1.46281E+00-1.42571E+00
 -1       227-7.86636E-01-5.70672E+00 4.34455E-01 9.41879E-01 1.31002E+00-2.93439E+00
 -1       228-2.25695E+01-1.50155E+01-8.53980E+00-2.10772E+00-1.73191E+00 4.78463E-01
 -1       229-1.82161E+00-2.15218E+00 7.43725E-01 4.17182E-01-1.12485E+00-9.01921E-01
 -1       230-5.21399E+00-4.14606E+00-2.99789E+00 1.66331E-01-2.78325E+00-5.68555E-01
 -1       231-7.53246E-01-1.56757E+00 1.33152E+00 3.87258E-01-4.00614E-01-7.74712E-01
 -1       232 4.66525E-01-2.79841E+00-8.74553E-02 2.45308E-01-2.22155E+00 2.18548E-01
 -1       233-2.02256E+00-3.03420E+00-4.50672E+00 1.75872E+00 3.30095E-01 1.92642E+00
 -1       234-1.09248E+02-8.91637E+01-6.72719E+01-1.95222E+00 1.32001E+01-1.13844E+01
 -1       235 4.42927E-01 2.61264E+00 3.41779E-01 1.58018E+00-6.89622E-02-4.73306E-01
 -1       236-3.24930E+00-4.10932E+00 4.98502E-01-2.90171E-01-1.30873E+00 4.11383E-01
 -1       237-9.12192E-01-6.15367E-01-1.62092E-01 7.85951E-01 9.97437E-01-1.04042E+00
 -1       238 3.79795E-01-2.75941E+00 2.36826E+00 4.92307E-01-1.63618E+00 3.36817E-01
 -1       239-2.56349E+00-4.09642E+00-7.83620E-01-3.34425E-01-2.11370E-01 3.86535E-01
 -1       240-8.14277E+00-7.50974E+00-3.72128E+00-1.41232E+00-1.53276E+00 2.44238E-01
 -1       241-6.30350E+00-6.51546E+00 7.49327E-01-1.61797E-01 2.61632E-01 5.02663E-01
 -1       242-2.52075E-01-1.98687E+00-7.20476E-01 8.45162E-01 1.47273E+00-6.71449E-01
 -1       243 2.93788E+00 8.66224E+00 2.43290E+00 3.19212E-01-3.49632E+00-2.27175E-01
 -1       244-7.94957E-01 5.91509E-01 1.43478E-01-3.62197E-01 7.18599E-01-3.31621E-01
 -1       245-7.11489E+00-5.90371E+00-3.92718E+00-3.80525E-01-1.45473E+00 5.18884E-01
 -1       246-9.92523E+00-8.51035E+00-4.86324E+00-4.64170E-01-1.66154E+00-5.97883E+00
 -1       247-1.93112E+00-3.91461E+00 3.13314E+00 7.44807E-01-1.03588E+00-9.69332E-01
 -1       248-1.18846E+01-9.49432E+00-6.95862E+00-1.41582E+00-1.11852E+00 1.59199E+00
 -1       249-4.95332E+00-4.51859E+00-3.02411E+00-6.16355E-01-3.22337E+00 1.10793E+00
 -1       250-2.77850E+01-1.97606E+01-1.54101E+01-1.98668E+00-2.28557E+00 1.30004E-01
 -1       251-3.07151E-01-1.55626E+00 6.11492E-01 1.25902E-01 2.55732E-03 1.01551E-01
 -1       252-1.32111E-01-1.77190E+00 6.41922E-01 1.30289E+00 8.28658E-01-2.18146E-01
 -1       253-1.32963E+00-4.92643E-01 7.17914E-02 1.01678E+00 5.87571E-01-1.33173E+00
 -1       254-2.53804E-01-1.23254E+00-7.99895E-01 6.69688E-01 9.65407E-01-1.06147E+00
 -1       255-6.36347E+00-6.40990E+00 6.40501E-01-6.54503E-02 1.74560E-01 3.64661E-01
 -1       256-3.93038E+00-3.21813E+00 8.61992E-01-7.85124E-01-1.57945E+00 8.97913E-01
 -1       257 6.94205E-01-5.98387E-01 4.92190E-01 4.59000E-02-1.51761E+00 1.12564E+00
 -1       258-3.62184E+00-3.25396E+00 3.45412E-01-7.82574E-03-8.70770E-02 3.18864E+00
 -1       259 1.57287E+00-3.41879E-01 6.12318E-02-4.61395E-01 3.42680E-01-3.52841E-01
 -1       260 8.67222E-01-9.47180E-01-4.25237E-01 1.02471E-01 3.72894E-01-2.47999E-01
 -1       261-1.37752E+01-1.48616E+01-7.74214E+00-2.09857E+00-1.19811E+00 1.35252E+00
 -1       262-3.99587E+00-4.07847E+00 3.20386E-01-1.71512E-01-8.33581E-01-2.69318E+00
 -1       263-7.57473E+00-7.97356E+00-5.07897E+00-1.00712E+00-9.90722E-01 1.39565E+00
 -1       264 2.17207E+00 3.30689E+00 3.83146E+00 1.20290E-02-3.38015E+00 1.93101E+00
 -1       265-1.89509E+01-1.54469E+01-1.54795E+01-2.04720E+00-6.12945E-01-7.51469E-01
 -1       266-1.14999E+00-4.41193E+00-6.73952E+00 5.28197E-01-1.14299E+00-2.50936E+00
 -1       267-5.91877E-01-1.64322E+00 4.33835E+00 8.53592E-01 7.42760E-01-2.85068E-01
 -1       268-5.64587E+00-4.18713E+00-2.20533E+00-8.51490E-01-1.99225E+00 1.79449E+00
 -1       269-3.21638E+00-1.86357E+00-1.55628E+00 1.86040E+00-3.38160E-01 3.64054E+00
 -1       270-1.58545E+01-1.84345E+01-1.34134E+01-1.81048E+00-1.82371E-01 7.59412E-01
 -1       271-2.18848E+00 3.46205E-01-5.77429E-01 7.98502E-01 3.68445E-01-1.46665E+00
 -1       272-6.61327E+00-6.61151E+00 7.40191E-01 1.52404E-01 9.47753E-01 5.41121E-01
 -1       273-8.05624E+00-5.83560E+00-1.68584E-01 1.28299E+00-1.48169E+00-4.42328E-01
 -1       274-5.87620E+00-2.25794E+00-2.92556E+00 2.08731E+00-2.50164E+00-1.18769E+00
 -1       275 1.06705E+00 2.19230E+00-6.17909E-02-9.45606E-01 4.27888E-01-1.24527E+00
 -1       276-2.54963E+00-3.72168E+00 6.87383E-01 6.19393E-01-1.01911E+00 9.99696E-01
 -1       277 1.77240E+00 1.34223E+00-3.01121E-01-1.43349E+00 1.13746E+00-1.60464E+00
 -1       278-3.34279E+00-4.29363E+00-2.40273E-01 3.80765E-01 3.25605E-01 1.52934E+00
 -1       279-2.18813E+00-2.59364E-01-1.60149E+00 1.34257E+00 6.66216E-01-2.10177E+00
 -1       280-6.37058E+00-9.98186E+00-2.97782E+00-1.75009E+00-9.91257E-02 1.48549E+00
 -1       281-3.63115E+00-4.51959E+00-1.37845E+00-1.71362E-02-2.54072E-01 2.62850E+00
 -1       282-3.73499E+00-4.55493E-01-1.75102E+00 1.25115E+00 4.58549E-01 2.32961E+00
 -1       283-2.67559E+00-1.17512E+00 8.06951E-01 1.37305E+00-1.15344E+00 9.21541E-01
 -1       284-5.48322E+00-7.54375E+00-5.57433E+00-1.18056E-01-4.42710E-01 3.36641E+00
 -1       285-2.11963E+00-1.35724E+00 2.31352E+00 1.54956E+00 1.64026E+00-4.40047E-01
 -1       286 3.49118E+01 2.50518E+01 2.52447E+01-4.68199E-01-2.71909E+00 1.37508E+01
 -1       287-3.00194E+01-3.81221E+01-2.86876E+01-3.98672E+00-1.37804E+01-5.14234E+00
 -1       288 8.26929E+00 9.50206E+00 9.27139E+00 5.37560E-01 4.31688E+00 6.15250E+00
 -1       289 1.43752E+01 1.33017E+01 1.58030E+01 8.12467E-01 4.92841E+00 7.20426E+00
 -1       290-3.19435E+01-4.30011E+01-3.15517E+01 2.13163E+00 1.09933E+01-1.81532E+00
 -1       291 3.91626E+00-2.23164E+00 2.04906E-01 1.38662E+00 5.68036E+00-9.87035E+00
 -1       292 7.18072E+00 7.14268E+00 9.26230E+00-2.28631E-01 4.13589E+00-9.45091E+00
 -1       293-5.08534E+00-3.79547E+00 4.58240E-01-2.10303E+00 2.76883E+00 7.02790E+00
 -1       294-2.67247E+01-1.89176E+01-1.92154E+01-6.56499E-01 2.52009E+00 1.47621E+01
 -1       295-2.90947E+01-3.83490E+01-2.83938E+01-2.75800E+00 1.13428E+01 2.23905E+00
 -1       296-3.33152E+00-4.74167E+00-7.67931E+00 3.31993E-01 2.12548E+00-7.23254E+00
 -1       297-3.98664E+01-2.87649E+01-2.88938E+01-3.27342E-02 6.68470E-01-1.56440E+01
 -1       298-9.09665E+00-1.79394E+01-1.27297E+01 4.48761E+00 5.24849E+00-8.89914E+00
 -1       299-2.71442E+01-3.77247E+01-2.73098E+01 3.62166E-01 1.45091E+01 6.77190E-01
 -1       300-3.18674E+01-2.31666E+01-2.31694E+01 7.54994E-01 1.98029E-02 1.11690E+01
 -1       301-2.20049E+01-3.02631E+01-2.20048E+01 1.99413E-02-1.14092E+01 2.00188E-02
 -1       302 3.87528E+00 1.00161E+01 5.44703E+00 2.90711E+00-1.20305E+01 1.50243E+00
 -1       303-4.48430E+00-1.86978E+00 1.20165E+00 8.13034E-01-1.54529E+00 7.07580E+00
 -1       304-9.70660E+00-4.87820E+00-7.57898E+00 5.65402E+00-1.06909E+01 1.41565E+00
 -1       305-8.78703E+00-1.00535E+01-1.08846E+01 2.33797E-01-8.96781E+00 3.75490E+00
 -1       306 3.19282E+01 3.63022E+01 2.87250E+01-4.92882E+00-1.04610E+01 7.00949E+00
 -1       307 5.94961E+00 3.67779E+00 1.17803E+01 1.18674E+00-5.34467E+00 4.62414E+00
 -1       308 9.19408E+00 9.70451E+00 1.03392E+01 1.83282E-01-6.91176E+00-1.75187E+00
 -1       309-3.89274E+00-7.57281E-01-8.48906E+00 8.11864E-02-5.61563E+00 9.57649E-02
 -1       310 1.47917E+01 1.47175E+01 1.53849E+01 1.45357E+00-5.83996E+00-5.75937E+00
 -1       311 2.10593E+01 1.31536E+00 1.02894E+01 4.71608E+00-8.12960E+00-3.92046E+00
 -1       312-4.50751E+01-3.76687E+01-3.48351E+01-5.46278E+00-6.29879E+00-1.01228E+01
 -1       313-2.87164E+01-2.93065E+01-2.44277E+01 4.58469E+00-9.63819E+00 9.66646E+00
 -1       314-2.17891E+01-2.77687E+01-2.08638E+01 2.54587E+00-1.34055E+01 5.53361E+00
 -1       315-2.24839E+01-2.54104E+01-2.01635E+01-3.77121E+00 1.11676E+01 7.49470E+00
 -1       316-3.38388E+00-5.13517E+00-4.27149E+00 6.17718E-01 1.16516E+01 4.78259E+00
 -1       317-2.67660E+01-3.25762E+01-2.49830E+01 3.72779E+00 1.15785E+01-4.77154E+00
 -1       318 7.07637E+00 8.93791E+00 8.04568E+00-5.62711E-01 6.12752E+00-4.71673E+00
 -1       319-2.73048E+01-2.69169E+01-2.28273E+01 4.30633E+00 1.20423E+01-1.12576E+01
 -1       320-2.62967E+01-1.93106E+01-1.92007E+01 1.67312E+00 4.24090E+00-1.36233E+01
 -1       321 4.11481E+00 4.78749E+00 4.32605E+00 3.96081E-01 7.41145E-01-3.22051E+00
 -1       322 3.29022E+00 1.67186E+00 4.10988E+00-1.33257E+00 1.35349E+00-5.56562E+00
 -1       323-4.99108E+00-5.94628E+00-3.29184E+00-4.90073E-01-3.07516E-01-2.45402E+00
 -1       324-7.76380E+00-1.16437E+01-5.39823E+00-3.83609E-01 3.38291E-01-1.49394E+00
 -1       325 6.72277E+00 4.89292E+00 3.49866E+00 1.07177E+00-3.24083E-01-3.24615E+00
 -1       326 5.79708E+00 1.71719E-01 1.70387E-01-5.94692E-01-4.59803E+00-6.49498E+00
 -1       327-1.17815E+01-1.16218E+01-1.53943E+01-2.12280E-01-3.07380E+00-7.80935E+00
 -1       328-2.16596E+00-3.68308E+00-7.38931E+00 1.07052E+00 9.89691E-01-6.31288E+00
 -1       329-5.51825E+00-8.08224E+00-4.71532E+00-1.33713E+00 2.51244E+00-2.71366E+00
 -1       330-1.32274E+00-2.33534E+00-3.84723E-01-6.86786E-01 1.30354E+00-2.40612E+00
 -1       331 2.98108E+00 1.00620E+01 6.16735E+00-1.34220E+00 7.23905E+00-7.17435E+00
 -1       332 5.23775E+00 4.83373E+00 4.30660E+00-1.62691E+00 3.11644E+00-2.46084E+00
 -1       333-5.42304E+00-6.39992E+00-3.59674E+00-3.25522E-01 1.90615E+00-2.96575E+00
 -1       334-1.00501E+01-1.67079E+01-1.00861E+01 4.48033E-01-1.10640E-01-2.12863E+00
 -1       335-3.39632E+00-3.36313E+00-2.03133E+00 1.10855E-01-4.51377E-03-3.15046E+00
 -1       336-1.83053E+00-3.53286E+00 5.00199E-01 1.23268E+00-2.77651E+00-2.18425E+00
 -1       337-2.73948E+00-2.50844E+00-1.01376E+00 8.23924E-01-1.49595E+00-1.47254E+00
 -1       338 3.63343E+01 3.60005E+01 3.04529E+01 5.71314E+00-8.33846E+00-8.41650E+00
 -1       339 2.18718E+00 3.46742E+00 5.20265E+00 5.79792E-01-3.45523E+00-3.35322E+00
 -1       340 1.93114E+00 7.15126E-01 2.80612E+00-1.24481E+00-7.24910E-01-4.06463E+00
 -1       341-1.84728E+01-2.46227E+01-1.37928E+01-3.91582E+00-6.69910E-01-2.19485E+00
 -1       342-4.88089E+00-4.44244E+00-3.23645E+00 5.71546E-01-2.11285E+00-5.50221E-01
 -1       343 2.90256E+00 2.05043E+00 2.26348E+00 1.19422E+00-4.61115E+00-2.40253E+00
 -1       344-2.00402E+01-2.37173E+01-1.75788E+01 4.30400E+00-1.36854E+00-7.74474E-01
 -1       345-6.73458E+00-7.52164E+00-3.71828E+00 1.58385E+00-3.01062E+00-1.80202E+00
 -1       346-4.70347E+00-3.69547E+00-1.18049E+00-5.91801E-01 2.49773E+00-1.70958E+00
 -1       347 2.92007E+00 3.67240E+00 6.70787E-01-1.50278E+00 2.85895E+00-2.93133E+00
 -1       348-8.93598E+00-6.03494E+00-4.00276E+00-6.76110E-01 2.54833E+00-3.19389E+00
 -1       349-7.46717E+01-9.58324E+01-5.48516E+01-4.33512E+00-7.98705E+00 1.22988E+01
 -1       350-5.31094E+00-7.48325E+00-4.73971E+00-9.56989E-01 1.00744E+00-2.12492E+00
 -1       351-7.63542E+01-9.73084E+01-5.42049E+01-5.13835E+00 2.20224E+00 1.63556E+01
 -1       352-1.04770E+02-1.07057E+02-6.96673E+01 1.73652E+01 1.20987E+01 6.10544E+00
 -1       353-8.78228E+01-8.90060E+01-5.54276E+01-7.63571E+00-6.99713E+00 1.34009E+01
 -1       354-8.10944E+00-5.38832E+00-4.63332E-01-1.68938E+00 2.25453E+00-9.50669E-01
 -1       355-1.03146E+02-8.78682E+01-5.95978E+01-7.98492E+00-6.20767E+00 1.34255E+01
 -1       356-1.21397E+01-8.48711E+00-5.42802E+00-2.30202E+00 6.52075E-01-1.83364E+00
 -1       357-2.56663E+01-1.85361E+01-1.45140E+01 2.24433E+00 1.40002E+00-1.29428E+00
 -1       358-8.34112E+01-7.12405E+01-4.58783E+01 8.77239E+00 9.97050E+00 8.51727E+00
 -1       359-5.59060E+00-3.13435E+00-2.13387E+00 1.29686E+00-1.56192E+00-1.16006E+00
 -1       360-4.68305E+00-4.66744E+00-2.93755E+00 7.44403E-01-7.34502E-01-6.48322E-01
 -1       361-7.09588E+01-8.42937E+01-4.64286E+01 6.38110E+00-4.96738E+00 1.59712E+01
 -1       362-5.54402E+00-7.96541E+00-3.43290E+00 2.01309E+00 1.30008E-01-2.65490E+00
 -1       363-6.75072E+00-6.52909E+00-4.13905E+00 9.29889E-01-1.50980E+00-2.94587E+00
 -1       364-1.57249E+01-2.17444E+01-1.58397E+01 2.56808E+00-5.52532E-02-1.33328E+00
 -1       365-5.15443E+00-5.71287E+00-2.94207E+00 7.39067E-01-3.72794E+00-2.00400E+00
 -1       366-3.95109E+00-2.29367E+00-2.32022E+00 3.34637E-01-2.26525E+00-2.13867E-01
 -1       367-2.71245E+01-2.09744E+01-1.87963E+01-3.39014E-01 4.48662E-01 9.20862E-01
 -1       368-1.18271E+02-9.95236E+01-7.72922E+01-6.18617E+00-1.27051E+01 7.46517E+00
 -1       369-7.09700E+00-5.86972E+00-5.00294E+00-5.03862E-01 2.25847E+00-3.67865E-01
 -1       370-2.38319E+00-1.76119E+00-8.60587E-01 1.22313E+00 3.32284E+00-5.68518E-01
 -1       371-9.47768E+01-8.21179E+01-5.46510E+01-1.71935E+00 1.52128E+01 2.27708E+00
 -1       372-8.19483E+01-7.44987E+01-5.07942E+01 2.10705E+00-1.88898E+01 2.50316E+00
 -1       373-8.03393E+00-5.62213E+00-4.13150E+00 1.29830E+00 1.10202E+00 4.44215E-01
 -1       374-6.66931E+00-3.39217E+00-3.63782E+00 4.73372E-01 2.01341E+00 1.04400E-01
 -1       375-9.74395E+01-9.67709E+01-6.11582E+01-6.71651E+00-3.65978E-01-1.38219E+01
 -1       376-2.24507E+01-2.16427E+01-1.61289E+01-3.76441E+00-1.18311E+00 1.72039E+00
 -1       377-5.02157E+00-6.35928E+00-2.84686E+00-5.46722E-01-1.11885E+00 2.50398E+00
 -1       378-8.22187E+01-8.56308E+01-4.73853E+01-8.05396E+00 6.99916E+00-7.85706E+00
 -1       379-8.78375E+01-7.49991E+01-4.67552E+01-6.80507E+00 7.19900E+00-6.39419E+00
 -1       380-3.73629E+00-4.06202E+00-2.68802E+00-7.35031E-01-2.00458E+00 5.07253E-01
 -1       381-1.99795E+01-1.55077E+01-1.46694E+01 2.14903E+00 4.74493E-02 9.28189E-01
 -1       382-7.62486E+00-7.29354E+00-5.16856E+00 1.95305E+00 1.54159E+00 1.66019E+00
 -1       383-1.02171E+02-8.97244E+01-6.01617E+01 1.11474E+01-6.12946E+00-1.16631E+01
 -1       384-1.62322E+01-1.38113E+01-1.26794E+01 1.70865E+00 9.57662E-01 1.28153E+00
 -1       385 2.03911E+00 3.44026E+00 5.74011E-01 2.61742E-01-3.67762E+00 1.20965E-01
 -1       386-7.99305E+00-6.87225E+00-4.96052E+00-1.50830E+00-3.59007E+00 1.68564E+00
 -1       387-1.46611E+01-2.33666E+01-1.26522E+01-6.12550E-01 9.05804E-01 1.08907E-01
 -1       388-7.90147E+01-1.04420E+02-5.18055E+01 5.05598E-01 8.07990E+00-1.04077E+01
 -1       389-8.60618E+01-8.79310E+01-5.58854E+01 8.99703E+00-1.86564E+00-1.64492E+01
 -1       390-8.26669E+01-1.01118E+02-5.76120E+01 5.02027E+00-1.22136E+01-1.22925E+01
 -1       391-1.21924E+01-1.26398E+01-6.06528E+00-2.23273E+00-1.83506E+00 4.80336E+00
 -1       392-1.45788E+01-2.13393E+01-1.16432E+01-1.62478E+00-4.25990E-01 3.52847E-01
 -1       393 3.25183E+01 3.51851E+01 2.85031E+01 5.36211E+00 8.21202E+00 8.29418E+00
 -1       394 4.91860E+00 2.72715E+00 4.40671E+00 3.59766E-01 2.73133E+00 3.48007E+00
 -1       395 2.16248E-01 2.73025E+00 5.39217E-01 9.59274E-01 4.01907E+00 2.68498E+00
 -1       396 1.75881E+00 3.20702E+00-1.52630E+00 1.52950E+00 7.09788E+00 4.67570E+00
 -1       397 5.49281E+00 4.58419E+00 4.92167E+00 2.00044E+00 1.04382E+01 4.99433E+00
 -1       398-8.87147E+00-7.16703E+00-5.20752E+00 8.76338E-01 3.40351E+00 1.39740E+00
 -1       399-1.38902E+01-1.17561E+01-7.55080E+00 2.93602E+00 4.00255E+00 4.59840E-01
 -1       400 9.99597E-01 3.37639E+00-5.29160E-01 1.54386E-01 2.58592E+00 4.54387E-03
 -1       401-4.62526E+00-3.24750E+00-9.16959E+00-7.76457E-01 5.80919E+00 1.88268E+00
 -1       402 3.01181E+00 2.36788E+00 2.43481E+00 6.62628E-01 3.86195E+00 1.40581E+00
 -1       403 9.25673E-01 4.46195E+00 1.04630E+00 2.38350E+00 7.22091E+00-1.43344E+00
 -1       404 2.24899E+00 5.91200E+00 2.52023E+00-7.38127E-01 3.28059E+00-1.19151E+00
 -1       405-1.04993E+01-8.82221E+00-6.99788E+00-1.12302E+00 3.80529E+00-1.23021E+00
 -1       406-7.37806E+00-5.58752E+00-3.38746E+00-4.19788E-01 2.90854E+00-1.40581E+00
 -1       407-6.78844E+00-5.63621E+00-9.85767E+00 2.71104E-02 6.74329E+00-2.55789E+00
 -1       408 2.10824E+01 2.60903E+01 1.98597E+01-2.99046E+00 8.58235E+00-5.70463E+00
 -1       409 4.40824E+00 3.60243E+00 4.78440E+00-2.34604E+00 2.73113E+00-2.06252E+00
 -1       410 3.15304E+01 2.74150E+01 2.48160E+01 4.18695E+00 6.49788E+00 9.76137E+00
 -1       411-5.32969E+00-4.99622E+00-1.36940E+00 2.24640E+00 2.22507E+00 2.26606E+00
 -1       412 4.59632E+00 3.07420E+00 3.96488E-01 1.52762E+00 1.03351E+00 5.93286E+00
 -1       413 1.34629E+01 6.85680E+00 7.89784E+00-7.47837E-01 3.50186E+00 1.08881E+01
 -1       414-2.55301E+00-6.40203E+00-1.26583E+01 7.93335E-01-3.55415E-02 5.31155E+00
 -1       415-1.24742E+00 2.47805E-01-1.73043E+00-8.33766E-01-1.40023E+00 4.06950E+00
 -1       416 5.19886E+00 3.65255E+00 4.21258E+00 1.27569E+00 6.58346E-01 4.12233E+00
 -1       417-7.43444E+00-9.31033E+00-5.96928E+00 6.14493E-01 6.64312E-02 2.77888E+00
 -1       418-1.20808E+01-1.24812E+01-1.57740E+01 6.65052E-01-3.13216E+00 8.57462E+00
 -1       419-6.01720E+00-9.31954E+00-4.55784E+00-2.08670E+00-1.49370E+00 3.48611E+00
 -1       420 3.83223E-01 3.72537E-01-1.31244E+00 4.23691E-01-6.11714E-01 3.58491E+00
 -1       421-5.61687E+00-6.94095E+00-4.21700E+00 1.61482E-01-4.07551E-01 2.35311E+00
 -1       422-9.86199E+00-1.07704E+01-1.32197E+01 3.91137E-01-3.06192E+00 6.00039E+00
 -1       423-4.38601E+00-5.54329E+00-1.84539E+00 3.05883E-01-2.67060E+00 2.32041E+00
 -1       424 5.55786E-01 9.27315E-01-4.02423E-01-1.58768E+00-3.19968E+00 2.06966E+00
 -1       425 5.21903E+00 1.48551E+00 4.18343E+00-6.05694E-02-1.42974E+00 4.58313E+00
 -1       426-4.91509E+00-5.27373E+00-1.41548E+00-8.04873E-01-1.63155E+00 2.69174E+00
 -1       427-4.49544E+00-4.07941E+00-2.62797E+00-2.76305E-01-2.56701E+00 1.22473E+00
 -1       428-1.20063E+00 2.67729E+00 7.81461E-01-1.14843E+00-3.60421E+00 1.15595E+00
 -1       429-4.88159E+00-4.59578E+00-2.96040E+00-8.36553E-02-3.57535E+00 6.73623E-02
 -1       430-5.61953E+00-4.15099E+00-3.74879E+00-2.16397E-01-2.93761E+00-9.80852E-01
 -1       431-9.22914E+00-8.62662E+00-7.76783E+00 4.51892E-01-2.79298E+00-1.51780E+00
 -1       432 2.31019E+01 3.11863E+01 2.28553E+01 1.44745E+00-1.06708E+01-2.11371E+00
 -1       433-7.11773E-01 2.87239E+00 9.79224E-01 4.17168E-01-4.39869E+00-8.74649E-01
 -1       434 1.96186E+00 3.78182E+00 2.30256E+00 3.85358E-01-3.58510E+00-1.44002E+00
 -1       435-5.02262E+00-7.53338E+00-1.05867E+01 1.00591E+00-6.63168E+00-1.02190E+00
 -1       436-1.86627E+01-2.57416E+01-1.17678E+01 1.56336E+00-3.81685E-02 4.30626E-02
 -1       437-8.50143E+01-9.57807E+01-5.32859E+01 5.13017E+00 1.72349E+00-1.88411E+01
 -1       438-7.93825E+00-8.09353E+00-5.50796E+00 2.02802E+00 2.45161E+00 1.79192E+00
 -1       439-1.08260E+01-9.79954E+00-1.11917E+01-1.61261E+00-1.26071E-01 8.45804E-01
 -1       440-7.74094E+01-6.99092E+01-4.07610E+01-4.00808E+00 1.39850E+01 2.67792E-01
 -1       441 2.62600E+01 2.08385E+01 1.98285E+01-2.54994E+00 4.95771E+00-1.21281E+01
 -1       442-9.09311E-01-1.47899E+00-8.50129E+00-2.03167E+00-3.96287E+00 4.00539E+00
 -1       443-2.77176E+01-2.33018E+01-2.14792E+01 3.48798E+00-4.93494E+00 1.18586E+01
 -1       444-3.20176E+01-3.07534E+01-2.64266E+01 5.11120E+00-6.37699E+00 9.58220E+00
 -1       445 1.13326E+01-2.13577E+01-3.13235E+00 4.00661E+00-7.91047E+00-2.30399E+00
 -1       446 1.05202E+01 1.17773E+01 1.69840E+01-8.27168E-01-1.54116E+00-7.62445E+00
 -1       447 3.06169E+01 2.29054E+01 2.25329E+01 1.73953E+00-2.15657E+00-1.07674E+01
 -1       448-3.03352E+01-2.45186E+01-2.30935E+01-3.21908E+00-4.75447E+00-1.14212E+01
 -1       449-6.70461E+00-3.96114E+00 4.39000E-01 4.25533E-02-4.95577E-02-1.18468E+00
 -1       450-5.51967E+00-3.06413E-01 3.06641E-01-1.72483E-02 9.67453E-02-6.86801E-01
 -1       451-5.54127E+00-7.13554E+00 7.51366E-02 3.12480E-01-1.25896E-01 1.06594E-01
 -1       452-4.49103E+00-3.37330E+00 4.87795E-01 7.31587E-01-1.48964E+00 5.80483E-01
 -1       453-1.87061E+00-2.38723E+00-9.20045E-01 9.50481E-01 4.03165E-01 1.17376E+00
 -1       454-6.80794E-01-1.83919E-01-1.03084E-01 8.55858E-01 3.44003E-01 1.51383E+00
 -1       455 3.77244E-01-5.46704E-01 2.73563E-01 5.54555E-01 1.28493E+00 3.99919E+00
 -1       456-1.04991E+01-1.61642E+01-6.03397E+00-3.94603E-01-2.83889E-01 1.80498E+00
 -1       457-5.88913E+00-8.32128E+00-5.06209E+00-1.28173E+00 1.04297E-01 9.67119E-01
 -1       458 8.82573E-01 1.60673E+00 6.92690E-01 1.10811E+00-9.72393E-01 3.78849E+00
 -1       459-4.06560E+00-4.94940E+00-1.43321E+00 2.91131E-01 1.73180E-01 1.56603E+00
 -1       460-6.96975E+00-9.28139E+00-5.29111E+00 9.85252E-01 5.99843E-01 2.10181E+00
 -1       461-5.95244E-01-1.60855E+00-5.19280E-01 1.55108E+00 7.52791E-01 1.27776E+00
 -1       462 5.05092E-01 5.27125E-01-4.76706E-01 1.17645E+00 2.05167E-01 3.18840E-01
 -1       463-5.11617E+00-6.02773E+00-6.49736E-02 9.39477E-01 2.43788E-01 4.41414E-01
 -1       464-4.09604E+00-2.84294E+00-6.71609E-01-1.33176E-01 1.27735E+00-6.83563E-01
 -1       465-7.16719E+00-6.49981E+00 4.71882E-01-6.85081E-01-1.16830E+00-1.49670E+00
 -1       466-5.15717E+00-2.29194E+00-1.61114E-01-1.24624E+00-3.26285E-01-1.61474E+00
 -1       467-7.80935E-01-1.89834E+00-7.78402E-01 1.17884E+00 1.71986E+00 2.72548E+00
 -1       468-1.02637E+01-1.17803E+01-2.76069E+00 1.67381E+00-3.59588E-01 1.74338E+00
 -1       469-9.26956E+00-1.52697E+01-2.42496E+00 3.81431E-01 4.88959E-01 9.01857E-01
 -1       470-1.08359E+00-2.47068E+00-2.31465E+00 2.20589E+00 1.35409E+00 3.58894E+00
 -1       471-8.88368E+00-1.04153E+01-5.34979E+00 1.40170E+00 4.22706E-01 2.32229E+00
 -1       472-5.31661E+00-4.02878E+00-2.85863E+00 1.06532E+00 2.96041E-01 1.80933E+00
 -1       473 1.29191E+00 1.50862E+00-2.11678E-01 2.32346E+00 3.59511E-01 3.87646E-01
 -1       474 2.71291E+00 3.09166E+00 6.05637E-01 2.83367E+00 4.58949E-01 7.68689E-01
 -1       475-5.36221E+00-4.26673E+00-2.37371E-01 9.39980E-01 6.16384E-01 6.78311E-01
 -1       476-3.30118E+00-2.56920E+00-9.57244E-01-6.87026E-02 1.38198E+00-8.69376E-01
 -1       477-6.12901E+00-5.65068E+00 1.53615E+00-5.87654E-01-5.91759E-01-1.44529E+00
 -1       478-3.27796E+00-3.97635E+00-8.04626E-01-2.24066E+00-8.17293E-01-1.40486E+00
 -1       479 2.83144E+00 3.48803E+00 6.65287E-01 2.23312E+00 2.12089E+00 1.75237E+00
 -1       480-9.21849E+00-7.22915E+00-8.23611E-01 1.74727E+00-1.75736E-01 4.75901E-02
 -1       481-7.55308E+00-8.34811E+00-1.51689E+00 1.93656E+00 8.84904E-01 1.99517E+00
 -1       482-3.52154E-01 3.40179E-01-3.99346E-01 6.50123E-01 2.13077E+00 2.48660E+00
 -1       483-1.00218E+01-8.93106E+00-4.65976E+00 1.81768E+00 1.66012E+00 2.09869E+00
 -1       484-9.69944E+00-9.06881E+00-3.54606E+00 1.92542E+00 1.91551E+00 3.65817E-01
 -1       485-6.67045E+00-4.46789E+00-1.51440E-01 6.79216E-01 3.08995E-01 2.09153E-01
 -1       486-8.03488E-01 1.67965E+00-1.33751E-01 1.94017E+00 4.57828E-01 4.50008E-01
 -1       487-2.16357E+00 1.17147E+00 1.48251E-01 1.14489E+00 1.38549E+00 6.24179E-01
 -1       488-6.45738E+00-6.26530E+00 1.50220E+00-4.18599E-02-1.62117E+00 1.19156E-01
 -1       489-4.36848E+00-6.49226E+00 1.45811E+00-1.07516E+00-1.05464E+00-8.19970E-01
 -1       490-3.17791E+00-2.39455E+00 1.60107E+00 7.97867E-02 2.22994E-01 1.22072E+00
 -1       491-3.06934E+00-1.48796E+00-1.55530E+00 5.94708E-02 3.44602E+00 1.55810E+00
 -1       492-7.45324E+00-5.86110E+00-3.14092E+00-2.79923E-01 6.29793E-01-1.56123E-01
 -1       493-1.08117E+01-7.70034E+00-3.15742E+00 1.59223E+00 9.26492E-02 1.22019E+00
 -1       494-2.51926E+00-1.09665E+00-8.01382E-01 1.19917E+00 2.86051E+00 1.18856E+00
 -1       495-6.12620E+00-7.44306E+00-5.02375E+00 4.23242E-01 2.12806E+00 3.01179E-01
 -1       496-6.63705E+00-4.80224E+00-2.01119E+00 5.80391E-01 1.72114E+00 4.70002E-01
 -1       497-7.39312E+00-4.75263E+00-6.66521E-01 2.71809E-01 4.97018E-01-3.45711E-02
 -1       498-2.58282E+00 2.49829E-01-5.68115E-01-1.06496E-01 1.59577E+00 4.15898E-01
 -1       499-1.23804E-01 2.42422E+00 6.64502E-01-6.56041E-03 1.90666E+00 4.80967E-01
 -1       500-6.77939E+00-7.72282E+00-2.42003E-01 2.66670E-01-1.23320E+00 1.29423E-01
 -1       501-5.49416E-02-2.94206E+00 2.74007E+00 1.66794E-01-2.47936E+00-2.05634E-01
 -1       502-3.24016E+00-2.85612E+00 3.24194E-01-2.31131E-02 8.84978E-01 1.21140E+00
 -1       503-3.58134E+00-1.02131E+00-1.42205E+00-3.56903E-01 3.64602E+00 5.48170E-01
 -1       504-1.46903E+01-9.46518E+00-4.50813E+00-1.27069E-01 1.59130E+00-5.50645E-02
 -1       505-7.59196E+00-6.66137E+00-4.03203E+00 5.82355E-01 7.70238E-01 3.26720E-01
 -1       506 2.10500E+00 6.57472E-01 1.91601E+00-6.47224E-01 4.27532E+00 9.59732E-01
 -1       507-1.31009E+00-2.13955E+00-1.10135E+00 9.73806E-02 2.06352E+00-6.20660E-01
 -1       508-1.46412E+00-1.54073E+00-1.54075E-01-1.53787E-01 2.24597E+00 7.16400E-01
 -1       509-6.03753E+00-4.59818E+00 5.65878E-02-8.06226E-01 5.13384E-01-2.54086E-01
 -1       510-6.50637E+00-7.51315E+00 3.08113E-01 1.82804E-01-1.28543E+00 2.28352E-01
 -1       511-1.84521E+00-4.55670E+00 1.81092E-01 1.62538E+00-1.57436E+00 3.09962E-02
 -1       512-2.70897E+00 7.48967E-01-1.03373E+00-2.91125E-01 1.46394E+00-6.04322E-01
 -1       513 1.59754E+00 3.44985E+00 5.97465E-02-4.62430E-01 8.99491E-01-4.87316E-01
 -1       514-3.20100E+00-3.32358E+00 1.43810E+00 1.38021E-01 3.47769E-01-1.07785E+00
 -1       515-7.74557E-01 7.14135E-01 1.23347E+00 9.23469E-01 3.24171E+00-1.21277E+00
 -1       516-1.15955E+01-9.15922E+00-3.76746E+00-1.88486E+00 2.21547E+00 4.36040E-01
 -1       517-1.14141E+01-8.03487E+00-6.21550E+00-2.47066E-01 1.93009E+00-6.12769E-02
 -1       518-1.34228E+00-2.92814E-01 5.64486E-01-3.23820E-01 3.82957E+00-1.14922E+00
 -1       519-5.19168E+00-3.21901E+00-2.57447E+00-2.74486E-01 1.93766E+00-7.89681E-01
 -1       520-4.67035E+00-4.61186E+00-1.67622E+00-6.23039E-01 2.21738E+00-9.20109E-01
 -1       521 1.56895E-02 1.59681E+00-6.60094E-01-1.68566E+00 4.63110E-01-1.89552E-01
 -1       522 1.60973E+00 2.79774E+00 1.37305E-01-2.17853E+00 5.68601E-01-2.98006E-01
 -1       523-5.26156E+00-4.66422E+00 2.34897E-01-1.06244E+00 6.44722E-01-6.62486E-01
 -1       524-3.64025E+00-2.47922E+00-7.94853E-01 1.52742E-02-7.10601E-01-1.91532E+00
 -1       525-6.21068E+00-6.21487E+00 1.48879E+00 9.74273E-01-2.76243E-01 1.00764E+00
 -1       526-3.70753E+00-3.98013E+00 1.72587E+00 2.19235E+00-1.56894E+00 1.22521E+00
 -1       527-5.83907E-01 8.02640E-01-5.46946E-01-8.17284E-01 2.32477E+00-2.37517E+00
 -1       528-6.96829E+00-7.22093E+00-2.29349E+00-8.49953E-01 5.66520E-01 8.02898E-02
 -1       529-8.78627E+00-5.80267E+00-1.23754E+00-2.03927E+00 2.40016E+00-6.10935E-01
 -1       530-1.60188E+00 1.04317E-01-1.50033E-01 6.59005E-01 3.49540E+00-2.70878E+00
 -1       531-7.27244E+00-7.19698E+00-4.55522E+00-1.42752E+00 2.35405E+00-1.17952E+00
 -1       532-6.20869E+00-5.41451E+00-5.34646E+00-6.58564E-01 1.38168E+00-1.92696E+00
 -1       533 2.32529E+00 1.16099E+00 8.74141E-01-1.61685E+00 1.88401E-01-8.10751E-01
 -1       534-4.03775E-01-2.35036E+00-4.92493E-01-1.50402E+00 3.50988E-01-1.15817E+00
 -1       535-3.70213E+00-4.78834E+00 2.01350E+00-9.83570E-01 9.60744E-01-4.08920E-01
 -1       536-4.83671E+00-6.19806E+00 4.06051E-02-9.83444E-01 3.83358E-02-4.26738E-01
 -1       537-7.18114E+00-4.19776E+00 1.24923E+00 5.15893E-01-2.21199E-01 2.38840E+00
 -1       538-8.75654E+00-4.33604E+00 1.40617E+00 1.82596E-01-7.77658E-01 1.90853E+00
 -1       539-3.42857E-01-1.86583E+00-4.78143E-01-1.69139E+00 1.22959E+00-2.46490E+00
 -1       540-8.75152E+00-8.38434E+00-2.49834E+00-9.15164E-01 2.55307E-01-3.86702E-01
 -1       541-1.21359E+01-1.25660E+01-5.42043E+00-2.16033E+00 8.56444E-01 1.07254E-01
 -1       542 2.29050E+00 2.12491E+00 1.38016E+00-1.18040E+00 1.91098E+00-3.70423E+00
 -1       543-3.66141E+00-4.27294E+00-2.48168E+00-5.58878E-01 1.65315E+00-1.94351E+00
 -1       544-3.81971E+00-5.30577E+00-1.47063E+00-5.49285E-01 1.10717E+00-1.42206E+00
 -1       545 5.76344E-01-1.28593E+00-2.97358E-01 3.91012E-01-3.53591E-01-9.09684E-01
 -1       546 1.36608E+00-5.33319E-02-4.33887E-01-1.38128E-02-2.53860E-01-1.18242E+00
 -1       547-4.48755E+00-6.02008E+00-4.97373E-02-3.97735E-01-1.94031E-02-6.92491E-01
 -1       548-3.27112E+00-2.53062E+00-5.67280E-01-2.48471E-01-1.38294E+00-8.30541E-01
 -1       549-6.92452E+00-5.83586E+00 2.38489E-01 1.54734E-01-2.35840E-02 1.55915E+00
 -1       550-3.05954E+00 1.31981E-01 2.26588E+00 6.62081E-02-2.56177E-01 2.44627E+00
 -1       551-2.05718E+00-4.25969E+00-1.80783E+00 4.51134E-01-9.57909E-01-3.00563E+00
 -1       552-1.11031E+01-1.64265E+01-1.88815E+00 1.51808E+00-5.67631E-01-8.56621E-01
 -1       553-1.25439E+01-1.77195E+01-2.71100E+00 1.37003E+00 2.30569E-01-3.49152E-01
 -1       554-2.23144E+00-1.45530E+00-4.38349E-01 9.67750E-01 2.53676E-01-2.87432E+00
 -1       555-6.95482E+00-9.40966E+00-2.02131E+00-5.70675E-01-6.21194E-01-2.40402E+00
 -1       556-2.02901E+00-6.04627E-01-3.28629E+00-2.38999E-03-3.20836E-02-2.06096E+00
 -1       557-5.99100E+00-2.79315E+00 1.86954E+00-5.73488E-01 1.62340E-01 1.51843E+00
 -1       558-7.95215E+00-4.18072E+00 1.43040E-01-5.66522E-01 7.80587E-01 1.41762E+00
 -1       559-3.74007E+00-5.49553E+00 9.39716E-01-2.12112E-01-6.76261E-01-3.37657E-01
 -1       560-3.48051E+00-5.22027E+00-1.67913E-01-4.93753E-01 5.12752E-01-3.54130E-01
 -1       561 4.00031E-01-1.58042E+00-1.00103E-01 1.53143E+00-4.55247E-01-3.30156E-01
 -1       562 6.40175E-01-1.52923E+00 5.48315E-01 5.71012E-01-5.01380E-01-1.34173E+00
 -1       563-4.17535E-01-2.19911E+00 1.38449E-01 1.10256E+00-2.04164E+00-1.94759E+00
 -1       564-7.12205E+00-6.45615E+00-5.95842E+00 1.34423E+00-1.28410E+00-2.03456E+00
 -1       565-7.01658E+00-6.34017E+00-2.78449E+00 8.82673E-01-1.11297E+00-1.27013E+00
 -1       566-9.60395E-01-2.98751E+00-1.24785E+00 9.21060E-01-1.56085E+00-2.50056E+00
 -1       567-5.78735E+00-8.73432E+00-2.94914E+00-2.40396E-01-2.71723E-01-1.52876E+00
 -1       568-2.77267E+00-1.29578E+00-1.59392E+00-1.85271E-01-1.20966E+00-2.30035E+00
 -1       569-7.48765E+00-7.42160E+00-8.63612E-02-7.52210E-01 8.24463E-01 1.11012E+00
 -1       570-2.95862E+00-2.65961E+00 3.89962E+00-1.87496E+00 7.01691E-01 9.68424E-01
 -1       571-6.24993E+00-5.94326E+00 1.09621E-01 1.36197E+00-7.44714E-01-9.68902E-01
 -1       572-3.16431E+00-2.98905E+00 1.91544E+00 3.06166E-01 4.16197E-02-1.84507E+00
 -1       573 1.62834E+00-3.74583E-01-3.53576E-01 2.27289E+00-7.25545E-01-3.64708E-01
 -1       574 2.98158E+00 1.22129E+00 6.49498E-01 2.13096E+00-5.62365E-01-4.48916E-01
 -1       575 3.74305E+00 2.17874E+00 1.93073E+00 1.98806E+00-2.91164E+00-3.69518E+00
 -1       576-9.30559E+00-9.53816E+00-1.86233E+00 1.22393E+00-8.27897E-01-4.03450E-01
 -1       577-5.50331E+00-5.37029E+00-1.97404E+00 8.35262E-01-7.60361E-01-5.18908E-01
 -1       578 2.62103E+00 6.43916E-01 1.57061E+00 1.41536E+00-1.84985E+00-3.71110E+00
 -1       579-5.57064E+00-4.60512E+00-1.13199E+00 1.28300E+00-1.82301E+00-2.19435E+00
 -1       580-5.86862E+00-5.40806E+00-2.93746E+00 1.45835E+00-1.90569E+00-2.03112E+00
 -1       581-4.05094E+00-3.62350E+00 1.41127E+00 6.16074E-01-7.60811E-01-7.39323E-01
 -1       582-7.33414E+00-7.74856E+00 1.25794E+00-8.39368E-01 1.40292E+00 7.69137E-01
 -1       583-2.30006E+00-5.98225E+00 7.51099E-01-1.78267E+00 1.37080E+00 2.44335E-01
 -1       584-1.54637E+00-9.33591E-01-1.01663E+00 1.18699E+00-1.03368E+00-3.97264E-01
 -1       585 2.02316E+00 1.47755E+00 1.86769E-01 1.40143E+00-3.27842E-01-2.94673E-01
 -1       586-5.35308E+00-5.38888E+00-2.90667E-01 8.49061E-01-8.00384E-01-2.73637E-01
 -1       587-2.67652E+00-3.25693E+00-2.63576E+00 6.85708E-01-2.43655E+00-2.09073E+00
 -1       588-8.20120E+00-5.91615E+00-2.58924E+00 1.83041E+00-4.48943E-01-7.11651E-02
 -1       589-1.28131E+01-1.29124E+01-6.31361E+00 1.47282E+00 7.66572E-01-9.77634E-01
 -1       590-1.54184E+00-1.47954E+00-9.33675E-01 1.36365E+00-2.08785E+00-1.76314E+00
 -1       591-2.16557E+00-3.42264E+00-1.33546E+00 9.41079E-01-2.83814E+00-7.64268E-01
 -1       592-3.21472E+00-4.49511E+00-1.45509E+00 7.82008E-01-2.23199E+00-1.12557E+00
 -1       593-6.90657E+00-5.63426E+00-2.93900E-01 1.54066E-01-6.51422E-01-3.73337E-02
 -1       594-5.14278E+00-8.05530E+00 8.13609E-01 7.19063E-01 1.90407E+00 3.58387E-01
 -1       595-8.83433E-01-6.65044E+00 3.14352E+00 5.65080E-01 2.25446E+00 1.81399E-01
 -1       596-1.94646E+00-1.11751E-01-4.12472E-01 6.09295E-01-1.19569E+00 2.03338E-01
 -1       597-2.11989E-01 1.25501E+00 3.75677E-01 4.48963E-01-5.09792E-01 1.77901E-01
 -1       598-2.87403E+00-4.40508E+00-6.76047E-01-2.74139E-02-5.66389E-01 1.51096E+00
 -1       599-5.29280E+00-2.46274E+00-1.81530E+00 4.04645E-02-3.44764E+00 2.93177E-01
 -1       600-1.47951E+01-9.74474E+00-3.95797E+00-1.20628E+00-6.29634E-01-1.75106E-01
 -1       601-1.12208E+01-9.72349E+00-5.20165E+00 8.09673E-01-1.90235E-01-9.15119E-02
 -1       602-2.86848E+00-2.51167E+00-8.69256E-01 1.51687E-01-2.80949E+00-5.85671E-01
 -1       603-8.78587E+00-6.79563E+00-1.49531E+00 1.01861E+00-2.04212E+00-5.59654E-01
 -1       604-2.44398E+00-2.84292E+00-1.96375E-02-5.93279E-01-1.86806E+00-8.21619E-01
 -1       605-3.15316E-01-3.14464E+00-6.79114E-02 4.80921E-01-1.98485E-01 5.24099E-01
 -1       606-8.08262E-01-8.43209E-01-1.21557E+00-1.27231E+00-6.94949E-01 2.64809E-01
 -1       607-1.07670E+00-1.52038E+00-1.23680E-01-5.55182E-01-1.29907E+00 6.96413E-01
 -1       608-6.30782E+00-6.97683E+00 6.15894E-01 7.19087E-01 3.18130E+00-1.07931E-01
 -1       609-5.65584E+00-8.24672E+00-2.78052E-01 1.10205E+00 2.14020E+00-7.98884E-01
 -1       610-7.79359E-01-3.49054E-01 2.94747E+00-4.76087E-02-1.12460E+00 4.17293E-01
 -1       611-1.37622E+00-1.41647E+00-1.25208E+00-2.95415E-01-2.94770E+00 9.61877E-01
 -1       612-1.91313E+01-1.65824E+01-6.57858E+00-3.74156E+00-2.81958E-01 7.77871E-01
 -1       613-9.12761E+00-8.06003E+00-3.71825E+00 4.41494E-01-9.56856E-01-4.76274E-02
 -1       614-2.45780E+00-1.55188E+00-1.57116E+00-3.35486E-01-2.87968E+00 6.02684E-01
 -1       615-4.10343E+00-2.57969E+00-1.57466E+00-3.65139E-01-2.09321E+00 9.25838E-01
 -1       616-4.46622E+00-4.21126E+00-1.12636E+00-6.89437E-01-1.91039E+00 5.35401E-01
 -1       617-6.33245E+00-6.06050E+00 3.23106E-01 1.12895E+00 1.56473E+00-1.08412E+00
 -1       618-2.21091E+00-2.15734E+00 4.21584E+00 1.64494E+00 1.93548E+00-1.01389E+00
 -1       619-6.39614E+00-5.68332E+00-1.70075E-01-5.60719E-01-3.84576E-01 2.91386E-01
 -1       620-4.23786E+00-3.76455E+00-1.15421E+00 9.24191E-01-1.66795E+00-8.18634E-01
 -1       621-1.65574E+00-7.76199E-01-3.68448E-01-1.11384E+00-4.67227E-01 8.42984E-01
 -1       622 2.36443E-01 9.99106E-01 2.94643E-01-9.06017E-01-6.16858E-01 6.59573E-01
 -1       623-5.02080E+00-5.43251E+00-4.80470E+00-1.65771E+00-2.16742E+00 1.35785E+00
 -1       624-8.79696E+00-1.27528E+01-6.50129E+00-1.05575E+00-4.78026E-01 2.80505E-01
 -1       625-5.32165E+00-6.56399E+00-2.23553E+00-8.61326E-01-2.87207E-01 8.96094E-01
 -1       626-2.27610E+00-1.44846E+00-1.30683E+00-1.32081E+00-2.57059E+00 1.18213E+00
 -1       627-5.36513E+00-5.68005E+00-4.54681E+00 2.15193E-01-1.12980E+00 1.54406E+00
 -1       628-5.65602E+00-5.44637E+00-4.27980E+00-4.40272E-01-8.64874E-01 1.64038E+00
 -1       629-7.78837E+00-6.28047E+00 1.00409E+00-1.58317E-01 7.57256E-01-1.75598E+00
 -1       630-4.63999E+00-1.57295E+00 9.63914E-01 1.20276E+00-3.14865E-01-1.58351E+00
 -1       631-5.03785E+00-5.52877E+00-6.07526E-02-1.17200E+00-1.51006E-01 6.93432E-01
 -1       632-3.41361E+00-2.38804E+00 3.61953E-01-4.30576E-01-1.45553E+00 7.34788E-01
 -1       633-1.89276E+00-2.65505E+00-4.93794E-01-2.16094E-01-5.39426E-01 1.39973E+00
 -1       634 4.98929E-01 4.32201E-01-8.37102E-02 1.07861E-01-8.36516E-01 7.72595E-01
 -1       635-1.49787E+00-6.49852E-02 1.26305E+00 4.16053E-01-3.74178E-01 3.55007E+00
 -1       636-5.22320E+00-8.03587E+00-2.02222E+00-5.42791E-01 2.09088E-01 9.28377E-01
 -1       637-1.14745E+01-1.36903E+01-5.10025E+00-2.15929E+00-6.99180E-01 3.80845E-03
 -1       638-9.03318E-01-4.62507E-01 3.30507E-02 2.45706E-01-9.01423E-01 3.07352E+00
 -1       639-6.59475E+00-7.17747E+00-3.79377E+00-1.89502E+00-9.22431E-01 1.47754E+00
 -1       640-3.82030E+00-3.77193E+00-2.05294E+00-1.07647E+00-8.11587E-01 2.26305E+00
 -1       641-5.61436E+00-5.86814E+00-5.55437E+00-6.82085E-01 8.75955E+00 6.51730E+00
 -1       642-2.19340E+01-2.23376E+01-1.86384E+01-3.52585E+00 1.05850E+01 8.68666E+00
 -1       643 7.64623E+00 4.92854E+00 4.47663E+00-3.60250E+00-2.13210E+00 1.28132E+01
 -1       644-6.33710E+00-5.57113E+00-6.61371E+00-5.68456E+00-2.44178E+00 1.07742E+01
 -1       645 1.43426E+00-3.10615E-01-1.37749E-01 1.47921E+00-9.68529E+00-2.21187E+00
 -1       646-3.44552E+00-8.17115E+00-5.19872E+00 1.62046E+00-1.01143E+01-1.63788E+00
 -1       647 2.09016E+00 6.81858E+00 2.89364E+00 2.28828E+00 6.94424E+00 7.19344E+00
 -1       648-2.00243E+01-1.03897E+01-1.63545E+01-2.59029E-01 7.23125E+00 6.33267E+00
 -1       649 6.14847E+00 1.93832E+01 1.07678E+01 3.98388E+00 9.56647E+00-2.73645E+00
 -1       650-7.59826E+00 3.27273E+00-9.75864E-01 6.84227E+00 6.40424E+00-1.07438E+00
 -1       651 4.86901E+00 9.74794E+00 7.92415E+00-2.11972E+00 4.34613E+00-9.34893E+00
 -1       652 4.28450E+01 3.55370E+01 3.29989E+01-5.00576E+00 7.21992E+00-1.35070E+01
 -1       653 5.56573E+00 8.00770E+00 4.66155E+00 4.40822E+00 4.50958E+00 1.18994E+01
 -1       654-7.97463E+00-3.04482E-01-5.05159E+00 5.53148E+00 4.54719E+00 1.05407E+01
 -1       655 2.05554E+01 1.65658E+01 1.56280E+01 2.19414E+00 6.91918E+00 1.29444E+01
 -1       656-9.33040E+00-6.19713E+00-4.17386E+00-1.90104E+00 4.05717E+00 6.96591E+00
 -1       657 1.46202E+01 6.32520E+00 8.22503E+00 6.51486E+00 1.04723E+01 6.63390E+00
 -1       658 6.60917E+00-9.19449E+00-2.11064E+00 7.71179E+00 8.77785E+00 6.29273E+00
 -1       659 4.97210E+00 7.82038E+00 5.15796E+00-3.25915E+00 1.09452E+01 1.04088E+00
 -1       660-7.54726E+00-8.71327E+00-7.18525E+00-5.57610E+00 9.70205E+00 8.99107E-01
 -1       661 9.82792E+00 1.34017E+01 1.00012E+01 9.29869E-02 1.13510E+01 2.42094E+00
 -1       662-1.01404E+01-1.30128E+01-8.75860E+00-2.16325E+00 9.28864E+00 2.27088E+00
 -1       663-7.18717E+00-7.03021E+00-6.62626E+00 3.78302E+00 7.83196E-01-1.26281E+01
 -1       664 8.74438E+00 3.72408E+00 4.43477E+00 5.42367E+00 5.23486E-01-1.22558E+01
 -1       665 4.03653E+00-1.34124E+01-3.67611E+00 5.47596E-01 7.39413E+00-8.87844E+00
 -1       666 2.55847E+01-2.23901E+00 1.02380E+01-2.02687E+00 6.49683E+00-7.72366E+00
 -1       667 1.88150E+00 1.01215E+00-8.59864E-01-2.24037E+00 1.03269E+01-6.94634E+00
 -1       668-7.03359E+00-1.24356E+01-9.80825E+00-1.32635E+00 7.25328E+00-7.15742E+00
 -1       669-7.10548E+00-8.36845E+00-8.22900E+00 4.87715E-01 9.81159E+00-4.51170E-01
 -1       670-2.31861E+01-3.13164E+01-2.29456E+01 1.63359E+00 1.32648E+01-1.30638E+00
 -1       671 3.36999E+01 3.73423E+01 2.99088E+01-5.36001E+00 1.06236E+01-8.71832E+00
 -1       672-6.39782E+00 9.89546E-01-1.63026E+00 2.25316E+00 5.21204E+00-5.37034E+00
 -1       673 2.07561E+01 1.63801E+01 1.56751E+01 7.01758E+00 1.28461E+00 1.26840E+01
 -1       674 1.05268E+01 9.46249E+00 8.48707E+00 9.87248E+00 1.19427E+00 1.13627E+01
 -1       675 4.23184E+00 7.02680E+00 3.18216E+00 1.01219E+00-1.13510E+01 8.70376E-01
 -1       676-5.22700E+00-1.08052E+01-2.86021E+00 1.73862E+00-7.50880E+00 6.05589E-01
 -1       677-1.01041E+01-8.96446E+00-9.28476E+00 1.18843E+00-3.06369E+00 8.29236E+00
 -1       678-3.46248E+01-2.67774E+01-2.58503E+01 2.85890E+00-3.63858E+00 1.19946E+01
 -1       679 6.49488E+00 2.15478E+01 1.17560E+01 4.83094E+00-1.17373E+01 3.29746E+00
 -1       680-7.21547E+00 1.07964E+01 1.42524E+00 9.29669E+00-1.02303E+01 2.67967E+00
 -1       681 2.96397E+01 3.50997E+01 2.72553E+01-4.32693E+00-1.23419E+01 6.59712E+00
 -1       682-1.65390E-01-2.85854E+00 4.36405E+00 1.39620E+00-5.36644E+00 3.18287E+00
 -1       683-6.93391E+00-9.76930E+00-6.93488E+00 2.15900E-01-1.08393E+01-1.82394E+00
 -1       684-2.23011E+01-3.10319E+01-2.24532E+01 3.49806E-01-1.39836E+01-1.37717E+00
 -1       685 2.63595E+01 2.62308E+01 2.21405E+01 4.24885E+00-1.08865E+01-8.93413E+00
 -1       686-2.93215E+00-4.78878E+00 1.33221E+00-1.82156E+00-5.87046E+00-4.24244E+00
 -1       687-3.55697E+00-3.49110E+00-8.97318E-01-1.49273E+00-3.96857E+00-1.01218E+01
 -1       688 9.73908E+00 4.74884E+00 3.52743E+00 7.68762E-01-4.83652E+00-1.05444E+01
 -1       689 9.33300E+00 1.05617E+01 1.50946E+01 1.22574E-01-8.17507E-01-7.51696E+00
 -1       690 3.56569E+01 2.59298E+01 2.59280E+01 4.88325E-01-1.27996E+00-1.29966E+01
 -1       691-2.37130E+01-2.02184E+01-1.84951E+01 3.00652E+00-5.75006E+00 1.07572E+01
 -1       692 8.40287E+00 6.73200E+00 9.56815E+00-4.20565E-02-5.44426E+00 6.29065E+00
 -1       693 4.36271E+00 2.10468E+00 7.78676E+00 1.45312E+00-6.65484E+00 5.63288E+00
 -1       694 8.05518E+00 7.55771E+00 1.16580E+01-2.04111E-01-6.24225E+00-3.37310E+00
 -1       695-7.13312E+00-8.39289E-01-1.37366E+00-1.11685E+00-7.69158E+00-8.09245E+00
 -1       696-3.54075E+01-2.81922E+01-2.67755E+01-3.64436E+00-4.62366E+00-1.52419E+01
 -1       697-7.73765E+00-4.97243E+00-2.41318E+00 1.28319E+00 2.15524E+00-1.02016E+01
 -1       698 4.60938E+00 2.52929E+00 5.68806E+00 4.73059E-01-7.07547E+00-7.50859E+00
 -1       699 9.30357E+00 4.75202E+00 3.56333E+00-4.17129E-01 2.82182E+00-9.06853E+00
 -1       700-2.51845E+00-1.96128E+00-1.93925E+00-1.91654E-01-2.13773E+00-1.07959E+01
 -1       701 3.85590E+00 2.09338E+00-2.08580E+00-1.61208E+00-3.26090E+00 7.00264E+00
 -1       702 3.48518E+01 3.26443E+01 2.84159E+01-5.21711E+00-9.21617E+00 1.12302E+01
 -1       703 2.71039E+01 2.78527E+01 2.31367E+01-4.35216E+00-1.21583E+01 9.97783E+00
 -1       704 2.75964E+01 3.36188E+01 2.57716E+01 3.80419E+00-1.18114E+01-6.31358E+00
 -1       705-1.11785E+01-5.90233E+00 7.11952E-01-5.38221E-01-9.62287E-01-3.32601E-01
 -1       706-3.55883E+00-3.57136E-01 3.24412E-01-3.19753E-01-1.78860E-01-1.92704E+00
 -1       707-1.02592E+01-3.21608E+00-1.36467E+00-2.60930E-01-5.68261E-01-3.56198E-01
 -1       708-5.47017E+00-5.61076E+00 1.00466E+00 1.37391E-01 3.18067E-01-5.95288E-02
 -1       709-5.74308E+00-3.20853E+00 2.23834E-01-1.81408E-01 9.86572E-01 1.23000E+00
 -1       710 2.78124E+00 4.61600E-01 3.49378E-02 8.67586E-01-3.68623E-01 7.37845E-01
 -1       711-5.01831E+00-6.97533E+00-2.27595E+00 2.60188E-01 5.98513E-01 2.41139E+00
 -1       712-8.28680E+00-1.06682E+01-3.82538E+00 1.07631E+00 1.41948E-01 1.17339E+00
 -1       713-3.49878E+00-1.32065E+00-6.67366E-03-6.51407E-01-4.08755E-01-1.43890E+00
 -1       714-1.07030E+01-7.37288E+00 1.39663E+00-2.09759E+00-2.06536E-01-7.38296E-01
 -1       715-2.27740E+00-7.29213E-01-6.32310E-01-6.64934E-01-1.90425E-01-1.16115E+00
 -1       716-8.62132E+00-1.03913E+01-3.74831E+00 7.66917E-01 2.56117E-01 6.69171E-01
 -1       717-5.44133E+00-5.58624E+00-2.19435E+00 9.12970E-01 7.78803E-01 1.85017E+00
 -1       718-8.81137E+00-1.09322E+01-4.51469E+00 1.03341E+00 1.16200E+00 1.28717E+00
 -1       719-1.00055E+01-8.00255E+00 1.36400E+00-1.57603E+00 1.02568E-01-5.31038E-01
 -1       720-1.31721E+00-1.71942E+00 5.79049E-01-1.60331E+00-9.01429E-01-7.25400E-01
 -1       721 2.37289E+00 3.35945E+00 2.27951E+00 4.39941E-01 1.16561E+00 1.36195E+00
 -1       722-2.01557E+00-4.82981E+00 4.38821E-01-9.48972E-01-1.61306E+00-4.23242E-01
 -1       723-6.16034E+00-4.73700E+00-2.46903E-01 3.73664E-01 4.29789E-01 2.87783E-01
 -1       724-5.54296E+00-3.58741E+00-5.34402E-01 2.16248E-01 6.57452E-01 1.63032E+00
 -1       725-1.01386E+00-3.42298E+00-2.32712E-01-4.90204E-01-1.56329E+00 1.42281E-01
 -1       726-1.01077E+01-1.18656E+01-2.56927E+00-4.52328E-01-4.94573E-01 2.35949E-01
 -1       727-3.23283E+00-5.27973E+00-1.31087E-01-1.94100E-01-2.23818E+00-8.87464E-02
 -1       728-4.50983E+00-1.99575E+00 1.31633E-01 2.09389E-01 6.98571E-01 5.33309E-01
 -1       729-4.01894E+00-2.84516E+00 1.24142E+00-6.40956E-01 7.35234E-01-1.43802E-01
 -1       730-5.87330E+00-5.22294E+00-2.27908E-03 9.79579E-02 6.53354E-01-1.67727E-01
 -1       731-3.52490E+00-3.29227E+00-1.99661E-01-6.21302E-01 1.94944E+00-1.49161E+00
 -1       732-7.02943E+00-5.74096E+00-8.40838E-01-8.99391E-01 2.23879E+00-1.01102E+00
 -1       733-1.09250E+00-2.24181E+00-5.50628E-01 1.25677E+00-8.41755E-01 9.53510E-01
 -1       734-8.03359E+00-7.35285E+00 1.16444E+00 2.15514E+00 1.33481E-01 3.37085E-01
 -1       735-3.03727E+00-3.61813E+00-4.73616E-01 1.59398E+00-1.23494E+00 1.42783E+00
 -1       736-1.21505E+01-1.16363E+01-6.20607E+00-1.76834E+00 2.20181E+00-3.15268E-01
 -1       737-2.44190E+00-1.07892E-01 2.59455E-01 1.04707E+00-8.50389E-01 1.92023E+00
 -1       738-1.12744E+01-7.15241E+00 4.41791E-01 4.40503E-01-3.22810E-01 6.84936E-01
 -1       739-4.29775E+00-1.25046E+00 1.20584E-01 1.11349E+00-3.83856E-01 1.90130E+00
 -1       740-1.05207E+01-1.24928E+01-5.46715E+00-1.34368E+00 7.20347E-01-1.12488E+00
 -1       741-5.30182E+00-6.23679E+00-1.89010E+00-5.94368E-01 8.52480E-01-2.29578E+00
 -1       742-6.31278E+00-8.03803E+00-5.74598E+00-7.72597E-02 3.94515E-01-1.29489E+00
 -1       743-3.37976E+00-7.40535E-01 2.55183E-01 4.75977E-01-4.87406E-02 1.23771E+00
 -1       744-1.12882E+01-9.03456E+00 1.13852E+00 3.79268E-01 2.74852E-01 4.54682E-01
 -1       745-3.89997E+00-1.54077E+00-1.89773E-01 1.00321E-01-1.42806E-01 1.39754E+00
 -1       746-6.87955E+00-1.11281E+01-4.15720E+00-3.42505E-01 4.14514E-01-1.65619E+00
 -1       747-4.94008E+00-6.47117E+00-2.26872E+00 2.94838E-01-2.39493E-01-1.88297E+00
 -1       748-6.36530E+00-7.24152E+00-4.74677E+00-4.01344E-01-4.66291E-01-1.63969E+00
 -1       749-3.28283E+00-3.84785E-01-2.91897E-01-1.04837E+00 5.05956E-01 1.71662E+00
 -1       750-1.09909E+01-6.83769E+00-2.87511E-01-9.74864E-01 6.72739E-01 6.22145E-02
 -1       751-3.04156E+00-4.37948E-01-7.91688E-01-5.53922E-01 1.14400E+00-1.38842E+00
 -1       752-2.08090E+00-3.26963E+00 1.34841E+00 5.68437E-01-4.84382E-01-3.96572E-01
 -1       753 7.49099E-01-1.06175E+00-2.83126E-01 1.21804E+00 7.55229E-01 4.30267E-01
 -1       754-9.85166E+00-1.17495E+01-5.76639E+00 9.29997E-01-1.28948E-01-8.86439E-01
 -1       755-4.26561E+00-4.61831E+00-2.08785E+00 5.21095E-01-1.19212E+00-1.60811E+00
 -1       756-4.05863E+00-4.54095E+00-2.03552E+00-2.65380E-01-9.93166E-01-2.09437E+00
 -1       757-2.27538E+00-3.06604E+00 1.51967E-01-1.75181E+00 1.11840E+00 1.43460E+00
 -1       758-1.04254E+01-8.66540E+00-5.18643E-01-1.71307E+00 1.31473E+00 9.06817E-01
 -1       759-6.03908E+00-5.48769E+00 1.02722E+00 2.05891E-01-4.26151E-01-9.51684E-01
 -1       760-4.00973E+00-3.74151E+00 3.39905E-01 1.15844E+00-5.99998E-01-9.62220E-01
 -1       761 1.27147E-01 2.30395E-01-3.06045E-02 2.97089E+00 1.16428E+00 1.31183E+00
 -1       762-5.52153E+00-5.26356E+00-8.94420E-01 1.15520E+00-2.04420E+00-1.19965E+00
 -1       763-8.29796E+00-8.34995E+00-3.63577E+00 1.67562E+00-1.24502E+00-9.12903E-01
 -1       764-1.96803E+00-5.40786E+00-5.40665E-02-1.08223E+00 1.62783E+00 5.29855E-01
 -1       765-8.97199E+00-1.11744E+01 4.67830E-01-1.53045E+00 6.86245E-01 1.13674E-01
 -1       766-3.83097E+00-4.92953E+00 1.56324E+00 7.08793E-03-7.61371E-01-3.22597E-02
 -1       767-7.42670E+00-5.79197E+00-1.67927E+00 4.24747E-01-1.89144E+00-1.10611E+00
 -1       768-7.95192E+00-6.14768E+00-4.47188E+00-9.56676E-02-1.38164E+00 4.58112E-01
 -1       769-1.30949E+00-5.16808E+00 2.09106E-01 1.12548E+00 1.68633E+00-5.90202E-01
 -1       770-7.87103E+00-1.20012E+01 6.70808E-01-3.00618E-01 3.91226E-01 8.74504E-01
 -1       771-6.64382E-01-1.26724E+00 6.65532E-01 6.10218E-01-2.37487E+00-8.07112E-01
 -1       772-6.13569E-01 1.49425E+00-1.08821E+00 1.62819E-01 4.32277E-01 5.35090E-01
 -1       773-4.76426E+00-4.01818E+00-5.48259E-01-5.43304E-01-1.92784E+00-3.37829E-01
 -1       774-9.88610E+00-7.13595E+00-2.35507E+00-5.64819E-01-1.33525E+00-8.93475E-02
 -1       775-1.52667E+00-3.94402E+00 2.62276E-02 1.06705E+00 1.90255E+00-6.50709E-01
 -1       776-7.27755E+00-9.66049E+00 5.33025E-01 9.30716E-01-8.64273E-02-3.12429E-01
 -1       777-2.85834E+00-2.81353E+00 1.85365E+00-2.37565E-01-1.85959E+00-2.21466E+00
 -1       778-2.66901E+00-3.21297E+00 1.74765E+00-2.94910E-01-9.23091E-01 4.44689E-01
 -1       779-6.55847E+00-5.97398E+00-3.09792E+00-1.67157E-01-1.64681E+00-4.65838E-01
 -1       780-2.73328E+00-1.01412E+00 5.39081E-01 1.48701E+00 7.59142E-01-1.06685E+00
 -1       781-7.61347E+00-8.24777E+00 2.14150E+00 2.91657E+00-4.23275E-01-2.84102E-02
 -1       782-5.11993E+00-4.39827E+00 2.18307E+00 2.15332E-01 1.78400E-04-1.31054E-01
 -1       783-3.55061E+00-1.65876E+00-2.20720E-01-9.92867E-03-1.09651E+00 1.26990E+00
 -1       784-2.69939E-02 7.17094E-02-3.67191E-01-7.55512E-01 2.83098E-01 3.59615E-01
 -1       785-1.00366E+01-1.14139E+01-6.04323E+00-1.12752E+00-1.29681E+00 1.11100E+00
 -1       786-6.09656E+00-2.32290E+00-5.91438E-01 1.25392E+00 1.44585E-01-9.70868E-01
 -1       787-1.05308E+01-6.63951E+00 1.49128E+00 1.36422E+00 7.34704E-01-1.41532E+00
 -1       788-4.73031E+00-4.93724E+00 1.82998E+00-3.87465E-01-2.73539E-03 3.26554E-01
 -1       789-1.66870E+00-2.93798E+00 5.88772E-01 5.23867E-01-8.95735E-01 1.04744E+00
 -1       790 1.13311E+00 5.31758E-01-1.34160E+00-2.63511E-01-4.13059E-01-5.83342E-01
 -1       791-9.28833E+00-1.08168E+01-4.05994E+00-1.08849E+00-5.11621E-01 5.78118E-01
 -1       792-5.15301E+00-6.88063E+00-4.01418E+00 3.73078E-01 3.84552E-01 2.49321E+00
 -1       793-5.35771E+00-6.37993E+00-9.50028E-01-3.81846E-01 4.43358E-01 1.63953E+00
 -1       794 1.61376E+01 2.04304E+01 1.28067E+01 3.00689E+00 6.42844E+00 5.57346E+00
 -1       795-3.25938E+00-2.70654E+00-4.69520E+00 5.05240E-01-8.16902E+00-1.02587E+00
 -1       796 2.94975E+01 2.66342E+01 2.36314E+01 4.46476E+00 7.66148E+00 1.06604E+01
 -1       797 1.25740E+01 1.44419E+01 1.13506E+01-3.83457E+00 6.99199E+00-1.99856E+00
 -1       798 1.44213E+00-4.68474E-01 5.77210E-01-2.60666E+00 3.91399E+00 1.13158E+01
 -1       799 2.78127E+01 2.21058E+01 2.10157E+01 3.25243E+00 6.77342E+00 1.10564E+01
 -1       800 6.49483E+00 4.91207E+00 5.54552E+00-1.66676E-01 6.03853E+00 1.07203E+01
 -1       801 2.37060E+00 1.95981E+00 6.03863E+00-8.05062E-01 4.70951E+00 7.78947E+00
 -1       802 6.46012E+00 1.19178E+01 5.49221E+00 5.60047E-01 9.11155E+00 5.06777E+00
 -1       803-6.34041E+00-7.07218E+00-7.06981E+00-5.22800E-01 7.83938E+00 4.68872E+00
 -1       804-2.80902E+00-9.05411E-01-2.93142E+00-9.44897E-01 8.20242E+00 4.63790E+00
 -1       805-2.15717E-01 3.68461E+00 9.34107E-01-2.20781E+00 8.20249E+00 2.35418E+00
 -1       806 2.23539E+01 2.95248E+01 2.18409E+01 2.01092E+00 1.39511E+01 4.23209E+00
 -1       807-1.30177E+00 5.14035E-01 1.46901E+00-2.18130E+00 7.31253E+00 2.06581E+00
 -1       808-3.85003E+01-2.79888E+01-2.79919E+01 5.01712E-01 1.41845E+00-1.44028E+01
 -1       809-1.43333E+01-6.00008E+00-1.00267E+01 9.15495E-01 6.55835E+00-8.14166E+00
 -1       810 3.33129E+01 3.37243E+01 2.82227E+01-4.56204E+00 8.97836E+00-1.19370E+01
 -1       811-3.99501E+00 6.42991E+00-1.16879E+00 3.21271E+00 6.25341E+00-6.07072E+00
 -1       812-4.01139E+00-2.72116E-02-3.76005E+00 2.00308E+00 7.75821E+00-3.86984E+00
 -1       813-2.21870E+01-1.57463E+01-1.51091E+01 7.33548E+00 8.26329E+00-5.80524E+00
 -1       814-1.58066E+00-6.59646E-01-3.02471E+00-3.62342E-01 6.90328E+00-9.38728E-01
 -1       815-4.11757E+00-3.11855E+00-6.25253E+00 5.73201E-01 6.80016E+00-1.07224E+00
 -1       816-2.63070E+01-3.55861E+01-2.60570E+01 1.26147E+00 1.24945E+01-1.79139E+00
 -1       817 7.07875E+00 3.56840E+00 5.54611E+00-1.47831E+00 9.18239E+00-4.93459E+00
 -1       818 2.13605E+00 7.22244E+00 4.51510E+00-1.19627E-01 6.36274E+00-4.83229E+00
 -1       819-1.90883E+00-4.83208E+00-2.00596E+00 1.02607E+00 7.42116E+00-5.43766E+00
 -1       820 4.19613E+00 3.27336E+00 3.24240E+00 5.56746E-01 1.21360E+00 1.02371E+01
 -1       821 4.74071E+00 9.20491E-01-3.19796E+00-4.62485E-01 1.00815E+00 8.08056E+00
 -1       822-2.08148E+01-1.50197E+01-1.50863E+01 5.60564E-02 1.42682E+00 1.44878E+01
 -1       823-6.01489E+00-4.06847E+00-9.82892E+00-5.18030E-01-6.23096E+00 1.40198E+00
 -1       824 1.19953E+01 1.24562E+01 7.22315E+00-3.85829E+00-8.80078E+00 1.61499E+00
 -1       825 1.11751E+01 1.19796E+01 9.67403E+00-3.88052E+00-8.40885E+00 1.98283E+00
 -1       826-2.76052E+00-6.68243E+00-4.04973E+00-9.72877E-01-9.76865E+00 2.55622E+00
 -1       827 5.33831E+00 9.90175E+00 2.07392E+00-1.48622E+00-6.85476E+00 5.06780E+00
 -1       828 4.95280E+00 3.02173E+00 9.23200E+00 5.50530E-01-6.20678E+00 3.82163E+00
 -1       829 4.59419E+00 9.93035E+00 2.43638E+00 1.91515E+00-8.10368E+00-1.22864E+00
 -1       830 1.14636E+01 1.62817E+01 1.19364E+01-1.16970E+00-9.25645E+00-2.84833E+00
 -1       831-7.01639E+00-9.49036E+00-4.01511E+00 1.47144E+00-9.09699E+00-7.80968E-01
 -1       832 2.95284E+01 3.01158E+01 2.51102E+01 4.57273E+00-1.05601E+01-9.98169E+00
 -1       833-1.68885E+00 2.48685E+00 9.81931E+00 3.00344E-03-1.09595E+00-6.06685E+00
 -1       834-1.10729E-01-1.92713E+00-2.76568E+00 1.72832E+00-4.51530E+00 9.60917E+00
 -1       835-1.19220E+01-7.83242E+00-8.88579E+00 1.34117E+00-6.79679E+00 8.42550E+00
 -1       836-5.70391E+00-8.67551E+00 6.39589E-01 3.36599E+00-4.99836E+00 6.22147E+00
 -1       837 5.01339E+00 3.58431E+00 9.13589E+00 2.54392E-01-6.17978E+00 5.68639E+00
 -1       838-1.27701E+01-9.78297E+00-7.31496E+00-4.26317E+00-9.20523E+00-5.87977E+00
 -1       839 4.94198E+00 5.07152E+00 9.81333E+00-6.52093E-01-4.11740E+00-3.35489E+00
 -1       840-5.18344E+00-1.11255E+01-3.50121E+00-2.43982E+00-6.10239E+00-6.84956E+00
 -1       841-6.36002E+00-1.45993E+01-9.32239E+00-4.92276E+00-6.78216E+00-7.61092E+00
 -1       842-4.55788E+00 1.12624E+00 2.35032E+00 8.75370E-01-1.67062E+00-1.15941E+01
 -1       843-3.29054E+00-3.57620E-01 3.16946E+00 8.33271E-01 2.64361E+00-9.28436E+00
 -1       844 1.37674E+01 6.11477E+00 9.60644E+00-1.49276E+00-9.08284E+00-9.50573E+00
 -1       845-4.01661E+00-4.12130E+00-5.68398E+00 3.14351E-02 2.83387E+00-8.81614E+00
 -1       846 8.99391E+00 2.17899E+00 7.08715E-02 2.77975E-01-2.33272E+00-9.58016E+00
 -1       847-2.76329E+00-5.66583E+00-9.67137E+00-9.83604E-01-3.83702E+00 6.59347E+00
 -1       848 1.42482E+01 8.30341E+00 7.15758E+00-2.28230E+00-6.31261E+00 9.08715E+00
 -1       849 4.80328E+00 4.04069E+00-1.16992E+00-2.32400E+00-7.62012E+00 5.51810E+00
 -1       850 2.96887E-01 4.27187E+00-4.27346E-01-4.58097E-01-7.29886E+00-5.06090E+00
 -1       851-5.05709E+00-7.34912E-01 1.44836E-02-1.77150E-01-1.58855E-02-1.71671E+00
 -1       852-2.66175E+00-3.45917E+00 1.56010E+00-4.71864E-01 1.35948E+00 1.31079E+00
 -1       853-5.43928E+00-5.46771E+00 8.56831E-01-3.48555E-01-4.11825E-01 6.63785E-01
 -1       854-4.89314E+00-3.14284E+00-5.38857E-01-9.46668E-02-1.34432E+00 5.15243E-01
 -1       855 2.40280E+00 2.16633E-01 5.10184E-01 3.74354E-01-4.49369E-01 2.92638E-01
 -1       856-3.87252E+00-1.02870E+00 8.25658E-01-1.58523E-01 4.53982E-01 7.45672E-01
 -1       857-9.24271E+00-1.12538E+01-5.18202E+00-2.79525E-01-1.01551E-01 1.13138E+00
 -1       858-4.32628E+00-4.16544E+00-2.85043E+00-7.72497E-01 5.76663E-01 3.19327E+00
 -1       859 5.32016E+00 2.69599E+00 3.18211E+00 6.18003E-01 5.93028E-01 3.81249E+00
 -1       860-2.27961E+01-3.36229E+01-1.15722E+01 3.06855E+00 1.00225E-01 7.04930E-01
 -1       861-3.58860E+00-5.31834E+00-1.34618E+00-8.89590E-01-1.05534E+00 2.73676E+00
 -1       862-1.47348E+01-1.78157E+01-6.80112E+00 2.75346E-02 1.50020E-03 9.39232E-01
 -1       863 2.13212E+00 1.35600E+00 5.25780E-01 9.06349E-01-7.75901E-01 3.77069E+00
 -1       864-3.37998E+00-2.49481E+00-1.46895E+00-1.69035E-01-1.71672E-02 2.15334E+00
 -1       865-4.62921E+00-5.30510E+00-2.59862E+00-4.15688E-01-4.50735E-01 2.47903E+00
 -1       866-7.80572E+00-9.41024E+00-2.99794E+00-3.45715E-01-3.51412E-01 1.62299E+00
 -1       867-9.50837E-01-2.34071E+00 2.66338E-01 1.05084E+00 1.22953E+00 1.47388E+00
 -1       868 1.58036E+00 5.38957E-01-7.27278E-01 1.20243E+00-4.22803E-01-3.29977E-01
 -1       869-6.10468E-01-1.19227E+00 8.54302E-01 1.95114E-01 5.84672E-01 1.85705E+00
 -1       870 1.27010E+00 2.71190E-01-5.07679E-01 8.06121E-01-4.82190E-01-7.60448E-01
 -1       871-3.60637E+00-4.09843E+00 1.37611E+00 8.66278E-01-5.24137E-02 1.02022E+00
 -1       872-4.89981E+00-6.51170E+00 7.30469E-01 5.62798E-01-1.87006E-01 9.46711E-01
 -1       873-5.37283E+00-4.10966E+00-1.17659E+00-2.11058E-01 1.88969E+00-7.26712E-02
 -1       874-2.83792E+00-2.28793E+00 4.21841E-02-3.92325E-01 1.40500E+00 4.35952E-01
 -1       875-8.20162E+00-3.37486E+00 1.52351E+00-3.18900E+00 1.43254E-01-3.16963E-01
 -1       876-3.41162E+00-5.01960E+00-2.83319E+00 1.20627E+00 1.77796E+00 3.07501E+00
 -1       877 2.89485E+00 2.01645E+00 1.52452E+00 1.64089E+00 1.28654E+00 1.52691E+00
 -1       878-1.72859E+01-2.14313E+01-4.67379E+00 1.82866E+00-7.52298E-01 1.02769E+00
 -1       879-5.88772E+00-7.07373E+00-2.02031E+00 8.41896E-01 4.53127E-01 8.32896E-01
 -1       880-1.51982E+01-2.18203E+01-4.86228E+00 1.45806E+00-6.58318E-01 5.09225E-01
 -1       881 2.12310E+00 1.32975E+00 8.42559E-01 1.35479E+00 5.54399E-01 2.42474E+00
 -1       882-1.72853E+00-1.53837E+00-6.13954E-01 1.42166E-01 1.30901E+00 2.83724E+00
 -1       883-3.43423E+00-4.29117E+00-2.28662E+00 8.47046E-02 7.52995E-01 2.51804E+00
 -1       884-7.84322E+00-1.04143E+01-3.13021E+00 7.90192E-01-9.89442E-01 1.77239E+00
 -1       885-1.95627E+00-2.73838E+00 5.06984E-02-1.67760E+00-1.07053E+00-8.34625E-01
 -1       886-4.16894E+00-2.54292E+00-5.53238E-01 9.78767E-01 1.58419E-01 1.73387E+00
 -1       887 1.30106E+00 2.32932E+00 4.69218E-01 8.82746E-01-1.09277E+00-1.39071E+00
 -1       888-7.97494E-01-1.05203E+00-9.21409E-01 2.39335E+00 3.42660E-01 6.27579E-01
 -1       889 1.11800E+00 1.50516E+00-1.40521E-01 2.06019E+00 5.75347E-01 1.89289E-01
 -1       890 3.13455E-01 1.09767E+00-1.09052E+00 1.23281E+00-7.35410E-01-1.12909E+00
 -1       891-5.25891E+00-3.43299E+00 1.53953E+00 7.88299E-02 5.81561E-01 8.26600E-01
 -1       892-4.55926E+00-2.87457E+00-8.57832E-02-7.42272E-01 1.33862E+00-8.25011E-01
 -1       893-9.61857E-01-9.90402E-01 8.02605E-01 3.46726E-01 1.03672E+00-3.32388E-01
 -1       894-6.93259E+00-5.10846E+00-2.14802E-01-3.41190E+00 1.45625E-01-8.06772E-01
 -1       895-1.21334E+00-1.10446E+00-1.28504E+00 1.45196E+00 2.11684E+00 1.85532E+00
 -1       896 3.88717E+00 3.71725E+00 5.48540E+00-5.75095E-01 3.46203E+00 2.54167E+00
 -1       897-1.56847E+01-1.50807E+01-3.42498E+00 1.23764E+00 8.50497E-01 2.21736E-01
 -1       898-1.03462E+01-8.67097E+00-3.81028E+00 1.40329E+00 9.89425E-01 8.33013E-01
 -1       899-8.74248E+00-8.99966E+00-6.35177E+00 2.12339E+00 1.77915E+00 1.09964E+00
 -1       900-1.74586E+01-1.97442E+01-1.20116E+00 2.88994E+00-1.14200E+00 1.10678E+00
 -1       901-3.02303E+00-3.54403E+00-2.18775E+00 1.97144E+00 2.07201E+00 2.15768E+00
 -1       902-7.80105E+00-6.79878E+00-5.09430E+00 1.29609E+00 1.63904E+00 1.12606E+00
 -1       903-5.28618E+00-5.01857E+00-1.09234E+00 1.42324E+00 2.12090E+00 2.58393E-01
 -1       904-6.45938E+00-6.12005E+00-2.19061E+00 1.57169E+00 1.61560E+00 2.61355E+00
 -1       905-4.18918E+00-2.93476E+00-1.15025E+00 1.38263E+00 1.08219E+00 2.05307E+00
 -1       906-6.13105E+00-9.12048E+00 9.90922E-01-1.46875E+00-1.24174E-02-3.91721E-02
 -1       907-1.22804E+00-2.97955E+00 5.38135E-01-8.92528E-01-1.49020E+00-2.72401E-01
 -1       908-2.69263E+00-2.90043E+00-1.25342E+00 4.57123E-01 6.28835E-01-2.61540E+00
 -1       909-3.25276E+00-1.89812E+00 1.23689E+00 2.55645E-01 1.83564E+00-1.07150E+00
 -1       910-6.94235E-01 2.63855E+00-6.01947E-01 2.29299E+00-1.44779E+00-1.11894E+00
 -1       911-2.25209E+00 1.04705E+00 6.92123E-01 1.53494E+00 1.74389E+00 4.18946E-01
 -1       912-1.87670E+00 6.22788E-01-3.97570E-02 1.30161E+00 1.90592E+00-8.64855E-02
 -1       913-6.11203E-01 2.14753E+00-1.40988E+00 1.68287E+00-4.26133E-01-9.97140E-01
 -1       914-4.81609E+00-8.95438E+00-4.95595E-01-1.95669E+00 8.17072E-02-9.31656E-01
 -1       915-4.06007E+00-2.07261E+00-2.15010E-01 1.06050E+00 2.84879E+00 1.35244E+00
 -1       916-2.27781E+00 2.29127E+00-1.04641E+00 2.00101E+00 2.18414E+00 3.81611E-01
 -1       917-1.58812E+01-1.43102E+01-6.54775E+00 2.91673E-01 8.17672E-01-3.09537E-01
 -1       918-8.64405E+00-8.57206E+00-4.37674E+00-3.51209E-01 1.38080E+00 3.39424E-01
 -1       919-9.08888E+00-7.06577E+00-4.70413E+00-1.26252E-01 1.80900E+00 8.49019E-01
 -1       920-1.61988E+01-1.33742E+01-1.92822E+00 1.53552E+00 9.57133E-01 1.22415E+00
 -1       921 2.50418E-01 6.28843E+00 6.33342E-01 2.65930E+00 1.30931E+00 7.70108E-01
 -1       922-4.66992E+00-1.65031E+00-1.52174E+00 1.05992E+00 2.54556E+00 1.11030E+00
 -1       923-1.07301E+01-8.10792E+00-5.51990E+00 7.53971E-01 1.29238E+00 3.69549E-01
 -1       924-6.56305E+00-4.89658E+00-2.36089E+00 6.34356E-01 2.47301E+00 1.07081E-01
 -1       925-4.38832E+00-3.84683E+00-1.32633E+00 1.75758E-01 1.82780E+00 1.23171E+00
 -1       926-6.79912E+00-5.85666E+00-3.19398E+00 7.38771E-01 1.36749E+00 1.29642E+00
 -1       927-7.54709E+00-4.82615E+00 4.01316E-01 4.46570E-01 9.17081E-01-9.10956E-01
 -1       928-2.17358E+00-2.49109E-01 4.23402E-01-4.99027E-01 7.42523E-01-1.75640E+00
 -1       929-2.37752E+00 2.15180E+00-1.70800E+00 3.33372E-01-1.40633E+00-2.10997E-01
 -1       930-2.68877E+00-1.59085E+00 6.39782E-01-3.96906E-01 1.56453E+00-8.06891E-02
 -1       931-1.48910E-01 2.48272E-02 1.19962E+00-6.16900E-01 1.47317E+00 4.23915E-02
 -1       932-2.63845E-01 3.26378E+00-1.06970E+00 6.18251E-01-9.88196E-01-2.68754E-01
 -1       933-2.52137E+00-6.51222E+00-4.13912E-01-2.61462E-01-9.74785E-01-7.83528E-01
 -1       934-2.65707E+00-2.40849E+00 1.22932E-01 3.25846E-01 1.90521E-01 1.40815E+00
 -1       935-1.03306E+00 1.57406E-01 9.44569E-01 1.11592E-02 1.94044E+00 2.62341E-01
 -1       936-3.33735E+00-2.95229E+00-1.54789E+00-4.23928E-02 3.32860E+00 5.04863E-01
 -1       937-4.88205E-01 1.45734E+00 1.13785E+00-8.46362E-02 2.28179E+00-5.41822E-01
 -1       938-2.84592E+01-2.17517E+01-1.17573E+01-1.64776E+00 2.17108E-01-4.60581E-01
 -1       939-1.40217E+01-1.12338E+01-5.65362E+00 2.58541E-01 5.10864E-01 2.03754E-01
 -1       940-1.47078E+01-1.07384E+01-5.08381E+00 1.84501E-01 7.31239E-01 7.64726E-01
 -1       941-1.51718E+01-1.36465E+01-6.98478E+00-1.09431E+00 6.77303E-01 4.88264E-01
 -1       942-4.49163E+00-1.94553E+00-9.08740E-01 3.00624E-01 4.50849E+00 2.62683E-01
 -1       943-2.03292E+00 1.52745E+00 9.58004E-01-7.86855E-01 1.71464E+00-4.39950E-01
 -1       944-8.84649E+00-1.08629E+01 6.20420E-01 3.05479E-01-8.33173E-01-1.13005E-01
 -1       945-1.11691E+01-7.65168E+00-4.25850E+00-3.02974E-01 2.57170E+00 7.26633E-01
 -1       946-8.38996E+00-4.66797E+00-2.19473E+00-2.22576E-01 1.45577E+00-3.27714E-01
 -1       947-5.76263E+00-3.72403E+00-1.35843E+00 5.90555E-01 1.78016E+00 4.32058E-01
 -1       948-8.75811E+00-7.07267E+00-5.15174E+00 2.21835E-01 2.12049E+00-2.78766E-02
 -1       949-1.07538E+00-3.86283E+00 3.98432E-01 1.55517E+00-1.51504E+00 4.55723E-01
 -1       950-3.15281E+00-2.21292E+00 8.98900E-01-8.33923E-01 1.87063E+00 1.18660E+00
 -1       951-1.69987E+00-2.02098E+00 1.34295E+00 1.71284E-01 9.50456E-01 1.32414E+00
 -1       952-1.68195E+00-3.03202E+00-4.62326E-01 1.15675E+00-2.38677E+00 6.64882E-02
 -1       953-3.35986E+00-7.10302E+00-3.96999E-02 2.27472E+00-5.19845E-02-9.70801E-01
 -1       954 1.11643E+00 3.71624E+00-2.01244E+00-5.54208E-01-1.13080E+00 4.37176E-01
 -1       955-2.00440E+00 7.57896E-01 1.51163E-01-5.22475E-01 1.70050E+00 1.73643E-02
 -1       956-5.12602E-01 3.42895E+00-1.70149E+00-1.35981E+00-1.30096E+00 5.45083E-01
 -1       957-9.50744E-01 1.24496E+00 2.02371E+00-5.68326E-02 3.06545E+00-1.34554E+00
 -1       958 1.87067E+00 4.45768E+00 5.77224E-01-9.21014E-01 9.02618E-01-6.10269E-01
 -1       959-1.97324E+01-1.86081E+01-5.25883E+00-3.01211E+00 1.29911E+00 3.88406E-01
 -1       960-8.56649E+00-7.88833E+00-2.01339E+00-1.06312E+00 1.31676E+00-4.14555E-01
 -1       961-9.06395E+00-8.76253E+00-4.16114E+00-8.36302E-01 9.59395E-01 2.16394E-01
 -1       962-1.61434E+01-1.23971E+01-3.34462E+00-4.69572E-01 5.48138E-01 7.71492E-01
 -1       963 2.10699E+00 1.39885E+00 1.56819E+00 3.33765E-01 2.06109E+00-5.96866E-01
 -1       964-3.06934E+00-1.58106E+00-5.80537E-01-7.12071E-01 2.90303E+00-1.34234E+00
 -1       965-5.56891E+00-5.04556E+00-2.42111E+00-5.65109E-01 2.60244E+00-2.10594E-01
 -1       966-9.46498E+00-7.03991E+00-4.53012E+00 6.96507E-02 1.76334E+00-2.69361E-01
 -1       967-3.34027E+00-4.06259E+00 9.39412E-01-8.44538E-01 1.15280E+00-5.13742E-01
 -1       968 2.55300E-01 1.43380E+00-6.96741E-01-1.17980E+00-9.12478E-01 3.35298E-01
 -1       969-8.24804E-01-1.99578E+00-3.11645E-01-1.52398E+00 1.64210E+00-9.53665E-01
 -1       970 1.12586E+00 6.32773E-01 4.07386E-01-1.02033E+00 1.16741E+00-1.04198E+00
 -1       971 5.47699E-01 1.97097E+00-4.06221E-01-1.37473E+00-8.94127E-01 2.79272E-01
 -1       972-4.31849E+00-4.58767E+00 1.87699E+00 1.80816E-01 2.14064E-01-1.58938E-01
 -1       973-3.79727E+00-3.55872E+00 1.55069E-01 8.91968E-01-9.75934E-01-9.55579E-01
 -1       974-2.69213E+00-3.91087E+00-1.06684E+00-1.01877E+00-6.49345E-01-2.62252E+00
 -1       975-6.39712E+00-6.33767E+00 5.12117E-01 3.21083E+00 1.06776E-01-5.59755E-01
 -1       976-1.97282E+00-3.24264E+00-2.70717E+00-1.92651E+00 2.11071E+00-2.42201E+00
 -1       977-6.19982E-01-7.32929E-03-3.43868E-01-5.52796E-01 2.32946E+00-1.67166E+00
 -1       978-1.75348E+01-1.77394E+01-6.21617E+00-1.27519E+00 2.72381E-01 1.24034E-01
 -1       979-6.99282E+00-6.26215E+00-3.30713E+00 9.96686E-02 2.00110E+00-1.18714E+00
 -1       980-1.99400E+01-1.83962E+01 1.14896E-01-3.78397E+00 9.18358E-01 6.63114E-01
 -1       981-6.48707E+00-7.05111E+00-3.87648E+00-1.27901E+00 7.87657E-01-1.25535E+00
 -1       982-1.58733E-02 1.60040E+00 4.46469E-01-1.40456E+00 2.77477E+00-1.72040E+00
 -1       983-3.23711E+00-3.66389E+00-2.59613E+00-1.65501E+00 2.65167E+00-2.84098E+00
 -1       984-6.12327E+00-7.06493E+00-3.38931E+00-1.19783E+00 1.89545E+00-1.74498E+00
 -1       985-5.84980E+00-5.45147E+00-1.87432E+00-1.41860E+00 2.81213E+00-8.15301E-01
 -1       986-8.86586E+00-8.15695E+00-3.95838E+00-1.79075E+00 1.76533E+00-1.30725E+00
 -1       987-3.71749E+00-4.28720E+00 3.67860E-01-6.28499E-01 1.14699E-01-9.90626E-01
 -1       988 1.70966E+00-3.80019E-01-3.57032E-01-1.20862E+00-3.36170E-01 1.01151E+00
 -1       989-8.74809E-01-2.89050E+00 1.54354E-01-1.35779E+00 7.49158E-01-1.21977E+00
 -1       990 7.94535E-02-3.00357E-01 5.75426E-01-4.24265E-01 4.61841E-01-1.67530E+00
 -1       991 2.01528E+00-9.57568E-02-1.72377E-01-1.18266E+00-1.06871E-01-3.60016E-02
 -1       992-5.78100E+00-7.00461E+00-7.24762E-01-3.90888E-01 4.25497E-01-2.17625E-01
 -1       993-3.01836E+00-2.99169E+00 2.59652E-01-1.61371E-01-1.14765E+00-1.05982E+00
 -1       994-2.10982E+00-3.35878E+00 2.59601E-01 2.60681E-01-7.18168E-01-1.58447E+00
 -1       995-9.67810E+00-4.94785E+00-2.28963E-01 1.07096E+00-1.57202E+00 2.59423E-01
 -1       996-2.59616E+00-4.36450E+00-1.43707E+00-1.41501E+00 1.78192E+00-2.41796E+00
 -1       997 1.19380E+00 8.24877E-01 2.63417E+00-7.11777E-01 1.07042E+00-2.69602E+00
 -1       998-1.53345E+01-2.22244E+01-5.12507E+00 5.20679E-01 1.33465E+00-5.02111E-01
 -1       999-1.02559E+01-1.13871E+01-6.21624E+00-1.22105E+00 5.82144E-02-7.88781E-01
 -1      1000-1.29242E+01-1.53623E+01-4.16551E+00-7.44189E-01 3.56666E-01-1.07575E+00
 -1      1001 7.13479E-01-3.63279E-01 2.50537E+00-1.41840E+00 1.61819E+00-3.10986E+00
 -1      1002-1.95496E+00-3.55696E+00-1.61016E+00-1.20134E+00 1.50930E+00-2.58148E+00
 -1      1003-4.62923E+00-4.80624E+00-1.13213E+00-1.39297E+00 1.83553E+00-1.88648E+00
 -1      1004-7.87126E+00-1.02263E+01-3.36085E+00-1.45335E+00 8.53818E-01-2.26957E+00
 -1      1005-2.59740E+00-3.39205E+00 1.62635E+00-1.13470E-01-1.25976E-01-7.00866E-01
 -1      1006 2.35438E+00-1.02997E-01-2.11884E-01 6.12947E-01-6.02848E-01 7.38476E-01
 -1      1007-5.29159E-02 2.40483E-01 6.81469E-01-6.07100E-01 3.41755E-02-9.78723E-01
 -1      1008 1.81790E-01-4.52210E-04 6.67981E-01-7.87051E-01-1.42580E-01-9.46644E-01
 -1      1009 2.08162E+00-2.47733E-01-1.01496E+00 1.53199E-01-8.71773E-02 9.58398E-01
 -1      1010-4.24295E+00-5.18419E+00 1.77076E+00-4.87004E-01 3.48103E-01-4.72465E-01
 -1      1011-4.56244E+00-2.53622E+00-3.02648E-01-1.84203E-01-1.22755E+00-5.88943E-01
 -1      1012-2.04335E+00-1.55821E+00 1.33344E-01-5.35451E-01-9.24104E-01-1.06798E+00
 -1      1013-8.58031E+00-2.69280E+00 5.05292E-01-1.20859E-01-4.38954E-01 9.42293E-01
 -1      1014-1.66874E+00-1.45077E+00-2.80292E-01-4.50023E-01-1.84678E-01-2.50646E+00
 -1      1015 2.67422E+00 1.10569E+00 1.20137E+00 6.35439E-01-9.81820E-01-1.96135E+00
 -1      1016-1.46001E+01-2.32538E+01-3.84801E+00 6.53767E-01 5.92841E-01-2.31335E+00
 -1      1017-7.69740E+00-9.43391E+00-4.10214E+00 6.52419E-01-3.92783E-01-1.98871E+00
 -1      1018-1.52250E+01-2.04254E+01-5.28981E+00 3.31218E-01-2.66498E-01-1.60849E+00
 -1      1019 2.25974E+00-3.40217E-01 1.99970E-01 6.20364E-01 2.55660E-01-2.92069E+00
 -1      1020-3.11431E+00-3.15646E+00-1.67731E+00 1.39665E-01 1.03806E-01-2.72704E+00
 -1      1021-2.00113E+00-2.55423E+00-3.68058E-01 4.48629E-01 1.80177E-01-2.84144E+00
 -1      1022-4.39179E+00-7.71964E+00-2.16619E+00-5.22880E-01 2.23421E-01-1.67768E+00
 -1      1023-8.39816E+00-2.97479E+00 4.30405E-01-1.86791E+00-3.19660E-01 2.35630E-01
 -1      1024-4.91820E+00-1.34705E+00 2.06776E-01-5.84468E-01 1.21204E+00 2.28340E+00
 -1      1025-2.75907E+00-1.96246E+00-1.53895E-01-1.07618E+00-1.22604E+00-4.70964E-01
 -1      1026-2.94133E+00-3.59083E+00-1.64502E-01-2.75668E-02-1.53124E+00-3.74461E-01
 -1      1027-5.27354E-01-1.98652E+00 7.00485E-01 3.50619E-01-2.89921E-01-1.59092E+00
 -1      1028 1.61633E+00 3.08625E-01 3.25955E-01 9.12890E-01 6.57827E-01 6.22986E-01
 -1      1029-1.05471E+00-1.79926E+00 1.57584E-01 2.79351E-01 2.24307E-01-1.48211E+00
 -1      1030-4.44920E-01-1.58081E+00-1.46191E-01-1.67579E-01-1.75122E+00-2.17771E+00
 -1      1031 1.54858E+00 1.04758E+00 2.85960E+00 7.32983E-01-1.23917E+00-9.45461E-01
 -1      1032-1.43403E+01-1.83000E+01-6.57878E+00 1.24360E+00-1.59721E+00-1.42478E+00
 -1      1033-8.55373E+00-1.06649E+01-5.06818E+00-1.50238E+00-5.61457E-01-3.10760E-01
 -1      1034-1.42252E+01-2.27154E+01-5.14617E+00-1.09867E-01-1.37696E-01-1.74387E+00
 -1      1035-4.35203E-01-1.79154E+00 4.08360E-02 1.50625E+00-1.34993E+00-1.39732E+00
 -1      1036-3.53848E+00-5.02580E+00-1.58474E+00 6.60904E-01-1.17053E+00-2.26181E+00
 -1      1037-3.39098E+00-3.59921E+00-1.76827E+00 4.22762E-01-8.42495E-01-1.68109E+00
 -1      1038-7.89150E+00-1.09516E+01-5.53455E+00 6.49517E-01 3.74699E-01-1.59425E+00
 -1      1039-7.24583E+00-5.31294E+00 5.93483E-01-3.00561E+00 1.49132E+00 2.10843E+00
 -1      1040-3.50167E+00-3.31431E+00 2.47884E-01-1.52710E+00 1.47247E+00 1.41168E+00
 -1      1041-4.82631E+00-5.79708E+00 8.76425E-02-6.86587E-01-1.90866E+00 7.87289E-01
 -1      1042-1.86378E+00-1.59860E+00 6.72711E-01 2.73686E-01-1.15204E+00 8.42996E-02
 -1      1043-4.70392E-01-1.44844E+00-7.86388E-01 1.97349E+00-9.22560E-01-1.12742E+00
 -1      1044 1.03252E+00 1.62940E+00-1.08667E+00 1.46902E+00 1.31974E+00 2.36118E+00
 -1      1045 1.25704E+00 6.68636E-02-3.42335E-01 1.58362E+00-2.62642E-01-1.07745E+00
 -1      1046-1.09567E+01-1.55454E+01-4.45926E+00 1.94505E+00 2.76292E-01-7.91401E-01
 -1      1047-1.29730E+00-2.28009E+00-5.21149E-01 6.87106E-01-2.96226E+00-2.81499E+00
 -1      1048-7.70853E-01-7.47133E-01-7.70616E-01 4.96943E-01-2.29642E+00-2.83784E+00
 -1      1049-1.94106E+01-1.66296E+01-7.19351E+00 3.52227E+00 1.24507E-01-7.71308E-01
 -1      1050-5.09123E+00-6.66811E+00-7.51653E-01 7.24342E-01-1.16073E+00 2.95948E-02
 -1      1051-1.08840E+01-1.05915E+01-7.38147E+00 8.33067E-01-1.20240E+00-5.31200E-01
 -1      1052 2.80516E+00 1.86412E+00 1.65259E+00 2.46806E+00-1.18483E+00-3.70576E+00
 -1      1053-1.71439E+00-2.40225E+00-5.44654E-01 2.08972E+00-1.90381E+00-2.47428E+00
 -1      1054-4.48020E+00-6.05658E+00-1.24489E+00 8.31476E-01-1.28209E+00-2.21889E+00
 -1      1055-8.78586E+00-7.92240E+00-4.31807E+00 1.23374E+00-6.13382E-01-1.73137E+00
 -1      1056-5.09339E+00-9.30055E+00 6.07975E-02-2.47179E+00 1.53897E+00 1.23075E+00
 -1      1057-3.20854E+00-3.54089E+00 4.37251E-01 9.71981E-01-8.17047E-01-4.62629E-01
 -1      1058-5.43490E+00-6.57891E+00-7.10460E-01-3.75176E-01 1.77180E-01-1.52296E+00
 -1      1059-9.98748E-01-3.36195E+00-1.94350E-01-1.11958E+00 1.53343E+00 4.68904E-01
 -1      1060 1.00883E+00 1.61678E+00-8.07940E-01 6.79545E-01 6.62568E-01 6.98897E-01
 -1      1061-6.52111E-01-9.91473E-01-1.75318E-02-7.23374E-02-1.28462E+00-7.41427E-01
 -1      1062-9.00040E-02 7.25903E-01-6.51054E-01 6.51992E-01 5.24576E-01 7.58723E-01
 -1      1063 6.41147E-01 4.50775E-01 1.71498E-01 4.68304E-01-1.41364E+00-7.95278E-01
 -1      1064-1.02862E+00-1.90164E+00 1.26742E+00 2.94907E-01-1.68593E+00 5.75699E-01
 -1      1065-2.81322E-01-1.47506E+00-6.14389E-01-2.74483E-01-2.12053E+00-1.43741E+00
 -1      1066 1.49129E-01-2.25865E+00-4.67650E-01-4.27189E-01-1.73507E+00-1.21230E+00
 -1      1067-2.16095E+01-1.66180E+01-5.92916E+00 9.19853E-01 5.71211E-01-5.63830E-01
 -1      1068-1.17088E+01-1.06399E+01-3.89398E+00 1.41317E-01-1.43928E+00 6.42106E-01
 -1      1069-1.95421E+01-1.88219E+01-7.51296E+00 2.65413E+00 1.79348E+00-1.73301E+00
 -1      1070 3.36342E+00 2.90315E+00 3.88509E+00 1.21891E+00-1.86082E+00-1.32321E+00
 -1      1071-1.61383E+00-9.99135E-01-9.59827E-01 6.78987E-01-2.65187E+00-1.73391E+00
 -1      1072-3.68807E+00-4.03064E+00-3.54092E+00 3.77061E-01-2.66781E+00-1.10869E+00
 -1      1073-3.94341E+00-4.53349E+00-1.11365E+00 1.10373E+00-2.08934E+00-5.60297E-01
 -1      1074-8.80538E+00-7.91385E+00-3.60152E+00 1.16659E+00-1.58078E+00-1.32050E+00
 -1      1075-4.17690E+00-1.06292E+01-4.81346E-01-7.91251E-01 1.39853E+00 1.49707E+00
 -1      1076-4.15833E+00-4.27915E+00 1.21787E+00 9.81981E-02-3.37899E-01 1.97432E-01
 -1      1077-5.62944E+00-5.55795E+00 1.92074E+00-2.83296E-01-8.46646E-01-6.40062E-01
 -1      1078-1.01344E+00-5.17440E+00-4.95385E-01 1.43916E+00 1.73867E+00-4.21141E-01
 -1      1079-2.94074E-01 9.97004E-01-1.56753E+00 1.79273E-01 5.34286E-01 6.04217E-01
 -1      1080-1.35105E+00-1.93007E+00-9.58943E-01 3.35398E-01-1.61123E+00-2.04841E-01
 -1      1081-4.09640E+00-5.48677E+00-1.97331E+00-3.64395E-01 2.68618E-01 2.42082E+00
 -1      1082-1.83866E+00-3.12055E+00 4.04095E-01 7.54225E-01-1.19008E+00 1.14738E+00
 -1      1083-6.60382E+00-5.32200E+00-1.84089E+00 2.67520E-01-2.25068E+00-7.13539E-01
 -1      1084-1.28018E+00-1.66584E+00-2.84827E-01-1.03443E-01-3.69028E+00 5.96979E-03
 -1      1085 5.89484E-01 4.60776E-01 2.36489E+00 4.74736E-02-2.73253E+00 4.19057E-01
 -1      1086-2.49881E+01-1.89409E+01-7.52195E+00-1.21263E+00-2.83148E-01-2.25637E+00
 -1      1087-1.79015E+01-1.28340E+01-5.69906E+00-5.55058E-01-5.83856E-01-3.19119E-01
 -1      1088-2.48585E+01-1.91567E+01-9.56595E+00 6.26215E-01 5.35169E-01-1.39667E+00
 -1      1089-1.95255E-01 1.79225E+00 1.50071E+00 3.80454E-01-2.52883E+00-4.98110E-01
 -1      1090-3.73158E+00-2.59134E+00-1.15932E+00-3.97460E-02-2.88667E+00-4.11685E-01
 -1      1091-2.83633E+00-2.32665E+00-5.78562E-01 4.91100E-02-1.82622E+00-8.22522E-01
 -1      1092-8.45274E+00-6.38037E+00-1.83666E+00 2.45562E-02-1.18431E+00-7.62834E-01
 -1      1093-3.92066E+00-8.82958E+00 1.98734E+00 1.82922E+00 9.12058E-01 1.25838E+00
 -1      1094-9.50026E-01-3.31549E+00 2.08899E-01 1.44308E+00 4.62615E-01 6.18010E-01
 -1      1095-1.18801E+00-2.90844E+00 2.39673E-01 2.81613E-01-1.69505E-01 8.29813E-01
 -1      1096-1.44212E+00-2.84786E+00 6.72435E-01-4.10243E-01-8.39136E-01 1.60658E-01
 -1      1097 1.45873E+00 4.60912E+00 5.68469E-01-7.57399E-01 8.29221E-02-7.90128E-01
 -1      1098 4.46362E-01 3.05488E+00-8.37175E-01-1.48506E+00 1.54603E-02-3.06818E-01
 -1      1099-4.70853E-01-2.81048E+00 3.63454E-01-1.89671E-02-1.05608E+00 8.31243E-02
 -1      1100-8.05195E-01-3.81876E+00 2.51407E-01 1.23877E+00 1.67488E+00-6.86915E-01
 -1      1101-3.32513E+00-3.56674E+00-1.11165E+00-6.71594E-01-1.97460E+00 3.21219E-01
 -1      1102-1.23767E+00 3.34467E-01-1.67889E+00-6.04872E-01-2.89221E+00 4.59642E-01
 -1      1103-2.22150E+01-1.78831E+01-8.54864E+00-2.45782E+00 2.38933E-01 1.34770E+00
 -1      1104-8.60624E+00-7.64755E+00-3.63312E+00-3.54683E-01-1.91114E+00 6.50876E-01
 -1      1105-1.84433E+01-1.33538E+01-4.73155E+00-5.89849E-01-1.26292E-01-4.79149E-01
 -1      1106-5.54027E-01 7.69109E-01-9.62462E-01-8.64242E-01-3.25648E+00 5.42100E-01
 -1      1107-1.71886E+00-2.40882E+00-1.11715E+00 6.95467E-02-2.04728E+00 4.70096E-01
 -1      1108-9.16625E+00-8.03664E+00-4.89742E+00-8.50118E-01-1.40349E+00 8.88729E-01
 -1      1109-4.85735E+00-5.42402E+00-2.32718E+00-8.36633E-01-1.59930E+00 8.95910E-01
 -1      1110-4.55605E+00-4.83808E+00-1.41002E+00-6.94033E-01-2.39275E+00 8.49272E-01
 -1      1111-1.13048E+01-7.39693E+00-5.66561E+00-3.37055E-01-1.92620E+00-6.43219E-03
 -1      1112-4.49600E+00-4.97389E+00 4.23758E+00 3.77560E+00-5.56231E-01-2.91035E-02
 -1      1113-3.24132E+00-2.11709E+00 2.18154E-02 1.18914E+00 1.05808E+00-1.46538E+00
 -1      1114-4.76960E+00-4.10634E+00 1.65318E+00 8.08496E-02-1.91362E-01 8.12063E-01
 -1      1115-2.39901E+00-3.24482E+00 6.41290E-01 4.87163E-01-1.41870E+00-9.19692E-03
 -1      1116-4.91475E+00-4.12787E+00-1.94083E+00 5.38307E-01-1.12363E+00-2.48238E+00
 -1      1117-1.13314E-01-2.56151E-01-5.45872E-01-2.69432E-01 5.44521E-01 2.13549E-01
 -1      1118-2.13934E+00-3.78137E-01-2.09011E-01 4.36531E-01-8.24599E-01 8.07796E-01
 -1      1119-3.58139E+00-1.69538E+00-3.64966E-01-4.52540E-01-2.01078E+00 2.20489E+00
 -1      1120 1.07093E+00 7.07958E-03 1.45505E+00 4.07875E-02-1.74634E+00 2.32867E+00
 -1      1121-1.59479E+01-1.67869E+01-7.17597E+00-1.35541E+00-1.41799E+00-7.82694E-03
 -1      1122-7.78624E+00-8.10442E+00-4.78399E+00-8.80274E-01-1.49322E+00 9.87165E-01
 -1      1123-2.15587E+01-1.77669E+01-5.47677E+00-4.22006E+00 8.56813E-01 7.95592E-01
 -1      1124-4.71288E-01 4.49996E-01 5.21523E-01-9.21347E-01-2.45603E+00 1.01452E+00
 -1      1125-4.27098E+00-3.17370E+00-1.46766E+00-9.61116E-01-2.41781E+00 1.56356E+00
 -1      1126-8.75281E+00-9.12834E+00-3.99158E+00-1.83168E+00-5.38057E-01 8.64661E-01
 -1      1127-6.21587E+00-6.07972E+00-2.08988E+00-1.17805E+00-1.50376E+00 2.03335E+00
 -1      1128-3.54216E+00-3.70252E+00-2.72602E+00-3.02596E-01-1.36073E+00 1.12869E+00
 -1      1129-6.04180E+00-5.01366E+00-4.76789E+00-8.52336E-02-9.97053E-01 5.80654E-01
 -1      1130-9.79834E+00-4.53048E+00 1.20884E+00 2.29013E+00 1.63899E+00-7.06537E-01
 -1      1131-3.43971E+00-2.28300E-01 5.77169E-01 1.66711E+00 2.03354E-01-1.53074E+00
 -1      1132-2.44138E+00-1.74404E+00 7.95909E-01 2.19293E-01 1.28242E+00 1.19611E+00
 -1      1133-3.54497E+00-4.05519E+00 5.00388E-01-1.83566E-01 1.72550E-01 8.25105E-01
 -1      1134-5.74227E+00-3.52946E+00-5.46722E-01 5.81668E-01-1.64484E+00 2.93609E-01
 -1      1135 1.78167E+00 5.75349E-01 1.27275E-02-2.52413E-01-2.03601E-01-5.06305E-01
 -1      1136-8.65198E-01-9.97721E-01 3.56799E-01 5.80213E-01-1.06339E+00 1.00059E+00
 -1      1137-1.15103E+00-2.24930E+00-1.07415E+00 4.82224E-01-3.85192E-01 2.78529E+00
 -1      1138 4.92664E-01 1.53392E+00 2.30669E+00 7.43041E-01-6.17058E-01 2.37312E+00
 -1      1139-9.63561E+00-1.33058E+01-3.35777E+00-1.52891E+00 2.79197E-01 1.85895E+00
 -1      1140-6.98290E+00-7.83249E+00-2.35218E+00 3.60270E-02 7.24746E-02 9.10566E-01
 -1      1141-1.50030E+01-1.67580E+01-4.22916E+00-2.30868E+00-8.52011E-01 9.17430E-01
 -1      1142-1.30644E+00 3.10625E-01 8.37290E-01-3.12064E-01-1.44510E+00 2.22247E+00
 -1      1143-2.82374E+00-3.83462E+00-1.09841E+00-2.91270E-01-8.36627E-01 3.01815E+00
 -1      1144-5.99903E+00-6.59181E+00-1.73956E+00-7.57354E-01-1.21708E+00 1.82735E+00
 -1      1145-9.54271E+00-9.33803E+00-3.82501E+00-1.17964E+00-1.08125E+00 1.63436E+00
 -1      1146-2.35043E+00-2.57425E+00-2.93757E+00-1.13332E-01 8.39447E+00 6.08343E+00
 -1      1147-2.19340E+01-2.23376E+01-1.86384E+01-3.52585E+00 1.05850E+01 8.68666E+00
 -1      1148-5.26989E+00-1.81602E+00-1.43834E+00-1.03360E+00 8.65090E+00 7.12113E+00
 -1      1149 8.83602E+00 4.05541E+00 3.63626E+00 4.10001E+00-1.41547E+00 9.84862E+00
 -1      1150 2.82548E+00-1.28530E+00-5.83169E+00 1.23405E+00-9.22213E-01 7.81682E+00
 -1      1151-7.72855E+00-4.38153E+00-2.78514E+00 1.78084E+00-7.84086E-01 7.80235E+00
 -1      1152-8.15590E+00-6.97997E+00-6.67830E+00 3.78441E+00-1.09282E+00 1.17674E+01
 -1      1153 3.35534E+00 2.40815E+00 1.24340E+00 3.12386E+00-7.58427E+00-1.27422E+00
 -1      1154-1.77075E+01-2.75729E+01-1.84205E+01 1.02132E+00-9.15653E+00-2.41567E+00
 -1      1155-2.80310E+01-3.61845E+01-2.70347E+01-3.02988E+00-1.33040E+01-4.03578E+00
 -1      1156 1.36337E+01-4.78760E+00 3.47423E+00 2.53875E+00 5.41583E+00 7.86172E+00
 -1      1157-1.59477E+01-3.41561E+01-2.13175E+01-2.19629E+00 5.53875E+00 7.93280E+00
 -1      1158-2.88883E+00-2.59473E+00 1.27498E+00-1.52654E+00 5.00096E+00 5.42978E+00
 -1      1159 3.11131E+00 2.29196E+00-5.05608E-01-1.70853E+00 8.92663E+00-1.30440E+00
 -1      1160 4.88667E+00 2.11296E+00 3.63871E+00-1.44901E+00 9.25711E+00-2.14928E+00
 -1      1161-8.30618E+00-1.07295E+01-8.98602E+00 1.47004E+00 8.26802E+00-2.60926E+00
 -1      1162 6.58034E-01 1.16706E+00 4.58659E+00 1.39288E+00 2.82149E+00-6.18889E+00
 -1      1163-4.13676E+01-3.54535E+01-3.23417E+01 4.23086E+00 7.73613E+00-1.18605E+01
 -1      1164-6.14595E-01 2.12514E+00 1.17688E+00-2.19908E+00 4.39248E+00-6.14487E+00
 -1      1165 3.10325E+01 2.50754E+01 2.36214E+01-3.49755E+00 6.29601E+00-1.30957E+01
 -1      1166-4.66134E+00-5.07750E+00-6.42459E+00 1.15239E-01 2.37550E+00 8.03920E+00
 -1      1167-2.78326E+01-2.17468E+01-2.08729E+01-2.49602E+00 4.01069E+00 1.32213E+01
 -1      1168-5.70141E+00-6.14835E+00-6.71309E+00-2.79171E+00 3.59718E+00 1.03361E+01
 -1      1169-7.30463E+00-6.34873E+00-4.53638E+00-1.76559E+00 5.63787E+00 9.54464E+00
 -1      1170-2.62159E+01-3.19172E+01-2.44740E+01-3.61866E+00 1.21267E+01 6.48212E+00
 -1      1171 2.80334E+00 3.75071E-01-1.09492E-01 3.38815E+00 9.40500E+00 1.11010E+00
 -1      1172-5.82386E+00-4.34930E+00-8.32801E+00 4.56005E-01 6.71987E+00 1.95825E+00
 -1      1173-2.76018E+01-3.80578E+01-2.76427E+01-3.05230E-01 1.31118E+01 1.29131E+00
 -1      1174 9.90275E-01-3.48676E+00-1.90055E+00 2.81550E+00 7.92751E+00 1.54750E+00
 -1      1175-2.20074E+00-1.91589E+00-3.06295E+00-4.80874E-01 9.13530E+00 3.21010E+00
 -1      1176-1.57238E+01-8.89607E+00-7.68259E+00-7.61181E-02 4.27199E-01-9.33494E+00
 -1      1177 1.18559E+01 9.97442E+00 8.65545E+00-2.53014E+00 9.58956E-01-1.22116E+01
 -1      1178-1.06482E+01-9.68454E+00-1.17343E+01-8.08800E-01 1.58751E+00-9.71418E+00
 -1      1179-3.35976E-01 4.30094E+00 2.24699E+00 5.26164E-01 3.72030E+00-6.69568E+00
 -1      1180-2.63567E+00 4.34362E+00 1.25203E+00-1.12012E+00 5.22550E+00-7.23157E+00
 -1      1181-1.05701E+01-7.25738E+00-7.86906E+00 4.49314E+00 1.12282E+01-5.69328E+00
 -1      1182-2.45113E+01-3.38684E+01-2.45778E+01 1.64443E+00 1.42934E+01-1.91301E+00
 -1      1183-1.84674E+01-2.39380E+01-1.65197E+01 2.65526E+00 6.94718E+00-5.45541E+00
 -1      1184-1.88989E-01 6.95914E-02-5.40879E-01-1.52091E+00 8.59066E-02 9.07771E+00
 -1      1185 9.68756E+00 1.29264E+01 8.51564E+00-2.94490E+00-9.94723E+00 7.66703E-01
 -1      1186-2.60652E+00-4.62309E+00-3.67684E+00-1.64522E+00-1.16269E+01 1.29465E+00
 -1      1187-2.24061E+01-3.08090E+01-2.24035E+01 4.26825E-01-1.16125E+01 1.14365E+00
 -1      1188 3.70622E+00-1.58234E-01-4.56345E+00-9.11205E-01-1.36287E+00 6.67235E+00
 -1      1189 3.05073E+01 2.52212E+01 2.27075E+01-7.88176E+00-4.35749E+00 1.04797E+01
 -1      1190 5.73125E+00 7.18059E+00 8.89972E+00-2.61302E+00-5.00760E+00 8.86158E+00
 -1      1191-2.97822E+01-2.32687E+01-2.23344E+01 3.25049E+00-3.63934E+00 1.20784E+01
 -1      1192-9.16019E+00-1.39138E+01-1.10225E+01-1.10348E+00-1.06707E+01 3.00568E+00
 -1      1193 2.96079E+01 3.52178E+01 2.72916E+01-4.49606E+00-1.15182E+01 6.75567E+00
 -1      1194-3.79986E+00-6.00394E+00-8.76557E-01 1.53434E+00-8.37987E+00 4.37666E+00
 -1      1195-4.00447E+00-7.43749E+00-2.78977E+00-1.62498E+00-1.10144E+01-2.08922E+00
 -1      1196 1.15583E+01 1.56694E+01 1.32755E+01 2.21829E+00-6.28334E+00-3.85565E+00
 -1      1197-1.30346E+01-1.21918E+01-7.88338E+00-2.66220E+00-8.06365E+00-4.81721E+00
 -1      1198 1.55193E+00 1.52717E-01 5.14562E+00-1.69400E+00-5.62285E+00-4.68219E+00
 -1      1199-1.23874E+01-5.33948E+00-2.54718E+00-3.94473E-01-6.17627E+00-7.53079E+00
 -1      1200-3.06914E+01-2.54041E+01-2.36162E+01-3.56336E+00-5.96461E+00-1.11586E+01
 -1      1201-6.39108E+00-7.01604E+00-1.25333E+01 1.37625E+00-3.79984E+00-5.99724E+00
 -1      1202 4.59207E+00 6.44924E+00 2.94712E+00 2.28070E+00-5.43123E+00-8.52243E+00
 -1      1203-1.09897E+01-6.60395E+00-3.97887E+00-3.02991E+00-2.30103E+00-1.19819E+01
 -1      1204 5.83688E+00 2.93180E+00 1.89522E+00-1.23950E+00-2.68902E+00-8.65754E+00
 -1      1205 3.20413E+01 2.27734E+01 2.30770E+01 1.06385E+00-1.63650E+00-1.19599E+01
 -1      1206-2.71764E+01-2.38843E+01-2.14966E+01 3.56058E+00-6.26561E+00 1.11900E+01
 -1      1207-1.04677E+01-1.30093E+01-5.60827E+00 3.04038E+00-3.66354E+00 7.63731E+00
 -1      1208-7.24346E+00-7.63949E+00-3.18063E+00-2.26585E+00-3.25928E+00-9.69156E+00
 -1      1209-2.62927E+01-2.00992E+01-1.95310E+01 1.96210E+00 3.60293E+00-1.18771E+01
 -1      1210 3.87012E+01 3.72285E+01 3.19664E+01 5.96950E+00-7.90939E+00-9.63785E+00
 -1      1211 2.78135E+01 2.16320E+01 2.08165E+01-2.40527E+00 4.00251E+00-1.31943E+01
 -1      1212 5.68006E+00 5.64250E+00 4.96462E+00 1.77069E+00-1.02093E+00-1.12590E+01
 -1      1213 1.54631E+01 1.10549E+01 8.18323E+00-1.33490E+00-4.00485E+00 9.22743E+00
 -1      1214 6.55413E+00 7.05524E+00 1.78585E+00-2.31838E+00-5.37057E+00 7.85382E+00
 -1      1215 2.73379E+01 2.86119E+01 2.35549E+01-5.07291E+00-1.18468E+01 8.62277E+00
 -1      1216 2.96231E+01 3.71678E+01 2.81189E+01 4.65566E+00-1.04983E+01-6.53460E+00
 -1      1217-9.25956E+00-8.05103E+00-7.83491E+00-4.17111E-01-9.39914E-01 6.66616E-01
 -1      1218-3.37500E+01-3.21816E+01-1.29085E+01 2.29852E+00 1.00900E+00-2.68122E+00
 -1      1219-3.55042E+01-3.70843E+01-1.14517E+01 2.67600E+00-3.24758E+00 3.32065E-01
 -1      1220-3.15154E+01-2.69247E+01-1.07617E+01 1.41903E+00 2.03276E-01 1.06303E+00
 -1      1221-3.43388E+01-2.69476E+01-1.38767E+01 2.66673E-01 2.35921E+00-3.23237E+00
 -1      1222-5.24175E+00-5.67747E+00-4.19103E+00 2.88191E-01-1.64043E+00-6.38526E-01
 -1      1223-2.96015E+01-3.25522E+01-7.74532E+00 3.91094E+00-5.29446E-01 2.04602E+00
 -1      1224-3.67124E+01-3.96691E+01-1.70258E+01 4.59722E+00 1.56092E+00-1.62409E+00
 -1      1225-3.20631E+01-2.81188E+01-1.15137E+01-1.26611E+00-8.68715E-01 3.20139E+00
 -1      1226-3.30311E+01-3.16239E+01-1.56674E+01-2.03968E+00-1.98244E+00-2.67766E+00
 -1      1227-2.31565E+01-2.68673E+01-4.00602E+00 1.72434E+00 3.10551E+00-3.60423E+00
 -1      1228-4.54061E+00-4.24767E+00-6.59762E+00-2.23133E+00-3.96761E+00 8.46063E-01
 -1      1229-2.79967E+00-2.21173E+00-3.30039E+00-1.87383E-01-2.20392E+00-4.55992E+00
 -1      1230-2.95778E+01-3.70487E+01-1.42708E+01-1.73918E-01-1.91052E+00-3.18267E-01
 -1      1231-2.57896E+01-3.29302E+01-1.23828E+01 6.76825E-01 1.05931E+00 7.99032E-01
 -1      1232-5.23133E+01-4.29388E+01-2.38214E+01 3.00959E+00 1.28534E+00 3.08026E+00
 -1      1233-6.22579E+01-4.80244E+01-3.29661E+01 2.60588E+00 6.03386E+00-5.19084E+00
 -1      1234-3.29286E+01-3.71575E+01-1.39226E+01-3.82121E+00 2.08882E-01-6.40984E-01
 -1      1235-3.65665E+01-4.36050E+01-2.11200E+01-3.83747E+00-2.06151E+00-2.78303E+00
 -1      1236-4.96679E+00-6.20364E+00-9.91826E+00 6.94056E-01-4.61463E+00-2.87987E+00
 -1      1237-3.74897E+01-3.18490E+01-1.74948E+01-1.62447E+00 7.87370E-01-5.00160E+00
 -1      1238-3.63406E+01-2.98205E+01-1.41067E+01-4.54839E-02 2.01771E+00-2.40895E-01
 -1      1239-2.65677E+01-3.58561E+01-1.25783E+01-2.43615E-01 3.49310E+00-8.45395E-01
 -1      1240-2.38801E+01-2.90995E+01-9.67701E+00 1.04374E+00-1.20717E+00 1.06501E+00
 -1      1241-2.81652E+01-3.16642E+01-1.32854E+01 3.75888E+00 1.29883E+00 3.91376E-01
 -1      1242-3.29514E+01-3.95305E+01-1.66482E+01 4.12414E+00-1.44586E+00 1.38957E+00
 -1      1243-3.07830E+01-2.78506E+01-1.45894E+01 1.00368E+00-1.08430E+00-5.45439E-01
 -1      1244-3.92227E+01-3.39932E+01-2.26159E+01 1.94291E+00-4.19581E+00 4.03828E+00
 -1      1245-2.54410E+01-2.41359E+01-3.23623E+00-4.12284E+00 2.50979E-01 1.14270E+00
 -1      1246-3.35433E+01-3.23166E+01-1.29006E+01-3.44448E+00-1.50380E+00-1.92226E+00
 -1      1247-3.54007E+01-4.59623E+01-1.73916E+01 2.13987E+00-2.72267E+00 1.74880E+00
 -1      1248-2.90989E+01-3.78402E+01-1.25202E+01 1.57108E+00 1.82921E+00-1.72662E+00
 -1      1249-4.59710E+01-4.77677E+01-1.68698E+01 6.20203E+00-3.68612E+00 1.13358E+00
 -1      1250-5.26526E+01-5.80603E+01-2.66281E+01 5.77243E+00 1.56739E+00-4.58092E+00
 -1      1251-3.62962E+00-1.68749E+00-5.96564E+00 1.64802E+00-4.58930E-01-4.64413E+00
 -1      1252-8.36214E-01-1.01374E+00-1.64038E-01-9.69364E-01-8.07705E-01-7.64234E-01
 -1      1253-2.49250E+01-3.14592E+01-1.15670E+01-5.85432E-01 2.06535E+00 6.47769E-01
 -1      1254-2.63751E+01-3.30421E+01-1.47809E+01 1.16942E-02-1.11874E+00-6.04746E-01
 -1      1255-4.44535E+00-4.52999E+00-4.64463E+00 1.91519E+00 1.68722E+00 3.56820E+00
 -1      1256-4.66787E+01-4.19691E+01-1.73646E+01-2.12817E+00-2.97626E+00-5.75653E+00
 -1      1257-3.96605E+01-3.94532E+01-1.69951E+01 1.88967E+00-1.97692E-01-7.36702E+00
 -1      1258-4.60922E+01-4.24920E+01-1.74222E+01 4.10229E+00-3.85799E+00 1.56314E+00
 -1      1259-3.45297E+01-2.99812E+01-1.24318E+01 1.67194E+00-2.68147E+00 1.84262E+00
 -1      1260-2.94466E+01-2.48760E+01-1.29690E+01-1.78905E+00-2.81329E+00-1.01009E+00
 -1      1261-3.25037E+01-3.24874E+01-1.47843E+01-4.66875E+00 1.71411E-01-1.56799E+00
 -1      1262-3.79210E+01-3.90892E+01-1.28970E+01-3.29715E+00-2.60351E+00-4.53882E+00
 -1      1263-5.21507E+00-3.25818E+00-5.57893E+00-4.85840E-01 3.39222E+00-9.21294E-01
 -1      1264-3.03233E+01-3.06336E+01-9.29525E+00-1.14613E-01 5.68468E+00 6.08164E-01
 -1      1265-3.43014E+01-3.78665E+01-1.65173E+01-5.32545E-01-6.93009E+00-1.89086E-01
 -1      1266-3.92923E+01-3.49622E+01-1.82456E+01-2.27474E+00-1.39237E+00 4.03783E+00
 -1      1267-5.00970E+01-4.51460E+01-2.82361E+01-2.47615E+00-2.56964E+00-3.09679E+00
 -1      1268-1.08589E+00-9.72650E-01 5.80724E-01 1.20903E-01-2.80166E+00-2.18318E+00
 -1      1269-2.79019E+01-3.21743E+01-9.33409E+00-2.29366E+00-5.28993E+00-2.91933E+00
 -1      1270-3.14440E+01-2.92188E+01-1.52423E+01 3.98164E+00 6.58974E-01 8.60744E-01
 -1      1271-3.09660E+01-2.77511E+01-1.31123E+01 2.84136E+00 5.84675E+00-3.25099E+00
 -1      1272-6.90081E-01-1.96781E+00-4.27011E+00-2.29959E-01-3.14944E+00-1.65028E+00
 -1      1273-2.26379E+00-4.42130E+00-6.60922E+00 7.19513E-01-4.35478E-01-4.00885E+00
 -1      1274-2.81767E+00-1.77218E+00-7.48758E+00-1.01755E+00 4.50907E+00-6.84998E-01
 -1      1275-3.62673E+01-4.01114E+01-1.57846E+01-2.12869E-01 7.77304E+00 1.44562E+00
 -1      1276-1.74561E+00-1.83430E+00-2.81645E+00-2.92049E-01-2.94381E+00-2.13123E+00
 -1      1277-4.52869E+01-5.12573E+01-3.01267E+01-2.28583E-01 7.20622E+00 1.40825E+00
 -1      1278-4.36669E+01-5.17368E+01-2.93702E+01 9.55410E-01-3.70671E+00 3.67918E+00
 -1      1279-3.36441E+01-2.84836E+01-8.74454E+00-4.93795E-01 6.91708E-01 4.53098E+00
 -1      1280-3.51278E+01-3.45741E+01-1.36891E+01-8.60196E-01 2.35418E+00 4.72568E+00
 -1      1281-3.78096E+01-4.50133E+01-1.70774E+01-3.24208E-01 8.51238E+00 6.17624E+00
 -1      1282-2.66498E+01-2.58727E+01-1.03188E+01-3.28449E+00-1.58032E-01-3.91102E-01
 -1      1283-3.18309E+01-2.99489E+01-1.23110E+01-3.50282E+00 7.57591E-01 4.11040E+00
 -1      1284-3.05041E+01-3.52246E+01-1.07657E+01 7.44758E-01-3.85321E+00 1.24640E+00
 -1      1285-3.34664E+01-3.33715E+01-1.61749E+01 7.98560E-01 6.19451E+00-2.47862E+00
 -1      1286-3.78974E-01-1.37622E+00-4.98681E-01 2.25122E-01 2.02253E+00-1.24620E-01
 -1      1287-3.32323E+00-3.19353E+00-1.75895E+00 1.54173E+00-3.57612E+00-3.81986E-01
 -1      1288-1.17056E+00-1.27908E+00-4.24953E+00 8.02212E-01 2.61994E+00-2.05000E-01
 -1      1289-1.93094E+00-1.77383E+00-2.28279E+00-1.74470E-01-2.10982E+00 1.42184E+00
 -1      1290-4.25251E+01-3.47341E+01-2.12102E+01-5.88808E-01-7.79330E+00 4.51279E+00
 -1      1291-4.07959E+01-3.31605E+01-1.56653E+01 3.23648E+00 8.94608E-02-3.87121E+00
 -1      1292-4.54729E+01-4.56929E+01-2.38176E+01-4.69191E+00 1.80394E+00 6.84920E+00
 -1      1293-3.76852E+01-4.17640E+01-1.16337E+01-3.55539E-01-4.96526E+00-6.88483E+00
 -1      1294-3.37846E+01-3.11689E+01-5.06303E+00 1.02795E+00-6.67157E+00-2.20017E+00
 -1      1295-4.95103E+01-4.42679E+01-2.51111E+01-2.10250E+00 3.23827E+00-9.50409E+00
 -1      1296-5.23864E+01-4.24679E+01-2.43769E+01-6.35447E-01 4.82454E+00 2.72029E+00
 -1      1297-4.02214E+01-4.29119E+01-1.67847E+01-6.06163E+00 3.47391E+00-1.13461E+00
 -1      1298-4.78333E+01-5.12575E+01-2.66136E+01-6.44385E+00-3.16804E+00-6.95556E+00
 -1      1299-1.53394E+00-1.67099E+00-2.41473E+00 1.72410E-01 2.48331E+00-1.88289E+00
 -1      1300-1.93534E+00-1.42481E+00-3.69906E+00-1.47446E-01-2.09575E-01-3.49143E+00
 -1      1301-3.42914E+01-3.30194E+01-1.14234E+01-3.55998E+00 7.60618E-02 4.92427E+00
 -1      1302-5.25894E+01-5.08058E+01-2.83379E+01-4.42081E+00-5.65987E+00-3.65956E+00
 -1      1303-5.76742E-01 4.47900E-01 9.50094E-01-1.37539E-02-1.75628E+00 7.58689E-01
 -1      1304-1.83779E+00-3.93862E+00-7.28539E+00-6.27838E-01 3.25484E+00-2.70195E+00
 -1      1305-6.80944E+00-3.17887E+00-7.54473E+00 2.06329E-01-3.47870E+00 2.14246E+00
 -1      1306-4.86160E+01-4.11640E+01-2.85956E+01 3.39483E+00-4.11031E+00-5.54274E+00
 -1      1307-6.64758E+01-5.46272E+01-3.81197E+01 3.90265E+00-8.24793E+00 4.84807E+00
 -1      1308-3.96777E+00-6.70738E+00-3.69395E+00 8.11978E-01 4.11234E+00 1.63192E+00
 -1      1309-5.06845E+01-4.83780E+01-1.73775E+01 2.46281E+00-9.34260E+00-8.29356E-01
 -1      1310-4.66830E+01-4.67905E+01-2.15943E+01 1.65132E+00-3.66088E+00-1.16738E+01
 -1      1311-1.37763E+00-1.39918E+00-3.60763E+00-9.82120E-01-2.27389E+00-1.46958E-01
 -1      1312-5.26424E+01-5.45745E+01-2.81844E+01-7.88303E+00 5.60543E+00-1.13644E+00
 -1      1313-7.61203E+01-7.95675E+01-4.79236E+01-8.42004E+00-3.42678E+00-8.01302E+00
 -1      1314-3.38046E+01-3.31232E+01-1.40224E+01-9.82980E-01 1.62431E+00 4.08439E+00
 -1      1315-3.63457E+01-3.38971E+01-1.28426E+01 2.11492E+00 1.02563E+00-2.31126E+00
 -1      1316-4.31496E+01-4.42793E+01-1.50873E+01 1.54926E+00 6.06995E-01-6.63539E+00
 -1      1317-3.48042E+01-3.17950E+01-1.28044E+01-2.22605E-01 7.28132E+00 2.81145E+00
 -1      1318-4.79592E+01-5.50787E+01-3.43979E+01 1.27889E+00 7.17661E+00 1.61656E+00
 -1      1319-5.40911E+01-6.43181E+01-3.70420E+01 1.50473E+00-3.31370E+00 5.87990E+00
 -1      1320-4.12027E+01-3.66495E+01-2.06215E+01 2.65678E+00 1.21947E+00 3.87383E+00
 -1      1321-5.23199E+01-4.36346E+01-3.05027E+01 2.78138E+00 9.06741E+00-5.79603E+00
 -1      1322-3.48045E+01-3.43716E+01-1.43923E+01-2.56417E+00 3.18899E+00 6.02206E+00
 -1      1323-4.73795E+01-5.61948E+01-2.04890E+01 1.88085E+00-7.43755E+00-4.71519E-01
 -1      1324-4.81766E+01-5.69840E+01-2.91863E+01 3.29307E+00 3.02267E+00-7.14802E+00
 -1      1325-3.69551E+01-4.62768E+01-1.86504E+01-9.23440E-01-4.86155E+00 2.04288E+00
 -1      1326-5.59956E+01-7.42148E+01-4.21957E+01-1.17923E+00 5.58755E+00 2.79262E+00
 -1      1327-4.87863E+00-4.06928E+00-7.22470E+00-5.56344E-02 2.67481E+00 1.97149E+00
 -1      1328-3.48505E+00-2.02929E+00-4.97799E+00-1.44439E+00-1.70094E-01 4.06916E+00
 -1      1329-4.20360E+00-8.08665E+00-1.28380E+01 1.12344E+00-6.27057E-01-6.10063E+00
 -1      1330-5.00632E+01-5.46623E+01-2.40253E+01 7.90246E+00-9.21458E+00 5.61148E-01
 -1      1331-5.25719E+01-6.07684E+01-3.57271E+01 7.94591E+00 4.25686E+00-1.05451E+01
 -1      1332-7.62616E+01-6.21925E+01-3.88050E+01 1.32776E+00 5.85525E+00 9.14466E+00
 -1      1333-8.71115E+01-6.77205E+01-4.81638E+01 1.94527E+00 7.23231E+00-3.94202E+00
 -1      1334-3.49271E+01-3.65578E+01-1.90348E+01 8.54504E-01 8.80847E+00-3.07939E+00
 -1      1335-3.51151E+01-3.78504E+01-1.80352E+01-4.89927E-01-5.54814E+00-2.92964E+00
 -1      1336-1.58905E+00-1.33304E+00-6.85804E+00-1.41119E+00 8.95767E-01 3.48534E+00
 -1      1337-5.90686E+01-4.79806E+01-3.39817E+01-4.07852E+00-2.16463E+00 6.14986E+00
 -1      1338-7.47166E+01-5.53499E+01-4.38124E+01-4.66899E+00-3.94040E+00-3.32762E+00
 -1      1339-4.53605E+01-3.62119E+01-2.04224E+01-3.05800E+00-1.30853E+00 1.02564E+01
 -1      1340-6.56260E+01-6.46843E+01-3.63908E+01 4.83003E+00 1.54763E+00-7.56405E+00
 -1      1341-6.52214E+01-6.04527E+01-3.13599E+01 6.44547E+00-4.96866E+00 1.97201E-01
 -1      1342-4.00824E+01-4.03021E+01-1.62479E+01-2.54206E+00-2.60734E-01-5.98468E+00
 -1      1343-3.68650E+00-5.84552E+00-1.02299E+01 8.91118E-01-4.16286E+00-5.38224E+00
 -1      1344-1.02198E+01-9.10064E+00-1.60168E+01-1.60265E+00 6.59539E+00 6.38386E+00
 -1      1345-2.13346E+00-5.65721E-01-7.27805E+00 5.42183E-01-4.55585E+00-2.51299E+00
 -1      1346-4.06382E+01-4.17869E+01-1.66371E+01-1.60317E+00-4.06941E+00 5.43188E+00
 -1      1347-3.11189E+01-3.22980E+01-1.06533E+01 1.95535E-01 5.48198E+00 4.17612E+00
 -1      1348-3.60484E+01-4.33925E+01-2.43726E+01-1.03849E+00-8.87924E+00-4.06114E+00
 -1      1349-4.46999E+01-4.54194E+01-2.53087E+01-9.33522E-01-9.15948E+00-3.22461E+00
 -1      1350-4.39965E+01-4.11047E+01-1.68899E+01-1.79543E+00-4.98249E+00-5.03206E+00
 -1      1351-8.02024E+00-2.69334E+00-3.98125E-01-3.25531E-01-5.23596E+00-2.09654E-01
 -1      1352-3.30089E+01-3.54305E+01-9.88877E+00 9.30586E-01-1.71429E+00 3.15895E+00
 -1      1353-6.26740E+01-5.10299E+01-3.70832E+01-1.87826E+00 4.58075E+00-1.22970E+01
 -1      1354-6.01595E+01-4.90016E+01-3.15451E+01-1.41528E+00 6.26393E+00 3.76742E+00
 -1      1355-4.35636E+00-2.83595E+00-4.22929E+00-5.58126E-01-5.01390E-01-4.35029E+00
 -1      1356-4.46504E+01-4.07035E+01-1.94393E+01-4.25952E+00 7.63215E-01-4.11179E+00
 -1      1357-5.22955E+01-4.59501E+01-2.21257E+01-4.17412E+00 3.79665E+00 3.94782E+00
 -1      1358-2.40661E+00-1.05728E+00-2.03475E+00 3.98306E-01 2.61760E+00 4.21517E-01
 -1      1359-5.19309E+01-4.83437E+01-3.18130E+01-8.70222E+00-8.05464E+00-3.49210E+00
 -1      1360-5.18246E+01-5.34362E+01-2.83198E+01-6.82488E+00 2.10269E-01 2.89716E+00
 -1      1361-6.80053E+00-6.91165E+00-1.01635E+01 2.20659E+00 5.30398E+00 2.01479E+00
 -1      1362-2.85903E+00-4.65435E+00-6.00610E+00 3.85431E-01 1.95668E+00 3.28562E+00
 -1      1363-3.12163E+01-3.51060E+01-1.42265E+01 3.96311E+00 7.03432E+00 9.11291E-01
 -1      1364-3.87269E+01-4.79469E+01-2.43430E+01 3.96016E+00-1.26961E+00 4.50757E+00
 -1      1365-1.81936E+01-1.18876E+01-1.46271E+01 1.59507E+00-6.13080E+00-4.92053E+00
 -1      1366-1.31526E+00-3.07153E+00-3.48991E+00 6.24820E-01 3.88496E+00-3.76321E+00
 -1      1367-3.63731E+01-3.31487E+01-8.67545E+00-3.10582E-01 4.68812E+00-6.11961E+00
 -1      1368-4.56294E+00-8.11758E-01-6.43673E+00-3.52977E-01 2.69468E+00 1.91706E+00
 -1      1369-8.08086E+01-5.95041E+01-4.89926E+01-2.64462E+00 7.35312E+00-1.22506E+01
 -1      1370-9.19555E+01-6.82375E+01-4.86980E+01-4.51300E+00 8.68390E+00 5.77581E-01
 -1      1371-1.85892E+00-7.37368E+00-1.53539E+01-1.61930E+00 4.94568E+00-3.78290E+00
 -1      1372-3.97930E+01-4.10538E+01-2.08428E+01-8.15177E-01 8.50884E+00 4.40885E+00
 -1      1373-1.38393E+01-1.15760E+01-2.09541E+01 3.50917E+00 1.02739E+01 8.90755E+00
 -1      1374-4.11804E+01-3.94937E+01-1.85548E+01 2.09616E+00-2.12621E+00 5.78116E+00
 -1      1375-5.38179E+01-7.02839E+01-3.90890E+01-3.38370E+00-6.01594E+00 4.51159E+00
 -1      1376-4.98528E+01-6.78312E+01-3.74786E+01-2.50223E+00 4.29153E+00 6.86697E+00
 -1      1377-5.36917E+01-5.11796E+01-3.23033E+01-3.24887E-01 1.20755E+01 5.83259E+00
 -1      1378-4.48417E+01-6.04431E+01-2.99735E+01-1.01199E+00 4.65120E+00-1.39638E+00
 -1      1379-4.97227E+01-6.39107E+01-3.53329E+01-1.03535E+00-4.21743E+00-4.23470E+00
 -1      1380-4.15928E+01-3.78505E+01-2.10707E+01-7.16268E-02 1.09930E+00 8.18194E+00
 -1      1381-6.98161E+00-3.20783E+00-1.05476E+01-2.31803E+00 6.05567E+00-3.82940E+00
 -1      1382-7.18327E+01-6.87656E+01-4.59508E+01-6.76090E+00-1.26757E+00 4.73264E+00
 -1      1383-6.24711E+01-5.92529E+01-3.56104E+01-6.27499E+00-8.77845E+00-5.07101E+00
 -1      1384-1.97770E+00-4.74312E+00-5.77030E+00 3.70636E-01 3.21451E+00-2.05781E+00
 -1      1385-4.64882E+00-3.80048E+00-3.24188E+00-3.14011E-01 2.69600E+00-3.39871E+00
 -1      1386-4.15156E+00-7.04907E+00-7.30021E+00 2.94335E+00 9.42254E-01 4.56571E+00
 -1      1387-4.00232E+01-3.71740E+01-1.59767E+01 1.65698E+00 7.14739E+00-1.67366E+00
 -1      1388-4.05010E+01-4.36085E+01-1.59974E+01 4.99510E+00-5.78167E+00 6.28541E+00
 -1      1389-6.20198E+01-6.67204E+01-4.36495E+01-7.81490E+00-1.39504E+01-2.01683E+00
 -1      1390-6.33377E+01-6.62292E+01-3.79796E+01-7.89380E+00-1.78945E+00 5.47951E+00
 -1      1391-1.16422E+00-2.33813E+00-3.33783E+00 2.23004E-01 2.10731E-01 2.04983E+00
 -1      1392-2.54162E+00-6.18682E-01-4.73197E+00 4.56752E-01-3.58133E+00 3.11822E+00
 -1      1393-5.06847E+01-6.10472E+01-2.69656E+01 4.12971E+00-1.18239E+01-4.41507E+00
 -1      1394-6.25200E+01-7.68202E+01-4.06430E+01 6.63821E+00 3.15958E+00-9.24850E+00
 -1      1395-3.46661E+01-3.52287E+01-1.34878E+01-4.63123E-01-4.79687E+00 3.49437E+00
 -1      1396-4.02027E+01-4.43242E+01-1.35867E+01 2.02900E+00-8.25515E+00 2.71992E-01
 -1      1397-5.18653E+01-4.65279E+01-1.91882E+01 8.07194E-01-7.08719E+00-8.61952E+00
 -1      1398-4.42477E+01-4.34112E+01-2.50356E+01-4.59198E+00 9.71914E+00 1.17668E+00
 -1      1399-5.90445E+00-1.12514E+01-5.15826E+00 3.10955E+00 5.68429E+00 4.04153E+00
 -1      1400-5.30786E+01-4.52190E+01-2.29440E+01-1.03363E+00 1.33316E+00-9.58533E+00
 -1      1401-3.37379E+01-3.34122E+01-1.65140E+01-1.41213E+00 7.22786E+00-5.78042E+00
 -1      1402-5.40111E+01-4.93368E+01-2.52400E+01-1.59602E+00 8.01485E+00-8.40588E+00
 -1      1403-5.94172E+01-6.25871E+01-3.26941E+01 1.44165E+00-2.10308E-01-1.25817E+01
 -1      1404-7.06934E+01-6.58813E+01-4.31838E+01 9.25431E+00 2.13750E-01-1.34620E+01
 -1      1405-7.69371E+01-6.70949E+01-3.66360E+01 1.10609E+01-7.88211E+00-1.19371E+00
 -1      1406-5.46914E+01-5.07881E+01-2.64139E+01 4.64720E+00-1.16954E+01 8.25903E-02
 -1      1407-4.58545E+01-4.41221E+01-2.19629E+01-2.19365E+00-6.91223E+00 7.60379E+00
 -1      1408-1.38046E+00-3.06169E+00-3.50832E+00 2.87345E-01-3.28715E+00 8.72371E-01
 -1      1409-2.80845E+01-3.07935E+01-3.39502E+01 4.63068E+00-2.20997E+00-1.64120E+01
 -1      1410-6.07635E+01-7.46907E+01-4.80952E+01 3.29286E+00 8.91880E+00 4.61039E+00
 -1      1411-5.83066E+01-7.76813E+01-4.31498E+01 6.86537E+00-3.38850E+00 1.02233E+01
 -1      1412-5.39764E+01-5.72274E+01-2.92584E+01 8.17636E-01-5.06451E+00 1.48625E+01
 -1      1413-5.65319E+01-5.52675E+01-2.32980E+01 2.52365E+00-1.10621E+01-5.20192E+00
 -1      1414-1.08614E+01-8.02426E+00-7.93905E+00-3.65231E-01 3.92348E+00-6.48483E+00
 -1      1415-6.67046E+01-5.52896E+01-4.09240E+01 7.48630E-01-6.77147E+00-9.37920E+00
 -1      1416-6.72755E+01-5.54440E+01-3.92045E+01 3.34275E+00-9.98893E+00 4.90941E+00
 -1      1417-6.27759E+00-9.20497E+00-1.36453E+01 2.41902E+00-4.86637E+00-5.84699E+00
 -1      1418-2.77716E+00-2.37727E+00-1.58581E+01-6.97818E-01-2.77906E-02-6.12302E+00
 -1      1419-2.28559E+01-2.82056E+01-4.23834E+01 1.32294E+00 8.52613E+00-1.55681E+01
 -1      1420-1.54225E+00-1.17496E+00-8.30135E+00 9.80317E-01-3.72245E+00-4.90775E+00
 -1      1421-4.82195E+01-4.54492E+01-2.49136E+01 1.07135E+00 4.67538E+00 1.09083E+01
 -1      1422-1.64849E+00-1.18123E+00-9.04210E+00-9.58126E-01-4.88895E+00-8.99618E-01
 -1      1423-5.34295E+00-9.77183E+00-1.13677E+01 2.50374E+00 1.17341E+00 7.18742E+00
 -1      1424-5.95034E+01-6.51933E+01-3.72977E+01-9.59325E+00 9.02121E+00-2.83303E+00
 -1      1425-7.74264E+01-8.20445E+01-5.45457E+01-9.52442E+00-4.61417E+00-1.36739E+01
 -1      1426-5.33602E+01-5.45506E+01-2.61756E+01-3.07296E+00-2.00492E+00-1.19680E+01
 -1      1427-5.95505E+01-6.91147E+01-3.44437E+01 7.59867E+00 9.38979E+00 2.34061E+00
 -1      1428-5.53461E+01-6.56016E+01-3.66848E+01 9.55119E+00 3.84789E-01 7.50612E+00
 -1      1429-5.72622E+01-4.90079E+01-3.39969E+01 4.93685E+00 2.10056E+00 5.26014E+00
 -1      1430-6.58308E+01-5.58425E+01-4.16109E+01 4.69225E+00 1.36258E+01-4.61236E+00
 -1      1431-2.16000E+01-2.26740E+01-1.88178E+01-1.80278E+00-4.13419E+00 1.04156E+01
 -1      1432-1.39143E+01-1.30341E+01-1.80884E+01-1.19204E-01-2.39082E+00 8.94487E+00
 -1      1433-5.71352E+01-5.78711E+01-3.07888E+01 1.72783E+00 8.86679E+00 6.00150E+00
 -1      1434-6.76051E+00-4.67505E+00-1.39712E+01 7.79953E-01 8.49768E+00 2.72544E+00
 -1      1435-4.31007E+01-3.91140E+01-1.95640E+01 5.88214E+00-2.18968E+00-7.87712E+00
 -1      1436-6.12766E+01-6.20076E+01-3.54206E+01-5.31043E+00-1.48957E+01 3.49775E+00
 -1      1437-2.93249E+01-3.42719E+01-1.54738E+01 7.59218E-01-6.95384E+00 3.47470E+00
 -1      1438-6.90085E+01-5.13994E+01-3.08728E+01 1.15648E+00 6.82118E+00 1.03319E+01
 -1      1439-7.85205E+01-5.54255E+01-3.95429E+01 5.02279E+00 1.13934E+01-7.60989E+00
 -1      1440-3.29376E+00-6.18204E+00-1.02764E+01-4.42306E+00-2.32423E+00 4.85623E+00
 -1      1441-2.66513E+00-2.54300E+00-1.46917E+01 5.69534E-01 6.23566E+00-4.06669E-01
 -1      1442-7.30541E+00-1.34239E+01-1.54835E+01 1.25102E+00-4.55653E+00-8.38825E+00
 -1      1443-5.48851E+01-4.64127E+01-2.47073E+01-4.82536E+00 1.72574E+00-4.00451E+00
 -1      1444-6.85177E+01-5.70791E+01-3.16222E+01-3.99716E+00 9.46159E+00 5.70097E+00
 -1      1445-6.81090E+00-6.42290E+00-6.29055E+00-1.43043E+00-1.26844E+00 6.87212E+00
 -1      1446-5.61334E+01-6.16663E+01-3.40288E+01 2.32802E+00 2.35523E+00 1.30231E+01
 -1      1447-6.27007E+01-6.18666E+01-2.45148E+01 2.81861E-01 1.09646E+01 9.41902E+00
 -1      1448-3.85845E+00-4.42887E+00-9.85315E+00-8.08747E-01 2.78625E+00 4.63602E+00
 -1      1449-1.33958E+01-9.22205E+00-2.00686E+01-1.81674E+00 8.93844E+00-7.42740E+00
 -1      1450-5.40524E+01-5.66611E+01-3.45177E+01-3.70307E-01 1.65031E+01 5.51257E+00
 -1      1451-1.72105E+01-2.24341E+01-2.03322E+01 1.04238E+00 1.60531E+01-3.75116E-01
 -1      1452-2.56239E+01-1.50896E+01-1.85750E+01 2.67247E+00-1.11078E+01 4.65454E+00
 -1      1453-4.34883E+01-4.55543E+01-2.19032E+01 4.84855E+00 6.34508E+00-4.92232E+00
 -1      1454-4.71887E+01-4.74215E+01-1.43459E+01-4.80215E+00 7.00580E+00-5.06106E+00
 -1      1455-2.17166E+00 3.82770E-01-7.42343E+00-3.61074E-02 3.52044E+00 8.40500E-01
 -1      1456-9.53539E+00-1.10740E+01-2.10869E+01-2.94168E+00-4.71638E+00 8.63613E+00
 -1      1457-4.51500E+00-1.03195E+01-1.03461E+01-1.63585E+00 2.64552E+00-5.66359E+00
 -1      1458-5.20843E+01-4.49074E+01-2.47077E+01 3.46371E+00 5.60166E+00-5.90491E+00
 -1      1459-5.20576E+01-7.07256E+01-4.10465E+01-3.84552E+00-8.31702E+00 7.42665E+00
 -1      1460-5.62817E+01-8.06039E+01-4.68454E+01-5.21320E+00 6.74455E+00 1.30506E+01
 -1      1461-6.03188E+01-5.18251E+01-3.37029E+01 2.62335E+00 1.40238E+01-7.24388E+00
 -1      1462-6.20454E+01-6.09648E+01-3.02251E+01-2.61885E+00-7.96680E-01 1.11613E+01
 -1      1463-5.06028E+01-5.94997E+01-3.18771E+01-3.86461E+00 5.86151E+00 1.20909E+01
 -1      1464-6.77831E+01-5.54704E+01-4.15626E+01 8.65781E+00 3.99339E+00 9.40575E+00
 -1      1465-6.42231E+01-5.50283E+01-4.52251E+01 7.95261E+00 1.64017E+01-3.67961E+00
 -1      1466-4.77617E+01-4.15925E+01-2.48951E+01-1.18086E+00 1.32392E+01-2.65305E-01
 -1      1467-4.34922E+01-5.90573E+01-2.79754E+01-1.31165E+00 6.41281E+00-3.15703E+00
 -1      1468-5.74226E+01-7.97540E+01-3.91275E+01-2.27846E+00-5.75335E+00-7.39577E+00
 -1      1469-5.96808E+01-5.22753E+01-3.63190E+01 9.53091E-01 1.61166E+01 1.85734E+00
 -1      1470-1.98203E+01-1.60286E+01-2.70594E+01 1.46996E+00-1.41974E+01 6.45745E+00
 -1      1471-5.07547E+01-5.31825E+01-2.41220E+01-3.32064E+00-8.92233E+00 8.59243E+00
 -1      1472-2.13287E+01-1.66823E+01-2.60175E+01-2.21237E+00 1.55228E+00 1.51392E+01
 -1      1473-6.02079E+01-6.80744E+01-4.76323E+01-1.06187E+01-1.70911E+01-7.38805E-01
 -1      1474-6.39505E+01-6.71158E+01-4.12931E+01-1.03193E+01-2.04382E+00 9.39305E+00
 -1      1475-5.49058E+01-6.68660E+01-3.65148E+01 1.15786E+01-1.05932E+01-5.61470E-01
 -1      1476-6.51789E+01-7.09326E+01-4.87696E+01 1.41384E+01 3.25906E+00-1.35841E+01
 -1      1477-7.30016E+00-7.78489E+00-1.73341E+01-3.51295E+00-4.84511E+00 2.86645E+00
 -1      1478-1.01679E+01-5.31269E+00-1.55839E+01 4.41476E-01-7.10397E+00 2.12962E+00
 -1      1479-6.89361E+01-5.12548E+01-4.33144E+01 1.44099E+00-8.09085E+00-1.16030E+01
 -1      1480-6.84060E+01-5.37146E+01-4.33245E+01 4.34259E+00-1.29907E+01 5.32805E+00
 -1      1481-7.06311E+01-6.69288E+01-4.61463E+01-8.46312E+00-2.83449E+00 7.13003E+00
 -1      1482-8.23928E+01-7.63081E+01-5.02062E+01-9.47318E+00-8.93483E+00-1.83391E+00
 -1      1483-5.29216E+01-5.24362E+01-2.40001E+01-6.72391E-01-1.22073E+01-1.97717E+00
 -1      1484-1.78786E+01-2.63193E+01-3.25590E+01 2.20488E+00-1.08706E+01 6.88051E+00
 -1      1485-1.52480E+01-1.59537E+01-9.65012E+00-1.06449E+00 6.91058E+00 8.49314E+00
 -1      1486-5.67721E+01-6.04690E+01-3.07655E+01 4.48154E+00 1.22245E+01 5.87233E+00
 -1      1487-2.04224E+01-2.05733E+01-2.76861E+01-3.56501E+00-6.93314E+00-1.09101E+01
 -1      1488-6.29940E+01-5.85159E+01-3.62420E+01-1.35830E+00-1.17243E+01-1.07079E+01
 -1      1489-5.35724E+01-7.00701E+01-3.90243E+01 3.96918E+00-1.56440E+01-6.31266E+00
 -1      1490-6.38607E+01-8.12999E+01-4.48528E+01 6.40585E+00 2.29847E+00-1.33071E+01
 -1      1491-1.98022E+01-1.87895E+01-2.76064E+01-3.89679E-01 7.94889E+00 9.10416E+00
 -1      1492-1.76367E+01-2.38288E+01-3.05929E+01 1.46811E+00-1.45907E+01-1.49681E+00
 -1      1493-6.44170E+01-7.02200E+01-3.36431E+01 4.09122E+00 3.58632E+00-1.38358E+01
 -1      1494-6.10280E+01-6.43307E+01-2.95917E+01 3.35399E+00-1.26203E+01-1.14335E+01
 -1      1495-5.29482E+01-5.11678E+01-2.63043E+01-1.77030E+00-5.21356E+00 1.02250E+01
 -1      1496-6.09073E+01-5.66395E+01-3.23873E+01 9.42594E-01-1.31010E+01 6.32760E+00
 -1      1497-5.60693E+00-4.30821E+00-9.18761E+00-8.61480E-01 3.94243E+00-3.28016E+00
 -1      1498-2.77439E+01-2.99734E+01-3.71291E+01 8.70960E+00 1.38972E+01 2.04374E+00
 -1      1499-2.81702E+01-1.88529E+01-3.11026E+01 3.70964E+00 1.23664E+01-1.50504E+01
 -1      1500-3.22783E+01-2.35840E+01-4.04590E+01 1.22030E+00 1.62215E+01-3.73802E+00
 -1      1501-8.74444E+00-1.09790E+01-1.56427E+01 5.30003E+00-3.40588E+00-6.30962E+00
 -1      1502-2.41587E+01-1.87311E+01-2.84356E+01-2.12675E+00 1.41483E+01 7.19643E+00
 -1      1503-2.43700E+01-1.81549E+01-2.52804E+01 2.23906E+00 1.54577E+00 1.12162E+01
 -1      1504-2.92833E+01-2.17332E+01-3.87132E+01 3.21909E+00 5.35155E+00-1.58152E+01
 -1      1505-1.39295E+01-2.01633E+01-2.43570E+01-1.63304E-01-1.54406E+01 1.32231E-01
 -1      1506-2.08419E+01-1.44958E+01-3.05876E+01-4.96503E+00-1.05143E+01-5.58056E+00
 -1      1507-7.09023E+01-5.62780E+01-3.72584E+01-7.66529E+00 2.53194E+00-6.43708E+00
 -1      1508-6.67818E+01-5.60993E+01-3.34599E+01-9.03443E+00 1.22430E+01 4.65937E+00
 -1      1509-4.17941E+01-4.92628E+01-4.27910E+01-4.29000E+00-8.52805E+00-2.27576E+01
 -1      1510-5.06766E+01-4.50204E+01-1.84966E+01-1.63066E+00 1.10193E+01 4.32249E-01
 -1      1511-1.92158E+01-2.20971E+01-2.85508E+01-2.73458E+00-1.69814E+01-7.72753E+00
 -1      1512-2.78595E+01-3.18728E+01-2.77374E+01-6.55850E+00-8.59865E-01 1.07676E+01
 -1      1513-5.69021E+01-6.43188E+01-3.12253E+01-1.11303E-01-6.34967E+00-1.10391E+01
 -1      1514-5.37035E+01-7.82074E+01-4.04273E+01-1.10637E+00 1.00342E+01-5.95221E+00
 -1      1515-5.16086E+01-7.20829E+01-3.54291E+01-3.43428E+00-6.99083E+00-9.46392E+00
 -1      1516-5.48815E+01-6.32182E+01-2.77219E+01 3.19775E+00 1.02459E+01-8.61494E+00
 -1      1517-1.87428E+01-1.64480E+01-2.25405E+01 9.17195E-01-6.71482E+00-9.28061E+00
 -1      1518-4.86699E+01-4.30657E+01-1.62865E+01-2.34724E+00 4.64789E+00-5.94664E+00
 -1      1519-1.27136E+01-5.86138E+00-1.81607E+01-1.05419E+00 9.31539E+00 6.39094E+00
 -1      1520-2.04820E+01-1.61510E+01-1.57070E+01 3.95051E-01 1.13536E+00-8.48236E+00
 -1      1521-1.51607E+01-1.98787E+01-1.80706E+01 4.72575E+00 1.00859E+01-6.08941E+00
 -1      1522 2.33981E+00-3.42856E+00 2.61244E+00-2.50476E+00-3.91976E+00-1.56099E+00
 -1      1523-1.23740E+00-1.48991E+00-1.20151E+00 1.84788E-01 3.36083E+00 3.41182E+00
 -1      1524 1.12444E+00-3.07957E-01 2.11222E-02 5.02797E-01 4.55886E+00-4.11861E+00
 -1      1525 8.79697E-01 2.45438E+00 1.80020E+00-1.38329E-01 1.85232E+00 5.26880E+00
 -1      1526-5.18673E+00 9.38143E-01 1.34836E+00-3.15463E+00-1.17775E+00-3.10506E+00
 -1      1527 1.91868E+00 3.98816E+00 3.23009E+00 6.82082E-01-2.50590E+00 2.81440E+00
 -1      1528 2.39665E+00 9.89547E-01 2.86446E+00-4.23909E-01 1.88509E+00-6.09929E+00
 -1      1529 9.59198E+00 3.10924E+00 3.93196E+00 1.05233E+00-3.60068E-01-5.29194E+00
 -1      1530 5.58652E+00 1.88495E+00-1.18350E+00-9.75588E-03 9.66459E-02-4.05547E+00
 -1      1531 1.13830E+01 7.01753E+00 2.50372E+00-9.63294E-01-1.38091E-02-2.86561E+00
 -1      1532-7.21405E+00-3.08212E+00-9.74103E-01-3.38733E-01 1.37873E+00 6.09323E+00
 -1      1533 9.24419E+00 9.81279E+00 8.42801E+00-1.49824E+00 4.30801E+00-3.81881E+00
 -1      1534-3.24693E+00 9.44585E-01 1.95984E+00 2.04247E+00 5.10495E-01 4.84536E+00
 -1      1535 1.92374E+00 8.52323E-01 2.41418E+00 1.71874E-01 3.35263E+00-4.23902E+00
 -1      1536 3.82617E+00 3.21163E+00 4.05828E+00-2.49306E-01-2.87430E+00-4.98871E+00
 -1      1537 7.51218E+00 2.28655E+00-2.45864E-03 9.29726E-01-1.48060E+00-4.66127E+00
 -1      1538-1.82842E+01-2.05447E+01-5.19955E+00-5.43671E-01 7.59908E-01-1.52789E+00
 -1      1539 1.43648E+01 1.82256E+01 9.09290E+00 2.09442E+00 3.73204E+00 4.18470E+00
 -1      1540 2.69276E+00 4.00403E+00 2.37978E+00 1.14602E+00-8.31055E-01-5.49051E+00
 -1      1541-2.46409E+00-4.16778E+00-1.88472E-01 4.73351E-01 5.11353E+00 2.64959E+00
 -1      1542 5.01450E+00 5.56249E+00 5.56836E+00 1.20265E-01 6.57932E+00 2.99260E+00
 -1      1543 4.00750E+00 5.59251E+00 2.54748E+00-1.35778E-01 5.70772E+00 9.24765E-01
 -1      1544 2.84757E+00 8.48104E+00-1.72536E-02-7.04956E-01 4.00397E+00 1.16194E+00
 -1      1545 2.31469E+00 4.48015E+00 2.95877E+00-1.05499E-01 7.22336E+00-2.01633E+00
 -1      1546 3.26959E+00 5.59990E+00 7.84218E+00 1.97858E+00 3.57911E+00 5.67664E+00
 -1      1547 4.50726E+00 8.20199E+00 6.07684E-01-1.87195E+00 4.79656E+00-2.80240E+00
 -1      1548 4.46729E+00 2.78136E+00 3.78144E+00-1.50215E+00 7.04169E+00-4.04990E+00
 -1      1549 5.43835E+00 4.79519E+00 5.12164E+00 1.58507E+00 2.92877E+00 6.89761E+00
 -1      1550 1.63712E+01 1.66738E+01-1.50078E+00-1.25857E-01 1.80396E+00-3.43345E+00
 -1      1551 6.37757E+00 1.10834E+01 9.16015E+00 6.44873E-01 6.54642E+00-1.02079E+00
 -1      1552 3.66019E+00 1.79392E+00-1.60414E+00-1.18778E+00-8.79266E-02 2.27495E+00
 -1      1553 4.46583E+00 2.37563E+00 4.90049E+00-1.15577E+00-2.64012E+00 4.91963E+00
 -1      1554 5.30116E+00 7.52682E+00 5.53446E+00 2.86741E-01 1.64160E+00-2.17347E+00
 -1      1555 5.69928E+00 2.63049E+00 4.00583E+00-5.64231E-01 1.75716E+00 3.37249E+00
 -1      1556 4.12831E+00 1.08824E+00-1.25557E+00-9.50660E-01-3.19483E+00 5.64745E+00
 -1      1557-4.64336E+00-7.82889E+00-1.24376E+00 1.10696E+00 7.07524E-01 4.73292E+00
 -1      1558 3.38962E+00 4.82546E+00 5.33571E+00-1.02964E+00-2.05186E+00 5.78971E+00
 -1      1559 3.87613E+00 6.20924E+00 1.40816E+00-1.66667E+00-2.04701E+00 2.74065E+00
 -1      1560 5.15610E+00 6.58876E+00 7.28861E+00-1.13814E+00-5.53439E+00 3.47683E+00
 -1      1561 6.63347E+00 6.94312E+00 4.28137E+00-1.04413E+00-6.35150E+00 1.38586E+00
 -1      1562 2.81902E+00 1.70605E+00 6.95507E+00-2.31274E+00 5.47901E+00 3.95581E+00
 -1      1563 3.51163E+00 4.65079E+00 6.58331E+00-5.42482E-01-6.27790E+00 2.31716E+00
 -1      1564 6.32169E+00 1.00189E+01 2.79309E+00-4.68138E-01 2.81706E+00 7.84326E-01
 -1      1565 2.02058E+00 5.78416E+00 1.06507E+00 1.58246E-01-4.10711E+00-1.14229E-01
 -1      1566 4.02561E+00 5.93642E+00 4.48015E+00 3.29193E-01-7.11415E+00 1.89410E-01
 -1      1567 1.07349E+00 2.28101E+00-3.82320E+00 1.68150E+00-4.95341E+00-1.80891E+00
 -1      1568 3.46895E+00 6.14869E+00 6.73242E+00 1.22335E+00-4.15648E+00-2.10333E+00
 -1      1569 8.68791E+00 1.03600E+01 1.03155E+01 1.81097E+00-5.47861E+00-5.67729E+00
 -1      1570-1.32976E+01-7.69213E+00-1.06798E+01-1.46572E+00-8.50255E-01-5.85022E+00
 -1      1571 1.26226E+01 6.39093E+00 7.99020E+00-4.93962E-01-7.28085E-01-6.04187E+00
 -1      1572-4.25860E-01 6.57301E-01 2.21160E+00 1.51682E+00-2.28510E+00 5.06167E+00
 -1      1573-1.02856E+01-7.64710E+00-5.49149E+00-3.94785E+00-1.10142E+00-5.07484E+00
 -1      1574 1.60121E+00 2.29987E+00 6.40353E+00-1.14084E-02-3.98621E+00 5.71558E+00
 -1      1575 6.87318E-01 1.83750E-01 2.59727E+00-1.47313E+00-3.68303E+00 4.61271E+00
 -1      1576 4.82933E-01-2.95441E-01 2.03218E+00 1.16979E+00 2.75011E+00 3.72888E+00
 -1      1577 8.75819E+00 1.16825E+01 1.04972E+01 1.63549E+00-7.38693E+00 9.69664E-02
 -1      1578-1.29986E+00-2.85486E+00 3.14224E+00-1.41195E-01-1.17520E+00 4.47144E+00
 -1      1579 8.28123E+00 8.66920E+00 5.43205E+00-3.44915E-01-1.52545E+00-2.37770E+00
 -1      1580 7.01785E-01 1.67980E+00-6.26367E-01-7.28839E-01 6.54120E+00-1.09416E+00
 -1      1581 1.82900E+00 2.20099E+00 3.05230E+00 6.15743E-01-5.48422E+00-3.93364E+00
 -1      1582 6.37330E+00 9.90310E-01 9.30045E-01 7.39315E-01-1.60025E+00 5.47377E+00
 -1      1583 4.32399E+00 5.75395E+00 6.30834E+00 4.70853E-02 5.51713E+00 4.19397E-01
 -1      1584-7.99473E+00-7.16193E+00-7.03782E-01-2.86230E+00 3.68544E+00 3.51730E+00
 -1      1585-1.61665E+01-1.04622E+01-7.23590E+00 3.63520E+00-4.46561E+00 7.73611E+00
 -1      1586 6.37444E-01 2.23327E+00 2.74391E+00-2.34136E+00-4.01493E+00 1.87175E+00
 -1      1587-6.46241E+00-1.68867E+00 6.70975E-01 1.05387E+00 9.47377E-01-4.34644E+00
 -1      1588-9.08511E+00-1.17369E+01-1.19668E+00-3.12849E+00 6.12589E+00 3.33415E+00
 -1      1589 2.25606E+00-1.58920E-01 6.90213E-01 2.65637E-02 3.01622E+00 5.24737E-01
 -1      1590 5.09093E+00 6.00414E+00 6.57571E+00-8.95031E-01 1.76626E+00-4.75669E+00
 -1      1591-6.78948E+00-6.27079E+00-6.94887E+00-7.25342E-01-2.35404E+00-6.23229E+00
 -1      1592-1.48352E+01-6.61085E+00-2.88547E-01 1.48165E+00-3.89970E+00 4.64113E+00
 -1      1593 6.18002E-01 2.57723E+00-9.50502E-01-1.10254E+00 2.33113E+00 3.69616E+00
 -1      1594-6.84922E+00-3.60819E+00-3.51555E+00-1.75603E+00 2.38072E+00 7.12290E+00
 -1      1595 5.04929E+00 6.00904E+00 3.35392E+00-1.65213E+00-5.41948E+00 1.56540E+00
 -1      1596 1.38304E+00 3.52771E+00-2.17706E+00 3.45559E-01-1.34874E-01 2.89564E+00
 -1      1597-1.10253E+01-8.99260E+00-2.15596E+00 3.34958E+00-8.34185E-01 4.18270E+00
 -1      1598-1.08230E+01-7.30743E+00-3.70409E+00-1.91243E+00-1.05661E+00-1.02553E+01
 -1      1599-1.19439E+00 3.28573E+00 1.65354E+00 7.67934E-01-4.07411E+00-9.84530E-01
 -1      1600-2.59696E+00-3.11958E+00-7.01506E-01-2.42639E+00-3.92449E+00-7.62086E+00
 -1      1601 3.13547E+00 4.17254E+00 8.94630E-01 2.53428E+00-2.64339E+00-2.93544E+00
 -1      1602-3.28548E+00-1.75739E+00 1.38405E+00 2.81643E-01 1.34644E+00-4.25468E+00
 -1      1603 4.65778E+00 4.37830E-01 5.36079E+00-4.37769E-01-3.15091E+00 5.77422E+00
 -1      1604 1.15095E+00 3.11597E+00-9.23988E-01-6.62757E-01-5.12682E-01-2.00114E+00
 -1      1605-2.01748E-01 2.15429E+00 8.00867E-01 1.69740E+00 6.10863E+00 2.66900E+00
 -1      1606 9.53299E+00 4.40661E+00 3.42199E+00 6.97455E-01 8.70724E-03-6.48825E+00
 -1      1607-3.72538E+00-1.23460E+00 1.59801E+00-1.04414E+00 1.54877E+00 5.89675E+00
 -1      1608 2.88444E+00-2.21577E-02-8.09962E-01 1.77878E+00-3.58085E+00 8.63326E-01
 -1      1609-7.31213E+00-1.07166E+01-4.39369E+00-2.08657E+00 6.11519E+00-1.74201E-01
 -1      1610 5.81541E-01 3.43127E+00 2.93482E+00-6.82736E-01-5.87294E+00 1.82870E+00
 -1      1611 6.99338E-01 1.08610E+00 1.48479E-01 5.07216E-01 4.22294E+00 1.40815E+00
 -1      1612 4.87239E+00 5.82459E+00 3.45804E+00 2.96853E+00 3.04248E+00 2.98531E+00
 -1      1613-9.97478E+00-1.68237E+01-5.52035E+00 3.74687E+00 6.30483E+00-2.80231E+00
 -1      1614 1.11606E+01 1.14364E+01 8.87112E+00 3.31550E+00 6.25039E+00 3.16646E+00
 -1      1615 1.09815E+00-2.57297E+00 3.32259E-01-1.84396E-01-4.66348E+00-5.77572E-02
 -1      1616-4.89729E+00-3.52951E+00-8.23696E-01-1.65156E+00-3.88162E+00 1.62079E+00
 -1      1617 6.00628E+00 5.09690E+00-6.94810E-01 2.32135E+00-1.65722E+00-3.63302E+00
 -1      1618 1.27834E+01 8.45696E+00 9.51534E+00-2.38199E+00 3.61169E+00-4.83589E+00
 -1      1619 7.74642E-01 1.00564E+00 1.21127E+00-3.19430E-01 3.10875E+00 2.51039E+00
 -1      1620-6.58558E+00-1.31012E+01-4.52556E+00 2.23070E-01-4.91195E+00-1.19984E+00
 -1      1621 2.36928E+00 1.69037E+00 3.73550E+00-1.32331E-01 3.71367E+00-3.44275E+00
 -1      1622 5.97179E+00 3.80156E+00 3.70138E+00-7.40482E-01 2.23135E+00 5.92622E-01
 -1      1623-1.25298E+00 2.31679E+00 1.03091E+00 1.73263E-01-9.05708E-01-3.95435E+00
 -1      1624-2.75541E+00-2.51626E+00-1.08169E+00 1.25000E+00 2.82875E+00 2.94895E+00
 -1      1625 3.55402E+00 1.06763E+01 3.92253E+00 1.35322E+00-5.82654E+00-6.77182E-01
 -1      1626 5.70353E+00 3.02886E+00 4.54246E+00-4.91551E-01 4.67875E+00 8.11013E+00
 -1      1627-3.88470E+00-4.26674E+00-8.43724E-01 6.44545E-01-2.44096E+00-4.38045E+00
 -1      1628 1.69738E+00 4.38625E+00 6.61027E+00 9.49996E-01-3.58006E+00-5.19899E+00
 -1      1629 1.07999E+01 8.57710E+00 8.15261E+00-1.82686E+00-3.35828E+00 6.40339E+00
 -1      1630 4.70407E+00 2.42024E+00 2.07349E+00-2.16627E+00-3.01218E-02-5.62723E+00
 -1      1631-1.12164E+00-6.73598E-01-2.44710E-01-1.34958E+00-3.95970E+00-4.00573E+00
 -1      1632-9.38516E+00-1.00941E+01-8.05083E+00 3.43283E+00 4.73832E+00-3.08562E+00
 -1      1633-7.54095E+00-1.35598E+00-4.32891E-01 1.03333E+00 1.42671E+00-4.22800E+00
 -1      1634-1.00721E+01-1.42019E+01-4.42359E+00-3.02292E+00 6.67795E+00 2.35493E+00
 -1      1635 6.46405E-01 4.14452E+00 1.43445E+00-9.65300E-01 4.52348E+00-1.81457E+00
 -1      1636 2.64113E+00 3.41920E+00 1.41040E-01-3.44263E+00 2.88913E+00-1.93400E+00
 -1      1637-5.93103E+00-7.02075E+00-5.19832E+00-1.56763E+00 7.53279E+00 4.01341E+00
 -1      1638 2.12906E+01 2.04872E+01 7.04067E+00-1.48116E+00-2.64161E-01 3.06550E+00
 -1      1639-7.62848E+00-4.92481E+00-5.34624E+00 1.09742E+00 1.18106E+00-6.47048E+00
 -1      1640-1.78833E+00-6.01533E+00-3.55650E+00-6.53930E-01 5.86487E+00-1.56552E+00
 -1      1641-4.02243E+00-2.67702E+00-4.58673E-01 3.16712E+00 2.85465E+00-3.05245E+00
 -1      1642 8.04893E+00 1.68171E+01 1.17124E+01 1.97013E+00-7.66862E+00 1.79515E+00
 -1      1643-8.58470E+00-5.24695E+00-2.91404E+00-2.50313E+00 2.99444E+00 5.88971E+00
 -1      1644-1.27509E+01-1.14504E+01-8.84181E+00 9.59878E-01 6.34730E-01-1.31965E+00
 -1      1645-1.64803E+00-3.62170E+00 7.95819E-01-3.87274E+00 3.81733E+00 4.23750E+00
 -1      1646-9.93536E+00-6.10660E+00-3.60785E+00-2.88363E+00-2.21174E+00-4.93754E+00
 -1      1647-1.20237E+01-5.38711E+00-3.26551E+00-1.30346E+00-2.20042E+00 2.76804E+00
 -1      1648 1.76332E+00 4.01913E+00 1.45861E+00-2.08056E+00-3.61892E+00 2.00955E+00
 -1      1649-2.46909E+00-2.99645E+00-1.00291E+00 7.39525E-01-2.95772E+00-2.95917E+00
 -1      1650 6.57668E+00 1.04711E+01 4.34276E+00-5.16451E-01 4.78906E+00 4.20149E-02
 -1      1651-7.45249E+00-5.46884E+00-5.45181E+00 5.38160E-01 7.85985E-01-6.46341E+00
 -1      1652 5.04693E-01 3.21111E-01 8.29139E-01-5.26695E-01-2.32832E+00-2.25764E+00
 -1      1653 4.24028E+00 2.03751E+00 5.97716E+00-1.99256E+00-5.63066E+00-5.41313E+00
 -1      1654 1.17710E+01 7.53296E+00-1.64911E-01-7.23419E-01 3.83251E+00 1.25154E-01
 -1      1655 9.86250E+00 1.03953E+01 1.25245E+01-8.70194E-01-6.60556E+00 3.38682E+00
 -1      1656 8.97563E+00 9.90889E+00 5.26142E+00-4.38442E-02 2.59919E-01-3.34004E+00
 -1      1657 2.07763E+00 6.13577E+00 2.33102E+00-6.12280E-01 7.45819E+00-1.54916E+00
 -1      1658-7.14173E+00-6.74806E+00-7.81450E+00 7.83455E-01-2.95699E+00 7.40208E+00
 -1      1659-5.81096E+00-1.45232E+00 3.58360E+00-9.11504E-01-3.41625E-01-3.74596E+00
 -1      1660 5.61979E+00 2.96356E+00-5.99249E-01-1.43413E+00-2.43721E+00-1.56496E+00
 -1      1661-1.06154E+01-1.03585E+01-6.30323E+00 3.11733E+00 6.34949E+00-5.45093E+00
 -1      1662-3.83530E+00 3.59603E-01 1.13421E+00 1.41717E+00-3.46892E+00 3.66357E+00
 -1      1663-5.01130E+00-3.36738E+00-4.76743E+00 8.91842E-01-2.09404E-01-6.82208E+00
 -1      1664-8.06014E-01-3.40595E+00 3.30629E-01-8.89545E-01-3.74771E+00-1.34589E+00
 -1      1665 1.06363E+01 8.17443E+00 1.11441E+01 1.24393E-01-1.32156E+00-6.47846E+00
 -1      1666 8.98602E+00 7.29421E+00 5.86685E+00-2.26416E+00 5.45262E-01-4.93027E+00
 -1      1667 3.08109E+00-9.91467E-01 9.01856E-01-5.46613E-01 3.93345E+00 9.15061E-01
 -1      1668-7.96277E+00-1.07338E+01-1.09064E+01-1.28043E-01 7.50168E+00 6.36993E-01
 -1      1669-8.24384E+00-8.32582E+00-7.21793E+00 1.36813E+00-3.61516E+00 4.17377E+00
 -1      1670-5.03480E+00-3.10611E+00 4.01205E-01 1.85024E-01-3.51756E+00-1.84023E+00
 -1      1671-4.38723E+00-4.39766E+00-3.10276E+00 1.68701E+00-1.53907E+00 5.68762E+00
 -1      1672-9.27722E+00-8.43818E+00-4.60399E+00 3.76389E+00-2.58143E+00 4.28321E+00
 -1      1673 5.01889E+00 7.82587E+00 4.16303E+00 2.45404E-01 1.78489E+00-1.87771E+00
 -1      1674 2.34775E+01 2.17253E+01-8.18910E-01 1.48341E+00 2.17413E+00 5.11631E+00
 -1      1675 4.41016E+00-2.11600E-01-5.60559E-02-5.18716E-01 5.49028E-02 5.00783E+00
 -1      1676-1.47299E+01-1.17043E+01-1.37541E+01 1.91684E+00 7.96650E-01-7.42812E+00
 -1      1677 8.21689E+00 1.03198E+01 1.03987E+01 5.44294E-01-6.41942E+00-3.54759E+00
 -1      1678 1.91979E+00 3.77138E+00 2.41438E+00 2.14157E+00-3.57095E+00-1.63670E+00
 -1      1679 8.35942E+00 1.30004E+01 8.83110E+00 2.00807E+00-4.67344E+00-1.56226E+00
 -1      1680-3.42253E+00-1.12526E+00 2.25291E+00-2.35022E+00-5.47315E+00-5.14298E+00
 -1      1681-1.29581E+01-7.76471E+00-1.00779E+00-3.38711E+00 2.00711E+00 4.69732E+00
 -1      1682-1.13906E+00 1.03104E+00 4.02469E-01-5.14606E-01-4.67218E+00-6.53562E+00
 -1      1683 2.11856E-01 2.12899E+00 1.14429E+00-5.73227E-01-2.44510E+00-5.03396E+00
 -1      1684-8.72198E+00-4.90793E+00-4.85460E+00 8.75486E-01 2.57239E+00 7.19104E+00
 -1      1685-4.90713E+00-2.53698E+00-3.29447E-01-2.40688E-01 4.67787E+00-4.55931E-01
 -1      1686-2.54499E+00-1.96348E+00-2.28457E+00-5.41002E-01-4.23098E-01-6.26885E+00
 -1      1687-6.37305E+00-1.00593E+01-4.55631E+00-2.20192E-01-8.37262E+00-2.69390E+00
 -1      1688-7.08851E+00-7.10383E+00-5.63325E+00-3.58847E-02 3.46909E+00-4.35296E+00
 -1      1689-7.63855E-01 1.01522E+00 1.52457E+00 8.85944E-01 2.08341E+00-4.73887E+00
 -1      1690 4.32732E+00 2.22169E+00 1.50624E+00-1.03009E+00 7.24141E-01 3.23766E+00
 -1      1691-5.75886E+00-1.51440E+00 4.32612E-01 1.07296E+00 2.00427E+00-5.02744E+00
 -1      1692 2.62297E+00 2.84978E+00 1.70024E+00-4.62644E-01 1.39720E+00 2.36327E+00
 -1      1693 2.30992E+00 5.25633E+00 2.32116E+00 7.93583E-01 1.90110E+00 2.15770E+00
 -1      1694-8.07835E+00-5.27320E+00-4.73513E+00 8.42320E-01 1.89221E+00-8.79980E+00
 -1      1695 5.04020E+00 5.33707E+00 7.25458E+00-1.88496E-01-4.92870E+00 4.94227E+00
 -1      1696-5.22610E-01 3.23075E+00 1.71094E+00 1.59461E-01-4.15550E-01-2.87485E+00
 -1      1697-3.89231E+00-7.41631E-02-1.60036E-01 1.37900E+00 1.77253E+00-3.85659E+00
 -1      1698 5.26221E+00 7.17070E+00 3.71424E+00 5.69206E-01 5.14252E-02-2.81802E+00
 -1      1699 8.81264E+00 1.35622E+01 3.98106E+00 6.41658E-01 3.09123E+00-1.39446E+00
 -1      1700 3.32008E+00-2.06378E+00 6.52962E-01 1.67131E+00 5.06841E-01 3.34997E+00
 -1      1701 1.33703E+01 1.05944E+01 1.03306E+01 2.59707E+00 9.81887E-01 6.51895E+00
 -1      1702 1.34680E+01 1.02248E+01 6.75911E+00 2.30115E+00 3.55004E+00 6.72352E+00
 -1      1703-4.90702E+00-3.12610E+00-1.73262E+00-7.10112E-01-4.22303E+00 9.87741E-01
 -1      1704-7.18516E+00-5.57710E+00-5.53067E+00-1.93358E+00-1.05673E+00-7.23282E+00
 -1      1705-7.12067E+00-3.56778E+00-3.11358E+00-8.79204E-02 7.22377E-02-5.87600E+00
 -1      1706 1.05481E+01 6.76087E+00 6.23662E+00-1.95691E+00-1.87601E+00 6.61417E+00
 -1      1707 1.13018E+01 7.99005E+00 1.12478E+01-1.91670E+00-4.61729E+00 5.89944E+00
 -1      1708-1.37023E+00 8.47424E-01 2.75426E+00 1.04477E+00 2.43139E+00 6.71037E+00
 -1      1709 1.01144E+01 8.80888E+00 4.00028E+00-3.53430E-01 2.06535E+00 3.61645E+00
 -1      1710-7.55686E+00-3.30419E+00-2.08387E+00-2.14929E+00 1.98061E+00 3.12013E+00
 -1      1711 1.83180E+00 2.94275E+00 5.96149E+00 1.62529E-02-7.37232E+00-3.59551E+00
 -1      1712-2.17195E+01-1.51009E+01-1.03280E+01 3.15432E+00 9.28963E-01-3.02674E+00
 -1      1713-2.92807E+00 4.70945E+00-2.65674E+00-2.27572E+00 9.51555E-01-4.88002E+00
 -1      1714 2.20449E+00 3.33541E+00 4.71588E+00 2.74443E-01 4.96551E+00-3.61311E+00
 -1      1715 9.37172E+00 1.28704E+01 5.37772E+00-2.47049E+00 6.04024E+00-5.50121E+00
 -1      1716-6.41588E+00-1.47597E+01-2.01478E+00-4.55426E+00 5.53830E+00 1.09612E+00
 -1      1717 4.37076E-01 9.63551E-01 1.02445E+00-7.24144E-01 5.36536E+00 1.95082E+00
 -1      1718 8.10394E+00 8.53023E+00 8.21811E+00 2.14171E+00 6.18068E+00 5.60413E+00
 -1      1719 1.72993E+01 1.32545E+01 1.03111E+01-1.73836E-02-2.54940E+00 6.16504E-01
 -1      1720 9.72869E+00 4.25974E+00 5.47182E+00 1.40125E+00 4.11085E-01-5.26961E+00
 -1      1721-8.69150E+00-1.49625E+00-2.27588E+00-1.17190E+00 6.29924E-01 4.14528E+00
 -1      1722 6.32807E-02 2.92673E-01 7.47147E-01-9.02694E-01 2.53064E+00 3.35273E+00
 -1      1723 2.65095E+00 2.46491E+00 1.14727E+00-8.01372E-01 1.17416E+00-1.66953E+00
 -1      1724-1.07364E-01 2.20593E+00-7.05112E-01-8.28062E-01-1.35346E+00-2.39676E+00
 -1      1725 2.75799E+01 2.85387E+01 4.04059E+00 3.09316E+00 7.52596E+00 2.92076E+00
 -1      1726-6.86129E+00-1.25000E+01-2.56457E+00 3.69289E+00-7.08648E+00 2.76398E+00
 -1      1727-4.21221E+00 1.68899E+00-1.21493E+00 3.15888E-01 4.73748E+00-3.46180E+00
 -1      1728 1.78911E+00 2.30508E+00 1.91091E+00 9.00820E-01-3.77930E+00 2.36334E+00
 -1      1729 1.07352E+01 1.83278E+01 8.76580E+00-4.41164E+00 4.14115E+00-4.11020E+00
 -1      1730 1.95658E+00-7.01990E-01 1.41269E+00 1.94690E-01 6.31897E+00-3.12302E+00
 -1      1731 2.10086E+00 4.11363E+00 5.36478E-01 1.33248E-02-3.38272E-01 3.44045E+00
 -1      1732 4.43888E+00 7.07477E+00-2.00300E+00-7.17523E-01-1.68302E+00-1.80165E+00
 -1      1733-6.86700E-01 1.79637E+00 1.72356E+00 8.70745E-02 8.33387E-01 4.71766E+00
 -1      1734 7.50520E+00 7.30864E+00-9.95315E-01 5.14235E-01-2.08632E+00-8.82598E-03
 -1      1735 3.19158E+00 5.51507E-01 2.19382E-01 6.54574E-01 3.39932E+00-6.38118E-01
 -1      1736-2.02343E+00-4.74735E+00-8.35707E-01-1.58467E+00 6.10832E+00 2.44014E+00
 -1      1737-2.59145E+00-4.35141E+00-3.61190E+00 1.66474E-02 5.13294E+00 2.03524E+00
 -1      1738-3.94331E+00-5.36535E+00-8.50967E-01-8.81372E-01 1.32166E+00-3.35608E+00
 -1      1739 9.47620E+00 1.08076E+01 6.84586E+00 2.21538E-01-4.91038E-01 3.23871E+00
 -1      1740-6.89125E+00-1.04953E+01-6.99820E+00 1.53383E+00 7.09440E+00-1.95998E+00
 -1      1741-6.02135E+00-3.89091E+00-4.65817E+00-1.28500E+00-3.92872E+00 7.79745E+00
 -1      1742 5.34256E+00 3.69626E+00 3.43355E+00-2.49363E-01 2.35006E+00-5.10596E+00
 -1      1743 1.58768E+00 3.80931E+00 2.50243E+00 1.11651E+00 6.24784E+00 2.34025E+00
 -1      1744-1.22890E+01-6.98945E+00-5.19644E+00 2.57055E+00-3.10808E+00 5.42544E+00
 -1      1745-1.17781E+01-7.18633E+00-6.11620E+00 2.59672E+00-3.71322E+00 3.87253E+00
 -1      1746 2.10442E+00 3.57206E+00 5.13616E+00 2.43407E+00-8.67367E+00 1.73683E+00
 -1      1747 7.84768E+00 1.08274E+01 5.51355E+00-1.72758E+00-1.76099E+00-2.33337E+00
 -1      1748-4.58441E-01 2.67063E-01 8.22878E-01-5.45682E-01 1.16530E+00 3.27556E+00
 -1      1749 8.73037E+00 1.03730E+01 7.66192E+00-9.10229E-02 6.38460E-01 2.27529E+00
 -1      1750 5.26515E+00 4.21965E+00 4.81276E+00 6.09178E-01 2.94135E+00 6.48478E+00
 -1      1751-1.70325E+01-9.33545E+00-8.84419E-01-2.16154E+00 2.19763E+00 4.38653E+00
 -1      1752 1.88779E-01 8.89993E-03 3.37315E+00 6.61597E-01 5.83699E+00-4.52132E+00
 -1      1753-1.51994E+01-1.53054E+01-1.03330E+01 3.88361E+00 4.71747E+00-3.86361E+00
 -1      1754-1.49084E+00 4.59549E-01 6.87290E-01-8.45765E-01-3.14922E+00-2.53382E+00
 -1      1755-2.84684E-01-1.14821E-01 1.68747E+00 3.21233E+00-2.77518E+00 3.38160E+00
 -1      1756-2.94535E+00-7.18522E+00-3.12384E+00-1.54303E-01-6.52942E+00-6.22902E-01
 -1      1757 4.02016E+00-1.24551E+00-3.82266E-01-1.21162E+00-2.93730E+00-1.60451E+00
 -1      1758 1.00815E+01 9.53858E+00 1.38697E+01 2.02335E-01 4.64775E+00 7.00185E+00
 -1      1759 2.85287E+00 3.59092E+00-2.85055E+00-1.03481E-01 1.97626E+00-2.84243E+00
 -1      1760 1.31585E+01 1.14559E+01 6.31377E+00 1.32504E+00 3.17803E+00-4.09167E-01
 -1      1761 3.69202E+00-2.86215E-01 1.46541E+00-5.57618E-01 4.83268E+00-1.31861E-02
 -1      1762-9.98908E+00-1.41289E+01-1.18256E+01-1.42421E+00-6.14525E+00-2.84617E+00
 -1      1763-1.06153E+01-9.77121E+00-2.98175E+00-3.18067E+00-2.56301E+00-3.78694E+00
 -1      1764-4.61673E+00-8.24262E-01-1.53248E-01-1.56352E+00-3.43557E+00-4.57334E+00
 -1      1765-1.12475E+01-1.03774E+01-5.47751E+00-4.88151E+00-5.37397E+00-5.14920E+00
 -1      1766 1.79720E+00 1.50599E+00 8.59196E-01 1.20467E+00-2.71636E+00 2.64944E+00
 -1      1767-1.01641E+00 7.04997E-01 3.13698E+00-2.79989E+00 6.02984E+00 3.43442E+00
 -1      1768 1.67929E+01 1.80230E+01 7.19214E+00-1.18724E+00 3.67974E-01-3.41722E+00
 -1      1769-1.09016E+01-1.27636E+01-4.72717E+00-5.27925E-01-1.40143E+00-6.71911E-01
 -1      1770-4.25398E+00-4.72727E+00-2.30283E+00 1.25473E+00-4.23933E+00 1.89301E+00
 -1      1771-7.95085E+00-1.39555E+01 4.71075E-01 3.47376E+00-3.98333E+00 8.79106E-01
 -1      1772 2.93402E+00 2.16820E+00 2.22289E+00-2.22120E-02 2.80045E+00 6.59056E-01
 -1      1773 1.94556E+00-9.93784E-01 3.25950E+00 2.63945E-01-4.16414E+00 1.24440E+00
 -1      1774 5.55005E-01 3.83581E+00-1.14540E+00-1.38131E-01 3.06569E-01 3.02136E+00
 -1      1775 1.87382E+00-3.35180E+00 2.50390E+00-1.12498E-01 3.77338E+00 3.22896E-01
 -1      1776-7.78923E+00-6.10057E+00 1.68848E-01-2.13526E+00-3.74721E+00-3.90651E+00
 -1      1777-6.08623E+00-1.04699E+01-6.35181E+00-1.57685E+00-7.03968E+00-1.58976E+00
 -1      1778 8.49064E+00 1.29113E+01 7.63638E+00-5.25516E-02 5.04832E+00-2.02052E+00
 -1      1779 3.06923E-01-1.09236E+00 1.54182E+00 1.46739E+00 2.96431E+00-1.36032E+00
 -1      1780 1.94418E+00 1.04280E+00 9.47417E-01-2.87633E-01-3.35426E+00-2.00130E+00
 -1      1781 2.40521E+01 2.36861E+01 2.86782E+00-2.25006E+00-4.69370E+00-5.54369E-01
 -1      1782 5.15974E+00 6.72367E+00 3.63471E+00-5.72086E-01 3.29328E-01-5.46915E+00
 -1      1783 1.00785E+00 8.62873E-01 2.31863E+00-7.18170E-01 4.92660E+00 1.62515E+00
 -1      1784 8.25838E+00 7.76067E+00 6.55456E+00 2.00986E+00-3.56109E+00-6.13674E+00
 -1      1785 1.02580E+01 6.42531E+00 6.63433E-01-3.50182E-01 3.01414E+00-1.12403E+00
 -1      1786 1.14568E+01 1.05943E+01 4.93827E+00-8.66786E-01-2.63470E+00-9.24495E-01
 -1      1787 8.83997E+00 1.01750E+01 5.15748E+00 1.14236E+00 1.20582E+00-2.12404E+00
 -1      1788-2.94392E+00-1.30136E+00-1.22691E+00 1.68427E+00-3.37703E+00 1.85793E+00
 -1      1789 1.08927E+01 8.98831E+00 2.62293E+00-1.25380E+00 2.52531E+00 3.07971E-01
 -1      1790 9.08849E+00 4.21424E+00-1.57841E+00-1.25955E+00 2.80173E+00 7.17383E-01
 -1      1791 9.02821E+00 7.46643E+00 5.54610E+00-4.44240E-01 1.98711E+00 9.20108E-01
 -1      1792-1.58555E+00-5.51904E+00-2.87214E+00 2.31864E+00-7.22513E+00 1.16311E+00
 -1      1793 5.27567E-02-1.53988E+00-2.76696E-01 9.61374E-01-6.27197E+00 7.54408E-01
 -1      1794 7.25786E+00 8.16775E+00 5.30271E+00-4.40895E-01-3.14405E-02-2.66975E+00
 -1      1795 3.43086E+00 3.98404E+00 3.72208E+00 1.10272E-01 2.46469E+00 2.20479E+00
 -1      1796-7.49624E+00-9.80437E+00-7.01545E+00-3.86233E+00 2.84161E+00 5.39311E+00
 -1      1797 1.33676E+00-4.40390E-01 1.27775E+00-1.75593E+00 3.46837E+00 2.95670E+00
 -1      1798-1.23086E+01-9.07106E+00-8.86255E+00 4.10601E-02-1.73758E+00 6.99268E+00
 -1      1799 2.31894E+00 3.21329E+00 2.76841E+00-8.32494E-01 2.74855E+00 2.03803E+00
 -1      1800-2.02640E+00-4.63047E+00-2.70722E+00-4.99289E-01 3.43408E+00 4.21887E+00
 -1      1801 1.66920E+01 1.41422E+01 1.10260E+01-1.80740E+00-2.38824E+00-4.15849E-01
 -1      1802-5.86994E-01 4.77232E+00 7.08475E-01 4.96535E-01 4.91716E-01-3.81922E+00
 -1      1803 1.05077E+01 1.11032E+01 9.27803E+00 3.54473E+00 6.91853E+00 4.55524E+00
 -1      1804-5.10283E+00-5.80657E+00-3.04086E+00-1.16958E+00-1.85932E+00 3.16539E+00
 -1      1805 1.71161E+01 1.27432E+01 8.13887E+00-2.81136E+00-2.29658E+00 6.19592E+00
 -1      1806 6.21702E+00 1.41124E+00 1.18102E+00-1.19867E+00-1.98281E+00-6.53556E+00
 -1      1807 1.57664E+01 1.31045E+01 1.37883E+01-9.54167E-01-2.77214E+00-8.23445E-01
 -1      1808 7.11994E+00 8.32910E+00 7.30893E+00-2.15302E+00 4.06588E+00-4.41464E+00
 -1      1809-3.10481E+00-3.22914E+00-4.44124E-01-3.50104E-01 3.88012E+00-2.26048E+00
 -1      1810 3.84040E+00 1.41555E+00 6.58499E-01-2.15961E-01 2.55509E-01 2.62181E+00
 -1      1811 5.48923E+00-1.67949E-01 1.31523E+00 1.20513E+00-1.05161E+00-4.54504E+00
 -1      1812 1.24470E+01 1.64828E+01 6.39282E+00-1.88643E-03 1.69778E+00 2.70081E+00
 -1      1813 6.59985E+00 4.74877E+00 2.98491E-01-5.40485E-01-2.38614E+00-1.62085E+00
 -1      1814-1.43555E+01-1.53984E+01-6.52288E+00-4.09871E+00-4.02796E+00-2.32904E+00
 -1      1815 2.60620E+00 4.49003E+00 2.07497E+00 1.43830E+00-6.42885E+00-1.36079E+00
 -1      1816-8.59522E+00-1.23264E+01-1.00070E+01-7.10845E-01 6.25069E+00 1.16819E+00
 -1      1817 5.23519E+00 3.19787E+00-7.13852E-01 8.12952E-01-1.96285E+00-1.93277E+00
 -1      1818-7.31638E+00-1.06812E+01-7.10156E+00 2.84732E-01 6.34720E+00 4.23049E+00
 -1      1819-2.08305E+00-2.64774E+00 1.70381E+00-1.62810E+00 5.38860E+00 3.06685E+00
 -1      1820 2.06038E+00 1.18278E+00-1.97479E+00 8.86142E-01-7.04933E+00-2.13860E+00
 -1      1821 2.26942E+01 2.19022E+01 1.53520E-01 4.01259E+00-1.70011E+00-4.17939E+00
 -1      1822-3.20695E+00-4.65793E+00-2.16800E+00 1.04598E+00 2.50028E+00 2.58696E+00
 -1      1823-7.90468E-01 2.50358E+00 2.24707E+00 9.15515E-02 2.14435E+00-3.68814E+00
 -1      1824-5.72054E-01-8.22069E-02-2.92315E-01-6.19328E-01 1.39686E+00 3.22918E+00
 -1      1825 1.81440E+00 1.27121E+00 1.59758E+00-1.21136E+00 2.86152E+00 1.39469E+00
 -1      1826 8.05390E-01 1.91185E+00-1.57313E-01-1.26066E+00 2.91962E+00 3.30014E+00
 -1      1827-2.92591E-01 1.07097E+00 6.32487E-01-6.17579E-01 3.00050E+00 2.18734E+00
 -1      1828-6.82662E+00-4.45376E+00-8.05092E+00-1.69782E+00 3.63161E+00 4.05286E+00
 -1      1829 3.84943E+00 6.14888E+00 2.45895E+00-5.40374E-01 1.64678E-01 4.28340E+00
 -1      1830 9.22052E+00 1.61352E+01-5.96188E-01-2.05175E+00 7.83119E-01-2.37544E+00
 -1      1831-2.83859E+00-7.03819E+00-2.87428E+00 3.68847E-01-7.78892E+00 2.71647E+00
 -1      1832-9.93451E-01-3.00012E+00-1.96753E+00 6.12296E-01-3.46905E+00 2.03548E+00
 -1      1833-1.25057E+00-4.91176E+00 3.00094E-02 1.41439E+00-7.52117E+00 1.98981E+00
 -1      1834-2.02323E+00-2.51190E+00-4.58860E+00-2.27638E-01 2.76181E+00-4.16055E-03
 -1      1835-8.04731E+00-5.91679E+00-1.76177E+00 3.46023E+00-2.03102E+00 2.68465E+00
 -1      1836-1.95701E+00 1.40896E+00 7.01753E-01 3.12916E-02-1.34833E+00-3.99677E+00
 -1      1837-2.58214E+00-5.94578E+00 2.13773E+00-2.63455E+00-4.61484E+00-1.40702E+00
 -1      1838 6.96300E+00 5.21399E+00 2.58502E+00 1.45867E-01 2.03781E+00 2.23270E+00
 -1      1839 1.79220E+01 1.89793E+01 9.74599E+00 9.81174E-01 9.47042E-01-3.80776E+00
 -1      1840-1.32511E+00-5.77206E-01 1.33663E+00 8.09859E-01-2.32859E+00 3.80461E+00
 -1      1841 4.48754E+00 2.33868E+00 3.21046E-01 6.90677E-01-2.30220E+00 1.66159E+00
 -1      1842-1.10337E+01-1.41516E+01-1.32608E+01-1.14991E+00 6.67045E+00 1.98188E+00
 -1      1843-7.67347E+00-1.38646E+01-8.80298E+00 4.79305E-01-8.89242E+00-1.24113E+00
 -1      1844 1.22723E+01 1.43207E+01 3.43306E+00-2.39255E-01 2.74535E+00 1.86220E+00
 -1      1845 7.24340E+00 1.00028E+01 4.19177E+00 1.22718E+00 2.59572E+00-1.35444E+00
 -1      1846 9.57466E-01 3.26580E-01 4.78386E-01-1.35848E+00-3.48816E+00-2.74971E+00
 -1      1847 2.63616E+00 1.91971E+00 6.48241E-01 6.00352E-01 2.55500E+00-4.33980E+00
 -1      1848 1.71344E+01 1.43693E+01 1.75337E+01 1.61878E+00-4.58152E+00-5.64074E+00
 -1      1849 1.81410E+00 1.44505E+00 2.21832E+00-5.25119E-01-2.95907E+00-3.67029E+00
 -1      1850-2.45026E+00-7.38014E-01-5.62808E+00-7.79890E-01-3.46314E+00-4.44654E+00
 -1      1851-1.06693E+01-8.00864E+00-9.78117E+00 1.08858E+00-3.00188E+00 6.36725E+00
 -1      1852-4.20932E+00-2.46866E+00-2.68679E+00-9.08723E-01-2.50346E+00-3.03397E+00
 -1      1853-2.20636E-01-7.71286E-01 1.00235E+00 3.90617E-01 3.88804E+00-1.95664E+00
 -1      1854-3.22456E+00-1.08350E+00 1.22734E-01 3.21257E+00 3.64080E+00-2.74872E+00
 -1      1855 4.28070E+00 6.97715E+00 2.42287E+00-4.90231E-01-1.61953E+00-1.82524E+00
 -1      1856 7.30618E+00 5.98099E+00 4.94653E+00-2.18668E-01-2.26370E+00 2.53512E-01
 -1      1857-6.10409E+00-5.56236E+00-5.28720E+00-3.71298E-01 7.88770E+00 5.41995E+00
 -1      1858-1.50096E+00-8.75959E-01-1.51520E+00-7.94292E-01 3.29918E+00 3.55992E+00
 -1      1859 1.96282E+01 2.32071E+01 5.48020E+00 1.50727E+00-4.53642E+00-4.97797E-01
 -1      1860-4.71221E+00-8.47348E-01-2.33143E+00-3.52248E+00-4.51172E-01-5.23835E+00
 -1      1861 8.22239E+00 1.19968E+01 5.07487E+00-4.62947E-01 1.61118E+00 2.41061E+00
 -1      1862 1.05182E+01 1.50042E+01 1.18958E+01 1.55738E+00 6.25891E+00 2.23192E-01
 -1      1863 2.69938E+01 2.55919E+01 4.88305E+00-1.61275E-01 2.11966E+00-3.74350E+00
 -1      1864 8.27799E+00 1.13447E+01 5.81320E+00 2.22965E-01 5.54918E+00 1.60820E+00
 -1      1865-1.03097E+01-7.40321E+00-7.83282E+00 1.38110E+00 7.66692E-01-3.89867E+00
 -1      1866-6.13632E+00-9.25836E+00-6.46260E+00 1.42109E+00 3.69138E+00-4.86786E+00
 -1      1867-2.22941E+00-1.87698E+00 3.13558E+00 9.43658E-01-4.54067E+00 4.18006E+00
 -1      1868 4.42096E+00 8.69829E+00 4.39668E+00-2.57815E+00-4.73565E+00 3.13904E+00
 -1      1869-7.63764E+00-1.95141E+00-1.15178E+00 9.80365E-01 8.60764E-01-5.29591E+00
 -1      1870 2.14358E+01 2.21223E+01 5.52264E+00 1.39662E-01-4.21776E+00 1.59832E+00
 -1      1871-7.26633E+00-2.98776E+00-3.13218E+00 3.10992E+00 1.23625E+00 9.76460E+00
 -1      1872-5.32628E-01 9.67924E-01 4.78753E-01 7.72432E-01 2.29327E+00-4.08225E+00
 -1      1873 3.51785E+00 2.94076E-01 3.74467E+00 3.11521E-01 8.53640E-01-4.60284E+00
 -1      1874 1.63103E+00-6.40263E-01 2.21056E+00-9.56552E-02-4.73653E+00-2.84242E-01
 -1      1875-5.10494E+00-8.36141E+00-7.99348E+00 1.13700E-01 3.99718E+00 3.83756E+00
 -1      1876-7.66811E+00-3.62736E+00-4.73534E+00 3.20175E+00-4.93323E-01 3.74726E+00
 -1      1877 3.01289E+00 6.29103E+00 4.01899E-01-1.08536E+00-2.49366E+00-2.47065E+00
 -1      1878-1.82386E+00 4.24714E+00 1.71648E+00 5.38159E-01-1.34289E+00 4.93483E+00
 -1      1879-6.54272E+00-4.91635E+00-4.06166E+00 2.71590E+00 6.64381E+00-2.19281E+00
 -1      1880-1.22780E+00-2.85725E+00-2.20637E+00-1.36848E+00-5.00403E+00-7.29415E-01
 -1      1881-6.09271E+00-1.05081E+01-7.06044E+00-3.31842E-01 4.85003E+00 2.38443E+00
 -1      1882-4.26573E+00-1.03392E+01-5.54305E-01 4.10751E-01-3.91616E+00 1.28371E+00
 -1      1883-1.32521E-01 2.87108E+00 3.27975E-01-1.01166E+00-1.17734E+00-2.86212E+00
 -1      1884 1.11934E+00-5.02284E-01-2.86159E-01 5.28104E-01 4.88360E+00 4.94357E-01
 -1      1885-2.82535E-01-3.58163E+00 2.51704E+00-8.29270E-01-4.20492E+00-2.03452E+00
 -1      1886 9.23018E+00 8.24616E+00 5.03488E+00-1.97636E+00 4.37969E+00-6.18176E+00
 -1      1887-1.56154E+00-1.86947E+00 8.58861E-01-1.10125E+00 2.75310E+00-3.79105E+00
 -1      1888 7.03652E+00 1.03940E+01 7.08880E+00-9.66913E-01-6.91098E+00 7.79788E-01
 -1      1889-5.37531E+00-3.60040E+00-2.30606E+00 5.17135E-01 3.57203E+00 5.77866E-01
 -1      1890 1.48116E+01 1.69546E+01 9.89232E+00 1.88177E+00 2.57189E+00-1.60627E+00
 -1      1891 8.71154E+00 9.85509E+00 7.05244E+00 1.43242E-01-9.07247E-01-2.33554E+00
 -1      1892 1.28362E+01 1.24803E+01 8.70897E+00-1.92331E-01 4.37674E-01 6.57659E-01
 -1      1893 4.60643E+00 5.86297E+00-1.36276E-01-1.29825E+00-2.03215E+00-2.13619E+00
 -1      1894-1.98498E-02 2.05075E+00-3.13983E+00 6.46530E-01-1.71658E+00-5.37312E-01
 -1      1895 4.27309E+00 7.65916E+00 8.38701E+00 9.33699E-01 5.17207E+00 4.03448E+00
 -1      1896 4.79644E+00 6.35286E+00 9.76657E-01-2.25296E+00 1.90513E+00 2.02484E+00
 -1      1897 2.27302E+00-1.26789E+00 1.64886E+00-5.88656E-01-3.77579E+00 2.71357E-01
 -1      1898 3.26085E+00 3.29417E-01 2.27689E+00 1.53280E-01 5.05128E+00 1.45306E+00
 -1      1899-6.56360E+00-9.24200E+00-6.53751E+00 6.43937E-02-5.60044E+00 4.75084E-02
 -1      1900 3.37316E+00-2.80012E-01 2.38864E+00-1.03379E+00-3.57328E+00-3.64991E-01
 -1      1901-2.72347E+00-1.64255E+00 3.18245E-01-2.71319E+00 1.33404E+00 4.44469E+00
 -1      1902-1.44244E+00-2.30837E+00-2.30852E+00 2.07489E+00 4.05232E+00-3.85733E+00
 -1      1903 1.37280E+00 2.87965E+00 2.63451E-01 6.15349E-01 1.72194E+00-3.58298E+00
 -1      1904-5.20393E-01-2.73806E+00 5.71539E-01 3.12981E-01-4.63003E+00 1.74950E+00
 -1      1905-8.07536E+00-1.13821E+01-5.15673E+00-2.87489E-01-4.83254E+00 1.97885E-01
 -1      1906-4.84814E+00-3.23339E+00-1.01265E+00 2.84888E+00 1.98154E+00-5.51545E+00
 -1      1907 9.67021E+00 1.74153E+00 9.77656E+00 9.78160E-01-5.26089E+00-2.31257E+00
 -1      1908 1.09598E+01 1.29649E+01 7.11437E+00-1.24912E+00 1.45123E+00 1.92103E+00
 -1      1909 1.37373E+01 1.00696E+01 1.32649E+01 1.49650E+00-2.45354E+00 8.88088E+00
 -1      1910 5.43874E+00 2.25266E+00-1.91349E+00-3.23576E+00-2.83083E+00 1.73643E+00
 -1      1911 1.18103E+00 2.05360E+00 2.09990E-01 2.38033E-01 1.13933E+00-2.52426E+00
 -1      1912 9.81370E-01 3.71114E+00 9.59315E-01-3.46766E-01 3.85571E-01-2.36459E+00
 -1      1913 5.32130E+00 3.68884E+00 3.61980E+00-9.95585E-02-3.61717E+00 2.76649E-01
 -1      1914 6.86510E+00 6.37125E+00 3.87674E+00 2.22294E-02-2.42460E+00 9.31113E-01
 -1      1915 1.00615E+01 9.07551E+00 1.48090E+01-3.27566E-01-5.98200E+00 4.77616E+00
 -1      1916-1.63956E+01-9.48896E+00-2.41698E+00 2.73679E+00-8.49100E-02-2.75054E+00
 -1      1917 5.62776E+00 4.21694E+00 3.34258E+00-2.88032E-01-2.48789E+00-1.30692E+00
 -1      1918 9.52281E+00 1.30952E+01 2.50018E+00-6.84827E-01-1.00975E+00 3.17050E+00
 -1      1919 1.41751E+01 1.02347E+01 4.89807E+00 8.39080E-02-2.63450E+00-1.05826E-01
 -1      1920-1.19526E+00-7.67980E-01 1.32923E+00 2.64298E-01-1.21387E+00 3.57679E+00
 -1      1921 8.35343E+00 9.10192E+00 5.80133E+00 8.75061E-01 4.40236E-01-2.93512E+00
 -1      1922 1.11055E+00 2.92705E-01 3.21821E-01-2.07541E+00-2.74939E+00-5.73054E+00
 -1      1923-2.01642E+00-1.31492E+00 6.70446E-01 7.48936E-01-4.29930E+00-2.95471E+00
 -1      1924 1.68274E+01 1.73931E+01 6.32135E+00 3.15027E-01 3.16090E-01 3.30154E+00
 -1      1925-7.34102E+00-4.38790E+00-3.48309E+00 3.24691E+00-7.64852E+00 2.24693E+00
 -1      1926 1.92165E+00-5.45621E-01 1.25043E+00 1.13562E-01 3.24339E+00 1.74404E+00
 -1      1927 2.48401E+00 9.31035E-01-1.90503E-01 3.06361E-01 3.16871E+00-2.39261E+00
 -1      1928 2.49913E+00 4.37683E-01 4.66296E-01 5.53938E-01-3.64794E+00 6.01125E-01
 -1      1929 1.63860E+01 1.16858E+01 1.04850E+01 2.91862E+00 3.36147E+00 5.78233E+00
 -1      1930 8.47355E+00 7.68379E+00 1.05213E+01-7.16560E-01 2.57352E+00-8.88031E+00
 -1      1931 5.56268E+00 6.65003E+00 1.05659E+01 3.32088E-01-5.93619E-01-7.57968E+00
 -1      1932 4.13712E+00 5.48046E+00 3.16892E+00 1.98520E-01 8.64262E-02 2.89956E+00
 -1      1933 3.17898E+00 3.47699E+00 7.28338E-01-8.57000E-01-3.02352E+00-2.43871E+00
 -1      1934 3.76875E+00 2.65736E+00 2.83294E+00 6.38800E-01 2.55969E+00-1.81441E+00
 -1      1935 2.99779E+00 6.54084E-01-5.45503E+00 2.69700E-01 1.61667E+00-3.64033E-01
 -1      1936 5.59345E+00 5.50123E+00 2.93031E+00 1.19470E+00 2.01372E+00-2.12998E+00
 -1      1937 5.45949E+00 3.59959E+00 3.56868E+00-5.68554E-02 2.41447E+00 2.68521E-01
 -1      1938 3.57399E-01 3.67653E+00-1.00180E+00 4.34242E-01 4.93303E-01 4.47886E+00
 -1      1939 1.22266E+01 8.47015E+00 7.42265E+00-5.60703E-01-2.60372E+00-1.82303E+00
 -1      1940 1.49884E+00 3.06801E-03-1.17676E+00-7.21470E-01-2.61256E+00-1.46652E+00
 -1      1941-7.60405E+00-5.40573E+00-6.29742E+00-4.01641E-01-2.61950E-02 5.27911E+00
 -1      1942 5.09612E+00 3.41107E+00 3.10221E+00 3.36351E-01-2.41838E+00 8.56544E-01
 -1      1943-1.18148E+01-7.05296E+00-2.73031E+00-2.06934E+00 2.34028E+00 4.67845E+00
 -1      1944-1.62179E+01-1.80197E+01-1.12745E+01-6.09290E-01 1.66444E+00-5.81051E-01
 -1      1945-8.26700E+00-7.52129E+00-8.07280E+00 1.43666E+00 5.78814E+00-5.23212E+00
 -1      1946-7.43079E+00-1.06325E+01-7.05095E+00 6.00570E-01 5.88998E+00-1.56880E+00
 -1      1947-8.01581E+00-1.02868E+01-5.96384E+00-2.28869E+00 6.23162E+00 1.14251E+00
 -1      1948-1.94527E+00 1.14971E+00 1.17944E+00-1.42506E+00 2.51248E+00 4.03430E+00
 -1      1949 1.07968E+01 1.00805E+01 8.72929E+00 7.46671E-01 2.63930E+00-1.19029E+00
 -1      1950 2.19652E+01 2.03863E+01 1.23475E+01-2.32219E+00 7.95541E-01 1.32265E+00
 -1      1951-4.46253E+00-1.03547E+01-9.06357E+00-1.16218E+00 5.88134E+00 1.52113E+00
 -1      1952 1.40421E+00 1.40015E+00 9.46197E-01 5.66943E-01-1.46575E+00-4.73911E+00
 -1      1953 8.14345E+00 1.42003E+01 8.06621E+00-4.99366E-01-8.50278E+00 1.21919E+00
 -1      1954 4.69464E+00 4.03224E+00 6.03402E+00 1.58577E-02 1.59388E+00 3.95440E+00
 -1      1955 2.98209E+00 6.93394E+00 4.44987E+00 3.83247E-01 5.65258E+00-5.18848E+00
 -1      1956 4.51508E+00 2.83457E+00 3.16972E+00 1.06705E+00-2.91492E+00 1.60494E+00
 -1      1957 1.10966E+01 7.72725E+00 5.06064E+00-6.94044E-01 2.91406E+00 6.02390E-01
 -1      1958-1.43964E+01-5.62422E+00-6.44398E-01-2.12372E+00 3.04130E+00 6.27196E+00
 -1      1959 2.66478E+00 5.53695E+00 3.60308E+00 1.56052E+00 4.57673E+00 3.62526E+00
 -1      1960 9.14251E+00 8.71417E+00 6.74448E+00 4.03461E-01 3.19542E+00-1.43082E+00
 -1      1961-2.73093E+00-3.49189E+00-1.35057E+00 1.68702E+00 3.47955E+00-3.39886E+00
 -1      1962-1.07019E+01-1.41024E+01-1.18430E+01 7.83729E-01 9.65333E+00-7.26744E-01
 -1      1963-5.08675E+00-1.18565E+01-7.26057E+00 4.52240E-01 8.36339E+00-2.29814E-01
 -1      1964-1.23917E+01-1.46276E+01-7.71244E+00-3.61715E+00-4.45586E+00-2.54697E+00
 -1      1965 9.69145E+00 7.07436E+00 6.10550E+00 5.93608E-01 2.27361E+00-1.59030E+00
 -1      1966-2.67260E+00-5.88877E+00-1.62038E+00 2.45517E+00 5.00841E+00-1.11099E+00
 -1      1967 5.33633E+00 4.32120E+00 5.37531E+00-7.77653E-01-2.69834E+00-2.54849E+00
 -1      1968 1.76120E+01 1.79919E+01 8.63484E-01 4.61330E-01 5.14946E+00-9.94542E-01
 -1      1969-1.91549E+00-1.07160E+00-1.85450E+00-1.12938E+00-1.51556E+00 3.00939E+00
 -1      1970-3.26542E+00-1.73653E+00-1.25976E+00 3.06406E+00 4.17823E+00-2.51415E+00
 -1      1971 1.41715E+00 2.24511E+00 4.17038E-01 3.18816E-01 2.38977E+00-3.12370E+00
 -1      1972 1.35707E+01 1.07330E+01 8.54957E+00 1.75357E+00-3.57486E+00-4.39438E+00
 -1      1973-1.62556E+00 4.30488E+00 1.08323E+00-2.19025E-02 1.26685E+00 6.25475E+00
 -1      1974 1.07082E+01 1.07193E+01 3.26134E+00-5.95446E-01-1.32167E+00-1.75613E+00
 -1      1975 1.51581E+00 2.68011E+00 7.80702E-01 3.75697E-01 1.72024E+00-3.18411E+00
 -1      1976 2.01038E+00 1.65559E+00 6.49164E-01-1.92415E+00-3.92855E+00-3.68667E+00
 -1      1977-3.03105E+00-7.46976E+00-5.64973E+00-1.91894E+00-7.56957E+00-3.35928E+00
 -1      1978-1.10526E+01-2.28408E+01-9.42955E+00-2.22489E+00-6.12551E+00-2.33462E+00
 -1      1979-5.24282E+00-8.96549E+00 3.92974E+00 4.09233E+00-2.11324E+00 2.94228E+00
 -1      1980 9.89173E+00 1.36570E+01 2.92162E+00 8.02087E-01 1.17769E+00 1.93070E-01
 -1      1981-7.84808E+00-1.18607E+01-7.11385E+00-1.28994E+00-7.25856E+00-6.86285E-01
 -1      1982 5.36049E+00 4.47772E+00 9.08562E-01 1.02482E+00 2.50911E+00-8.21376E-01
 -1      1983-7.09000E+00-1.35687E+01-5.18247E+00-1.28932E+00-9.14845E+00 5.49620E-01
 -1      1984 3.68473E+01 3.18561E+01 4.23479E+00 1.90446E+00-1.40856E-01-5.09560E+00
 -1      1985-1.27011E+00 1.37514E+00 1.76459E+00 1.05394E-01 1.33966E+00-3.33980E+00
 -1      1986 1.10432E+01 1.08840E+01 5.75659E+00 1.00446E+00-2.29834E+00 1.97986E+00
 -1      1987 7.30861E+00 6.37826E+00 5.38259E+00 3.03506E-01 2.19099E+00-1.82735E-01
 -1      1988-7.44951E-01-1.94090E+00-9.01587E-01-5.27918E-01-4.64769E+00-2.24577E+00
 -1      1989 2.19155E+00 1.59814E+00 2.36992E+00 7.42564E-01-3.05752E+00 2.56823E+00
 -1      1990-1.36207E+00 2.77028E+00 6.39582E-02 1.84671E+00-6.69870E-01 3.40027E+00
 -1      1991 6.86194E-02 1.41195E+00 1.67449E-01 4.38626E-01 1.04065E+00-2.99293E+00
 -1      1992-3.85742E+00-5.38787E+00-5.31536E+00 1.13845E+00-3.17225E+00 7.74434E+00
 -1      1993-1.61810E+00 1.74240E+00 5.17914E-01-1.86461E-01-3.20202E+00-4.25657E-01
 -1      1994 4.63435E+00 3.81564E+00 1.61824E+00-3.58818E-02-2.59548E+00-1.96106E-01
 -1      1995 8.21033E-01-2.11147E-02 1.02046E+00 6.04617E-01 3.51750E+00-2.04242E+00
 -1      1996 5.38848E+00 8.89115E+00 4.16960E+00-1.41643E-01 9.20203E+00 3.16946E+00
 -1      1997 7.03557E+00 4.42050E+00 3.48077E+00 5.01371E-02-2.44080E+00-8.30447E-01
 -1      1998-1.37769E+01-1.37463E+01-2.53776E+00-2.29309E-01-9.00990E-02 2.80759E+00
 -1      1999 3.39183E+00 2.20337E+00 1.57190E+00 9.87227E-01 3.30290E+00-1.97716E+00
 -1      2000 5.01907E-01-8.55855E-01 1.43332E+00-8.22610E-01 4.24437E+00 2.94668E+00
 -1      2001 4.67709E+00 2.53302E+00 3.75942E-01-6.08277E-01-2.74655E+00-4.20350E-01
 -1      2002-6.35934E+00-8.72237E+00-5.39044E+00 1.87304E+00-6.94345E+00 9.39770E-01
 -1      2003-2.97098E+00-3.72149E-01-6.07411E-01-6.28476E-01-5.70554E-01 3.41249E+00
 -1      2004-3.55334E+00-1.53883E+00 2.16126E-01 1.35256E+00 2.80345E+00-3.86721E+00
 -1      2005-1.53337E+00-3.14994E+00-1.51309E+00 4.59975E-01 4.91777E+00-2.59731E+00
 -1      2006-3.78303E-01 3.70912E+00 2.02479E+00-7.75764E-01-1.10668E+00-3.53086E+00
 -1      2007 1.93666E+01 1.35277E+01 6.75606E+00 1.02422E+00-1.98909E+00 1.10417E+00
 -1      2008 5.70129E+00 2.82703E+00 8.06594E-01-5.51260E-01-2.89233E+00-2.71303E-01
 -1      2009 1.20630E+00-1.44686E+00 1.75636E-01-6.44782E-01-2.64833E+00-1.47558E+00
 -1      2010 5.24537E+00 6.19763E+00 3.63925E+00 1.84107E+00-1.60299E+00 1.88274E+00
 -1      2011 2.54367E+00 3.10784E+00 1.68011E+00 1.02146E+00-2.65661E-01 2.95756E+00
 -1      2012 3.83594E+00 2.67144E+00-5.46741E-01 5.97097E-01 2.55150E+00-6.10280E-01
 -1      2013 7.21250E-01 4.54761E-01-9.15632E-01 2.11875E-01-2.50995E+00 1.23815E+00
 -1      2014-2.37298E+01-2.27842E+01-1.35637E+01 5.24032E-01 6.36724E-01-9.52588E-02
 -1      2015 4.08979E+00 1.64300E+00 1.15778E+00 1.76131E-01-2.87406E+00 2.47862E-01
 -1      2016 5.01386E+00 1.34514E+00 2.57382E+00-7.11199E-01 3.25549E+00 1.84284E+00
 -1      2017 2.59495E+00 7.07075E-01 5.43506E-01 5.19890E-01-2.90947E+00 4.31129E-01
 -1      2018-6.88656E+00-7.18429E+00-4.92111E+00 1.10956E+00 5.89527E+00-3.44125E+00
 -1      2019 2.04300E+00-5.34970E-01-3.07071E-02 5.33305E-01 3.05635E+00-3.18193E+00
 -1      2020-1.13907E+01-1.35003E+01-1.20954E+01 1.88658E+00 6.45245E+00-1.51392E+00
 -1      2021 1.48140E+00 2.36434E+00 1.00346E+00 7.98190E-01-1.00829E+00 3.45673E+00
 -1      2022 4.00119E+00-8.34693E-01 1.55325E+00 4.36810E-01 4.57268E+00-1.30989E+00
 -1      2023-5.11303E+00-1.08923E+01-3.15796E+00 1.05501E+00 9.30161E+00-1.55055E+00
 -1      2024 2.21770E+00 5.14905E+00 4.98441E-02 9.42923E-02 1.38911E+00-2.69489E+00
 -1      2025 1.35801E+01 1.08398E+01 5.54346E+00 9.79711E-01 2.93506E+00 1.19890E+00
 -1      2026 3.02417E+00 3.37750E+00-2.33840E+00-2.07307E-01-4.16865E-01 2.69639E+00
 -1      2027-9.63509E+00-1.12222E+01-1.00793E+01-1.49058E+00-4.18753E+00-4.85103E+00
 -1      2028 1.14133E+01 9.78350E+00 4.67370E+00 7.99811E-01-2.77914E+00 7.99975E-01
 -1      2029 5.75846E+00 6.34781E+00 6.53439E+00-1.64185E-01-7.32940E+00-2.15988E+00
 -1      2030-5.40115E+00-6.15460E+00-6.72116E+00-6.27641E-01-6.79015E+00-3.02319E+00
 -1      2031 6.87353E+00 6.21298E+00 2.03199E+00 6.01450E-01-1.65210E+00 2.49416E+00
 -1      2032 7.47120E+00 1.24384E+01 4.78765E+00 3.38262E-01-9.55953E-01 3.08729E+00
 -1      2033 4.85613E+00 2.99834E+00 2.93440E+00 1.14788E+00 3.98653E+00-1.66468E+00
 -1      2034-1.77624E+00-6.70236E+00-4.02498E+00 2.49791E-01 8.28520E+00-1.82603E+00
 -1      2035 7.75222E+00 6.03006E+00 4.65119E+00 7.22504E-01-2.91407E+00 1.34914E+00
 -1      2036 1.99395E+00-1.58991E-01-1.77414E-01 7.09460E-01-4.18502E+00 3.98772E-01
 -1      2037 5.01848E-01-4.49499E-01 1.33728E+00 4.33201E-01 4.56255E+00-7.73439E-01
 -1      2038-2.25614E+00-1.07290E+01-3.13571E-01 3.83925E+00 4.29316E+00-2.83694E+00
 -1      2039 2.22828E+00 5.27663E+00-9.44448E-02 2.06569E+00 6.10194E-01 3.33736E+00
 -1      2040 3.38290E+00 1.98653E-01 1.72810E+00 2.42585E+00 3.88959E+00-9.81096E-01
 -1      2041 1.52380E+00 2.64623E+00-4.64551E+00 1.03264E+00-1.85315E+00 1.21552E+00
 -1      2042 2.22640E+00-7.98889E-01 1.80748E+00 7.60552E-01 4.52535E+00-1.24532E+00
 -1      2043 6.05776E+00 6.58288E+00 2.52405E+00 1.23449E+00-1.25549E+00 1.34223E+00
 -1      2044 2.85936E+00 3.92230E+00 2.98016E+00 1.62744E-01-1.57741E+00 2.24128E+00
 -1      2045 4.81975E+00 2.08934E+00 2.97430E+00 4.41295E-01 3.66142E+00-1.53789E+00
 -1      2046 1.51050E+01 1.18647E+01 1.22753E+00 4.19510E+00 1.80715E-01 2.43408E+00
 -1      2047-1.63556E+01-1.93611E+01-1.03214E+01-1.22884E+00 1.38928E+00-1.00262E-01
 -1      2048 1.27828E+01 1.41578E+01 1.88978E+00 3.56146E-01 2.16751E+00 1.03663E+00
 -1      2049 1.07253E+01 1.11173E+01 7.57551E+00-1.69122E+00-1.23888E+00 3.29242E+00
 -1      2050-1.94835E+01-2.33027E+01-5.27350E+00 6.39954E-01-5.54507E-01-1.93575E+00
 -1      2051 1.52091E+01 1.19286E+01 6.49466E+00 4.30951E-01-1.96932E+00-4.11372E-01
 -1      2052 2.61327E+01 2.28309E+01 2.68820E+00 5.91976E-01-4.00724E+00 5.97922E-01
 -1      2053 6.12391E+00 4.46726E+00 3.08458E+00 5.71669E-01-2.20770E+00 8.41329E-01
 -1      2054 1.96976E+01 1.89838E+01 1.08429E+01 1.39782E+00 1.74641E+00-1.73289E+00
 -1      2055 7.85061E+00 7.99032E+00 5.21391E+00 6.21413E-02-2.17453E-01-2.82163E+00
 -1      2056 2.45141E+01 2.87536E+01 1.06335E+00 3.32518E-01 7.11686E+00 1.66356E+00
 -1      2057 8.59723E+00 9.42283E+00 1.88654E+00-2.86610E+00-4.52179E-01-2.23087E+00
 -1      2058 1.48445E+01 1.48998E+01 7.31497E+00-2.00650E+00-6.89602E-02 3.62235E+00
 -1      2059 4.35020E+00 2.09927E+00 1.50225E+00 7.35233E-01 9.55106E-01-2.67194E+00
 -1      2060-2.34131E+01-3.19970E+01-5.55741E+00 2.10467E+00-3.22636E-01-6.62289E-01
 -1      2061 2.82227E+00 2.67372E+00 1.26381E+00-3.74900E-03 4.88969E-01-1.98121E+00
 -1      2062 2.09261E+01 2.06493E+01-9.71707E-01 2.30932E-01-3.47264E+00-5.13214E-01
 -1      2063 9.47267E+00 1.01900E+01 6.25792E+00-5.06037E-01 2.19514E+00 2.42803E+00
 -1      2064 3.18347E+01 2.55211E+01-2.47027E+00 2.27971E+00 1.63120E+00 5.13795E+00
 -1      2065 1.41355E+01 1.32793E+01-3.10252E+00-1.26820E+00-3.34554E+00 3.56496E+00
 -1      2066 2.43907E+00 4.18528E+00-3.39614E+00-3.89114E-01-2.91120E-01 2.88443E+00
 -1      2067 6.22808E+00 9.42482E+00 4.26824E+00-1.88598E-01 6.53229E-01 3.31190E+00
 -1      2068 1.02451E+01 1.01767E+01 3.48669E+00 5.74404E-01 1.39616E+00-2.65520E+00
 -1      2069 5.84718E+00 6.86834E+00 6.58707E+00-1.97932E-01-1.68492E+00 2.77294E-01
 -1      2070 1.46188E+01 1.48634E+01 9.91013E+00-3.72517E-01-1.23998E+00-2.02996E+00
 -1      2071 2.24948E+01 1.70290E+01 4.45789E+00 1.53510E+00 2.62199E+00-3.00893E+00
 -1      2072 1.85166E+01 1.63359E+01 2.20207E+00-2.32372E+00 5.63211E-01-4.78465E+00
 -1      2073 1.12332E+01 7.99217E+00 3.34651E+00 1.97256E+00-3.45844E-01-1.65330E+00
 -1      2074 7.74872E+00 7.96632E+00 2.46234E+00-2.31385E-01-3.34596E-01 2.64390E+00
 -1      2075 2.07517E+01 2.23531E+01-3.40353E+00-1.92916E+00 3.62256E+00-1.60982E+00
 -1      2076 1.02338E+01 9.68077E+00 4.55130E+00-1.65346E-01 3.73238E+00 6.54062E-01
 -1      2077 3.58565E+00 4.25527E+00 5.39737E+00-3.58095E-01 1.99829E+00-1.01385E+00
 -1      2078 1.65437E+01 1.65182E+01 4.96669E+00-1.58120E+00-1.56638E+00-3.96949E+00
 -1      2079 2.08596E+00 6.16937E+00-3.92373E-01 3.35458E-01-2.58894E-01-3.23539E+00
 -1      2080 4.32690E+00 4.12331E+00 1.43771E+00 2.74132E-01 1.13066E+00-2.68441E+00
 -1      2081 2.67150E+00 3.67799E+00-1.41357E+00 2.48618E-01 3.25897E+00-2.06950E+00
 -1      2082-3.28251E+01-2.94758E+01-1.33431E+01-1.92671E+00 4.82632E-01-1.89761E+00
 -1      2083 1.95659E+01 2.57769E+01 4.76036E-01-2.75518E-01 4.27133E+00-2.46226E-01
 -1      2084 2.13671E+00 2.89227E+00 1.47009E+00 5.95937E-01-1.57807E+00-9.43461E-01
 -1      2085 2.55427E+01 3.33338E+01 2.64443E+00-1.80720E-01 1.81574E+00 3.31119E+00
 -1      2086-1.23286E+00 3.67425E-01-3.41438E+00 1.08921E+00-2.23493E+00-1.17153E+00
 -1      2087 2.31385E+01 1.79923E+01 6.40641E+00 2.41172E-01 2.12989E+00-3.89570E+00
 -1      2088-3.02058E+01-3.09635E+01-5.36993E+00 7.47642E-01 1.42955E+00-1.22247E+00
 -1      2089-2.29210E+01-2.02175E+01-1.16636E+01-4.90232E-01-2.08891E+00-3.03923E-01
 -1      2090 1.03129E+01 1.33079E+01 1.05106E+00 1.44027E+00-3.99083E-01-2.85753E+00
 -1      2091 1.13076E+01 1.17730E+01 8.53410E+00-4.37986E-03 2.13790E+00 3.18616E+00
 -1      2092-1.43453E+01-2.17524E+01-1.27118E+01-1.64013E+00-1.33153E-03 3.98577E+00
 -1      2093 1.43140E+01 1.84555E+01 9.62738E+00 1.39841E+00-2.00841E+00-8.06501E-01
 -1      2094 9.93772E+00 8.75997E+00 3.73064E+00-2.88290E+00-1.43531E+00-1.08790E+00
 -1      2095 1.51640E+01 2.01372E+01 3.53370E+00 1.10911E-01-1.46966E+00-3.35715E+00
 -1      2096 2.94948E+01 3.38367E+01 8.03107E+00-1.30680E+00-1.20647E+00-4.33350E+00
 -1      2097 3.24769E+01 2.96551E+01 5.46203E+00-3.49434E+00-3.66547E-01 4.14386E+00
 -1      2098 3.47725E+00 3.02095E+00 8.69900E-01-1.89574E+00 5.13016E-01 2.48535E+00
 -1      2099 4.42285E+00 4.56958E+00 1.12982E+00 7.95225E-01 1.15929E+00 1.42827E+00
 -1      2100 1.65707E+01 1.18937E+01 4.35396E+00-1.10928E+00 2.46298E+00 2.57650E+00
 -1      2101-1.52898E+01-1.72910E+01-1.47736E+01-5.59386E-01 6.83346E-01-3.07299E+00
 -1      2102 1.68419E+01 2.18657E+01 6.09862E+00-1.82312E+00-6.14866E-01 2.74305E+00
 -1      2103 9.03834E+00 8.87567E+00 6.77726E+00 8.52385E-01-2.20748E-01 2.66165E+00
 -1      2104 2.43085E+01 2.32614E+01 3.32098E+00-2.09706E+00-3.49835E+00-3.24149E+00
 -1      2105 7.13349E+00 6.40049E+00 3.37042E+00-6.08593E-01 2.03155E+00 1.63773E+00
 -1      2106 1.10428E+01 1.20689E+01 1.06513E+01 6.03432E-01-1.83684E-01-2.59854E+00
 -1      2107-2.88588E+01-2.23780E+01-5.90323E+00 4.73636E-01-1.82551E+00 1.06078E+00
 -1      2108 9.50082E+00 1.39733E+01 2.05128E+00-1.33096E+00-1.85487E+00 4.79644E-01
 -1      2109 2.21891E+01 1.86892E+01-9.42681E-02-5.88318E-01 1.67662E+00-4.66908E+00
 -1      2110 2.78486E+01 2.59588E+01 7.05903E+00 3.68690E+00 1.30720E+00 2.29058E+00
 -1      2111 6.51702E+00 5.61050E+00 3.46418E+00-2.94818E-01-3.66098E+00-5.25282E-01
 -1      2112 1.40055E+01 1.01757E+01 5.12867E+00-1.79436E+00-2.10440E+00-9.69434E-01
 -1      2113 4.49532E+00 5.96744E+00 3.08115E+00-7.83448E-01-2.67644E+00-2.14068E-02
 -1      2114-1.62245E+01-1.43767E+01-1.35770E+01-8.32527E-01 1.70574E+00 5.79643E-01
 -1      2115 2.77965E+00 3.48417E+00 3.62413E+00-1.12997E+00 3.09943E+00-2.93615E-01
 -1      2116 6.58824E+00 4.38057E+00 2.06588E+00 2.01724E-01 1.88988E+00 1.75539E-01
 -1      2117 6.58395E+00 4.90345E+00 9.21267E-01 7.88712E-01-2.70944E+00 1.26579E+00
 -1      2118-1.95564E+01-1.80112E+01-1.61818E+01-2.39228E+00-2.59221E+00 3.59761E+00
 -1      2119 2.49462E+01 2.64485E+01 2.27015E+00 3.10270E+00 3.99052E+00 2.88571E+00
 -1      2120-1.79811E+01-1.64893E+01-1.61714E+01-1.33482E+00-2.38868E+00 1.08648E+00
 -1      2121-1.95912E+01-1.36752E+01-1.27732E+01-8.70351E-01-2.16691E+00-4.12959E-01
 -1      2122 2.00776E+01 1.48025E+01 6.79119E+00 1.25887E+00-2.68435E+00 1.74425E+00
 -1      2123 8.75640E+00 7.13917E+00 6.64725E+00-2.52456E-01-2.36350E+00-2.70812E-01
 -1      2124 1.38803E+01 9.23872E+00 1.77109E+00 1.85681E+00 1.51937E+00-2.12169E+00
 -1      2125 7.66948E+00 7.59587E+00 1.86108E+00 8.64342E-01-2.81665E+00 8.98205E-01
 -1      2126 2.39457E+01 2.51400E+01 3.77275E+00 1.40771E+00 5.98934E+00 1.86478E+00
 -1      2127 1.92851E+01 1.81065E+01 8.47834E+00 2.36770E+00-4.42765E+00 1.24880E+00
 -1      2128 1.85918E+01 1.65595E+01 1.27500E+01 9.46727E-01 3.52402E+00-1.62035E+00
 -1      2129 1.33819E+01 1.56831E+01 1.08150E+01-1.47863E+00 2.45992E+00 2.02801E+00
 -1      2130-9.92337E+00-1.34543E+01-1.16788E+01 9.74887E-01-6.63787E-02-2.05536E+00
 -1      2131-2.08900E+01-2.21335E+01-1.68484E+01-2.67377E+00 1.75568E+00-1.54006E+00
 -1      2132 1.45187E+01 1.33814E+01 4.71774E+00 4.45930E-01-3.21885E+00-3.18886E+00
 -1      2133 2.08697E+01 2.06891E+01 3.46416E+00 2.03425E+00-2.73749E+00-1.94063E+00
 -1      2134 2.58211E+00 3.29954E+00 2.25392E+00 9.47246E-01 8.16691E-01 3.37014E+00
 -1      2135 8.08436E+00 1.26071E+01 7.02093E-01-1.02476E+00 8.86819E-01-3.59257E+00
 -1      2136 2.34263E+01 2.63702E+01 5.59862E+00-1.72779E-01-3.95421E+00 2.59787E+00
 -1      2137-2.77328E+01-1.95723E+01-1.67047E+01 2.42022E-01-3.37029E+00-5.40689E-01
 -1      2138 2.37887E+01 2.57558E+01 1.36902E+00-2.07051E-01-2.61234E+00-1.09838E+00
 -1      2139 5.09065E+00 1.82531E+00 2.05642E+00-7.19046E-02 6.59220E-01 1.16315E+00
 -1      2140-2.09811E+01-2.12037E+01-7.28163E+00 2.39772E+00-1.19166E+00-1.10855E+00
 -1      2141-3.98065E+01-4.42978E+01-1.06185E+01 1.35207E+00-1.87524E+00 4.35044E+00
 -1      2142 1.64902E+01 1.18542E+01 9.57395E+00-1.93688E+00-2.90100E+00-1.04878E+00
 -1      2143 7.41702E+00 3.50521E+00 3.15072E+00 1.05958E+00-5.13100E-01-9.29525E-01
 -1      2144 1.20384E+01 9.16410E+00 5.55630E+00 7.74306E-01 3.14268E+00-3.81140E-01
 -1      2145 2.07391E+01 2.08205E+01 6.08356E+00 2.15681E-01 2.00459E+00-1.59765E+00
 -1      2146 8.93203E+00 5.52443E+00 3.25831E+00-5.33250E-01 8.09332E-01-8.97506E-01
 -1      2147 1.07776E+01 5.87490E+00 1.37171E+00-3.36959E-01 3.03488E+00-3.09328E-01
 -1      2148 6.86307E+00 4.99304E+00-4.04418E-02-1.61314E+00 9.95452E-01 1.04773E+00
 -1      2149-1.22712E+01-1.04560E+01-6.50004E+00-1.50882E+00 2.45728E+00-5.45426E-01
 -1      2150 2.78595E+01 2.02169E+01 4.28747E+00-7.96635E-01-5.58277E-01 3.51395E+00
 -1      2151-3.42999E+01-2.92945E+01-6.32467E+00 1.66234E+00-3.74176E-01 1.57307E+00
 -1      2152-3.13665E+01-4.26203E+01-9.16978E+00-1.82345E+00-4.37466E+00-8.85882E-03
 -1      2153-2.33113E+01-2.23346E+01-1.31087E+01 3.74632E+00-6.85122E-01-1.52022E+00
 -1      2154-4.37666E+00-5.80722E+00 1.15787E+00 4.96994E-01-5.40430E-01-8.39459E-01
 -1      2155 1.38394E+01 1.69323E+01 8.00992E+00 6.48788E-01-1.82772E+00-4.37664E+00
 -1      2156-1.73651E+01-1.49082E+01-1.35673E+01 2.29241E+00 1.22350E+00 1.89395E+00
 -1      2157 1.75627E+01 1.58950E+01 2.41552E+00-1.99150E+00-6.51121E-01-4.79390E+00
 -1      2158-3.14666E+01-3.56441E+01-9.24691E+00 2.73845E+00 1.62780E+00-1.73076E+00
 -1      2159 5.67909E+00 2.16660E+00 3.35746E+00-2.62564E-01-1.57621E+00-1.66343E+00
 -1      2160 1.50089E+01 1.94605E+01-1.31285E-01 1.43350E+00-5.69700E+00 1.15405E+00
 -1      2161 8.04420E+00 8.67375E+00 7.50384E+00 2.40062E+00-6.03623E-01-3.26299E+00
 -1      2162 1.28130E+00 1.80767E+00-2.44610E+00 8.94034E-01 9.28795E-01-2.64063E+00
 -1      2163-4.26970E+01-3.47115E+01-6.59203E+00 2.85421E+00 1.11802E-01 9.69994E-01
 -1      2164 1.24783E+01 1.15032E+01 8.42375E+00-1.91326E-01 5.02588E-01 1.64703E+00
 -1      2165 1.39949E+01 1.22446E+01 7.41414E+00 3.44130E-01-3.26600E+00-5.25908E-01
 -1      2166-2.16009E+01-1.81624E+01-9.27306E+00 4.09989E-02-7.33531E-02 1.62857E+00
 -1      2167-1.49099E+01-1.33449E+01-1.19072E+01 2.13973E+00 1.17792E+00 2.94177E-01
 -1      2168 1.54484E+01 2.17480E+01 4.73908E+00 1.55827E+00-4.67952E+00-4.00456E-01
 -1      2169 1.39020E+01 1.24545E+01 8.60786E+00 8.60971E-01-3.68816E+00-1.56263E+00
 -1      2170 2.61784E+01 2.34918E+01 1.84176E+01 1.90345E+00-6.14500E+00-7.76920E-01
 -1      2171 3.75532E+01 3.52245E+01 8.72192E+00-3.79959E+00-1.33610E+00 2.35207E+00
 -1      2172 5.02657E+00 5.40983E+00 3.56919E+00-1.85418E+00 4.84325E-01 1.82153E+00
 -1      2173 1.30448E+01 1.73119E+01 4.77516E+00 1.48472E+00-3.65679E+00-2.79508E-01
 -1      2174-4.38358E+00-4.06948E+00 5.18486E-01-3.09704E-01-6.41296E-01 5.04275E-01
 -1      2175 2.63086E+01 2.41470E+01 7.68325E+00 3.87146E+00-8.03223E-01-1.34182E+00
 -1      2176-5.92926E+00-6.05552E+00-1.76842E-02 5.84116E-01-4.64406E-01 9.90341E-01
 -1      2177 1.93048E+00 2.98060E+00-1.58511E+00 7.99336E-01-1.13276E+00 1.67467E+00
 -1      2178 2.01583E+01 2.20487E+01 3.96449E+00-1.06401E-01 5.85042E+00 7.79915E-01
 -1      2179-3.46788E+01-3.44443E+01-1.39047E+01-3.01058E+00 1.47635E+00-7.80535E-01
 -1      2180-2.84058E+01-3.19003E+01-1.15837E+01-1.65505E-01-3.05237E-01-2.84295E+00
 -1      2181-2.87844E+01-3.45447E+01-1.17252E+01-1.83699E+00 1.19463E+00 4.68802E-01
 -1      2182-4.20709E+01-4.01974E+01-1.39042E+01 4.19848E+00 1.35813E+00-4.49127E-01
 -1      2183 2.86237E+01 2.26179E+01 3.57785E+00-2.53107E+00-1.38129E+00 3.41981E+00
 -1      2184-4.83889E+01-3.92590E+01-1.72949E+01-2.23535E+00-1.70127E+00-2.48188E+00
 -1      2185-3.33222E+01-3.21865E+01-2.88660E+00 1.91054E+00-1.29974E+00 2.37732E+00
 -1      2186-1.09741E+01-1.80023E+01-1.29933E+01 7.88277E-01-1.61667E+00-1.13844E+00
 -1      2187-3.43213E+01-4.65322E+01-6.72642E+00 2.86796E-01-3.71445E+00 1.59219E+00
 -1      2188-4.59458E+01-4.15315E+01-1.28514E+01-2.79249E+00 2.09910E+00-1.65956E+00
 -1      2189-5.45117E+01-5.84017E+01-1.25916E+01-3.89890E+00-5.96800E+00-5.01336E+00
 -1      2190-3.53948E+01-4.10505E+01-3.52988E+00-1.02822E-01 4.46142E+00-7.88190E-01
 -1      2191-5.89538E+00-6.53666E+00-1.23927E+00 3.56170E-01 3.24312E+00-8.97267E-01
 -1      2192-4.28303E+01-4.41520E+01-2.46930E+01-4.37811E+00-1.38794E+00 1.47560E+00
 -1      2193-3.87071E+01-4.41333E+01-6.72669E+00 7.38764E-01 3.22311E+00 1.31533E+00
 -1      2194-1.25923E+01-1.69927E+01-1.11326E+01-2.14189E+00 3.79026E-01 2.01569E+00
 -1      2195-5.89932E+01-5.92125E+01-9.67314E+00-1.06854E+00-9.98118E+00-7.50976E+00
 -1      2196-5.36597E+01-4.85512E+01-1.39757E+01-4.24644E+00-2.58576E+00-3.54025E+00
 -1      2197-4.09651E+01-5.01107E+01-6.66041E+00 5.58166E-01-8.15096E+00-8.39855E-01
 -1      2198-2.83058E+01-3.94259E+01-6.78219E+00 2.19945E-01-3.66224E+00 4.10571E-01
 -1      2199-5.32422E+01-4.56338E+01-1.68972E+01-4.62832E+00-2.16954E-01-7.37544E-01
 -1      2200-4.47893E+01-5.30649E+01-1.59982E+01 1.17730E+00 5.87147E+00 3.35559E+00
 -1      2201-3.70052E+01-3.01765E+01-1.02381E+01 7.46256E-03-2.42092E+00-4.18442E-01
 -1      2202-4.40170E+01-4.56425E+01-1.42456E+01 3.73473E+00-2.18981E+00-8.50835E-01
 -1      2203-5.68365E+00-5.97236E+00 1.09594E+00-1.85032E-01-2.92069E+00-2.07355E-01
 -1      2204-8.31496E+00-8.66599E+00-1.28187E+00 1.05653E-01-6.52298E+00 4.46569E-01
 -1      2205-1.06753E+01-7.17763E+00-6.14338E+00-1.06467E-01 5.08397E+00-4.03848E+00
 -1      2206-2.01058E+00-3.60788E+00-1.04221E+00-1.42039E+00-1.47094E+00-2.27223E+00
 -1      2207-6.44800E+01-5.92447E+01-9.07963E+00-4.63210E+00-3.95627E+00-6.98425E+00
 -1      2208-3.72426E+01-3.80098E+01-1.08499E+01 3.26060E+00 1.90998E+00-2.88968E+00
 -1      2209-4.17606E+01-3.43568E+01-6.17213E+00 6.21063E-01-7.00366E-01 9.02541E-01
 -1      2210-5.12296E+01-4.80100E+01-1.49831E+01 1.64591E+00-6.71920E+00 4.91470E+00
 -1      2211-4.06924E+01-4.59546E+01-1.27327E+01 1.47771E+00 5.74070E+00-7.66082E-01
 -1      2212-5.60166E+01-4.14564E+01-1.21466E+01 2.16921E+00-2.03724E+00-3.40384E+00
 -1      2213-5.47246E+01-4.95707E+01-1.44982E+01 4.95821E+00 6.27159E+00-3.79714E+00
 -1      2214-8.73624E+01-8.58972E+01-3.06257E+01 8.37801E-01-1.31348E+01-8.84707E+00
 -1      2215-5.76763E+01-5.17812E+01-5.39425E+00 4.18410E+00 1.56221E+00 3.72696E-01
 -1      2216-4.94854E+00-4.81333E+00-3.38002E+00-9.05714E-02-3.75661E+00-1.14944E-01
 -1      2217-4.48720E+00-5.98434E+00-2.78734E+00-6.46134E-01-2.38634E+00-2.70220E+00
 -1      2218-6.83205E+00-7.43742E+00 9.19744E-01 8.44944E-02-1.95376E+00 2.27760E+00
 -1      2219-6.13906E+00-6.02083E+00 1.53146E+00-1.08347E-01-2.88099E+00-6.56701E-01
 -1      2220-3.24957E+00-4.60476E+00-3.25446E+00 2.55582E-01 4.45589E+00 3.89625E-01
 -1      2221-4.02027E+00-5.23258E+00-1.05840E+00 4.62004E-01 2.86315E+00 1.08983E+00
 -1      2222-6.47695E+01-5.02499E+01-1.15379E+01-6.20806E-01-4.66992E+00-5.02273E+00
 -1      2223-4.72308E+00-4.13106E+00-1.87564E+00 1.11704E+00-8.52266E-01-3.49467E+00
 -1      2224 1.31280E+01 1.42406E+01 1.13292E+01 1.12422E+00-7.37063E-02 1.63829E+00
 -1      2225-1.13475E+00-1.45995E+00-1.08276E+00 3.33022E-01-1.35460E+00-4.21335E+00
 -1      2226-6.62507E+00-7.70066E+00-4.43047E+00 1.59778E+00 1.12247E+00-5.00513E+00
 -1      2227-8.13579E-01-3.37618E+00-2.87836E+00 9.14494E-03-4.49884E+00-3.10559E+00
 -1      2228-6.07710E+01-4.95451E+01-2.08997E+01-2.70156E+00 1.59510E+00 7.25069E+00
 -1      2229-5.26856E+01-3.97046E+01-8.07672E+00 2.20411E+00 2.89699E-01-3.46084E+00
 -1      2230-3.00192E+00-4.35000E+00-7.40083E-01-1.37167E+00 3.34142E+00 3.64617E-01
 -1      2231-5.30066E+01-5.50503E+01-1.28722E+01 5.72091E+00-5.72452E+00 3.03775E+00
 -1      2232-7.99422E+00-7.23551E+00-4.96826E+00 7.96242E-01-3.95261E+00 5.80687E-01
 -1      2233-6.17573E+00-5.80885E+00-7.26323E-01-7.61584E-01-1.52365E-01 3.34831E+00
 -1      2234-4.41600E+00-2.88442E+00-3.13645E+00 4.20039E-02-1.41875E-01 3.69503E+00
 -1      2235-4.89014E+00-7.43500E+00-2.43171E+00 3.85685E-01 2.88487E+00-2.92960E+00
 -1      2236-1.01939E+01-9.75412E+00-1.01179E+01 8.55451E-01 8.45441E+00-2.82409E+00
 -1      2237-8.57257E+00-8.15550E+00-4.08079E+00-3.53675E-01-7.28838E-02-3.62176E+00
 -1      2238-4.74672E+00-4.59852E+00-4.27590E+00-4.51645E-01 3.89806E+00-1.82652E+00
 -1      2239-4.69662E+00-6.05333E+00-5.44174E+00-6.00411E-01-4.53794E+00-2.41413E+00
 -1      2240-4.81026E+00-7.13085E+00-6.75488E+00-9.16364E-02-2.36269E+00-6.30657E+00
 -1      2241-5.98758E+00-5.46290E+00-5.91860E+00 3.02453E-01 4.50601E+00-1.92899E-01
 -1      2242-1.28716E+01-1.16330E+01-1.22348E+01 1.26323E+00 7.67559E+00 2.68911E+00
 -1      2243-4.34800E+00-7.18480E+00-9.71929E+00-1.82569E+00 4.72124E+00-5.98182E+00
 -1      2244-5.76363E+00-5.92906E+00-2.37250E-01-8.01592E-01 1.49221E+00 3.03556E+00
 -1      2245-8.39474E+00-7.87608E+00-1.35187E+00 1.04220E-01 3.56440E+00 5.09859E-03
 -1      2246-4.01518E+00-1.87936E+00 2.72970E-01 1.16560E+00 2.03480E+00-1.53544E+00
 -1      2247-8.96623E+00-9.13369E+00-6.22883E-01 1.11047E-01-4.27245E+00-1.90937E+00
 -1      2248-1.48046E+01-1.51542E+01-5.99410E+00-2.91416E-01-6.29661E+00-2.05232E+00
 -1      2249-6.19059E+00-2.80078E+00-2.03188E+00-7.62047E-02 5.11229E+00 1.41196E+00
 -1      2250-2.80413E+00-3.57752E+00-3.92002E+00-3.18353E-01 1.73778E+00 2.84902E+00
 -1      2251-3.80098E+00-3.62797E+00-3.47722E+00 4.83804E-03 2.53655E+00 3.01574E+00
 -1      2252-8.87701E+01-8.48989E+01-2.33545E+01-6.87387E-01-6.65513E+00-1.13734E+01
 -1      2253-7.89979E+00-1.22683E+01-1.14945E+01-3.70665E-01-5.94409E+00-8.03923E+00
 -1      2254-1.13501E+01-7.72858E+00-3.27369E+00-2.54827E-01-7.41435E+00-3.52249E-01
 -1      2255-7.85166E+00-6.18294E+00-2.59455E-01-1.54502E-01 3.04227E+00 2.19333E+00
 -1      2256-6.51443E+00-4.90860E+00-5.58560E+00 1.13552E+00 4.76322E+00 2.63040E+00
 -1      2257-1.87309E-01-1.69785E+00-4.64214E+00-1.06965E+00 7.05984E-01-6.86300E+00
 -1      2258-2.92987E+00-2.26471E+00-2.29520E+00 1.91450E-01-2.06890E+00 1.55809E+00
 -1      2259-6.00038E+00-4.79718E+00-1.20470E+00 7.61112E-01 1.69758E+00 3.00471E+00
 -1      2260-3.91200E+00-2.87115E+00 2.14378E+00-9.89208E-01-2.22872E+00 3.64787E+00
 -1      2261-7.36504E+00-6.07898E+00 5.78595E-01-2.36066E-01-7.06481E-01 3.10134E+00
 -1      2262-7.09963E+00-8.59353E+00-4.04049E-01 1.91953E-01 2.84346E+00 2.09887E+00
 -1      2263-1.05979E+01-1.54963E+01-1.09770E+01-8.22709E-01-2.03124E+00-7.49490E+00
 -1      2264-1.92594E+01-1.93507E+01-1.34953E+01-6.55465E-01 8.29612E+00-3.06713E+00
 -1      2265-7.31842E+00-7.89270E+00-1.01952E+00-3.76855E-01-2.99865E+00 7.13546E-01
 -1      2266-1.31473E+01-1.72172E+01-1.41129E+01 8.72698E-01-7.74098E-01-9.56519E+00
 -1      2267-7.44143E+00-7.55483E+00-4.15465E+00-1.59551E+00-2.97294E+00 5.47936E+00
 -1      2268-1.46085E+01-1.49871E+01-1.08419E+01 2.16405E+00 3.48188E+00 6.17324E+00
 -1      2269-7.84393E+00-5.83174E+00-7.26194E+00 6.59964E-01 5.48702E+00 2.72079E+00
 -1      2270-3.79904E+00-4.18846E+00-4.02996E+00 2.27298E-01-5.65809E+00-1.11824E+00
 -1      2271-5.99916E+01-4.87019E+01-7.34612E+00 4.84989E+00 2.18946E+00-7.47058E+00
 -1      2272-8.23410E+00-1.08128E+01-2.94060E+00 1.39043E+00 3.90769E+00 4.78036E+00
 -1      2273-4.50235E+00-3.33208E+00 4.19763E-01 6.12078E-01 1.66939E+00-1.99419E+00
 -1      2274-3.18548E+00-5.78227E+00-4.44235E+00 5.71196E-01 1.63953E+00 5.58705E+00
 -1      2275-6.35789E+01-5.71294E+01-1.55628E+01-3.59251E+00 3.26872E+00 6.34040E+00
 -1      2276-4.88137E+01-4.57632E+01-1.45338E+01-6.78300E+00 1.20850E+00 2.62218E+00
 -1      2277-9.42415E+00-1.02161E+01-3.00110E+00 3.30296E-02 4.80909E+00-3.23408E+00
 -1      2278-6.17723E+00-3.13175E+00-4.37364E+00 4.00324E-01-2.04070E-01-4.37693E+00
 -1      2279-4.79602E+01-4.01191E+01-1.32274E+01 1.15691E+00-3.67012E+00 3.51398E+00
 -1      2280-2.39044E+01-2.28572E+01-2.02975E+01 6.44559E-01 5.05309E+00 8.00529E+00
 -1      2281-6.78567E+01-6.48634E+01-1.01623E+01 2.54999E+00 2.19165E+00-6.73018E+00
 -1      2282-2.75072E+00-2.66230E+00-2.83097E+00 4.85505E-01 2.41363E+00-1.98578E+00
 -1      2283-1.11963E+01-7.61047E+00-7.91668E+00 3.24316E-01-6.27234E+00 1.51537E+00
 -1      2284-1.71749E+01-1.49202E+01-1.04007E+01-3.44422E-01 8.49244E+00-6.05111E+00
 -1      2285-5.02888E+00-5.44481E+00-3.07563E+00-2.35521E-01 4.76078E+00-1.35402E+00
 -1      2286-7.52186E+00-6.71186E+00-1.18678E+00-2.20105E-01 1.96024E+00-2.96682E+00
 -1      2287-5.68596E+00-4.33683E+00 1.43337E+00-5.47787E-01-1.54651E+00-3.15018E+00
 -1      2288-4.68572E+01-5.83142E+01-1.68452E+01 2.45405E+00 7.22851E+00-4.41152E-01
 -1      2289-5.01850E+01-5.41669E+01-1.39054E+01-1.05464E-01 7.94817E+00-8.08777E-01
 -1      2290-3.87277E+01-5.02165E+01-1.44412E+01 3.17320E-01-8.07476E+00-1.70133E+00
 -1      2291-8.62030E+00-1.16093E+01-1.09486E+01 3.15408E-01-2.15811E+00-1.15849E+01
 -1      2292-5.32943E+01-6.16279E+01-1.49055E+01 3.29101E+00-1.11132E+01 1.88073E+00
 -1      2293-7.71486E+00-9.88182E+00-9.34045E+00 6.67114E-01-3.91331E+00-6.26392E+00
 -1      2294-5.19721E+00-6.60084E+00-4.54993E+00-1.37329E-01 6.74965E+00 2.50819E+00
 -1      2295-6.50123E+00-7.08892E+00-9.01680E-01-3.87601E-01-2.90931E+00-1.72157E+00
 -1      2296-3.04160E+00-3.64828E+00-2.56421E+00-3.77316E-01-1.05984E+00 2.50120E+00
 -1      2297-1.23583E+01-1.05038E+01-7.05198E+00-2.98707E-01-5.38369E+00 2.52278E+00
 -1      2298-4.99656E+01-5.21752E+01-1.74142E+01-4.03671E+00-8.75163E+00-1.01544E+00
 -1      2299-7.50185E+01-5.92210E+01-1.18394E+01 4.27872E+00-2.59082E+00-1.07712E+01
 -1      2300-4.47425E+01-4.74277E+01-1.98726E+01-5.65828E+00 4.86319E+00 1.80451E+00
 -1      2301-5.36641E+00-5.23401E+00-1.27201E+00 4.22213E-01-7.02620E+00-2.04916E+00
 -1      2302-5.20216E+01-5.22229E+01-1.42261E+01-5.75221E+00 4.96470E+00 2.26406E-01
 -1      2303-1.87944E+01-1.88744E+01-8.43566E+00-2.56192E-01-7.79121E+00-6.86191E+00
 -1      2304-5.87639E+01-4.56819E+01-1.24620E+01-1.01501E+00-3.64365E+00 8.44291E+00
 -1      2305-6.04662E+00-3.77482E+00-1.18581E+00 2.19553E-01-1.94079E+00 2.23465E+00
 -1      2306-1.24325E+01-1.62650E+01-1.61132E+01 1.22757E+00 5.42779E+00 6.25065E+00
 -1      2307-1.30264E+01-1.78132E+01-1.26727E+01 8.88438E-03-3.92614E+00-1.40552E+01
 -1      2308-5.97674E+01-6.58312E+01-1.19768E+01 3.34412E+00 4.89198E+00 2.37974E+00
 -1      2309-4.94803E+01-5.82556E+01-1.11601E+01 2.52464E+00-8.06278E+00 3.61783E+00
 -1      2310-8.52004E+00-9.99815E+00-1.40031E+01-2.39326E+00 7.19755E+00-5.84559E+00
 -1      2311-9.08614E+00-1.10827E+01-7.72291E+00-4.25875E-01 1.82223E+00-5.23954E+00
 -1      2312-7.15478E+01-6.14114E+01-1.18299E+01 1.98570E+00-5.16568E+00-1.09929E+01
 -1      2313-1.64225E+01-1.74876E+01-1.10567E+01 5.17706E-01 8.12829E+00 4.21233E+00
 -1      2314-7.16636E+00-4.16956E+00-2.32765E+00 5.03115E-01-1.44019E+00-3.49958E+00
 -1      2315-8.20627E+00-8.95961E+00-7.52717E+00 2.04549E+00-3.78021E+00-6.49896E+00
 -1      2316-2.19023E+01-2.05584E+01-1.40430E+01-2.11123E+00 4.33729E+00-8.26249E+00
 -1      2317-7.05635E+00-7.01870E+00-7.09490E-01 7.21670E-03 9.50413E-01-4.00493E+00
 -1      2318-1.54801E+01-1.30068E+01-1.01879E+01 1.78604E+00 9.22380E+00 7.96329E+00
 -1      2319-2.81051E+01-2.60561E+01-2.40423E+01 1.26509E+00 1.26833E+01 9.47693E+00
 -1      2320-5.25622E+01-4.50087E+01-1.37971E+01 1.76463E+00-1.57779E+00 7.74266E+00
 -1      2321-4.79644E+01-4.66146E+01-1.71371E+01-2.53224E+00-1.09098E-01 5.54479E-01
 -1      2322-7.25915E+00-1.17787E+01-1.89841E+01-2.00118E+00 7.47529E+00-7.81612E+00
 -1      2323-1.37694E+01-1.65974E+01-1.37565E+01 1.45449E-01-9.21781E+00-6.84639E+00
 -1      2324-1.51021E+01-1.95369E+01-2.20284E+01-2.47057E+00 6.74076E+00-1.24922E+01
 -1      2325-8.38912E+00-8.65283E+00-7.57424E+00 1.04637E-03 5.72987E+00-3.96365E+00
 -1      2326-1.14675E+02-1.21560E+02-5.60550E+01 6.22000E+00 4.70292E+00 1.65256E+01
 -1      2327-4.78026E+00-5.25073E+00-5.91840E-01 5.08183E-01-2.27883E+00 1.36402E+00
 -1      2328-6.00927E+00-8.11393E+00-7.02477E+00-9.81785E-01-1.88340E+00 5.89778E+00
 -1      2329-4.17305E+00-4.48540E+00-4.33595E+00 3.91548E-01-3.34792E+00 7.84384E-01
 -1      2330-3.96655E+01-3.88428E+01-3.65816E+01 7.27815E-01 1.55773E+01 1.43517E+01
 -1      2331-2.34260E+01-2.13617E+01-4.96530E+00 5.14602E-01-8.93112E+00 1.71674E+00
 -1      2332-5.56846E+01-6.75335E+01-2.37341E+01 3.04112E+00-1.24251E+01-1.10281E+00
 -1      2333-1.08070E+01-7.78979E+00-4.14377E+00 1.26633E+00-9.42821E+00 3.54340E-01
 -1      2334-6.95872E+01-6.16229E+01-2.06479E+01 3.00904E-01-7.70294E+00 1.19204E+01
 -1      2335-5.22945E+01-5.22311E+01-9.50045E+00 1.03374E+00 9.06991E+00-2.71533E+00
 -1      2336-4.55415E+01-4.48871E+01-1.80060E+01-2.25241E+00 1.17895E+00 7.35767E-01
 -1      2337-1.01470E+02-9.62497E+01-4.00664E+01-9.76571E-01-1.55526E+01 1.72490E+01
 -1      2338-3.76833E+01-3.71545E+01-2.82013E+01-2.89024E-01 7.20538E+00-1.17514E+01
 -1      2339-9.16210E+01-8.78972E+01-2.41637E+01 1.50204E+00 5.82211E+00-1.32702E+01
 -1      2340-6.54740E+00-6.19945E+00-5.17919E+00-1.01934E+00-5.25492E+00 2.70763E+00
 -1      2341-1.20878E+01-1.88999E+01-1.53688E+01-2.11366E+00-2.42078E+00-1.02265E+01
 -1      2342-6.48119E+01-5.27595E+01-1.63174E+01 2.33442E+00 1.34689E-01-1.01435E+01
 -1      2343-7.28098E+01-6.90013E+01-2.19323E+01 5.09136E+00-1.00409E+01 5.73918E+00
 -1      2344-4.73234E+00-3.67608E+00-1.30369E+00 5.44643E-01-4.87004E+00-5.21711E+00
 -1      2345-1.14472E+01-8.84716E+00-1.33728E+01 5.32707E-02-1.05569E+01-3.78330E+00
 -1      2346-5.68473E+01-6.06996E+01-1.85845E+01 2.55597E-01 1.13513E+01-1.87064E+00
 -1      2347-1.67559E+01-1.93416E+01-1.58211E+01 4.90009E-01-4.93998E+00-9.37185E+00
 -1      2348-1.31783E+01-1.32781E+01-1.16792E+01 9.46931E-01 4.57501E+00 7.76701E+00
 -1      2349-7.29112E+00-8.80805E+00-7.29101E+00 1.95360E-01 6.40816E+00-3.29390E+00
 -1      2350-3.62729E+00-3.34679E+00 2.09155E-01 3.67981E-01 1.86396E-01 2.78005E+00
 -1      2351-8.12206E+01-7.41262E+01-3.71026E+01-2.08405E+00 6.85307E+00 1.41054E+01
 -1      2352-8.03824E+00-1.11157E+01-7.18548E+00-1.02428E+00-3.04770E-01 6.58815E+00
 -1      2353-6.91306E+01-6.62405E+01-3.00352E+01-5.68643E+00 8.41729E+00 4.76933E+00
 -1      2354-1.17484E+01-1.04306E+01-1.04670E+01-2.94809E-01-8.12281E+00-2.70339E-01
 -1      2355-1.03469E+02-1.10494E+02-5.48208E+01 2.50178E+00-2.46181E+01 5.38532E+00
 -1      2356-7.65013E+01-8.25411E+01-3.64550E+01 5.87464E+00-1.49834E+01 7.10689E+00
 -1      2357-2.64120E+01-3.05848E+01-2.42044E+01 6.40263E-01-1.28972E+00-1.83863E+01
 -1      2358-1.76582E+01-2.04630E+01-1.37010E+01 6.73921E-01 3.21641E+00-7.18035E+00
 -1      2359-1.51274E+01-1.70275E+01-1.28264E+01-3.15355E+00-3.49490E+00 8.18697E+00
 -1      2360-4.68365E+01-4.33964E+01-1.26451E+01 4.00645E+00 4.63001E-01-9.79148E-01
 -1      2361-1.62413E+01-2.37580E+01-1.69511E+01-2.32078E-01-7.64175E+00-6.22167E+00
 -1      2362-2.09201E+01-1.53116E+01-1.11525E+01 2.12333E+00-6.49193E+00 4.04380E+00
 -1      2363-1.65028E+01-1.60980E+01-1.15603E+01 1.72025E+00-3.52943E+00-8.75539E+00
 -1      2364-4.53677E+01-5.34671E+01-1.60230E+01-2.71952E-01-8.45821E+00 4.39579E+00
 -1      2365-6.03614E+01-4.82579E+01-5.31054E+00 4.19427E-01-5.31365E+00 7.64528E+00
 -1      2366-9.50626E+00-8.91459E+00-4.96032E+00 7.05326E-02-2.79091E+00 5.96938E+00
 -1      2367-4.54481E+01-4.22261E+01-4.58047E+01-1.05860E+00 1.15050E+01-2.10309E+01
 -1      2368-1.16947E+01-1.44960E+01-1.50709E+01 5.13483E-01-1.02976E+00-9.03468E+00
 -1      2369-8.09886E+00-9.51920E+00-5.36966E+00-2.45913E-03 2.47015E+00 5.49743E+00
 -1      2370-2.29528E+01-2.41585E+01-1.55257E+01-1.06279E+00-4.59122E+00 8.87448E+00
 -1      2371 2.81660E+01 2.65509E+01-1.22681E-01 1.80179E+00-1.41629E+00-3.91984E+00
 -1      2372-1.06592E+01-1.19971E+01-1.71538E+01-7.89976E-01 3.72987E+00-1.08540E+01
 -1      2373-1.48787E+01-1.61019E+01-1.56688E+01 3.93531E-01 7.11455E+00 5.21958E+00
 -1      2374-6.01618E+01-5.27317E+01-1.09877E+01-6.39661E+00 8.23472E+00 8.58083E+00
 -1      2375-6.83452E+00-8.06409E+00-8.71478E+00 3.22808E-01 2.50575E+00 7.73634E+00
 -1      2376-1.24521E+01-1.18930E+01-6.66929E+00 2.06081E+00-9.81450E+00-3.71789E+00
 -1      2377-8.41066E+01-7.70145E+01-2.98975E+01-3.10982E+00 1.40612E+01 5.82828E+00
 -1      2378-1.22216E+01-1.16790E+01-1.22219E+01-4.81613E-01 2.34474E-01 1.05491E+01
 -1      2379-7.37806E+01-8.14190E+01-3.16720E+01 3.96538E+00 1.48653E+01-1.63851E+00
 -1      2380-9.69992E+01-9.56931E+01-3.56826E+01 2.38700E+00 1.46281E+01 4.28492E-01
 -1      2381-1.21777E+01-1.46187E+01-1.67152E+01-7.07778E-01 9.46888E+00 6.93423E+00
 -1      2382-8.72117E+01-8.64512E+01-2.89881E+01 9.09903E-01 1.55085E+01-3.47431E+00
 -1      2383-2.16329E+01-1.86562E+01-1.80205E+01 8.10131E-01-1.06136E+01 2.12623E+00
 -1      2384-1.87298E+01-1.80448E+01-9.15231E+00-2.00816E+00 6.23580E-01-7.29832E+00
 -1      2385-1.97181E+01-2.25872E+01-1.35300E+01-7.87056E-01-3.67096E+00-1.40026E+01
 -1      2386-5.05827E+01-4.70976E+01-2.83445E+00-3.70109E-01 5.46850E+00-4.52999E+00
 -1      2387-1.80380E+01-1.86055E+01-3.15802E+00 2.13768E+00 4.39580E+00 7.66028E+00
 -1      2388-2.38736E+01-2.93319E+01-2.25693E+01-5.74830E-02-5.15575E-01 1.02249E+01
 -1      2389-1.72085E+01-1.21346E+01-5.79048E+00-9.06934E-01-1.03862E+00 9.96444E+00
 -1      2390-1.21532E+02-1.13217E+02-5.48039E+01-2.87197E+00-1.21816E+01 8.87495E+00
 -1      2391-1.31296E+01-1.55589E+01-1.18097E+01-4.62158E-01 1.11478E+01 2.33517E+00
 -1      2392-1.00724E+02-9.93427E+01-5.09675E+01 2.49632E+00 1.12454E+01 1.50897E+01
 -1      2393-1.02906E+01-4.93383E+00-8.41175E+00-4.37605E-01 8.04438E+00 4.67040E+00
 -1      2394-1.22582E+01-3.55331E+00 3.77796E-01-4.25297E-01-7.73797E+00 2.43739E+00
 -1      2395-2.04089E+01-1.38331E+01-8.32713E+00 1.00943E+00-1.09923E+01 2.78362E+00
 -1      2396-2.24428E+01-2.77777E+01-1.92449E+01-6.27078E-01 5.68336E+00 6.32235E+00
 -1      2397-1.06563E+01-1.29287E+01-7.24184E+00-4.53806E-01 1.06801E+01-3.79255E-01
 -1      2398-1.01709E+01-6.58207E+00-4.62958E+00-1.88082E-01-3.53690E+00 6.13034E+00
 -1      2399-5.67724E+01-6.05680E+01-1.64836E+01-4.66267E+00-1.11387E+01-1.68654E+00
 -1      2400-1.26986E+01-1.11939E+01-1.62424E+01 1.21682E+00 1.30679E+01-4.43401E+00
 -1      2401-2.11877E+01-2.67230E+01-1.72912E+01-1.31830E+00-6.39978E+00 8.64087E+00
 -1      2402-3.00497E+01-3.57100E+01-2.93241E+01 9.75065E-01-6.67381E+00 1.34144E+01
 -1      2403-7.96067E+01-6.97620E+01-1.43530E+01 5.32287E+00-1.30341E+00-1.59027E+01
 -1      2404-2.58433E+01-2.37906E+01-2.16613E+01-3.61841E+00-1.24181E+01-1.82674E+00
 -1      2405-2.41040E+01-1.60003E+01-1.49755E+01-9.07301E-02 8.92512E+00-7.97731E+00
 -1      2406-3.88370E+01-3.02660E+01-2.61445E+01 3.35222E+00 1.38842E+01-1.04746E+01
 -1      2407-1.96292E+01-2.30020E+01-1.20709E+01 1.77526E+00 1.88544E+00 9.15219E+00
 -1      2408-8.72556E+00-1.16109E+01-7.38784E+00-1.55332E+00-4.64024E+00 4.63959E+00
 -1      2409-9.66988E+00-7.50524E+00-9.85671E+00-2.34821E-02-7.54135E+00 4.80204E+00
 -1      2410-7.02858E+01-6.53431E+01-1.52533E+01 6.85155E+00 2.73503E+00-1.18903E+01
 -1      2411-2.81614E+01-2.65303E+01-2.54889E+01 6.39129E-01 1.36521E+00 1.58381E+01
 -1      2412-7.31246E+01-7.55828E+01-2.46588E+01-5.01114E-01-2.81712E+00 1.44405E+01
 -1      2413-3.98848E+01-3.52644E+01-2.41293E+01 3.70744E+00-1.65296E+01 8.96641E+00
 -1      2414-1.62335E+01-2.19690E+01-9.03299E+00 8.41257E-01 6.89075E+00 7.45542E+00
 -1      2415-1.61903E+01-1.53628E+01-1.24670E+01 5.44588E-01 1.28991E+01 3.45280E+00
 -1      2416-3.44029E+01-3.01681E+01-3.12988E+01-2.24284E+00-1.74721E+01-9.37169E+00
 -1      2417-2.94524E+01-3.45605E+01-2.19355E+01-3.51009E+00-7.17655E+00-1.80261E+01
 -1      2418-2.21117E+01-2.30949E+01-1.21087E+01 1.99996E-01-6.75556E+00 2.71020E+00
 -1      2419-1.78959E+01-1.77024E+01-1.17538E+01-7.17894E-01-7.72770E+00 5.77637E+00
 -1      2420-2.26265E+01-2.35776E+01-1.79470E+01 1.15851E+00-5.59430E+00-8.76745E+00
 -1      2421-3.53484E+01-4.29947E+01-3.53130E+01-3.93832E+00 1.02361E+01 1.21338E+01
 -1      2422-4.10019E+01-5.11692E+01-8.88558E+00 4.50283E+00-4.24846E+00 1.51508E+00
 -1      2423-4.49313E+01-5.04333E+01-4.02486E+01-3.71879E+00-1.81478E+01-1.00239E+00
 -1      2424-1.10212E+01-1.14975E+01-1.55588E+01 4.72293E-01 1.15040E+01-9.64483E-01
 -1      2425-9.62564E+00-7.50699E+00-1.50701E+01-7.11717E-01-1.07950E+01-2.05856E+00
 -1      2426-3.06716E+01-3.25010E+01-2.33427E+01-2.51663E+00 1.65153E+01-1.74024E+00
 -1      2427-2.65854E+01-2.55772E+01-1.24067E+01-1.24111E+00-2.13694E+00 1.05305E+01
 -1      2428-2.66643E+01-2.18360E+01-1.85881E+01 1.57501E+00-8.11351E+00 7.66125E+00
 -1      2429-4.17249E+01-3.91444E+01-3.06252E+01 3.00306E+00-1.31194E+01 9.97549E+00
 -1      2430-6.73848E+01-7.45401E+01-2.45873E+01-1.36534E+00-1.99882E+01 4.71729E+00
 -1      2431-2.54307E+01-2.31618E+01-1.36126E+01 2.62900E+00 4.78311E+00-6.28671E+00
 -1      2432-9.34124E+01-9.24875E+01-3.31151E+01 2.29739E+00-6.52327E+00-1.67369E+01
 -1      2433-2.71349E+01-3.79962E+01-2.81946E+01 3.11105E+00-8.80167E+00 1.24789E+01
 -1      2434-3.08279E+01-2.37630E+01-1.81765E+01 3.15576E+00 1.82460E+01-6.60059E+00
 -1      2435-3.87488E+01-2.81455E+01-2.30423E+01 4.20355E+00 1.41514E+01-1.39895E+01
 -1      2436-3.25872E+01-3.47452E+01-3.14056E+01 4.04780E+00 1.56883E+01 1.84866E+00
 -1      2437-5.07221E+01-5.38593E+01-3.87732E+01 5.20982E+00 1.29106E+01-1.71097E+01
 -1      2438-7.12365E+00-8.87220E+00-1.73717E+01-1.69694E+00 1.18824E+00-1.02252E+01
 -1      2439-3.23060E+01-3.55258E+01-4.01750E+01 2.09564E+00 4.91143E+00-1.77765E+01
 -1      2440-1.34000E+01-1.19195E+01-1.26910E+01 3.90387E-01-1.13663E+01 4.12975E+00
 -1      2441-1.51486E+01-2.28884E+01-1.23758E+01 3.68240E+00-7.30850E+00-8.12761E+00
 -1      2442-7.82654E+01-7.34756E+01-2.51648E+01 2.62501E+00-2.24956E+00-1.63505E+01
 -1      2443-1.62131E+01-1.43739E+01-1.53774E+01-1.54632E+00 1.39477E+01 5.40777E+00
 -1      2444-1.95755E+01-2.42440E+01-1.36228E+01-8.92893E-01 4.00947E+00 7.65091E+00
 -1      2445-4.59376E+01-4.60267E+01-3.46671E+01-2.23946E+00 3.16109E+00 1.33459E+01
 -1      2446-5.97562E+00-5.61716E+00-7.73693E+00 3.23287E-01-7.54881E+00-2.90429E+00
 -1      2447-2.81271E+01-2.39229E+01-8.38455E+00 1.99806E+00 6.19396E+00 1.06115E+01
 -1      2448-3.52743E+01-3.32873E+01-2.16252E+01-6.16283E-01 2.94179E+00-9.66866E+00
 -1      2449-5.73850E+01-4.94491E+01-6.25368E+00-3.37975E-01 6.89957E+00-6.20931E+00
 -1      2450-6.80715E+00-7.18337E+00-9.71469E+00 7.60372E-01-6.31355E+00-6.13243E+00
 -1      2451-4.68174E+01-4.41490E+01-3.82906E+01-1.62582E+00-8.88478E+00-1.35617E+01
 -1      2452-1.33002E+01-1.49912E+01-1.37282E+01 1.05608E+00-1.47547E+01-4.60888E+00
 -1      2453-6.24972E+01-5.80219E+01-1.35194E+01 3.03868E-01 1.04691E+01-7.58305E+00
 -1      2454-2.91652E+01-2.89366E+01-1.67431E+01-4.19451E+00-5.65518E-01 9.99713E+00
 -1      2455-8.40167E+01-8.84183E+01-4.07976E+01-2.84072E+00-2.28027E+01-4.24901E+00
 -1      2456-1.86805E+01-1.56124E+01-1.18338E+01 3.12907E-01 6.87263E+00-3.60763E+00
 -1      2457-2.67647E+01-2.14103E+01-2.73446E+01 9.20746E-01 1.91166E+01-3.84473E+00
 -1      2458-3.15126E+01-3.37505E+01-2.88121E+01-1.55390E+00-1.72212E+01 7.76595E+00
 -1      2459-8.94714E+01-9.83120E+01-2.92789E+01 7.85334E+00 9.33284E-01-1.80906E+01
 -1      2460-1.95343E+01-2.09254E+01-1.66701E+01 4.49356E+00-4.43804E+00-9.37940E+00
 -1      2461-3.44853E+01-4.47759E+01-2.81382E+01-5.71432E-01-9.74109E+00-1.19807E+01
 -1      2462-3.78270E+01-4.33482E+01-2.89604E+01-4.16787E-01-9.27335E+00-1.41393E+01
 -1      2463-1.30923E+01-1.25352E+01-1.23810E+01 1.62366E+00-1.26367E+01 1.25028E+00
 -1      2464-3.92313E+01-4.04622E+01-3.25532E+01-7.41044E-01 1.44340E+01 6.85100E+00
 -1      2465-5.01258E+01-4.76029E+01-2.94348E+01-1.77880E+00 1.04390E+01 1.36736E+01
 -1      2466-1.05338E+01-6.78919E+00-1.11523E+01-1.64214E-01 6.96923E+00-9.88356E-03
 -1      2467-3.23179E+01-2.32296E+01-2.10908E+01-2.82579E+00 1.73957E+01 9.46930E+00
 -1      2468-3.19451E+01-3.60618E+01-3.28589E+01 1.94984E+00-1.87303E+01-9.24560E+00
 -1      2469-8.84235E+01-8.17910E+01-2.99815E+01 4.75951E-01 1.54951E+01-9.21984E+00
 -1      2470-2.96247E+01-3.06754E+01-2.93002E+01 2.93871E+00-1.74153E+01-1.19821E+00
 -1      2471-3.77964E+01-3.05340E+01-2.03300E+01-2.25443E+00 1.62715E+00-1.18740E+01
 -1      2472-2.59269E+01-1.86368E+01-2.30785E+01-3.55721E+00 1.45998E+01 5.17604E+00
 -1      2473-1.74713E+01-2.53507E+01-1.24356E+01-2.46960E-04 9.36110E+00-2.69249E+00
 -1      2474-3.37082E+01-4.22668E+01-2.64681E+01 1.91849E+00 1.27709E+01-6.49445E+00
 -1      2475-6.13786E+00-4.57687E+00-2.97720E+00 1.40566E+00 2.79774E+00 1.78542E+00
 -1      2476-1.12126E+01-8.08539E+00-6.03488E+00 1.90982E+00-2.93326E+00-1.65788E+00
 -1      2477-4.23980E-01 3.25940E-01-1.72638E+00 5.90052E-01-2.47314E-01 1.61258E+00
 -1      2478-5.16197E+00-6.80470E+00-1.52420E+00 2.84312E+00 1.91765E+00 2.66170E+00
 -1      2479-9.44662E+00-7.05754E+00-6.77599E+00 3.42598E-01 2.03858E+00-1.28304E+00
 -1      2480-6.79239E+00-5.12687E+00-4.55398E+00 2.25442E+00 1.99986E+00 2.00098E+00
 -1      2481-4.15176E+00-6.03055E+00-5.73450E+00-1.44863E+00 2.94716E-02 1.85803E+00
 -1      2482 5.67548E+00 5.36919E+00-3.16653E+00-2.40851E+00-1.10861E+00-4.64374E+00
 -1      2483 4.48944E+00 2.33857E+00 2.60235E+00 4.86068E-01-8.97978E-01-6.35408E-01
 -1      2484-7.09546E+00-3.43502E+00-4.85023E+00-1.02038E+00-2.96388E+00-1.14429E+00
 -1      2485 4.97752E+00 1.81532E+00-2.11112E+00 1.26277E+00-1.52414E+00-3.27590E+00
 -1      2486-3.48111E+00-3.42578E+00-6.69088E+00-6.90314E-01 3.31594E+00 1.39048E+00
 -1      2487 1.17432E+01 1.08806E+01 2.98196E-02-1.31329E-01-3.06863E+00 1.89783E+00
 -1      2488-3.06030E+01-2.58301E+01-1.53868E+01 1.28448E+00-1.02796E+00-1.79924E+00
 -1      2489-5.08146E-01 1.28458E+00 2.73678E+00 6.38702E-02 2.93717E+00-3.46736E-01
 -1      2490-5.43501E+00-9.16518E+00-4.98421E+00-9.57821E-01 2.66700E-01-2.78180E+00
 -1      2491-4.09350E+00-3.81363E+00-3.65557E+00 2.05663E+00 1.36763E+00 2.37381E+00
 -1      2492-1.26295E+00-4.76753E+00-3.95543E+00-9.45331E-01 6.51009E-01-2.24705E+00
 -1      2493-1.78214E+00 5.70214E-03-1.01699E+00 1.78729E-01-2.64363E+00-3.10067E-01
 -1      2494-5.15699E+00-1.70092E+00-7.43013E-01-1.86587E+00 3.19998E+00-8.54993E-01
 -1      2495-8.64839E-02-5.19025E+00-4.26260E+00 1.65377E+00 1.59456E+00 3.18597E+00
 -1      2496-1.61098E+01-1.68650E+01-5.34742E+00 1.57005E+00-7.93108E-01 4.23333E-01
 -1      2497 1.11621E+00-6.02953E-01 3.50012E+00-4.34628E-01 1.64731E-01-1.74440E+00
 -1      2498-7.78212E+00-6.27658E+00-8.38264E+00 8.20781E-01 1.82041E+00 6.10995E-01
 -1      2499-9.47002E-01-4.91161E-01-6.83991E+00 6.07213E-01-3.27477E-01-2.23481E+00
 -1      2500-2.60432E+01-2.92080E+01-4.97170E+00 5.08622E+00 5.17746E-01 1.14284E+00
 -1      2501-1.17062E+01-6.11975E+00-1.42844E+01 4.33031E-01 1.31439E+00 7.01911E-01
 -1      2502 2.69010E+00-1.01190E-01 1.61950E+00-3.46751E-01-1.11933E+00-3.24712E+00
 -1      2503 1.44673E-01-4.69377E+00-3.52093E+00-7.09627E-01 2.92506E-01 3.31847E+00
 -1      2504-3.70539E+00-3.85284E+00-6.89497E+00 1.08571E+00 1.84247E+00 2.13626E+00
 -1      2505-6.75627E-01-1.42095E+00-2.10493E+00 6.77088E-01-1.33486E-01 2.77587E+00
 -1      2506-9.08440E+00-1.03001E+01-4.01406E+00-6.70901E-01 1.19294E+00-3.01409E+00
 -1      2507-1.80219E+00 4.92829E-01-3.42015E+00 1.17097E+00-1.40268E+00-8.01056E-01
 -1      2508-1.60402E+00-1.08874E+00-3.33058E+00 7.16776E-01-1.96899E-01 1.72700E-01
 -1      2509-6.77112E+00-5.61242E+00-3.78373E-02 1.43904E+00-1.13485E+00-1.55444E-01
 -1      2510-2.90458E+01-2.59086E+01-1.51366E+01-1.47488E+00-1.22824E+00-1.56210E+00
 -1      2511-3.63573E+00-2.62290E+00-7.21773E+00 6.74541E-01-1.96673E+00 2.71366E-01
 -1      2512-5.06621E+00-3.91298E+00-3.82835E+00 6.61379E-01 2.02436E+00-5.96674E-01
 -1      2513 1.22084E+00-2.99321E-01 1.04581E+00-3.18008E-03 6.06790E-01 2.00998E+00
 -1      2514-3.03339E+01-3.03562E+01-4.76156E+00-4.71435E-02-7.66706E-01-2.87214E-01
 -1      2515-4.36044E+00-2.94920E+00-5.88916E+00-3.22301E-02 1.91728E+00 1.44819E-01
 -1      2516-4.87489E+00-3.39494E+00-7.18786E+00 5.36894E-01 4.93289E+00 8.64362E-01
 -1      2517-2.69424E+01-2.92124E+01-1.57965E+01-1.73495E+00-9.87977E-01-6.31749E-01
 -1      2518-3.39110E+01-3.25595E+01-1.34746E+01 2.55267E+00 1.49169E+00-6.07557E-01
 -1      2519-1.22467E+00-3.08137E+00 2.95156E+00 7.64271E-03 1.08790E-01 3.72825E+00
 -1      2520-7.11501E-02 1.26073E+00-2.03895E+00-1.49989E+00 3.66529E+00-6.77760E-01
 -1      2521-1.34958E+01-1.15387E+01-7.60416E+00 1.35615E+00-1.67658E+00-2.36232E+00
 -1      2522-1.63449E+01-1.18636E+01-1.12788E+01-1.21820E+00-2.84815E+00 2.73927E+00
 -1      2523-8.64856E+00-9.65568E+00-3.36363E+00 1.27476E+00-6.38124E-01-7.72403E-01
 -1      2524-5.54251E+00-6.17813E+00-6.71541E+00-9.68743E-01 1.66301E+00-2.36901E+00
 -1      2525 8.37195E+00 6.35075E+00 4.68393E+00-1.46013E+00-2.71373E+00-1.40359E+00
 -1      2526-8.01966E+00-8.63532E+00-8.29326E+00-1.78961E+00 2.99852E-01-1.00093E+00
 -1      2527-4.29264E+00-6.03210E+00-4.60923E+00 1.48061E+00 2.20974E-01 2.51282E+00
 -1      2528-1.33761E+01-1.10333E+01-8.92268E+00-6.74000E-01 1.09540E+00-2.17591E+00
 -1      2529-1.82268E+01-1.82006E+01-8.37001E+00 1.26518E+00-1.15152E+00-1.60602E+00
 -1      2530-8.08260E+00-7.76110E+00-5.78680E+00 9.15531E-01-2.75343E+00 1.19535E+00
 -1      2531-1.54166E+01-1.12397E+01-1.44450E+01-1.02973E-01-1.13531E+00-6.46455E-02
 -1      2532-2.90964E+01-3.52123E+01-6.94270E+00 4.08843E-01-5.41922E+00 7.90490E-01
 -1      2533-2.77379E+01-3.04706E+01-1.18535E+01-3.93574E+00-2.85934E+00-1.07594E+00
 -1      2534-2.44546E+01-2.38176E+01-1.16829E+01-2.54822E+00 2.32357E+00-1.79711E+00
 -1      2535-2.90214E+01-2.58868E+01-1.89561E+01 7.83408E-01-2.10327E+00 1.25362E+00
 -1      2536-1.51568E+00-2.09135E+00-1.51605E+00-5.76587E-01-3.03554E+00-1.00947E+00
 -1      2537-1.72829E+01-1.09116E+01-4.87786E+00 4.07101E-01-1.26630E+00-1.54412E-01
 -1      2538-3.43540E+01-3.75826E+01-1.30626E+01-2.38713E+00-1.31447E+00-3.11987E+00
 -1      2539-2.60544E+01-2.43488E+01-1.88604E+01-7.06114E-01-2.81206E+00-8.24945E-01
 -1      2540-1.19874E+01-1.57894E+01-6.66999E+00 6.31770E-01-2.23191E+00-2.23162E+00
 -1      2541-8.23719E-01-3.76720E-01-1.01279E+00-2.43084E-01-1.12303E+00 7.72318E-01
 -1      2542-2.33326E+01-2.30382E+01-1.17575E+01-2.96492E+00-6.68657E-03 1.24955E+00
 -1      2543-1.78999E+01-2.46031E+01-8.46231E+00-9.91941E-01-2.60706E+00-2.79881E-01
 -1      2544-1.66936E+01-2.17521E+01-2.71885E+00 7.52799E-01-1.89051E+00 1.45657E+00
 -1      2545-2.66981E+00-2.76341E-01-7.98975E-01-7.82144E-01-2.80872E+00-2.03132E-01
 -1      2546-1.07879E+01-1.07466E+01-2.77686E+00-2.66021E-01-3.00549E+00 1.55097E+00
 -1      2547-3.23943E+01-3.56362E+01-8.47248E+00 3.40822E+00-2.10740E+00-1.75093E+00
 -1      2548-4.61702E+01-4.11895E+01-2.52532E+01 1.48724E+00 2.53780E+00 6.58700E-01
 -1      2549-8.91246E+00-7.16553E+00-8.56098E+00-1.70939E-01 3.53933E-02 5.90880E-01
 -1      2550-1.89227E+01-1.92808E+01-1.03304E+00-2.60979E-01-4.15531E-01-1.16335E+00
 -1      2551-6.05679E+00-9.36623E+00-2.75607E+00 4.19872E-02-1.16118E-01-3.82615E+00
 -1      2552-5.72471E+00-5.05025E+00-4.21226E+00 1.80528E+00-1.67399E+00-2.32293E+00
 -1      2553-4.56319E+01-4.61873E+01-2.99411E+01-1.37951E+00-8.20572E-01 1.68935E+00
 -1      2554-1.24493E+01-1.57068E+01-1.74375E+00-7.88248E-01-1.63619E-01-2.57077E+00
 -1      2555-2.79923E+01-2.42224E+01-9.02092E+00-3.25855E+00 1.02710E-01-3.42260E+00
 -1      2556-2.08655E+01-1.74148E+01-6.20425E+00-1.42654E+00 1.22411E+00-2.57464E+00
 -1      2557-1.75534E+01-2.04383E+01-1.11613E+01-1.03643E+00-7.06873E-01 3.97051E-01
 -1      2558-4.88219E+01-4.24587E+01-2.72200E+01-2.87819E+00-1.44868E+00-9.83337E-01
 -1      2559-3.03425E+01-2.52630E+01-1.52130E+01 5.83831E-01 9.21661E-01-1.01945E+00
 -1      2560-3.70647E+00-3.58600E+00 1.41111E+00-1.22572E+00-2.01681E-01 1.47584E+00
 -1      2561-1.77695E+01-1.71800E+01-4.08244E+00-1.08386E+00 9.86520E-01 3.93347E-01
 -1      2562-1.43024E+01-1.52086E+01-3.35346E-01 1.25998E+00 2.30560E-02 3.60027E+00
 -1      2563-1.61307E+01-1.60427E+01-1.50297E+00 7.29622E-01 2.87670E+00 7.51707E-01
 -1      2564-8.56816E+00-7.29287E+00-3.83825E+00-1.86567E+00-2.46911E+00 2.65073E+00
 -1      2565-3.44349E+01-3.20338E+01-1.83604E+01-5.33552E+00-7.82256E-01-1.91635E+00
 -1      2566-4.39062E+01-4.31833E+01-1.03287E+01 1.56657E+00-5.44370E+00-5.20325E+00
 -1      2567-2.97683E+01-3.58875E+01-1.36484E+01 3.19917E+00-1.14168E+00-7.41701E-01
 -1      2568-3.38152E+01-3.68602E+01-9.57100E+00 3.34540E+00-2.13341E+00-3.56782E-01
 -1      2569-2.55824E+01-3.56299E+01-1.71770E+01-1.15028E+00 7.16476E-01 9.87897E-01
 -1      2570-7.79932E+00-5.75119E+00-1.61779E+00-1.18415E+00-1.72086E+00 3.94950E-01
 -1      2571-4.19373E+01-4.02792E+01-1.74797E+01 3.28387E+00 2.22320E-01-2.42946E+00
 -1      2572-1.36722E+01-1.42369E+01-4.42358E+00-6.93070E-01-2.19781E+00 2.06095E+00
 -1      2573-4.88322E+01-5.08389E+01-2.48523E+01-6.74598E+00-2.23513E+00-2.97297E+00
 -1      2574-9.81116E+00-8.22742E+00-1.20440E+00-1.86592E+00 2.58760E+00-8.98400E-01
 -1      2575-4.23561E+01-4.05001E+01-1.43464E+01 2.57001E+00-4.54786E+00-4.43424E+00
 -1      2576-3.43137E+01-3.38981E+01-7.73008E+00-2.17153E-03 4.78971E+00-1.15654E+00
 -1      2577-4.56638E+01-4.58187E+01-2.02568E+01-1.49580E+00 7.21032E-01 3.14795E+00
 -1      2578-4.36015E+01-4.13810E+01-8.27323E+00-6.19665E-01 7.37298E-01-3.90288E+00
 -1      2579-4.08265E+01-3.69406E+01-9.27932E+00 1.15319E+00 4.04786E+00-2.60587E+00
 -1      2580-4.78795E+01-5.20569E+01-2.61031E+01-2.03994E+00-1.64190E-01-9.94887E-01
 -1      2581-3.72199E+01-3.07427E+01-1.66086E+01-1.02938E+00 1.17205E+00-2.09793E+00
 -1      2582-4.45708E+01-4.52972E+01-2.17256E+01-6.46357E-01-6.84024E+00 4.40121E-01
 -1      2583-1.91736E+01-1.95749E+01-5.74545E+00-1.94777E+00-1.85643E+00 4.62260E-01
 -1      2584-1.39837E+01-1.78553E+01-2.08405E+00 1.44213E+00-5.45123E-01 2.14366E+00
 -1      2585-1.50096E+01-1.76163E+01-1.45005E+00-1.20876E+00-3.02386E+00-1.06367E+00
 -1      2586-2.50611E+01-2.59645E+01-4.31797E+00 2.57065E+00 2.32671E+00 7.68357E-01
 -1      2587-2.21311E+01-2.98690E+01-1.04202E+01-1.00456E+00-3.71934E+00 2.13339E+00
 -1      2588-4.32323E+01-3.87567E+01-1.87607E+01-5.59355E-01 5.09884E+00-2.63324E+00
 -1      2589-7.84555E+01-7.61523E+01-3.65458E+01 3.50540E+00-9.61220E+00-7.39422E+00
 -1      2590-6.63430E+01-5.14108E+01-3.56661E+01-5.55079E+00-3.70746E+00 1.61081E+00
 -1      2591-2.72251E+01-2.43558E+01-9.25676E+00-3.49118E+00-1.48816E+00 1.04018E+00
 -1      2592-3.89924E+01-3.63275E+01-1.71573E+01-3.70653E+00 2.21036E+00 2.86105E+00
 -1      2593-4.94650E+01-4.29806E+01-1.40153E+01 2.16612E+00-2.64780E+00-4.66661E+00
 -1      2594-3.31674E+01-3.22432E+01-1.63299E+01-1.43216E-01-5.28889E+00 4.70845E-01
 -1      2595-4.20998E+01-4.26178E+01-1.46479E+01-4.58195E+00-3.77644E-01-4.38250E+00
 -1      2596-3.40499E+01-2.96713E+01-1.49783E+01-1.31184E+00 2.50683E+00 1.78717E+00
 -1      2597-4.83821E+01-4.32685E+01-2.57829E+01 1.65857E+00-5.54154E+00-4.86255E-01
 -1      2598-2.68101E+01-2.59453E+01-9.42689E+00-3.00206E+00-2.46772E+00 3.41883E+00
 -1      2599-3.34553E+01-3.35866E+01-1.09675E+01 1.45890E+00-1.24309E+00-5.16859E-01
 -1      2600-3.43184E+01-3.08201E+01-1.17422E+01-2.92093E+00-2.89959E+00 3.52634E+00
 -1      2601-1.12058E+01-1.30065E+01-1.24970E+00-9.10721E-01-1.37770E-01-2.85841E+00
 -1      2602-4.37491E+01-4.10073E+01-2.07863E+01-5.11365E+00-2.82039E+00 3.63845E-01
 -1      2603-5.89966E+01-5.84282E+01-1.95562E+01-9.16068E-01-3.55713E+00-5.48236E+00
 -1      2604-4.25182E-01 1.38959E+00-2.72966E+00 5.03918E-02 3.84810E+00-2.70034E-01
 -1      2605-6.74153E+01-5.38555E+01-3.06116E+01-2.54456E+00 3.22499E+00-3.55216E+00
 -1      2606-1.65079E+01-1.45763E+01-4.72943E+00 5.49650E-01 6.18598E+00 5.67627E-01
 -1      2607-4.97224E+01-5.69551E+01-2.72239E+01 3.07054E+00 1.17173E+00 2.02510E+00
 -1      2608-6.26644E+01-6.23444E+01-2.94610E+01 9.77752E-01 5.53837E+00 7.89683E+00
 -1      2609-2.58217E+01-2.11361E+01-7.46039E+00-2.70849E-03 1.61609E+00-1.67380E+00
 -1      2610-4.09068E+01-4.37571E+01-1.88546E+01 4.29892E-01-3.50040E+00-3.78409E+00
 -1      2611-6.64102E+01-6.83522E+01-3.47068E+01-8.26818E+00-5.00046E-01-4.99785E+00
 -1      2612-2.84621E+01-3.28470E+01-1.26561E+01-2.20598E+00 9.25501E-02-5.47399E-01
 -1      2613-2.43818E+01-2.34383E+01-1.10195E+01-4.30290E-01 1.55560E+00-4.08226E-01
 -1      2614-3.14339E+01-3.09137E+01-7.49822E+00 6.08526E-01 2.17964E-01-8.79354E-01
 -1      2615-8.27014E+01-8.28994E+01-3.91654E+01 2.56301E+00-5.91686E+00-1.05760E+01
 -1      2616-2.96084E+01-2.35079E+01-1.30072E+01 2.72497E-01 5.47040E+00-3.01504E+00
 -1      2617-7.07570E+01-5.73724E+01-3.47029E+01 1.74075E+00 5.37249E+00 1.50108E+00
 -1      2618-5.42245E+01-4.65740E+01-3.16986E+01 1.97479E+00 3.40449E+00-2.17628E+00
 -1      2619-3.21495E+01-3.02747E+01-7.62900E+00-1.57674E+00 1.71370E-01 1.93263E+00
 -1      2620-5.63324E+01-6.11466E+01-3.91592E+01 8.18994E-01 7.72857E-01 3.58269E+00
 -1      2621-1.74211E+01-1.83563E+01-7.69149E+00 1.65342E-01-1.19482E+00 5.05726E-01
 -1      2622-2.41635E+01-2.16087E+01-5.36088E+00-2.09311E-01 1.62430E-01 7.77062E-01
 -1      2623-2.64267E+01-2.69616E+01-6.12396E+00 5.00589E-01-2.27058E-01-1.64562E+00
 -1      2624-2.52397E+01-2.50525E+01-5.09765E+00 6.87709E-01-5.66384E-01-3.49477E+00
 -1      2625-3.18851E+01-3.31620E+01-1.16943E+01-6.90829E-01-6.38253E-01 1.44308E+00
 -1      2626-4.63777E+01-4.77008E+01-1.78838E+01 1.91039E+00-2.93038E+00 1.61070E+00
 -1      2627-5.62207E+01-5.13038E+01-2.30112E+01-4.34857E+00-4.72620E+00 6.16827E+00
 -1      2628-9.54171E+01-7.62981E+01-5.08311E+01-3.05474E+00 1.09130E+01-4.11837E+00
 -1      2629-8.51446E+01-8.59076E+01-4.99522E+01-7.09392E-01-1.50205E+01 3.70134E+00
 -1      2630-3.21493E+01-3.48143E+01-1.42757E+01-9.22855E-01 3.68448E+00 1.13637E+00
 -1      2631-2.72232E+01-2.98464E+01-1.12072E+01-8.90302E-01-5.27925E-01 2.04208E+00
 -1      2632-2.16425E+01-2.01351E+01-5.48389E+00-2.26558E+00 2.15293E+00 1.91771E+00
 -1      2633-3.33636E+01-4.37946E+01-1.32073E+01 6.18519E-01-1.48685E+00 2.38578E+00
 -1      2634-7.82564E+00-1.19954E+01-2.78425E+00-6.28236E-01 5.43303E-01-1.16626E+00
 -1      2635-1.18151E+01-1.26586E+01-2.04401E+00 5.04729E-01 9.98798E-01-2.29239E+00
 -1      2636-7.37105E+01-7.24899E+01-3.78131E+01 6.33502E-01 2.72368E+00 1.10054E+01
 -1      2637-2.99142E+01-2.41251E+01-1.48951E+01-1.98426E+00-4.51693E+00 8.69027E-01
 -1      2638-4.49376E+01-5.33346E+01-2.04100E+01 9.07198E-01-2.96310E+00-1.32810E+00
 -1      2639-2.50709E+01-2.57111E+01-4.99550E+00 1.43791E+00 2.55736E+00 2.94717E+00
 -1      2640-3.56956E+01-3.38529E+01-1.89034E+01 1.08823E+00 4.36252E+00 4.68137E-02
 -1      2641-2.63435E+01-2.61995E+01-9.64051E+00-1.26506E+00-1.55413E+00 4.19579E+00
 -1      2642-2.45369E+01-3.12640E+01-5.99414E+00-1.60084E-01-7.99828E-01 6.66632E-02
 -1      2643-1.40841E+01-1.62462E+01-2.78837E+00 1.80990E-01-6.14407E-01 3.83452E+00
 -1      2644-2.93645E+01-3.15210E+01-4.91599E+00-1.33337E+00-1.04485E+00-1.27949E+00
 -1      2645-3.81246E+01-4.99560E+01-2.22317E+01-5.74561E-01-5.77751E-01 7.00351E-01
 -1      2646-5.77634E+01-5.67272E+01-2.48483E+01-3.50023E-01-1.14839E+01-4.21598E-01
 -1      2647-4.79068E+01-4.43378E+01-1.86240E+01-4.57980E-01 7.59646E+00-1.87243E+00
 -1      2648-3.66005E+01-3.40571E+01-8.34655E+00 2.47462E+00-9.70265E-01-3.57331E+00
 -1      2649-2.78094E+01-3.07886E+01-2.68566E+00-4.71753E-01-1.43080E+00 9.31471E-01
 -1      2650-5.74540E+01-5.28511E+01-2.36799E+01-3.00633E+00 7.24372E+00 3.75880E+00
 -1      2651-2.89268E+01-2.87969E+01-1.58649E+01 3.53167E-01-4.52585E+00-3.55878E+00
 -1      2652-4.96964E+01-6.08770E+01-3.08939E+01-3.34998E+00-2.13089E+00 5.27343E+00
 -1      2653-3.90704E+01-3.30685E+01-1.23664E+01-1.71338E+00 3.65614E+00-3.24074E+00
 -1      2654-3.76837E+01-4.12878E+01-1.80905E+01-3.36170E-01 1.77181E-01-5.67447E+00
 -1      2655-4.15799E+01-5.25854E+01-2.86457E+01-1.61145E+00 1.85367E-01-1.43378E+00
 -1      2656-2.78644E+01-2.59805E+01-6.75089E+00-2.38314E+00-1.64910E+00-3.63166E+00
 -1      2657-5.18799E+01-4.59892E+01-2.79249E+01 1.01217E+00 8.35082E+00 2.17879E+00
 -1      2658-6.79528E+01-6.82573E+01-3.90562E+01-8.75077E+00-8.16196E+00 4.00758E+00
 -1      2659-1.75587E+01-1.75969E+01-7.84596E+00-1.13611E+00 5.02188E+00-3.80900E+00
 -1      2660-8.09471E+01-9.01233E+01-5.27044E+01 4.44401E+00 3.01813E+00 1.00016E+01
 -1      2661-2.93793E+01-3.47902E+01-1.27949E+01 3.37321E-01 5.82060E-01 2.41431E+00
 -1      2662-6.52646E+01-6.94566E+01-3.43321E+01 9.31019E+00 4.45013E+00 6.58406E+00
 -1      2663-1.60967E+01-1.94377E+01-6.50054E+00-3.43294E-01-4.12018E+00-5.84694E+00
 -1      2664-4.06027E+01-3.76414E+01-1.82314E+01-2.09685E+00-1.13700E+00 7.88840E+00
 -1      2665-6.40007E+01-7.12076E+01-3.22841E+01 1.11918E+01-1.26150E+00-4.56865E+00
 -1      2666-4.83689E+01-5.22947E+01-1.26458E+01 3.32172E+00 6.97462E+00 2.32107E+00
 -1      2667-6.69095E+01-6.83124E+01-4.14255E+01-3.59591E+00-2.02174E+00-4.07812E-01
 -1      2668-4.07018E+01-3.68796E+01-8.75898E+00-1.61640E+00 3.84579E+00-1.53894E+00
 -1      2669-2.00593E+01-2.06827E+01-4.36925E+00-3.39677E-01 9.49126E-01 2.47451E+00
 -1      2670-6.39606E+01-6.28801E+01-1.98191E+01 3.63430E+00-3.50686E+00-1.12074E+01
 -1      2671-7.70606E+01-7.44503E+01-3.07359E+01 3.34887E-01-1.01431E+01 6.57911E+00
 -1      2672-1.02594E+02-1.02926E+02-6.04657E+01 7.87318E+00 8.08401E+00 1.52840E+01
 -1      2673-3.40929E+01-3.52588E+01-1.16856E+01 1.82283E-01 4.61475E+00 2.69951E+00
 -1      2674-3.06008E+00-3.59521E+00 1.73847E+00-3.13056E-01 1.69793E+00-1.57898E+00
 -1      2675-5.80599E+01-7.21323E+01-3.24516E+01 4.74954E+00-4.82266E+00-5.31611E+00
 -1      2676-7.74036E+01-7.58536E+01-3.16261E+01-2.86355E+00 2.75072E+00-8.51149E+00
 -1      2677-2.05139E+01-1.92635E+01-6.80208E+00-7.11360E-01-1.27943E+00-6.63745E-01
 -1      2678-1.83236E+01-1.86894E+01-8.39948E+00 3.69178E-01 2.05408E+00 1.47760E+00
 -1      2679-3.01404E+01-3.48408E+01-1.74762E+01-3.06989E-02 9.97939E-01 5.16283E+00
 -1      2680-1.72601E+01-1.77208E+01-3.92569E+00-3.23575E-01-2.53269E+00 1.84998E+00
 -1      2681-6.70507E+01-6.35387E+01-3.10725E+01 2.31792E+00 1.17778E+01 1.34568E+00
 -1      2682-2.42271E+01-2.11463E+01-5.66438E+00 3.85127E-01 1.40607E+00-2.97073E-01
 -1      2683-9.30616E+00-3.70718E+00-9.55689E+00 1.52774E+00-2.66504E+00-1.20546E+00
 -1      2684-3.34383E+01-3.12965E+01-3.44378E+00 2.65185E+00-1.87612E+00-2.64114E+00
 -1      2685-7.58804E+01-6.91726E+01-4.06044E+01 8.98462E+00-3.81478E+00-6.21254E+00
 -1      2686-1.47858E+01-1.55111E+01-3.14551E+00 8.30807E-02-5.08358E+00-2.27375E+00
 -1      2687-2.66145E+01-2.91407E+01-1.96475E+00 1.58128E+00 1.21233E+00-3.29227E-02
 -1      2688-3.66960E+01-3.74117E+01-2.07296E+01 1.67814E+00 3.96714E+00 1.73914E+00
 -1      2689-1.38373E+01-1.78237E+01-5.38641E+00-1.18893E-02 7.37765E-01 3.95190E+00
 -1      2690-3.16401E+01-2.97802E+01-8.85474E+00-2.82699E+00 6.96861E-01-5.85873E-02
 -1      2691-7.10026E+01-5.88180E+01-3.90156E+01 2.77188E+00-9.57078E+00-2.77205E+00
 -1      2692-2.44830E+01-2.24920E+01-2.40763E+00-6.40040E-01 4.62613E-01-3.23271E-01
 -1      2693-7.52607E+01-8.25083E+01-3.80464E+01 3.99967E+00-4.36923E+00-1.30195E+01
 -1      2694-3.17160E+01-3.45397E+01-1.29705E+01 2.49504E+00 3.93369E+00 1.13013E+00
 -1      2695-3.55918E+01-3.21360E+01-1.48022E+01-8.56740E-01 6.69706E+00-1.68276E+00
 -1      2696-4.21103E+01-4.43134E+01-1.83369E+01-3.62141E+00 1.11499E-01-2.89511E+00
 -1      2697-8.10385E+01-7.29552E+01-4.07881E+01 2.21146E+00 1.34196E+01 7.20843E+00
 -1      2698-5.18163E+01-5.47822E+01-1.97373E+01 1.96033E+00 9.10560E-01-7.25871E+00
 -1      2699-3.78540E+01-3.36275E+01-1.54352E+01 1.45371E+00 2.64459E+00 1.86380E+00
 -1      2700-2.15877E+01-2.06480E+01-6.59957E+00 3.50052E-01-1.12952E+00 2.17886E+00
 -1      2701-8.26716E+01-7.87360E+01-4.25410E+01-4.18806E+00-1.03954E+01 1.08117E+01
 -1      2702-3.35792E+01-3.17653E+01-1.99972E+01 6.89356E-01-5.96175E+00 3.44198E+00
 -1      2703 2.66466E+00 1.06158E-02-3.70793E+00 3.47472E-02-1.62558E+00-3.22737E+00
 -1      2704-3.23303E+01-3.47219E+01-1.77571E+01 9.32780E-02-6.31840E+00-1.12434E+00
 -1      2705-2.30199E+01-2.19701E+01-2.02921E-01-4.61866E-01 9.13007E-01 1.68987E-01
 -1      2706-1.14439E+01-1.15519E+01-1.60987E+00-4.44147E-01-1.06485E+00 1.69999E+00
 -1      2707-1.76127E+01-1.78540E+01-9.93692E+00 8.05372E-01 1.80911E+00 7.15576E+00
 -1      2708-4.22949E+01-3.96743E+01-2.24392E+01-6.22872E+00-9.54706E+00 1.41224E+00
 -1      2709-4.00916E+01-4.96585E+01-1.93415E+01-1.09798E+00-5.75991E-01 8.75211E+00
 -1      2710-2.59579E+01-2.89774E+01-1.18435E+01-3.77742E-01-9.67195E-01-5.18638E+00
 -1      2711-6.86806E+01-5.90376E+01-3.08124E+01-5.37963E+00 4.36268E+00 1.00015E+00
 -1      2712-1.66953E+01-1.67200E+01-1.59069E+00 1.58959E+00 5.04826E+00 1.79232E+00
 -1      2713-5.62898E+00-7.68983E+00-1.98050E+00-1.41095E+00-9.26131E-01 3.13377E+00
 -1      2714-8.13131E+01-7.82799E+01-4.49998E+01-3.99038E+00-7.46538E+00 3.83686E+00
 -1      2715-7.30248E+01-6.21501E+01-4.20315E+01 8.87776E+00 9.76458E+00 7.61128E-01
 -1      2716-1.65972E+01-2.14207E+01-7.85265E+00-1.31060E-01-2.67305E+00 6.80460E-01
 -1      2717-3.01084E+01-3.27201E+01-1.50526E+01 9.21719E-01 4.34069E+00-1.44010E+00
 -1      2718-3.98177E+01-4.22927E+01-9.88472E+00 3.86164E+00-2.35413E+00-2.61549E+00
 -1      2719-1.57315E+01-1.70086E+01-7.59377E+00 1.09895E+00 2.24664E-01-4.65940E-01
 -1      2720-3.78922E+01-4.14232E+01-1.30697E+01 5.36759E-01-4.87248E+00 2.72632E+00
 -1      2721-2.09429E+01-2.12034E+01-2.61933E+00-1.01618E+00 1.54278E+00-5.77400E-01
 -1      2722-3.45422E+01-3.47556E+01-7.29563E+00-5.50998E+00-5.30492E-01-3.49098E+00
 -1      2723-7.73583E+01-7.59868E+01-4.49332E+01 6.43375E-01-1.82310E+01-2.33433E+00
 -1      2724-5.23616E+01-5.19215E+01-1.91026E+01-1.19029E+00-3.31503E+00 7.48144E+00
 -1      2725-4.24282E+01-4.63686E+01-1.34086E+01 2.38989E+00-5.78689E+00-4.39967E+00
 -1      2726-4.30919E+01-3.87420E+01-1.24625E+01 9.47145E-01 5.78900E+00 8.36042E+00
 -1      2727-6.47439E+01-9.02189E+01-4.62303E+01-4.72654E+00-9.69200E-01 9.26606E+00
 -1      2728-4.16136E+01-3.14376E+01-1.72430E+01-1.07014E-01 6.10972E+00-1.29088E+00
 -1      2729-3.53746E+01-4.08998E+01-1.50345E+01-3.16471E+00-2.53722E+00 4.25105E+00
 -1      2730-4.09312E+01-4.61277E+01-2.14039E+01 2.60846E-01-7.82513E-01-3.38370E+00
 -1      2731-3.00686E+01-3.44070E+01-1.62862E+01 1.72495E+00-2.18848E+00-4.48363E+00
 -1      2732-3.53739E+01-3.86522E+01-1.16342E+01-3.58779E+00-1.71573E+00 4.92292E+00
 -1      2733-7.95469E+01-7.64084E+01-3.76291E+01-7.40854E-01 1.20141E+01-3.72327E+00
 -1      2734-4.18741E+01-4.60600E+01-1.78894E+01 3.35912E+00-2.54767E+00-5.32830E+00
 -1      2735-6.85644E+01-7.68711E+01-3.60812E+01-2.14199E+00-4.15886E+00 1.34812E+01
 -1      2736-4.58920E+01-4.90028E+01-1.59666E+01 1.57948E+00-3.44552E+00 1.45579E-01
 -1      2737-3.63199E+01-3.30224E+01-1.14482E+01-3.01017E-01-1.25695E+00 3.26655E+00
 -1      2738-7.42700E+01-6.86364E+01-2.96379E+01-7.22418E-01 9.80784E+00-4.95634E+00
 -1      2739-7.30257E+00-6.03464E+00-2.94263E+00-1.11319E+00-1.63756E+00 3.54427E+00
 -1      2740-3.88698E+01-3.11066E+01-1.85515E+01-1.28181E+00 6.10769E+00 5.46717E-01
 -1      2741-4.54377E+01-4.02427E+01-2.36973E+01 1.28988E+00-7.64617E+00-7.32900E+00
 -1      2742-4.17955E+01-5.19903E+01-2.19572E+01 1.21256E+00-1.76223E+00-7.74925E+00
 -1      2743-2.32453E+01-2.69796E+01-6.25385E+00 9.33018E-01-1.13198E-01-1.01568E-02
 -1      2744-2.02994E+01-2.11239E+01-7.81274E+00-8.13026E-01 5.14237E+00-3.14744E+00
 -1      2745-4.04695E+01-4.14514E+01-1.87122E+01-3.13714E+00-2.98379E+00 5.68756E+00
 -1      2746-4.37576E+01-3.79074E+01-2.11982E+01 1.87319E-01-8.75401E+00 2.59872E+00
 -1      2747-1.69578E+01-1.90015E+01-4.39542E+00-1.09841E+00 5.93217E-01 2.81500E+00
 -1      2748-3.47738E+01-4.31259E+01-1.82406E+01-3.31389E-01 2.41084E+00-2.62437E+00
 -1      2749-1.98019E+01-2.08022E+01-6.93814E+00 1.90111E+00-9.00676E-01-5.18257E+00
 -1      2750-2.81443E+01-3.06012E+01-1.90108E+01 4.18574E-01 1.06624E+00-8.89601E+00
 -1      2751-4.37928E+01-4.50006E+01-1.45929E+01-3.00588E+00-4.45915E+00-1.02663E+00
 -1      2752-8.49568E+00-1.09589E+01-2.82409E+00-1.42190E-01 1.48788E+00 1.09206E+00
 -1      2753-4.04972E+01-3.43156E+01-7.84686E+00-7.80062E-01 4.45821E+00 2.63008E-01
 -1      2754-1.99333E+01-1.67740E+01-2.89632E+00-2.48307E-01-3.39285E+00 4.19686E+00
 -1      2755-2.63062E+01-2.48579E+01-1.65342E+01 1.18017E+00 1.42396E+01-3.41347E+00
 -1      2756-3.33772E+01-2.99010E+01-7.01411E+00-2.62921E+00 2.53379E+00-7.54574E-01
 -1      2757-6.27717E+01-8.37218E+01-3.98387E+01-2.48303E+00 1.65776E+00-5.68500E+00
 -1      2758-2.21896E+01-2.44961E+01-8.54879E+00-1.02396E+00-6.10125E+00 2.84251E+00
 -1      2759-1.89811E+01-2.15152E+01-8.66256E+00 2.31317E-01 8.25420E+00 3.47332E+00
 -1      2760-2.74745E+01-2.75956E+01-1.22213E+01-2.32997E-01-1.05205E+01-3.45312E+00
 -1      2761-2.44702E+01-2.53479E+01-9.16475E+00 1.10968E+00-8.03862E+00-4.84235E+00
 -1      2762-3.31142E+01-4.28737E+01-1.65436E+01 7.68613E-01-2.16317E+00-3.16943E+00
 -1      2763-7.49496E+01-8.40733E+01-3.57727E+01 2.63524E+00 6.46692E-01-1.18948E+01
 -1      2764-2.52511E+01-2.45665E+01-1.00322E+01 6.09420E-01-9.35363E+00-1.17770E+00
 -1      2765-3.35280E+01-3.24908E+01-1.34261E+01 1.71671E+00 7.31418E-01-1.78938E+00
 -1      2766-2.62583E+01-2.14255E+01-9.29696E+00-5.56450E-01 8.24483E+00 3.31280E+00
 -3
 9999
